 <VTKFile type="UnstructuredGrid"  version="0.1"   >
 <UnstructuredGrid>
 <Piece  NumberOfPoints="          1600 "  NumberOfCells="         1024 ">
 <Points>
 <DataArray  type="Float64" NumberOfComponents="3"  format="ascii" >
   0.0000000000000000        0.0000000000000000        0.0000000000000000     
   3.1250000000000000E-002   0.0000000000000000        0.0000000000000000     
   6.2500000000000000E-002   0.0000000000000000        0.0000000000000000     
   9.3750000000000000E-002   0.0000000000000000        0.0000000000000000     
  0.12500000000000000        0.0000000000000000        0.0000000000000000     
   0.0000000000000000        3.1250000000000000E-002   0.0000000000000000     
   3.1250000000000000E-002   3.1250000000000000E-002   0.0000000000000000     
   6.2500000000000000E-002   3.1250000000000000E-002   0.0000000000000000     
   9.3750000000000000E-002   3.1250000000000000E-002   0.0000000000000000     
  0.12500000000000000        3.1250000000000000E-002   0.0000000000000000     
   0.0000000000000000        6.2500000000000000E-002   0.0000000000000000     
   3.1250000000000000E-002   6.2500000000000000E-002   0.0000000000000000     
   6.2500000000000000E-002   6.2500000000000000E-002   0.0000000000000000     
   9.3750000000000000E-002   6.2500000000000000E-002   0.0000000000000000     
  0.12500000000000000        6.2500000000000000E-002   0.0000000000000000     
   0.0000000000000000        9.3750000000000000E-002   0.0000000000000000     
   3.1250000000000000E-002   9.3750000000000000E-002   0.0000000000000000     
   6.2500000000000000E-002   9.3750000000000000E-002   0.0000000000000000     
   9.3750000000000000E-002   9.3750000000000000E-002   0.0000000000000000     
  0.12500000000000000        9.3750000000000000E-002   0.0000000000000000     
   0.0000000000000000       0.12500000000000000        0.0000000000000000     
   3.1250000000000000E-002  0.12500000000000000        0.0000000000000000     
   6.2500000000000000E-002  0.12500000000000000        0.0000000000000000     
   9.3750000000000000E-002  0.12500000000000000        0.0000000000000000     
  0.12500000000000000       0.12500000000000000        0.0000000000000000     
  0.12500000000000000        0.0000000000000000        0.0000000000000000     
  0.15625000000000000        0.0000000000000000        0.0000000000000000     
  0.18750000000000000        0.0000000000000000        0.0000000000000000     
  0.21875000000000000        0.0000000000000000        0.0000000000000000     
  0.25000000000000000        0.0000000000000000        0.0000000000000000     
  0.12500000000000000        3.1250000000000000E-002   0.0000000000000000     
  0.15625000000000000        3.1250000000000000E-002   0.0000000000000000     
  0.18750000000000000        3.1250000000000000E-002   0.0000000000000000     
  0.21875000000000000        3.1250000000000000E-002   0.0000000000000000     
  0.25000000000000000        3.1250000000000000E-002   0.0000000000000000     
  0.12500000000000000        6.2500000000000000E-002   0.0000000000000000     
  0.15625000000000000        6.2500000000000000E-002   0.0000000000000000     
  0.18750000000000000        6.2500000000000000E-002   0.0000000000000000     
  0.21875000000000000        6.2500000000000000E-002   0.0000000000000000     
  0.25000000000000000        6.2500000000000000E-002   0.0000000000000000     
  0.12500000000000000        9.3750000000000000E-002   0.0000000000000000     
  0.15625000000000000        9.3750000000000000E-002   0.0000000000000000     
  0.18750000000000000        9.3750000000000000E-002   0.0000000000000000     
  0.21875000000000000        9.3750000000000000E-002   0.0000000000000000     
  0.25000000000000000        9.3750000000000000E-002   0.0000000000000000     
  0.12500000000000000       0.12500000000000000        0.0000000000000000     
  0.15625000000000000       0.12500000000000000        0.0000000000000000     
  0.18750000000000000       0.12500000000000000        0.0000000000000000     
  0.21875000000000000       0.12500000000000000        0.0000000000000000     
  0.25000000000000000       0.12500000000000000        0.0000000000000000     
  0.25000000000000000        0.0000000000000000        0.0000000000000000     
  0.28125000000000000        0.0000000000000000        0.0000000000000000     
  0.31250000000000000        0.0000000000000000        0.0000000000000000     
  0.34375000000000000        0.0000000000000000        0.0000000000000000     
  0.37500000000000000        0.0000000000000000        0.0000000000000000     
  0.25000000000000000        3.1250000000000000E-002   0.0000000000000000     
  0.28125000000000000        3.1250000000000000E-002   0.0000000000000000     
  0.31250000000000000        3.1250000000000000E-002   0.0000000000000000     
  0.34375000000000000        3.1250000000000000E-002   0.0000000000000000     
  0.37500000000000000        3.1250000000000000E-002   0.0000000000000000     
  0.25000000000000000        6.2500000000000000E-002   0.0000000000000000     
  0.28125000000000000        6.2500000000000000E-002   0.0000000000000000     
  0.31250000000000000        6.2500000000000000E-002   0.0000000000000000     
  0.34375000000000000        6.2500000000000000E-002   0.0000000000000000     
  0.37500000000000000        6.2500000000000000E-002   0.0000000000000000     
  0.25000000000000000        9.3750000000000000E-002   0.0000000000000000     
  0.28125000000000000        9.3750000000000000E-002   0.0000000000000000     
  0.31250000000000000        9.3750000000000000E-002   0.0000000000000000     
  0.34375000000000000        9.3750000000000000E-002   0.0000000000000000     
  0.37500000000000000        9.3750000000000000E-002   0.0000000000000000     
  0.25000000000000000       0.12500000000000000        0.0000000000000000     
  0.28125000000000000       0.12500000000000000        0.0000000000000000     
  0.31250000000000000       0.12500000000000000        0.0000000000000000     
  0.34375000000000000       0.12500000000000000        0.0000000000000000     
  0.37500000000000000       0.12500000000000000        0.0000000000000000     
  0.37500000000000000        0.0000000000000000        0.0000000000000000     
  0.40625000000000000        0.0000000000000000        0.0000000000000000     
  0.43750000000000000        0.0000000000000000        0.0000000000000000     
  0.46875000000000000        0.0000000000000000        0.0000000000000000     
  0.50000000000000000        0.0000000000000000        0.0000000000000000     
  0.37500000000000000        3.1250000000000000E-002   0.0000000000000000     
  0.40625000000000000        3.1250000000000000E-002   0.0000000000000000     
  0.43750000000000000        3.1250000000000000E-002   0.0000000000000000     
  0.46875000000000000        3.1250000000000000E-002   0.0000000000000000     
  0.50000000000000000        3.1250000000000000E-002   0.0000000000000000     
  0.37500000000000000        6.2500000000000000E-002   0.0000000000000000     
  0.40625000000000000        6.2500000000000000E-002   0.0000000000000000     
  0.43750000000000000        6.2500000000000000E-002   0.0000000000000000     
  0.46875000000000000        6.2500000000000000E-002   0.0000000000000000     
  0.50000000000000000        6.2500000000000000E-002   0.0000000000000000     
  0.37500000000000000        9.3750000000000000E-002   0.0000000000000000     
  0.40625000000000000        9.3750000000000000E-002   0.0000000000000000     
  0.43750000000000000        9.3750000000000000E-002   0.0000000000000000     
  0.46875000000000000        9.3750000000000000E-002   0.0000000000000000     
  0.50000000000000000        9.3750000000000000E-002   0.0000000000000000     
  0.37500000000000000       0.12500000000000000        0.0000000000000000     
  0.40625000000000000       0.12500000000000000        0.0000000000000000     
  0.43750000000000000       0.12500000000000000        0.0000000000000000     
  0.46875000000000000       0.12500000000000000        0.0000000000000000     
  0.50000000000000000       0.12500000000000000        0.0000000000000000     
  0.50000000000000000        0.0000000000000000        0.0000000000000000     
  0.53125000000000000        0.0000000000000000        0.0000000000000000     
  0.56250000000000000        0.0000000000000000        0.0000000000000000     
  0.59375000000000000        0.0000000000000000        0.0000000000000000     
  0.62500000000000000        0.0000000000000000        0.0000000000000000     
  0.50000000000000000        3.1250000000000000E-002   0.0000000000000000     
  0.53125000000000000        3.1250000000000000E-002   0.0000000000000000     
  0.56250000000000000        3.1250000000000000E-002   0.0000000000000000     
  0.59375000000000000        3.1250000000000000E-002   0.0000000000000000     
  0.62500000000000000        3.1250000000000000E-002   0.0000000000000000     
  0.50000000000000000        6.2500000000000000E-002   0.0000000000000000     
  0.53125000000000000        6.2500000000000000E-002   0.0000000000000000     
  0.56250000000000000        6.2500000000000000E-002   0.0000000000000000     
  0.59375000000000000        6.2500000000000000E-002   0.0000000000000000     
  0.62500000000000000        6.2500000000000000E-002   0.0000000000000000     
  0.50000000000000000        9.3750000000000000E-002   0.0000000000000000     
  0.53125000000000000        9.3750000000000000E-002   0.0000000000000000     
  0.56250000000000000        9.3750000000000000E-002   0.0000000000000000     
  0.59375000000000000        9.3750000000000000E-002   0.0000000000000000     
  0.62500000000000000        9.3750000000000000E-002   0.0000000000000000     
  0.50000000000000000       0.12500000000000000        0.0000000000000000     
  0.53125000000000000       0.12500000000000000        0.0000000000000000     
  0.56250000000000000       0.12500000000000000        0.0000000000000000     
  0.59375000000000000       0.12500000000000000        0.0000000000000000     
  0.62500000000000000       0.12500000000000000        0.0000000000000000     
  0.62500000000000000        0.0000000000000000        0.0000000000000000     
  0.65625000000000000        0.0000000000000000        0.0000000000000000     
  0.68750000000000000        0.0000000000000000        0.0000000000000000     
  0.71875000000000000        0.0000000000000000        0.0000000000000000     
  0.75000000000000000        0.0000000000000000        0.0000000000000000     
  0.62500000000000000        3.1250000000000000E-002   0.0000000000000000     
  0.65625000000000000        3.1250000000000000E-002   0.0000000000000000     
  0.68750000000000000        3.1250000000000000E-002   0.0000000000000000     
  0.71875000000000000        3.1250000000000000E-002   0.0000000000000000     
  0.75000000000000000        3.1250000000000000E-002   0.0000000000000000     
  0.62500000000000000        6.2500000000000000E-002   0.0000000000000000     
  0.65625000000000000        6.2500000000000000E-002   0.0000000000000000     
  0.68750000000000000        6.2500000000000000E-002   0.0000000000000000     
  0.71875000000000000        6.2500000000000000E-002   0.0000000000000000     
  0.75000000000000000        6.2500000000000000E-002   0.0000000000000000     
  0.62500000000000000        9.3750000000000000E-002   0.0000000000000000     
  0.65625000000000000        9.3750000000000000E-002   0.0000000000000000     
  0.68750000000000000        9.3750000000000000E-002   0.0000000000000000     
  0.71875000000000000        9.3750000000000000E-002   0.0000000000000000     
  0.75000000000000000        9.3750000000000000E-002   0.0000000000000000     
  0.62500000000000000       0.12500000000000000        0.0000000000000000     
  0.65625000000000000       0.12500000000000000        0.0000000000000000     
  0.68750000000000000       0.12500000000000000        0.0000000000000000     
  0.71875000000000000       0.12500000000000000        0.0000000000000000     
  0.75000000000000000       0.12500000000000000        0.0000000000000000     
  0.75000000000000000        0.0000000000000000        0.0000000000000000     
  0.78125000000000000        0.0000000000000000        0.0000000000000000     
  0.81250000000000000        0.0000000000000000        0.0000000000000000     
  0.84375000000000000        0.0000000000000000        0.0000000000000000     
  0.87500000000000000        0.0000000000000000        0.0000000000000000     
  0.75000000000000000        3.1250000000000000E-002   0.0000000000000000     
  0.78125000000000000        3.1250000000000000E-002   0.0000000000000000     
  0.81250000000000000        3.1250000000000000E-002   0.0000000000000000     
  0.84375000000000000        3.1250000000000000E-002   0.0000000000000000     
  0.87500000000000000        3.1250000000000000E-002   0.0000000000000000     
  0.75000000000000000        6.2500000000000000E-002   0.0000000000000000     
  0.78125000000000000        6.2500000000000000E-002   0.0000000000000000     
  0.81250000000000000        6.2500000000000000E-002   0.0000000000000000     
  0.84375000000000000        6.2500000000000000E-002   0.0000000000000000     
  0.87500000000000000        6.2500000000000000E-002   0.0000000000000000     
  0.75000000000000000        9.3750000000000000E-002   0.0000000000000000     
  0.78125000000000000        9.3750000000000000E-002   0.0000000000000000     
  0.81250000000000000        9.3750000000000000E-002   0.0000000000000000     
  0.84375000000000000        9.3750000000000000E-002   0.0000000000000000     
  0.87500000000000000        9.3750000000000000E-002   0.0000000000000000     
  0.75000000000000000       0.12500000000000000        0.0000000000000000     
  0.78125000000000000       0.12500000000000000        0.0000000000000000     
  0.81250000000000000       0.12500000000000000        0.0000000000000000     
  0.84375000000000000       0.12500000000000000        0.0000000000000000     
  0.87500000000000000       0.12500000000000000        0.0000000000000000     
  0.87500000000000000        0.0000000000000000        0.0000000000000000     
  0.90625000000000000        0.0000000000000000        0.0000000000000000     
  0.93750000000000000        0.0000000000000000        0.0000000000000000     
  0.96875000000000000        0.0000000000000000        0.0000000000000000     
   1.0000000000000000        0.0000000000000000        0.0000000000000000     
  0.87500000000000000        3.1250000000000000E-002   0.0000000000000000     
  0.90625000000000000        3.1250000000000000E-002   0.0000000000000000     
  0.93750000000000000        3.1250000000000000E-002   0.0000000000000000     
  0.96875000000000000        3.1250000000000000E-002   0.0000000000000000     
   1.0000000000000000        3.1250000000000000E-002   0.0000000000000000     
  0.87500000000000000        6.2500000000000000E-002   0.0000000000000000     
  0.90625000000000000        6.2500000000000000E-002   0.0000000000000000     
  0.93750000000000000        6.2500000000000000E-002   0.0000000000000000     
  0.96875000000000000        6.2500000000000000E-002   0.0000000000000000     
   1.0000000000000000        6.2500000000000000E-002   0.0000000000000000     
  0.87500000000000000        9.3750000000000000E-002   0.0000000000000000     
  0.90625000000000000        9.3750000000000000E-002   0.0000000000000000     
  0.93750000000000000        9.3750000000000000E-002   0.0000000000000000     
  0.96875000000000000        9.3750000000000000E-002   0.0000000000000000     
   1.0000000000000000        9.3750000000000000E-002   0.0000000000000000     
  0.87500000000000000       0.12500000000000000        0.0000000000000000     
  0.90625000000000000       0.12500000000000000        0.0000000000000000     
  0.93750000000000000       0.12500000000000000        0.0000000000000000     
  0.96875000000000000       0.12500000000000000        0.0000000000000000     
   1.0000000000000000       0.12500000000000000        0.0000000000000000     
   0.0000000000000000       0.12500000000000000        0.0000000000000000     
   3.1250000000000000E-002  0.12500000000000000        0.0000000000000000     
   6.2500000000000000E-002  0.12500000000000000        0.0000000000000000     
   9.3750000000000000E-002  0.12500000000000000        0.0000000000000000     
  0.12500000000000000       0.12500000000000000        0.0000000000000000     
   0.0000000000000000       0.15625000000000000        0.0000000000000000     
   3.1250000000000000E-002  0.15625000000000000        0.0000000000000000     
   6.2500000000000000E-002  0.15625000000000000        0.0000000000000000     
   9.3750000000000000E-002  0.15625000000000000        0.0000000000000000     
  0.12500000000000000       0.15625000000000000        0.0000000000000000     
   0.0000000000000000       0.18750000000000000        0.0000000000000000     
   3.1250000000000000E-002  0.18750000000000000        0.0000000000000000     
   6.2500000000000000E-002  0.18750000000000000        0.0000000000000000     
   9.3750000000000000E-002  0.18750000000000000        0.0000000000000000     
  0.12500000000000000       0.18750000000000000        0.0000000000000000     
   0.0000000000000000       0.21875000000000000        0.0000000000000000     
   3.1250000000000000E-002  0.21875000000000000        0.0000000000000000     
   6.2500000000000000E-002  0.21875000000000000        0.0000000000000000     
   9.3750000000000000E-002  0.21875000000000000        0.0000000000000000     
  0.12500000000000000       0.21875000000000000        0.0000000000000000     
   0.0000000000000000       0.25000000000000000        0.0000000000000000     
   3.1250000000000000E-002  0.25000000000000000        0.0000000000000000     
   6.2500000000000000E-002  0.25000000000000000        0.0000000000000000     
   9.3750000000000000E-002  0.25000000000000000        0.0000000000000000     
  0.12500000000000000       0.25000000000000000        0.0000000000000000     
  0.12500000000000000       0.12500000000000000        0.0000000000000000     
  0.15625000000000000       0.12500000000000000        0.0000000000000000     
  0.18750000000000000       0.12500000000000000        0.0000000000000000     
  0.21875000000000000       0.12500000000000000        0.0000000000000000     
  0.25000000000000000       0.12500000000000000        0.0000000000000000     
  0.12500000000000000       0.15625000000000000        0.0000000000000000     
  0.15625000000000000       0.15625000000000000        0.0000000000000000     
  0.18750000000000000       0.15625000000000000        0.0000000000000000     
  0.21875000000000000       0.15625000000000000        0.0000000000000000     
  0.25000000000000000       0.15625000000000000        0.0000000000000000     
  0.12500000000000000       0.18750000000000000        0.0000000000000000     
  0.15625000000000000       0.18750000000000000        0.0000000000000000     
  0.18750000000000000       0.18750000000000000        0.0000000000000000     
  0.21875000000000000       0.18750000000000000        0.0000000000000000     
  0.25000000000000000       0.18750000000000000        0.0000000000000000     
  0.12500000000000000       0.21875000000000000        0.0000000000000000     
  0.15625000000000000       0.21875000000000000        0.0000000000000000     
  0.18750000000000000       0.21875000000000000        0.0000000000000000     
  0.21875000000000000       0.21875000000000000        0.0000000000000000     
  0.25000000000000000       0.21875000000000000        0.0000000000000000     
  0.12500000000000000       0.25000000000000000        0.0000000000000000     
  0.15625000000000000       0.25000000000000000        0.0000000000000000     
  0.18750000000000000       0.25000000000000000        0.0000000000000000     
  0.21875000000000000       0.25000000000000000        0.0000000000000000     
  0.25000000000000000       0.25000000000000000        0.0000000000000000     
  0.25000000000000000       0.12500000000000000        0.0000000000000000     
  0.28125000000000000       0.12500000000000000        0.0000000000000000     
  0.31250000000000000       0.12500000000000000        0.0000000000000000     
  0.34375000000000000       0.12500000000000000        0.0000000000000000     
  0.37500000000000000       0.12500000000000000        0.0000000000000000     
  0.25000000000000000       0.15625000000000000        0.0000000000000000     
  0.28125000000000000       0.15625000000000000        0.0000000000000000     
  0.31250000000000000       0.15625000000000000        0.0000000000000000     
  0.34375000000000000       0.15625000000000000        0.0000000000000000     
  0.37500000000000000       0.15625000000000000        0.0000000000000000     
  0.25000000000000000       0.18750000000000000        0.0000000000000000     
  0.28125000000000000       0.18750000000000000        0.0000000000000000     
  0.31250000000000000       0.18750000000000000        0.0000000000000000     
  0.34375000000000000       0.18750000000000000        0.0000000000000000     
  0.37500000000000000       0.18750000000000000        0.0000000000000000     
  0.25000000000000000       0.21875000000000000        0.0000000000000000     
  0.28125000000000000       0.21875000000000000        0.0000000000000000     
  0.31250000000000000       0.21875000000000000        0.0000000000000000     
  0.34375000000000000       0.21875000000000000        0.0000000000000000     
  0.37500000000000000       0.21875000000000000        0.0000000000000000     
  0.25000000000000000       0.25000000000000000        0.0000000000000000     
  0.28125000000000000       0.25000000000000000        0.0000000000000000     
  0.31250000000000000       0.25000000000000000        0.0000000000000000     
  0.34375000000000000       0.25000000000000000        0.0000000000000000     
  0.37500000000000000       0.25000000000000000        0.0000000000000000     
  0.37500000000000000       0.12500000000000000        0.0000000000000000     
  0.40625000000000000       0.12500000000000000        0.0000000000000000     
  0.43750000000000000       0.12500000000000000        0.0000000000000000     
  0.46875000000000000       0.12500000000000000        0.0000000000000000     
  0.50000000000000000       0.12500000000000000        0.0000000000000000     
  0.37500000000000000       0.15625000000000000        0.0000000000000000     
  0.40625000000000000       0.15625000000000000        0.0000000000000000     
  0.43750000000000000       0.15625000000000000        0.0000000000000000     
  0.46875000000000000       0.15625000000000000        0.0000000000000000     
  0.50000000000000000       0.15625000000000000        0.0000000000000000     
  0.37500000000000000       0.18750000000000000        0.0000000000000000     
  0.40625000000000000       0.18750000000000000        0.0000000000000000     
  0.43750000000000000       0.18750000000000000        0.0000000000000000     
  0.46875000000000000       0.18750000000000000        0.0000000000000000     
  0.50000000000000000       0.18750000000000000        0.0000000000000000     
  0.37500000000000000       0.21875000000000000        0.0000000000000000     
  0.40625000000000000       0.21875000000000000        0.0000000000000000     
  0.43750000000000000       0.21875000000000000        0.0000000000000000     
  0.46875000000000000       0.21875000000000000        0.0000000000000000     
  0.50000000000000000       0.21875000000000000        0.0000000000000000     
  0.37500000000000000       0.25000000000000000        0.0000000000000000     
  0.40625000000000000       0.25000000000000000        0.0000000000000000     
  0.43750000000000000       0.25000000000000000        0.0000000000000000     
  0.46875000000000000       0.25000000000000000        0.0000000000000000     
  0.50000000000000000       0.25000000000000000        0.0000000000000000     
  0.50000000000000000       0.12500000000000000        0.0000000000000000     
  0.53125000000000000       0.12500000000000000        0.0000000000000000     
  0.56250000000000000       0.12500000000000000        0.0000000000000000     
  0.59375000000000000       0.12500000000000000        0.0000000000000000     
  0.62500000000000000       0.12500000000000000        0.0000000000000000     
  0.50000000000000000       0.15625000000000000        0.0000000000000000     
  0.53125000000000000       0.15625000000000000        0.0000000000000000     
  0.56250000000000000       0.15625000000000000        0.0000000000000000     
  0.59375000000000000       0.15625000000000000        0.0000000000000000     
  0.62500000000000000       0.15625000000000000        0.0000000000000000     
  0.50000000000000000       0.18750000000000000        0.0000000000000000     
  0.53125000000000000       0.18750000000000000        0.0000000000000000     
  0.56250000000000000       0.18750000000000000        0.0000000000000000     
  0.59375000000000000       0.18750000000000000        0.0000000000000000     
  0.62500000000000000       0.18750000000000000        0.0000000000000000     
  0.50000000000000000       0.21875000000000000        0.0000000000000000     
  0.53125000000000000       0.21875000000000000        0.0000000000000000     
  0.56250000000000000       0.21875000000000000        0.0000000000000000     
  0.59375000000000000       0.21875000000000000        0.0000000000000000     
  0.62500000000000000       0.21875000000000000        0.0000000000000000     
  0.50000000000000000       0.25000000000000000        0.0000000000000000     
  0.53125000000000000       0.25000000000000000        0.0000000000000000     
  0.56250000000000000       0.25000000000000000        0.0000000000000000     
  0.59375000000000000       0.25000000000000000        0.0000000000000000     
  0.62500000000000000       0.25000000000000000        0.0000000000000000     
  0.62500000000000000       0.12500000000000000        0.0000000000000000     
  0.65625000000000000       0.12500000000000000        0.0000000000000000     
  0.68750000000000000       0.12500000000000000        0.0000000000000000     
  0.71875000000000000       0.12500000000000000        0.0000000000000000     
  0.75000000000000000       0.12500000000000000        0.0000000000000000     
  0.62500000000000000       0.15625000000000000        0.0000000000000000     
  0.65625000000000000       0.15625000000000000        0.0000000000000000     
  0.68750000000000000       0.15625000000000000        0.0000000000000000     
  0.71875000000000000       0.15625000000000000        0.0000000000000000     
  0.75000000000000000       0.15625000000000000        0.0000000000000000     
  0.62500000000000000       0.18750000000000000        0.0000000000000000     
  0.65625000000000000       0.18750000000000000        0.0000000000000000     
  0.68750000000000000       0.18750000000000000        0.0000000000000000     
  0.71875000000000000       0.18750000000000000        0.0000000000000000     
  0.75000000000000000       0.18750000000000000        0.0000000000000000     
  0.62500000000000000       0.21875000000000000        0.0000000000000000     
  0.65625000000000000       0.21875000000000000        0.0000000000000000     
  0.68750000000000000       0.21875000000000000        0.0000000000000000     
  0.71875000000000000       0.21875000000000000        0.0000000000000000     
  0.75000000000000000       0.21875000000000000        0.0000000000000000     
  0.62500000000000000       0.25000000000000000        0.0000000000000000     
  0.65625000000000000       0.25000000000000000        0.0000000000000000     
  0.68750000000000000       0.25000000000000000        0.0000000000000000     
  0.71875000000000000       0.25000000000000000        0.0000000000000000     
  0.75000000000000000       0.25000000000000000        0.0000000000000000     
  0.75000000000000000       0.12500000000000000        0.0000000000000000     
  0.78125000000000000       0.12500000000000000        0.0000000000000000     
  0.81250000000000000       0.12500000000000000        0.0000000000000000     
  0.84375000000000000       0.12500000000000000        0.0000000000000000     
  0.87500000000000000       0.12500000000000000        0.0000000000000000     
  0.75000000000000000       0.15625000000000000        0.0000000000000000     
  0.78125000000000000       0.15625000000000000        0.0000000000000000     
  0.81250000000000000       0.15625000000000000        0.0000000000000000     
  0.84375000000000000       0.15625000000000000        0.0000000000000000     
  0.87500000000000000       0.15625000000000000        0.0000000000000000     
  0.75000000000000000       0.18750000000000000        0.0000000000000000     
  0.78125000000000000       0.18750000000000000        0.0000000000000000     
  0.81250000000000000       0.18750000000000000        0.0000000000000000     
  0.84375000000000000       0.18750000000000000        0.0000000000000000     
  0.87500000000000000       0.18750000000000000        0.0000000000000000     
  0.75000000000000000       0.21875000000000000        0.0000000000000000     
  0.78125000000000000       0.21875000000000000        0.0000000000000000     
  0.81250000000000000       0.21875000000000000        0.0000000000000000     
  0.84375000000000000       0.21875000000000000        0.0000000000000000     
  0.87500000000000000       0.21875000000000000        0.0000000000000000     
  0.75000000000000000       0.25000000000000000        0.0000000000000000     
  0.78125000000000000       0.25000000000000000        0.0000000000000000     
  0.81250000000000000       0.25000000000000000        0.0000000000000000     
  0.84375000000000000       0.25000000000000000        0.0000000000000000     
  0.87500000000000000       0.25000000000000000        0.0000000000000000     
  0.87500000000000000       0.12500000000000000        0.0000000000000000     
  0.90625000000000000       0.12500000000000000        0.0000000000000000     
  0.93750000000000000       0.12500000000000000        0.0000000000000000     
  0.96875000000000000       0.12500000000000000        0.0000000000000000     
   1.0000000000000000       0.12500000000000000        0.0000000000000000     
  0.87500000000000000       0.15625000000000000        0.0000000000000000     
  0.90625000000000000       0.15625000000000000        0.0000000000000000     
  0.93750000000000000       0.15625000000000000        0.0000000000000000     
  0.96875000000000000       0.15625000000000000        0.0000000000000000     
   1.0000000000000000       0.15625000000000000        0.0000000000000000     
  0.87500000000000000       0.18750000000000000        0.0000000000000000     
  0.90625000000000000       0.18750000000000000        0.0000000000000000     
  0.93750000000000000       0.18750000000000000        0.0000000000000000     
  0.96875000000000000       0.18750000000000000        0.0000000000000000     
   1.0000000000000000       0.18750000000000000        0.0000000000000000     
  0.87500000000000000       0.21875000000000000        0.0000000000000000     
  0.90625000000000000       0.21875000000000000        0.0000000000000000     
  0.93750000000000000       0.21875000000000000        0.0000000000000000     
  0.96875000000000000       0.21875000000000000        0.0000000000000000     
   1.0000000000000000       0.21875000000000000        0.0000000000000000     
  0.87500000000000000       0.25000000000000000        0.0000000000000000     
  0.90625000000000000       0.25000000000000000        0.0000000000000000     
  0.93750000000000000       0.25000000000000000        0.0000000000000000     
  0.96875000000000000       0.25000000000000000        0.0000000000000000     
   1.0000000000000000       0.25000000000000000        0.0000000000000000     
   0.0000000000000000       0.25000000000000000        0.0000000000000000     
   3.1250000000000000E-002  0.25000000000000000        0.0000000000000000     
   6.2500000000000000E-002  0.25000000000000000        0.0000000000000000     
   9.3750000000000000E-002  0.25000000000000000        0.0000000000000000     
  0.12500000000000000       0.25000000000000000        0.0000000000000000     
   0.0000000000000000       0.28125000000000000        0.0000000000000000     
   3.1250000000000000E-002  0.28125000000000000        0.0000000000000000     
   6.2500000000000000E-002  0.28125000000000000        0.0000000000000000     
   9.3750000000000000E-002  0.28125000000000000        0.0000000000000000     
  0.12500000000000000       0.28125000000000000        0.0000000000000000     
   0.0000000000000000       0.31250000000000000        0.0000000000000000     
   3.1250000000000000E-002  0.31250000000000000        0.0000000000000000     
   6.2500000000000000E-002  0.31250000000000000        0.0000000000000000     
   9.3750000000000000E-002  0.31250000000000000        0.0000000000000000     
  0.12500000000000000       0.31250000000000000        0.0000000000000000     
   0.0000000000000000       0.34375000000000000        0.0000000000000000     
   3.1250000000000000E-002  0.34375000000000000        0.0000000000000000     
   6.2500000000000000E-002  0.34375000000000000        0.0000000000000000     
   9.3750000000000000E-002  0.34375000000000000        0.0000000000000000     
  0.12500000000000000       0.34375000000000000        0.0000000000000000     
   0.0000000000000000       0.37500000000000000        0.0000000000000000     
   3.1250000000000000E-002  0.37500000000000000        0.0000000000000000     
   6.2500000000000000E-002  0.37500000000000000        0.0000000000000000     
   9.3750000000000000E-002  0.37500000000000000        0.0000000000000000     
  0.12500000000000000       0.37500000000000000        0.0000000000000000     
  0.12500000000000000       0.25000000000000000        0.0000000000000000     
  0.15625000000000000       0.25000000000000000        0.0000000000000000     
  0.18750000000000000       0.25000000000000000        0.0000000000000000     
  0.21875000000000000       0.25000000000000000        0.0000000000000000     
  0.25000000000000000       0.25000000000000000        0.0000000000000000     
  0.12500000000000000       0.28125000000000000        0.0000000000000000     
  0.15625000000000000       0.28125000000000000        0.0000000000000000     
  0.18750000000000000       0.28125000000000000        0.0000000000000000     
  0.21875000000000000       0.28125000000000000        0.0000000000000000     
  0.25000000000000000       0.28125000000000000        0.0000000000000000     
  0.12500000000000000       0.31250000000000000        0.0000000000000000     
  0.15625000000000000       0.31250000000000000        0.0000000000000000     
  0.18750000000000000       0.31250000000000000        0.0000000000000000     
  0.21875000000000000       0.31250000000000000        0.0000000000000000     
  0.25000000000000000       0.31250000000000000        0.0000000000000000     
  0.12500000000000000       0.34375000000000000        0.0000000000000000     
  0.15625000000000000       0.34375000000000000        0.0000000000000000     
  0.18750000000000000       0.34375000000000000        0.0000000000000000     
  0.21875000000000000       0.34375000000000000        0.0000000000000000     
  0.25000000000000000       0.34375000000000000        0.0000000000000000     
  0.12500000000000000       0.37500000000000000        0.0000000000000000     
  0.15625000000000000       0.37500000000000000        0.0000000000000000     
  0.18750000000000000       0.37500000000000000        0.0000000000000000     
  0.21875000000000000       0.37500000000000000        0.0000000000000000     
  0.25000000000000000       0.37500000000000000        0.0000000000000000     
  0.25000000000000000       0.25000000000000000        0.0000000000000000     
  0.28125000000000000       0.25000000000000000        0.0000000000000000     
  0.31250000000000000       0.25000000000000000        0.0000000000000000     
  0.34375000000000000       0.25000000000000000        0.0000000000000000     
  0.37500000000000000       0.25000000000000000        0.0000000000000000     
  0.25000000000000000       0.28125000000000000        0.0000000000000000     
  0.28125000000000000       0.28125000000000000        0.0000000000000000     
  0.31250000000000000       0.28125000000000000        0.0000000000000000     
  0.34375000000000000       0.28125000000000000        0.0000000000000000     
  0.37500000000000000       0.28125000000000000        0.0000000000000000     
  0.25000000000000000       0.31250000000000000        0.0000000000000000     
  0.28125000000000000       0.31250000000000000        0.0000000000000000     
  0.31250000000000000       0.31250000000000000        0.0000000000000000     
  0.34375000000000000       0.31250000000000000        0.0000000000000000     
  0.37500000000000000       0.31250000000000000        0.0000000000000000     
  0.25000000000000000       0.34375000000000000        0.0000000000000000     
  0.28125000000000000       0.34375000000000000        0.0000000000000000     
  0.31250000000000000       0.34375000000000000        0.0000000000000000     
  0.34375000000000000       0.34375000000000000        0.0000000000000000     
  0.37500000000000000       0.34375000000000000        0.0000000000000000     
  0.25000000000000000       0.37500000000000000        0.0000000000000000     
  0.28125000000000000       0.37500000000000000        0.0000000000000000     
  0.31250000000000000       0.37500000000000000        0.0000000000000000     
  0.34375000000000000       0.37500000000000000        0.0000000000000000     
  0.37500000000000000       0.37500000000000000        0.0000000000000000     
  0.37500000000000000       0.25000000000000000        0.0000000000000000     
  0.40625000000000000       0.25000000000000000        0.0000000000000000     
  0.43750000000000000       0.25000000000000000        0.0000000000000000     
  0.46875000000000000       0.25000000000000000        0.0000000000000000     
  0.50000000000000000       0.25000000000000000        0.0000000000000000     
  0.37500000000000000       0.28125000000000000        0.0000000000000000     
  0.40625000000000000       0.28125000000000000        0.0000000000000000     
  0.43750000000000000       0.28125000000000000        0.0000000000000000     
  0.46875000000000000       0.28125000000000000        0.0000000000000000     
  0.50000000000000000       0.28125000000000000        0.0000000000000000     
  0.37500000000000000       0.31250000000000000        0.0000000000000000     
  0.40625000000000000       0.31250000000000000        0.0000000000000000     
  0.43750000000000000       0.31250000000000000        0.0000000000000000     
  0.46875000000000000       0.31250000000000000        0.0000000000000000     
  0.50000000000000000       0.31250000000000000        0.0000000000000000     
  0.37500000000000000       0.34375000000000000        0.0000000000000000     
  0.40625000000000000       0.34375000000000000        0.0000000000000000     
  0.43750000000000000       0.34375000000000000        0.0000000000000000     
  0.46875000000000000       0.34375000000000000        0.0000000000000000     
  0.50000000000000000       0.34375000000000000        0.0000000000000000     
  0.37500000000000000       0.37500000000000000        0.0000000000000000     
  0.40625000000000000       0.37500000000000000        0.0000000000000000     
  0.43750000000000000       0.37500000000000000        0.0000000000000000     
  0.46875000000000000       0.37500000000000000        0.0000000000000000     
  0.50000000000000000       0.37500000000000000        0.0000000000000000     
  0.50000000000000000       0.25000000000000000        0.0000000000000000     
  0.53125000000000000       0.25000000000000000        0.0000000000000000     
  0.56250000000000000       0.25000000000000000        0.0000000000000000     
  0.59375000000000000       0.25000000000000000        0.0000000000000000     
  0.62500000000000000       0.25000000000000000        0.0000000000000000     
  0.50000000000000000       0.28125000000000000        0.0000000000000000     
  0.53125000000000000       0.28125000000000000        0.0000000000000000     
  0.56250000000000000       0.28125000000000000        0.0000000000000000     
  0.59375000000000000       0.28125000000000000        0.0000000000000000     
  0.62500000000000000       0.28125000000000000        0.0000000000000000     
  0.50000000000000000       0.31250000000000000        0.0000000000000000     
  0.53125000000000000       0.31250000000000000        0.0000000000000000     
  0.56250000000000000       0.31250000000000000        0.0000000000000000     
  0.59375000000000000       0.31250000000000000        0.0000000000000000     
  0.62500000000000000       0.31250000000000000        0.0000000000000000     
  0.50000000000000000       0.34375000000000000        0.0000000000000000     
  0.53125000000000000       0.34375000000000000        0.0000000000000000     
  0.56250000000000000       0.34375000000000000        0.0000000000000000     
  0.59375000000000000       0.34375000000000000        0.0000000000000000     
  0.62500000000000000       0.34375000000000000        0.0000000000000000     
  0.50000000000000000       0.37500000000000000        0.0000000000000000     
  0.53125000000000000       0.37500000000000000        0.0000000000000000     
  0.56250000000000000       0.37500000000000000        0.0000000000000000     
  0.59375000000000000       0.37500000000000000        0.0000000000000000     
  0.62500000000000000       0.37500000000000000        0.0000000000000000     
  0.62500000000000000       0.25000000000000000        0.0000000000000000     
  0.65625000000000000       0.25000000000000000        0.0000000000000000     
  0.68750000000000000       0.25000000000000000        0.0000000000000000     
  0.71875000000000000       0.25000000000000000        0.0000000000000000     
  0.75000000000000000       0.25000000000000000        0.0000000000000000     
  0.62500000000000000       0.28125000000000000        0.0000000000000000     
  0.65625000000000000       0.28125000000000000        0.0000000000000000     
  0.68750000000000000       0.28125000000000000        0.0000000000000000     
  0.71875000000000000       0.28125000000000000        0.0000000000000000     
  0.75000000000000000       0.28125000000000000        0.0000000000000000     
  0.62500000000000000       0.31250000000000000        0.0000000000000000     
  0.65625000000000000       0.31250000000000000        0.0000000000000000     
  0.68750000000000000       0.31250000000000000        0.0000000000000000     
  0.71875000000000000       0.31250000000000000        0.0000000000000000     
  0.75000000000000000       0.31250000000000000        0.0000000000000000     
  0.62500000000000000       0.34375000000000000        0.0000000000000000     
  0.65625000000000000       0.34375000000000000        0.0000000000000000     
  0.68750000000000000       0.34375000000000000        0.0000000000000000     
  0.71875000000000000       0.34375000000000000        0.0000000000000000     
  0.75000000000000000       0.34375000000000000        0.0000000000000000     
  0.62500000000000000       0.37500000000000000        0.0000000000000000     
  0.65625000000000000       0.37500000000000000        0.0000000000000000     
  0.68750000000000000       0.37500000000000000        0.0000000000000000     
  0.71875000000000000       0.37500000000000000        0.0000000000000000     
  0.75000000000000000       0.37500000000000000        0.0000000000000000     
  0.75000000000000000       0.25000000000000000        0.0000000000000000     
  0.78125000000000000       0.25000000000000000        0.0000000000000000     
  0.81250000000000000       0.25000000000000000        0.0000000000000000     
  0.84375000000000000       0.25000000000000000        0.0000000000000000     
  0.87500000000000000       0.25000000000000000        0.0000000000000000     
  0.75000000000000000       0.28125000000000000        0.0000000000000000     
  0.78125000000000000       0.28125000000000000        0.0000000000000000     
  0.81250000000000000       0.28125000000000000        0.0000000000000000     
  0.84375000000000000       0.28125000000000000        0.0000000000000000     
  0.87500000000000000       0.28125000000000000        0.0000000000000000     
  0.75000000000000000       0.31250000000000000        0.0000000000000000     
  0.78125000000000000       0.31250000000000000        0.0000000000000000     
  0.81250000000000000       0.31250000000000000        0.0000000000000000     
  0.84375000000000000       0.31250000000000000        0.0000000000000000     
  0.87500000000000000       0.31250000000000000        0.0000000000000000     
  0.75000000000000000       0.34375000000000000        0.0000000000000000     
  0.78125000000000000       0.34375000000000000        0.0000000000000000     
  0.81250000000000000       0.34375000000000000        0.0000000000000000     
  0.84375000000000000       0.34375000000000000        0.0000000000000000     
  0.87500000000000000       0.34375000000000000        0.0000000000000000     
  0.75000000000000000       0.37500000000000000        0.0000000000000000     
  0.78125000000000000       0.37500000000000000        0.0000000000000000     
  0.81250000000000000       0.37500000000000000        0.0000000000000000     
  0.84375000000000000       0.37500000000000000        0.0000000000000000     
  0.87500000000000000       0.37500000000000000        0.0000000000000000     
  0.87500000000000000       0.25000000000000000        0.0000000000000000     
  0.90625000000000000       0.25000000000000000        0.0000000000000000     
  0.93750000000000000       0.25000000000000000        0.0000000000000000     
  0.96875000000000000       0.25000000000000000        0.0000000000000000     
   1.0000000000000000       0.25000000000000000        0.0000000000000000     
  0.87500000000000000       0.28125000000000000        0.0000000000000000     
  0.90625000000000000       0.28125000000000000        0.0000000000000000     
  0.93750000000000000       0.28125000000000000        0.0000000000000000     
  0.96875000000000000       0.28125000000000000        0.0000000000000000     
   1.0000000000000000       0.28125000000000000        0.0000000000000000     
  0.87500000000000000       0.31250000000000000        0.0000000000000000     
  0.90625000000000000       0.31250000000000000        0.0000000000000000     
  0.93750000000000000       0.31250000000000000        0.0000000000000000     
  0.96875000000000000       0.31250000000000000        0.0000000000000000     
   1.0000000000000000       0.31250000000000000        0.0000000000000000     
  0.87500000000000000       0.34375000000000000        0.0000000000000000     
  0.90625000000000000       0.34375000000000000        0.0000000000000000     
  0.93750000000000000       0.34375000000000000        0.0000000000000000     
  0.96875000000000000       0.34375000000000000        0.0000000000000000     
   1.0000000000000000       0.34375000000000000        0.0000000000000000     
  0.87500000000000000       0.37500000000000000        0.0000000000000000     
  0.90625000000000000       0.37500000000000000        0.0000000000000000     
  0.93750000000000000       0.37500000000000000        0.0000000000000000     
  0.96875000000000000       0.37500000000000000        0.0000000000000000     
   1.0000000000000000       0.37500000000000000        0.0000000000000000     
   0.0000000000000000       0.37500000000000000        0.0000000000000000     
   3.1250000000000000E-002  0.37500000000000000        0.0000000000000000     
   6.2500000000000000E-002  0.37500000000000000        0.0000000000000000     
   9.3750000000000000E-002  0.37500000000000000        0.0000000000000000     
  0.12500000000000000       0.37500000000000000        0.0000000000000000     
   0.0000000000000000       0.40625000000000000        0.0000000000000000     
   3.1250000000000000E-002  0.40625000000000000        0.0000000000000000     
   6.2500000000000000E-002  0.40625000000000000        0.0000000000000000     
   9.3750000000000000E-002  0.40625000000000000        0.0000000000000000     
  0.12500000000000000       0.40625000000000000        0.0000000000000000     
   0.0000000000000000       0.43750000000000000        0.0000000000000000     
   3.1250000000000000E-002  0.43750000000000000        0.0000000000000000     
   6.2500000000000000E-002  0.43750000000000000        0.0000000000000000     
   9.3750000000000000E-002  0.43750000000000000        0.0000000000000000     
  0.12500000000000000       0.43750000000000000        0.0000000000000000     
   0.0000000000000000       0.46875000000000000        0.0000000000000000     
   3.1250000000000000E-002  0.46875000000000000        0.0000000000000000     
   6.2500000000000000E-002  0.46875000000000000        0.0000000000000000     
   9.3750000000000000E-002  0.46875000000000000        0.0000000000000000     
  0.12500000000000000       0.46875000000000000        0.0000000000000000     
   0.0000000000000000       0.50000000000000000        0.0000000000000000     
   3.1250000000000000E-002  0.50000000000000000        0.0000000000000000     
   6.2500000000000000E-002  0.50000000000000000        0.0000000000000000     
   9.3750000000000000E-002  0.50000000000000000        0.0000000000000000     
  0.12500000000000000       0.50000000000000000        0.0000000000000000     
  0.12500000000000000       0.37500000000000000        0.0000000000000000     
  0.15625000000000000       0.37500000000000000        0.0000000000000000     
  0.18750000000000000       0.37500000000000000        0.0000000000000000     
  0.21875000000000000       0.37500000000000000        0.0000000000000000     
  0.25000000000000000       0.37500000000000000        0.0000000000000000     
  0.12500000000000000       0.40625000000000000        0.0000000000000000     
  0.15625000000000000       0.40625000000000000        0.0000000000000000     
  0.18750000000000000       0.40625000000000000        0.0000000000000000     
  0.21875000000000000       0.40625000000000000        0.0000000000000000     
  0.25000000000000000       0.40625000000000000        0.0000000000000000     
  0.12500000000000000       0.43750000000000000        0.0000000000000000     
  0.15625000000000000       0.43750000000000000        0.0000000000000000     
  0.18750000000000000       0.43750000000000000        0.0000000000000000     
  0.21875000000000000       0.43750000000000000        0.0000000000000000     
  0.25000000000000000       0.43750000000000000        0.0000000000000000     
  0.12500000000000000       0.46875000000000000        0.0000000000000000     
  0.15625000000000000       0.46875000000000000        0.0000000000000000     
  0.18750000000000000       0.46875000000000000        0.0000000000000000     
  0.21875000000000000       0.46875000000000000        0.0000000000000000     
  0.25000000000000000       0.46875000000000000        0.0000000000000000     
  0.12500000000000000       0.50000000000000000        0.0000000000000000     
  0.15625000000000000       0.50000000000000000        0.0000000000000000     
  0.18750000000000000       0.50000000000000000        0.0000000000000000     
  0.21875000000000000       0.50000000000000000        0.0000000000000000     
  0.25000000000000000       0.50000000000000000        0.0000000000000000     
  0.25000000000000000       0.37500000000000000        0.0000000000000000     
  0.28125000000000000       0.37500000000000000        0.0000000000000000     
  0.31250000000000000       0.37500000000000000        0.0000000000000000     
  0.34375000000000000       0.37500000000000000        0.0000000000000000     
  0.37500000000000000       0.37500000000000000        0.0000000000000000     
  0.25000000000000000       0.40625000000000000        0.0000000000000000     
  0.28125000000000000       0.40625000000000000        0.0000000000000000     
  0.31250000000000000       0.40625000000000000        0.0000000000000000     
  0.34375000000000000       0.40625000000000000        0.0000000000000000     
  0.37500000000000000       0.40625000000000000        0.0000000000000000     
  0.25000000000000000       0.43750000000000000        0.0000000000000000     
  0.28125000000000000       0.43750000000000000        0.0000000000000000     
  0.31250000000000000       0.43750000000000000        0.0000000000000000     
  0.34375000000000000       0.43750000000000000        0.0000000000000000     
  0.37500000000000000       0.43750000000000000        0.0000000000000000     
  0.25000000000000000       0.46875000000000000        0.0000000000000000     
  0.28125000000000000       0.46875000000000000        0.0000000000000000     
  0.31250000000000000       0.46875000000000000        0.0000000000000000     
  0.34375000000000000       0.46875000000000000        0.0000000000000000     
  0.37500000000000000       0.46875000000000000        0.0000000000000000     
  0.25000000000000000       0.50000000000000000        0.0000000000000000     
  0.28125000000000000       0.50000000000000000        0.0000000000000000     
  0.31250000000000000       0.50000000000000000        0.0000000000000000     
  0.34375000000000000       0.50000000000000000        0.0000000000000000     
  0.37500000000000000       0.50000000000000000        0.0000000000000000     
  0.37500000000000000       0.37500000000000000        0.0000000000000000     
  0.40625000000000000       0.37500000000000000        0.0000000000000000     
  0.43750000000000000       0.37500000000000000        0.0000000000000000     
  0.46875000000000000       0.37500000000000000        0.0000000000000000     
  0.50000000000000000       0.37500000000000000        0.0000000000000000     
  0.37500000000000000       0.40625000000000000        0.0000000000000000     
  0.40625000000000000       0.40625000000000000        0.0000000000000000     
  0.43750000000000000       0.40625000000000000        0.0000000000000000     
  0.46875000000000000       0.40625000000000000        0.0000000000000000     
  0.50000000000000000       0.40625000000000000        0.0000000000000000     
  0.37500000000000000       0.43750000000000000        0.0000000000000000     
  0.40625000000000000       0.43750000000000000        0.0000000000000000     
  0.43750000000000000       0.43750000000000000        0.0000000000000000     
  0.46875000000000000       0.43750000000000000        0.0000000000000000     
  0.50000000000000000       0.43750000000000000        0.0000000000000000     
  0.37500000000000000       0.46875000000000000        0.0000000000000000     
  0.40625000000000000       0.46875000000000000        0.0000000000000000     
  0.43750000000000000       0.46875000000000000        0.0000000000000000     
  0.46875000000000000       0.46875000000000000        0.0000000000000000     
  0.50000000000000000       0.46875000000000000        0.0000000000000000     
  0.37500000000000000       0.50000000000000000        0.0000000000000000     
  0.40625000000000000       0.50000000000000000        0.0000000000000000     
  0.43750000000000000       0.50000000000000000        0.0000000000000000     
  0.46875000000000000       0.50000000000000000        0.0000000000000000     
  0.50000000000000000       0.50000000000000000        0.0000000000000000     
  0.50000000000000000       0.37500000000000000        0.0000000000000000     
  0.53125000000000000       0.37500000000000000        0.0000000000000000     
  0.56250000000000000       0.37500000000000000        0.0000000000000000     
  0.59375000000000000       0.37500000000000000        0.0000000000000000     
  0.62500000000000000       0.37500000000000000        0.0000000000000000     
  0.50000000000000000       0.40625000000000000        0.0000000000000000     
  0.53125000000000000       0.40625000000000000        0.0000000000000000     
  0.56250000000000000       0.40625000000000000        0.0000000000000000     
  0.59375000000000000       0.40625000000000000        0.0000000000000000     
  0.62500000000000000       0.40625000000000000        0.0000000000000000     
  0.50000000000000000       0.43750000000000000        0.0000000000000000     
  0.53125000000000000       0.43750000000000000        0.0000000000000000     
  0.56250000000000000       0.43750000000000000        0.0000000000000000     
  0.59375000000000000       0.43750000000000000        0.0000000000000000     
  0.62500000000000000       0.43750000000000000        0.0000000000000000     
  0.50000000000000000       0.46875000000000000        0.0000000000000000     
  0.53125000000000000       0.46875000000000000        0.0000000000000000     
  0.56250000000000000       0.46875000000000000        0.0000000000000000     
  0.59375000000000000       0.46875000000000000        0.0000000000000000     
  0.62500000000000000       0.46875000000000000        0.0000000000000000     
  0.50000000000000000       0.50000000000000000        0.0000000000000000     
  0.53125000000000000       0.50000000000000000        0.0000000000000000     
  0.56250000000000000       0.50000000000000000        0.0000000000000000     
  0.59375000000000000       0.50000000000000000        0.0000000000000000     
  0.62500000000000000       0.50000000000000000        0.0000000000000000     
  0.62500000000000000       0.37500000000000000        0.0000000000000000     
  0.65625000000000000       0.37500000000000000        0.0000000000000000     
  0.68750000000000000       0.37500000000000000        0.0000000000000000     
  0.71875000000000000       0.37500000000000000        0.0000000000000000     
  0.75000000000000000       0.37500000000000000        0.0000000000000000     
  0.62500000000000000       0.40625000000000000        0.0000000000000000     
  0.65625000000000000       0.40625000000000000        0.0000000000000000     
  0.68750000000000000       0.40625000000000000        0.0000000000000000     
  0.71875000000000000       0.40625000000000000        0.0000000000000000     
  0.75000000000000000       0.40625000000000000        0.0000000000000000     
  0.62500000000000000       0.43750000000000000        0.0000000000000000     
  0.65625000000000000       0.43750000000000000        0.0000000000000000     
  0.68750000000000000       0.43750000000000000        0.0000000000000000     
  0.71875000000000000       0.43750000000000000        0.0000000000000000     
  0.75000000000000000       0.43750000000000000        0.0000000000000000     
  0.62500000000000000       0.46875000000000000        0.0000000000000000     
  0.65625000000000000       0.46875000000000000        0.0000000000000000     
  0.68750000000000000       0.46875000000000000        0.0000000000000000     
  0.71875000000000000       0.46875000000000000        0.0000000000000000     
  0.75000000000000000       0.46875000000000000        0.0000000000000000     
  0.62500000000000000       0.50000000000000000        0.0000000000000000     
  0.65625000000000000       0.50000000000000000        0.0000000000000000     
  0.68750000000000000       0.50000000000000000        0.0000000000000000     
  0.71875000000000000       0.50000000000000000        0.0000000000000000     
  0.75000000000000000       0.50000000000000000        0.0000000000000000     
  0.75000000000000000       0.37500000000000000        0.0000000000000000     
  0.78125000000000000       0.37500000000000000        0.0000000000000000     
  0.81250000000000000       0.37500000000000000        0.0000000000000000     
  0.84375000000000000       0.37500000000000000        0.0000000000000000     
  0.87500000000000000       0.37500000000000000        0.0000000000000000     
  0.75000000000000000       0.40625000000000000        0.0000000000000000     
  0.78125000000000000       0.40625000000000000        0.0000000000000000     
  0.81250000000000000       0.40625000000000000        0.0000000000000000     
  0.84375000000000000       0.40625000000000000        0.0000000000000000     
  0.87500000000000000       0.40625000000000000        0.0000000000000000     
  0.75000000000000000       0.43750000000000000        0.0000000000000000     
  0.78125000000000000       0.43750000000000000        0.0000000000000000     
  0.81250000000000000       0.43750000000000000        0.0000000000000000     
  0.84375000000000000       0.43750000000000000        0.0000000000000000     
  0.87500000000000000       0.43750000000000000        0.0000000000000000     
  0.75000000000000000       0.46875000000000000        0.0000000000000000     
  0.78125000000000000       0.46875000000000000        0.0000000000000000     
  0.81250000000000000       0.46875000000000000        0.0000000000000000     
  0.84375000000000000       0.46875000000000000        0.0000000000000000     
  0.87500000000000000       0.46875000000000000        0.0000000000000000     
  0.75000000000000000       0.50000000000000000        0.0000000000000000     
  0.78125000000000000       0.50000000000000000        0.0000000000000000     
  0.81250000000000000       0.50000000000000000        0.0000000000000000     
  0.84375000000000000       0.50000000000000000        0.0000000000000000     
  0.87500000000000000       0.50000000000000000        0.0000000000000000     
  0.87500000000000000       0.37500000000000000        0.0000000000000000     
  0.90625000000000000       0.37500000000000000        0.0000000000000000     
  0.93750000000000000       0.37500000000000000        0.0000000000000000     
  0.96875000000000000       0.37500000000000000        0.0000000000000000     
   1.0000000000000000       0.37500000000000000        0.0000000000000000     
  0.87500000000000000       0.40625000000000000        0.0000000000000000     
  0.90625000000000000       0.40625000000000000        0.0000000000000000     
  0.93750000000000000       0.40625000000000000        0.0000000000000000     
  0.96875000000000000       0.40625000000000000        0.0000000000000000     
   1.0000000000000000       0.40625000000000000        0.0000000000000000     
  0.87500000000000000       0.43750000000000000        0.0000000000000000     
  0.90625000000000000       0.43750000000000000        0.0000000000000000     
  0.93750000000000000       0.43750000000000000        0.0000000000000000     
  0.96875000000000000       0.43750000000000000        0.0000000000000000     
   1.0000000000000000       0.43750000000000000        0.0000000000000000     
  0.87500000000000000       0.46875000000000000        0.0000000000000000     
  0.90625000000000000       0.46875000000000000        0.0000000000000000     
  0.93750000000000000       0.46875000000000000        0.0000000000000000     
  0.96875000000000000       0.46875000000000000        0.0000000000000000     
   1.0000000000000000       0.46875000000000000        0.0000000000000000     
  0.87500000000000000       0.50000000000000000        0.0000000000000000     
  0.90625000000000000       0.50000000000000000        0.0000000000000000     
  0.93750000000000000       0.50000000000000000        0.0000000000000000     
  0.96875000000000000       0.50000000000000000        0.0000000000000000     
   1.0000000000000000       0.50000000000000000        0.0000000000000000     
   0.0000000000000000       0.50000000000000000        0.0000000000000000     
   3.1250000000000000E-002  0.50000000000000000        0.0000000000000000     
   6.2500000000000000E-002  0.50000000000000000        0.0000000000000000     
   9.3750000000000000E-002  0.50000000000000000        0.0000000000000000     
  0.12500000000000000       0.50000000000000000        0.0000000000000000     
   0.0000000000000000       0.53125000000000000        0.0000000000000000     
   3.1250000000000000E-002  0.53125000000000000        0.0000000000000000     
   6.2500000000000000E-002  0.53125000000000000        0.0000000000000000     
   9.3750000000000000E-002  0.53125000000000000        0.0000000000000000     
  0.12500000000000000       0.53125000000000000        0.0000000000000000     
   0.0000000000000000       0.56250000000000000        0.0000000000000000     
   3.1250000000000000E-002  0.56250000000000000        0.0000000000000000     
   6.2500000000000000E-002  0.56250000000000000        0.0000000000000000     
   9.3750000000000000E-002  0.56250000000000000        0.0000000000000000     
  0.12500000000000000       0.56250000000000000        0.0000000000000000     
   0.0000000000000000       0.59375000000000000        0.0000000000000000     
   3.1250000000000000E-002  0.59375000000000000        0.0000000000000000     
   6.2500000000000000E-002  0.59375000000000000        0.0000000000000000     
   9.3750000000000000E-002  0.59375000000000000        0.0000000000000000     
  0.12500000000000000       0.59375000000000000        0.0000000000000000     
   0.0000000000000000       0.62500000000000000        0.0000000000000000     
   3.1250000000000000E-002  0.62500000000000000        0.0000000000000000     
   6.2500000000000000E-002  0.62500000000000000        0.0000000000000000     
   9.3750000000000000E-002  0.62500000000000000        0.0000000000000000     
  0.12500000000000000       0.62500000000000000        0.0000000000000000     
  0.12500000000000000       0.50000000000000000        0.0000000000000000     
  0.15625000000000000       0.50000000000000000        0.0000000000000000     
  0.18750000000000000       0.50000000000000000        0.0000000000000000     
  0.21875000000000000       0.50000000000000000        0.0000000000000000     
  0.25000000000000000       0.50000000000000000        0.0000000000000000     
  0.12500000000000000       0.53125000000000000        0.0000000000000000     
  0.15625000000000000       0.53125000000000000        0.0000000000000000     
  0.18750000000000000       0.53125000000000000        0.0000000000000000     
  0.21875000000000000       0.53125000000000000        0.0000000000000000     
  0.25000000000000000       0.53125000000000000        0.0000000000000000     
  0.12500000000000000       0.56250000000000000        0.0000000000000000     
  0.15625000000000000       0.56250000000000000        0.0000000000000000     
  0.18750000000000000       0.56250000000000000        0.0000000000000000     
  0.21875000000000000       0.56250000000000000        0.0000000000000000     
  0.25000000000000000       0.56250000000000000        0.0000000000000000     
  0.12500000000000000       0.59375000000000000        0.0000000000000000     
  0.15625000000000000       0.59375000000000000        0.0000000000000000     
  0.18750000000000000       0.59375000000000000        0.0000000000000000     
  0.21875000000000000       0.59375000000000000        0.0000000000000000     
  0.25000000000000000       0.59375000000000000        0.0000000000000000     
  0.12500000000000000       0.62500000000000000        0.0000000000000000     
  0.15625000000000000       0.62500000000000000        0.0000000000000000     
  0.18750000000000000       0.62500000000000000        0.0000000000000000     
  0.21875000000000000       0.62500000000000000        0.0000000000000000     
  0.25000000000000000       0.62500000000000000        0.0000000000000000     
  0.25000000000000000       0.50000000000000000        0.0000000000000000     
  0.28125000000000000       0.50000000000000000        0.0000000000000000     
  0.31250000000000000       0.50000000000000000        0.0000000000000000     
  0.34375000000000000       0.50000000000000000        0.0000000000000000     
  0.37500000000000000       0.50000000000000000        0.0000000000000000     
  0.25000000000000000       0.53125000000000000        0.0000000000000000     
  0.28125000000000000       0.53125000000000000        0.0000000000000000     
  0.31250000000000000       0.53125000000000000        0.0000000000000000     
  0.34375000000000000       0.53125000000000000        0.0000000000000000     
  0.37500000000000000       0.53125000000000000        0.0000000000000000     
  0.25000000000000000       0.56250000000000000        0.0000000000000000     
  0.28125000000000000       0.56250000000000000        0.0000000000000000     
  0.31250000000000000       0.56250000000000000        0.0000000000000000     
  0.34375000000000000       0.56250000000000000        0.0000000000000000     
  0.37500000000000000       0.56250000000000000        0.0000000000000000     
  0.25000000000000000       0.59375000000000000        0.0000000000000000     
  0.28125000000000000       0.59375000000000000        0.0000000000000000     
  0.31250000000000000       0.59375000000000000        0.0000000000000000     
  0.34375000000000000       0.59375000000000000        0.0000000000000000     
  0.37500000000000000       0.59375000000000000        0.0000000000000000     
  0.25000000000000000       0.62500000000000000        0.0000000000000000     
  0.28125000000000000       0.62500000000000000        0.0000000000000000     
  0.31250000000000000       0.62500000000000000        0.0000000000000000     
  0.34375000000000000       0.62500000000000000        0.0000000000000000     
  0.37500000000000000       0.62500000000000000        0.0000000000000000     
  0.37500000000000000       0.50000000000000000        0.0000000000000000     
  0.40625000000000000       0.50000000000000000        0.0000000000000000     
  0.43750000000000000       0.50000000000000000        0.0000000000000000     
  0.46875000000000000       0.50000000000000000        0.0000000000000000     
  0.50000000000000000       0.50000000000000000        0.0000000000000000     
  0.37500000000000000       0.53125000000000000        0.0000000000000000     
  0.40625000000000000       0.53125000000000000        0.0000000000000000     
  0.43750000000000000       0.53125000000000000        0.0000000000000000     
  0.46875000000000000       0.53125000000000000        0.0000000000000000     
  0.50000000000000000       0.53125000000000000        0.0000000000000000     
  0.37500000000000000       0.56250000000000000        0.0000000000000000     
  0.40625000000000000       0.56250000000000000        0.0000000000000000     
  0.43750000000000000       0.56250000000000000        0.0000000000000000     
  0.46875000000000000       0.56250000000000000        0.0000000000000000     
  0.50000000000000000       0.56250000000000000        0.0000000000000000     
  0.37500000000000000       0.59375000000000000        0.0000000000000000     
  0.40625000000000000       0.59375000000000000        0.0000000000000000     
  0.43750000000000000       0.59375000000000000        0.0000000000000000     
  0.46875000000000000       0.59375000000000000        0.0000000000000000     
  0.50000000000000000       0.59375000000000000        0.0000000000000000     
  0.37500000000000000       0.62500000000000000        0.0000000000000000     
  0.40625000000000000       0.62500000000000000        0.0000000000000000     
  0.43750000000000000       0.62500000000000000        0.0000000000000000     
  0.46875000000000000       0.62500000000000000        0.0000000000000000     
  0.50000000000000000       0.62500000000000000        0.0000000000000000     
  0.50000000000000000       0.50000000000000000        0.0000000000000000     
  0.53125000000000000       0.50000000000000000        0.0000000000000000     
  0.56250000000000000       0.50000000000000000        0.0000000000000000     
  0.59375000000000000       0.50000000000000000        0.0000000000000000     
  0.62500000000000000       0.50000000000000000        0.0000000000000000     
  0.50000000000000000       0.53125000000000000        0.0000000000000000     
  0.53125000000000000       0.53125000000000000        0.0000000000000000     
  0.56250000000000000       0.53125000000000000        0.0000000000000000     
  0.59375000000000000       0.53125000000000000        0.0000000000000000     
  0.62500000000000000       0.53125000000000000        0.0000000000000000     
  0.50000000000000000       0.56250000000000000        0.0000000000000000     
  0.53125000000000000       0.56250000000000000        0.0000000000000000     
  0.56250000000000000       0.56250000000000000        0.0000000000000000     
  0.59375000000000000       0.56250000000000000        0.0000000000000000     
  0.62500000000000000       0.56250000000000000        0.0000000000000000     
  0.50000000000000000       0.59375000000000000        0.0000000000000000     
  0.53125000000000000       0.59375000000000000        0.0000000000000000     
  0.56250000000000000       0.59375000000000000        0.0000000000000000     
  0.59375000000000000       0.59375000000000000        0.0000000000000000     
  0.62500000000000000       0.59375000000000000        0.0000000000000000     
  0.50000000000000000       0.62500000000000000        0.0000000000000000     
  0.53125000000000000       0.62500000000000000        0.0000000000000000     
  0.56250000000000000       0.62500000000000000        0.0000000000000000     
  0.59375000000000000       0.62500000000000000        0.0000000000000000     
  0.62500000000000000       0.62500000000000000        0.0000000000000000     
  0.62500000000000000       0.50000000000000000        0.0000000000000000     
  0.65625000000000000       0.50000000000000000        0.0000000000000000     
  0.68750000000000000       0.50000000000000000        0.0000000000000000     
  0.71875000000000000       0.50000000000000000        0.0000000000000000     
  0.75000000000000000       0.50000000000000000        0.0000000000000000     
  0.62500000000000000       0.53125000000000000        0.0000000000000000     
  0.65625000000000000       0.53125000000000000        0.0000000000000000     
  0.68750000000000000       0.53125000000000000        0.0000000000000000     
  0.71875000000000000       0.53125000000000000        0.0000000000000000     
  0.75000000000000000       0.53125000000000000        0.0000000000000000     
  0.62500000000000000       0.56250000000000000        0.0000000000000000     
  0.65625000000000000       0.56250000000000000        0.0000000000000000     
  0.68750000000000000       0.56250000000000000        0.0000000000000000     
  0.71875000000000000       0.56250000000000000        0.0000000000000000     
  0.75000000000000000       0.56250000000000000        0.0000000000000000     
  0.62500000000000000       0.59375000000000000        0.0000000000000000     
  0.65625000000000000       0.59375000000000000        0.0000000000000000     
  0.68750000000000000       0.59375000000000000        0.0000000000000000     
  0.71875000000000000       0.59375000000000000        0.0000000000000000     
  0.75000000000000000       0.59375000000000000        0.0000000000000000     
  0.62500000000000000       0.62500000000000000        0.0000000000000000     
  0.65625000000000000       0.62500000000000000        0.0000000000000000     
  0.68750000000000000       0.62500000000000000        0.0000000000000000     
  0.71875000000000000       0.62500000000000000        0.0000000000000000     
  0.75000000000000000       0.62500000000000000        0.0000000000000000     
  0.75000000000000000       0.50000000000000000        0.0000000000000000     
  0.78125000000000000       0.50000000000000000        0.0000000000000000     
  0.81250000000000000       0.50000000000000000        0.0000000000000000     
  0.84375000000000000       0.50000000000000000        0.0000000000000000     
  0.87500000000000000       0.50000000000000000        0.0000000000000000     
  0.75000000000000000       0.53125000000000000        0.0000000000000000     
  0.78125000000000000       0.53125000000000000        0.0000000000000000     
  0.81250000000000000       0.53125000000000000        0.0000000000000000     
  0.84375000000000000       0.53125000000000000        0.0000000000000000     
  0.87500000000000000       0.53125000000000000        0.0000000000000000     
  0.75000000000000000       0.56250000000000000        0.0000000000000000     
  0.78125000000000000       0.56250000000000000        0.0000000000000000     
  0.81250000000000000       0.56250000000000000        0.0000000000000000     
  0.84375000000000000       0.56250000000000000        0.0000000000000000     
  0.87500000000000000       0.56250000000000000        0.0000000000000000     
  0.75000000000000000       0.59375000000000000        0.0000000000000000     
  0.78125000000000000       0.59375000000000000        0.0000000000000000     
  0.81250000000000000       0.59375000000000000        0.0000000000000000     
  0.84375000000000000       0.59375000000000000        0.0000000000000000     
  0.87500000000000000       0.59375000000000000        0.0000000000000000     
  0.75000000000000000       0.62500000000000000        0.0000000000000000     
  0.78125000000000000       0.62500000000000000        0.0000000000000000     
  0.81250000000000000       0.62500000000000000        0.0000000000000000     
  0.84375000000000000       0.62500000000000000        0.0000000000000000     
  0.87500000000000000       0.62500000000000000        0.0000000000000000     
  0.87500000000000000       0.50000000000000000        0.0000000000000000     
  0.90625000000000000       0.50000000000000000        0.0000000000000000     
  0.93750000000000000       0.50000000000000000        0.0000000000000000     
  0.96875000000000000       0.50000000000000000        0.0000000000000000     
   1.0000000000000000       0.50000000000000000        0.0000000000000000     
  0.87500000000000000       0.53125000000000000        0.0000000000000000     
  0.90625000000000000       0.53125000000000000        0.0000000000000000     
  0.93750000000000000       0.53125000000000000        0.0000000000000000     
  0.96875000000000000       0.53125000000000000        0.0000000000000000     
   1.0000000000000000       0.53125000000000000        0.0000000000000000     
  0.87500000000000000       0.56250000000000000        0.0000000000000000     
  0.90625000000000000       0.56250000000000000        0.0000000000000000     
  0.93750000000000000       0.56250000000000000        0.0000000000000000     
  0.96875000000000000       0.56250000000000000        0.0000000000000000     
   1.0000000000000000       0.56250000000000000        0.0000000000000000     
  0.87500000000000000       0.59375000000000000        0.0000000000000000     
  0.90625000000000000       0.59375000000000000        0.0000000000000000     
  0.93750000000000000       0.59375000000000000        0.0000000000000000     
  0.96875000000000000       0.59375000000000000        0.0000000000000000     
   1.0000000000000000       0.59375000000000000        0.0000000000000000     
  0.87500000000000000       0.62500000000000000        0.0000000000000000     
  0.90625000000000000       0.62500000000000000        0.0000000000000000     
  0.93750000000000000       0.62500000000000000        0.0000000000000000     
  0.96875000000000000       0.62500000000000000        0.0000000000000000     
   1.0000000000000000       0.62500000000000000        0.0000000000000000     
   0.0000000000000000       0.62500000000000000        0.0000000000000000     
   3.1250000000000000E-002  0.62500000000000000        0.0000000000000000     
   6.2500000000000000E-002  0.62500000000000000        0.0000000000000000     
   9.3750000000000000E-002  0.62500000000000000        0.0000000000000000     
  0.12500000000000000       0.62500000000000000        0.0000000000000000     
   0.0000000000000000       0.65625000000000000        0.0000000000000000     
   3.1250000000000000E-002  0.65625000000000000        0.0000000000000000     
   6.2500000000000000E-002  0.65625000000000000        0.0000000000000000     
   9.3750000000000000E-002  0.65625000000000000        0.0000000000000000     
  0.12500000000000000       0.65625000000000000        0.0000000000000000     
   0.0000000000000000       0.68750000000000000        0.0000000000000000     
   3.1250000000000000E-002  0.68750000000000000        0.0000000000000000     
   6.2500000000000000E-002  0.68750000000000000        0.0000000000000000     
   9.3750000000000000E-002  0.68750000000000000        0.0000000000000000     
  0.12500000000000000       0.68750000000000000        0.0000000000000000     
   0.0000000000000000       0.71875000000000000        0.0000000000000000     
   3.1250000000000000E-002  0.71875000000000000        0.0000000000000000     
   6.2500000000000000E-002  0.71875000000000000        0.0000000000000000     
   9.3750000000000000E-002  0.71875000000000000        0.0000000000000000     
  0.12500000000000000       0.71875000000000000        0.0000000000000000     
   0.0000000000000000       0.75000000000000000        0.0000000000000000     
   3.1250000000000000E-002  0.75000000000000000        0.0000000000000000     
   6.2500000000000000E-002  0.75000000000000000        0.0000000000000000     
   9.3750000000000000E-002  0.75000000000000000        0.0000000000000000     
  0.12500000000000000       0.75000000000000000        0.0000000000000000     
  0.12500000000000000       0.62500000000000000        0.0000000000000000     
  0.15625000000000000       0.62500000000000000        0.0000000000000000     
  0.18750000000000000       0.62500000000000000        0.0000000000000000     
  0.21875000000000000       0.62500000000000000        0.0000000000000000     
  0.25000000000000000       0.62500000000000000        0.0000000000000000     
  0.12500000000000000       0.65625000000000000        0.0000000000000000     
  0.15625000000000000       0.65625000000000000        0.0000000000000000     
  0.18750000000000000       0.65625000000000000        0.0000000000000000     
  0.21875000000000000       0.65625000000000000        0.0000000000000000     
  0.25000000000000000       0.65625000000000000        0.0000000000000000     
  0.12500000000000000       0.68750000000000000        0.0000000000000000     
  0.15625000000000000       0.68750000000000000        0.0000000000000000     
  0.18750000000000000       0.68750000000000000        0.0000000000000000     
  0.21875000000000000       0.68750000000000000        0.0000000000000000     
  0.25000000000000000       0.68750000000000000        0.0000000000000000     
  0.12500000000000000       0.71875000000000000        0.0000000000000000     
  0.15625000000000000       0.71875000000000000        0.0000000000000000     
  0.18750000000000000       0.71875000000000000        0.0000000000000000     
  0.21875000000000000       0.71875000000000000        0.0000000000000000     
  0.25000000000000000       0.71875000000000000        0.0000000000000000     
  0.12500000000000000       0.75000000000000000        0.0000000000000000     
  0.15625000000000000       0.75000000000000000        0.0000000000000000     
  0.18750000000000000       0.75000000000000000        0.0000000000000000     
  0.21875000000000000       0.75000000000000000        0.0000000000000000     
  0.25000000000000000       0.75000000000000000        0.0000000000000000     
  0.25000000000000000       0.62500000000000000        0.0000000000000000     
  0.28125000000000000       0.62500000000000000        0.0000000000000000     
  0.31250000000000000       0.62500000000000000        0.0000000000000000     
  0.34375000000000000       0.62500000000000000        0.0000000000000000     
  0.37500000000000000       0.62500000000000000        0.0000000000000000     
  0.25000000000000000       0.65625000000000000        0.0000000000000000     
  0.28125000000000000       0.65625000000000000        0.0000000000000000     
  0.31250000000000000       0.65625000000000000        0.0000000000000000     
  0.34375000000000000       0.65625000000000000        0.0000000000000000     
  0.37500000000000000       0.65625000000000000        0.0000000000000000     
  0.25000000000000000       0.68750000000000000        0.0000000000000000     
  0.28125000000000000       0.68750000000000000        0.0000000000000000     
  0.31250000000000000       0.68750000000000000        0.0000000000000000     
  0.34375000000000000       0.68750000000000000        0.0000000000000000     
  0.37500000000000000       0.68750000000000000        0.0000000000000000     
  0.25000000000000000       0.71875000000000000        0.0000000000000000     
  0.28125000000000000       0.71875000000000000        0.0000000000000000     
  0.31250000000000000       0.71875000000000000        0.0000000000000000     
  0.34375000000000000       0.71875000000000000        0.0000000000000000     
  0.37500000000000000       0.71875000000000000        0.0000000000000000     
  0.25000000000000000       0.75000000000000000        0.0000000000000000     
  0.28125000000000000       0.75000000000000000        0.0000000000000000     
  0.31250000000000000       0.75000000000000000        0.0000000000000000     
  0.34375000000000000       0.75000000000000000        0.0000000000000000     
  0.37500000000000000       0.75000000000000000        0.0000000000000000     
  0.37500000000000000       0.62500000000000000        0.0000000000000000     
  0.40625000000000000       0.62500000000000000        0.0000000000000000     
  0.43750000000000000       0.62500000000000000        0.0000000000000000     
  0.46875000000000000       0.62500000000000000        0.0000000000000000     
  0.50000000000000000       0.62500000000000000        0.0000000000000000     
  0.37500000000000000       0.65625000000000000        0.0000000000000000     
  0.40625000000000000       0.65625000000000000        0.0000000000000000     
  0.43750000000000000       0.65625000000000000        0.0000000000000000     
  0.46875000000000000       0.65625000000000000        0.0000000000000000     
  0.50000000000000000       0.65625000000000000        0.0000000000000000     
  0.37500000000000000       0.68750000000000000        0.0000000000000000     
  0.40625000000000000       0.68750000000000000        0.0000000000000000     
  0.43750000000000000       0.68750000000000000        0.0000000000000000     
  0.46875000000000000       0.68750000000000000        0.0000000000000000     
  0.50000000000000000       0.68750000000000000        0.0000000000000000     
  0.37500000000000000       0.71875000000000000        0.0000000000000000     
  0.40625000000000000       0.71875000000000000        0.0000000000000000     
  0.43750000000000000       0.71875000000000000        0.0000000000000000     
  0.46875000000000000       0.71875000000000000        0.0000000000000000     
  0.50000000000000000       0.71875000000000000        0.0000000000000000     
  0.37500000000000000       0.75000000000000000        0.0000000000000000     
  0.40625000000000000       0.75000000000000000        0.0000000000000000     
  0.43750000000000000       0.75000000000000000        0.0000000000000000     
  0.46875000000000000       0.75000000000000000        0.0000000000000000     
  0.50000000000000000       0.75000000000000000        0.0000000000000000     
  0.50000000000000000       0.62500000000000000        0.0000000000000000     
  0.53125000000000000       0.62500000000000000        0.0000000000000000     
  0.56250000000000000       0.62500000000000000        0.0000000000000000     
  0.59375000000000000       0.62500000000000000        0.0000000000000000     
  0.62500000000000000       0.62500000000000000        0.0000000000000000     
  0.50000000000000000       0.65625000000000000        0.0000000000000000     
  0.53125000000000000       0.65625000000000000        0.0000000000000000     
  0.56250000000000000       0.65625000000000000        0.0000000000000000     
  0.59375000000000000       0.65625000000000000        0.0000000000000000     
  0.62500000000000000       0.65625000000000000        0.0000000000000000     
  0.50000000000000000       0.68750000000000000        0.0000000000000000     
  0.53125000000000000       0.68750000000000000        0.0000000000000000     
  0.56250000000000000       0.68750000000000000        0.0000000000000000     
  0.59375000000000000       0.68750000000000000        0.0000000000000000     
  0.62500000000000000       0.68750000000000000        0.0000000000000000     
  0.50000000000000000       0.71875000000000000        0.0000000000000000     
  0.53125000000000000       0.71875000000000000        0.0000000000000000     
  0.56250000000000000       0.71875000000000000        0.0000000000000000     
  0.59375000000000000       0.71875000000000000        0.0000000000000000     
  0.62500000000000000       0.71875000000000000        0.0000000000000000     
  0.50000000000000000       0.75000000000000000        0.0000000000000000     
  0.53125000000000000       0.75000000000000000        0.0000000000000000     
  0.56250000000000000       0.75000000000000000        0.0000000000000000     
  0.59375000000000000       0.75000000000000000        0.0000000000000000     
  0.62500000000000000       0.75000000000000000        0.0000000000000000     
  0.62500000000000000       0.62500000000000000        0.0000000000000000     
  0.65625000000000000       0.62500000000000000        0.0000000000000000     
  0.68750000000000000       0.62500000000000000        0.0000000000000000     
  0.71875000000000000       0.62500000000000000        0.0000000000000000     
  0.75000000000000000       0.62500000000000000        0.0000000000000000     
  0.62500000000000000       0.65625000000000000        0.0000000000000000     
  0.65625000000000000       0.65625000000000000        0.0000000000000000     
  0.68750000000000000       0.65625000000000000        0.0000000000000000     
  0.71875000000000000       0.65625000000000000        0.0000000000000000     
  0.75000000000000000       0.65625000000000000        0.0000000000000000     
  0.62500000000000000       0.68750000000000000        0.0000000000000000     
  0.65625000000000000       0.68750000000000000        0.0000000000000000     
  0.68750000000000000       0.68750000000000000        0.0000000000000000     
  0.71875000000000000       0.68750000000000000        0.0000000000000000     
  0.75000000000000000       0.68750000000000000        0.0000000000000000     
  0.62500000000000000       0.71875000000000000        0.0000000000000000     
  0.65625000000000000       0.71875000000000000        0.0000000000000000     
  0.68750000000000000       0.71875000000000000        0.0000000000000000     
  0.71875000000000000       0.71875000000000000        0.0000000000000000     
  0.75000000000000000       0.71875000000000000        0.0000000000000000     
  0.62500000000000000       0.75000000000000000        0.0000000000000000     
  0.65625000000000000       0.75000000000000000        0.0000000000000000     
  0.68750000000000000       0.75000000000000000        0.0000000000000000     
  0.71875000000000000       0.75000000000000000        0.0000000000000000     
  0.75000000000000000       0.75000000000000000        0.0000000000000000     
  0.75000000000000000       0.62500000000000000        0.0000000000000000     
  0.78125000000000000       0.62500000000000000        0.0000000000000000     
  0.81250000000000000       0.62500000000000000        0.0000000000000000     
  0.84375000000000000       0.62500000000000000        0.0000000000000000     
  0.87500000000000000       0.62500000000000000        0.0000000000000000     
  0.75000000000000000       0.65625000000000000        0.0000000000000000     
  0.78125000000000000       0.65625000000000000        0.0000000000000000     
  0.81250000000000000       0.65625000000000000        0.0000000000000000     
  0.84375000000000000       0.65625000000000000        0.0000000000000000     
  0.87500000000000000       0.65625000000000000        0.0000000000000000     
  0.75000000000000000       0.68750000000000000        0.0000000000000000     
  0.78125000000000000       0.68750000000000000        0.0000000000000000     
  0.81250000000000000       0.68750000000000000        0.0000000000000000     
  0.84375000000000000       0.68750000000000000        0.0000000000000000     
  0.87500000000000000       0.68750000000000000        0.0000000000000000     
  0.75000000000000000       0.71875000000000000        0.0000000000000000     
  0.78125000000000000       0.71875000000000000        0.0000000000000000     
  0.81250000000000000       0.71875000000000000        0.0000000000000000     
  0.84375000000000000       0.71875000000000000        0.0000000000000000     
  0.87500000000000000       0.71875000000000000        0.0000000000000000     
  0.75000000000000000       0.75000000000000000        0.0000000000000000     
  0.78125000000000000       0.75000000000000000        0.0000000000000000     
  0.81250000000000000       0.75000000000000000        0.0000000000000000     
  0.84375000000000000       0.75000000000000000        0.0000000000000000     
  0.87500000000000000       0.75000000000000000        0.0000000000000000     
  0.87500000000000000       0.62500000000000000        0.0000000000000000     
  0.90625000000000000       0.62500000000000000        0.0000000000000000     
  0.93750000000000000       0.62500000000000000        0.0000000000000000     
  0.96875000000000000       0.62500000000000000        0.0000000000000000     
   1.0000000000000000       0.62500000000000000        0.0000000000000000     
  0.87500000000000000       0.65625000000000000        0.0000000000000000     
  0.90625000000000000       0.65625000000000000        0.0000000000000000     
  0.93750000000000000       0.65625000000000000        0.0000000000000000     
  0.96875000000000000       0.65625000000000000        0.0000000000000000     
   1.0000000000000000       0.65625000000000000        0.0000000000000000     
  0.87500000000000000       0.68750000000000000        0.0000000000000000     
  0.90625000000000000       0.68750000000000000        0.0000000000000000     
  0.93750000000000000       0.68750000000000000        0.0000000000000000     
  0.96875000000000000       0.68750000000000000        0.0000000000000000     
   1.0000000000000000       0.68750000000000000        0.0000000000000000     
  0.87500000000000000       0.71875000000000000        0.0000000000000000     
  0.90625000000000000       0.71875000000000000        0.0000000000000000     
  0.93750000000000000       0.71875000000000000        0.0000000000000000     
  0.96875000000000000       0.71875000000000000        0.0000000000000000     
   1.0000000000000000       0.71875000000000000        0.0000000000000000     
  0.87500000000000000       0.75000000000000000        0.0000000000000000     
  0.90625000000000000       0.75000000000000000        0.0000000000000000     
  0.93750000000000000       0.75000000000000000        0.0000000000000000     
  0.96875000000000000       0.75000000000000000        0.0000000000000000     
   1.0000000000000000       0.75000000000000000        0.0000000000000000     
   0.0000000000000000       0.75000000000000000        0.0000000000000000     
   3.1250000000000000E-002  0.75000000000000000        0.0000000000000000     
   6.2500000000000000E-002  0.75000000000000000        0.0000000000000000     
   9.3750000000000000E-002  0.75000000000000000        0.0000000000000000     
  0.12500000000000000       0.75000000000000000        0.0000000000000000     
   0.0000000000000000       0.78125000000000000        0.0000000000000000     
   3.1250000000000000E-002  0.78125000000000000        0.0000000000000000     
   6.2500000000000000E-002  0.78125000000000000        0.0000000000000000     
   9.3750000000000000E-002  0.78125000000000000        0.0000000000000000     
  0.12500000000000000       0.78125000000000000        0.0000000000000000     
   0.0000000000000000       0.81250000000000000        0.0000000000000000     
   3.1250000000000000E-002  0.81250000000000000        0.0000000000000000     
   6.2500000000000000E-002  0.81250000000000000        0.0000000000000000     
   9.3750000000000000E-002  0.81250000000000000        0.0000000000000000     
  0.12500000000000000       0.81250000000000000        0.0000000000000000     
   0.0000000000000000       0.84375000000000000        0.0000000000000000     
   3.1250000000000000E-002  0.84375000000000000        0.0000000000000000     
   6.2500000000000000E-002  0.84375000000000000        0.0000000000000000     
   9.3750000000000000E-002  0.84375000000000000        0.0000000000000000     
  0.12500000000000000       0.84375000000000000        0.0000000000000000     
   0.0000000000000000       0.87500000000000000        0.0000000000000000     
   3.1250000000000000E-002  0.87500000000000000        0.0000000000000000     
   6.2500000000000000E-002  0.87500000000000000        0.0000000000000000     
   9.3750000000000000E-002  0.87500000000000000        0.0000000000000000     
  0.12500000000000000       0.87500000000000000        0.0000000000000000     
  0.12500000000000000       0.75000000000000000        0.0000000000000000     
  0.15625000000000000       0.75000000000000000        0.0000000000000000     
  0.18750000000000000       0.75000000000000000        0.0000000000000000     
  0.21875000000000000       0.75000000000000000        0.0000000000000000     
  0.25000000000000000       0.75000000000000000        0.0000000000000000     
  0.12500000000000000       0.78125000000000000        0.0000000000000000     
  0.15625000000000000       0.78125000000000000        0.0000000000000000     
  0.18750000000000000       0.78125000000000000        0.0000000000000000     
  0.21875000000000000       0.78125000000000000        0.0000000000000000     
  0.25000000000000000       0.78125000000000000        0.0000000000000000     
  0.12500000000000000       0.81250000000000000        0.0000000000000000     
  0.15625000000000000       0.81250000000000000        0.0000000000000000     
  0.18750000000000000       0.81250000000000000        0.0000000000000000     
  0.21875000000000000       0.81250000000000000        0.0000000000000000     
  0.25000000000000000       0.81250000000000000        0.0000000000000000     
  0.12500000000000000       0.84375000000000000        0.0000000000000000     
  0.15625000000000000       0.84375000000000000        0.0000000000000000     
  0.18750000000000000       0.84375000000000000        0.0000000000000000     
  0.21875000000000000       0.84375000000000000        0.0000000000000000     
  0.25000000000000000       0.84375000000000000        0.0000000000000000     
  0.12500000000000000       0.87500000000000000        0.0000000000000000     
  0.15625000000000000       0.87500000000000000        0.0000000000000000     
  0.18750000000000000       0.87500000000000000        0.0000000000000000     
  0.21875000000000000       0.87500000000000000        0.0000000000000000     
  0.25000000000000000       0.87500000000000000        0.0000000000000000     
  0.25000000000000000       0.75000000000000000        0.0000000000000000     
  0.28125000000000000       0.75000000000000000        0.0000000000000000     
  0.31250000000000000       0.75000000000000000        0.0000000000000000     
  0.34375000000000000       0.75000000000000000        0.0000000000000000     
  0.37500000000000000       0.75000000000000000        0.0000000000000000     
  0.25000000000000000       0.78125000000000000        0.0000000000000000     
  0.28125000000000000       0.78125000000000000        0.0000000000000000     
  0.31250000000000000       0.78125000000000000        0.0000000000000000     
  0.34375000000000000       0.78125000000000000        0.0000000000000000     
  0.37500000000000000       0.78125000000000000        0.0000000000000000     
  0.25000000000000000       0.81250000000000000        0.0000000000000000     
  0.28125000000000000       0.81250000000000000        0.0000000000000000     
  0.31250000000000000       0.81250000000000000        0.0000000000000000     
  0.34375000000000000       0.81250000000000000        0.0000000000000000     
  0.37500000000000000       0.81250000000000000        0.0000000000000000     
  0.25000000000000000       0.84375000000000000        0.0000000000000000     
  0.28125000000000000       0.84375000000000000        0.0000000000000000     
  0.31250000000000000       0.84375000000000000        0.0000000000000000     
  0.34375000000000000       0.84375000000000000        0.0000000000000000     
  0.37500000000000000       0.84375000000000000        0.0000000000000000     
  0.25000000000000000       0.87500000000000000        0.0000000000000000     
  0.28125000000000000       0.87500000000000000        0.0000000000000000     
  0.31250000000000000       0.87500000000000000        0.0000000000000000     
  0.34375000000000000       0.87500000000000000        0.0000000000000000     
  0.37500000000000000       0.87500000000000000        0.0000000000000000     
  0.37500000000000000       0.75000000000000000        0.0000000000000000     
  0.40625000000000000       0.75000000000000000        0.0000000000000000     
  0.43750000000000000       0.75000000000000000        0.0000000000000000     
  0.46875000000000000       0.75000000000000000        0.0000000000000000     
  0.50000000000000000       0.75000000000000000        0.0000000000000000     
  0.37500000000000000       0.78125000000000000        0.0000000000000000     
  0.40625000000000000       0.78125000000000000        0.0000000000000000     
  0.43750000000000000       0.78125000000000000        0.0000000000000000     
  0.46875000000000000       0.78125000000000000        0.0000000000000000     
  0.50000000000000000       0.78125000000000000        0.0000000000000000     
  0.37500000000000000       0.81250000000000000        0.0000000000000000     
  0.40625000000000000       0.81250000000000000        0.0000000000000000     
  0.43750000000000000       0.81250000000000000        0.0000000000000000     
  0.46875000000000000       0.81250000000000000        0.0000000000000000     
  0.50000000000000000       0.81250000000000000        0.0000000000000000     
  0.37500000000000000       0.84375000000000000        0.0000000000000000     
  0.40625000000000000       0.84375000000000000        0.0000000000000000     
  0.43750000000000000       0.84375000000000000        0.0000000000000000     
  0.46875000000000000       0.84375000000000000        0.0000000000000000     
  0.50000000000000000       0.84375000000000000        0.0000000000000000     
  0.37500000000000000       0.87500000000000000        0.0000000000000000     
  0.40625000000000000       0.87500000000000000        0.0000000000000000     
  0.43750000000000000       0.87500000000000000        0.0000000000000000     
  0.46875000000000000       0.87500000000000000        0.0000000000000000     
  0.50000000000000000       0.87500000000000000        0.0000000000000000     
  0.50000000000000000       0.75000000000000000        0.0000000000000000     
  0.53125000000000000       0.75000000000000000        0.0000000000000000     
  0.56250000000000000       0.75000000000000000        0.0000000000000000     
  0.59375000000000000       0.75000000000000000        0.0000000000000000     
  0.62500000000000000       0.75000000000000000        0.0000000000000000     
  0.50000000000000000       0.78125000000000000        0.0000000000000000     
  0.53125000000000000       0.78125000000000000        0.0000000000000000     
  0.56250000000000000       0.78125000000000000        0.0000000000000000     
  0.59375000000000000       0.78125000000000000        0.0000000000000000     
  0.62500000000000000       0.78125000000000000        0.0000000000000000     
  0.50000000000000000       0.81250000000000000        0.0000000000000000     
  0.53125000000000000       0.81250000000000000        0.0000000000000000     
  0.56250000000000000       0.81250000000000000        0.0000000000000000     
  0.59375000000000000       0.81250000000000000        0.0000000000000000     
  0.62500000000000000       0.81250000000000000        0.0000000000000000     
  0.50000000000000000       0.84375000000000000        0.0000000000000000     
  0.53125000000000000       0.84375000000000000        0.0000000000000000     
  0.56250000000000000       0.84375000000000000        0.0000000000000000     
  0.59375000000000000       0.84375000000000000        0.0000000000000000     
  0.62500000000000000       0.84375000000000000        0.0000000000000000     
  0.50000000000000000       0.87500000000000000        0.0000000000000000     
  0.53125000000000000       0.87500000000000000        0.0000000000000000     
  0.56250000000000000       0.87500000000000000        0.0000000000000000     
  0.59375000000000000       0.87500000000000000        0.0000000000000000     
  0.62500000000000000       0.87500000000000000        0.0000000000000000     
  0.62500000000000000       0.75000000000000000        0.0000000000000000     
  0.65625000000000000       0.75000000000000000        0.0000000000000000     
  0.68750000000000000       0.75000000000000000        0.0000000000000000     
  0.71875000000000000       0.75000000000000000        0.0000000000000000     
  0.75000000000000000       0.75000000000000000        0.0000000000000000     
  0.62500000000000000       0.78125000000000000        0.0000000000000000     
  0.65625000000000000       0.78125000000000000        0.0000000000000000     
  0.68750000000000000       0.78125000000000000        0.0000000000000000     
  0.71875000000000000       0.78125000000000000        0.0000000000000000     
  0.75000000000000000       0.78125000000000000        0.0000000000000000     
  0.62500000000000000       0.81250000000000000        0.0000000000000000     
  0.65625000000000000       0.81250000000000000        0.0000000000000000     
  0.68750000000000000       0.81250000000000000        0.0000000000000000     
  0.71875000000000000       0.81250000000000000        0.0000000000000000     
  0.75000000000000000       0.81250000000000000        0.0000000000000000     
  0.62500000000000000       0.84375000000000000        0.0000000000000000     
  0.65625000000000000       0.84375000000000000        0.0000000000000000     
  0.68750000000000000       0.84375000000000000        0.0000000000000000     
  0.71875000000000000       0.84375000000000000        0.0000000000000000     
  0.75000000000000000       0.84375000000000000        0.0000000000000000     
  0.62500000000000000       0.87500000000000000        0.0000000000000000     
  0.65625000000000000       0.87500000000000000        0.0000000000000000     
  0.68750000000000000       0.87500000000000000        0.0000000000000000     
  0.71875000000000000       0.87500000000000000        0.0000000000000000     
  0.75000000000000000       0.87500000000000000        0.0000000000000000     
  0.75000000000000000       0.75000000000000000        0.0000000000000000     
  0.78125000000000000       0.75000000000000000        0.0000000000000000     
  0.81250000000000000       0.75000000000000000        0.0000000000000000     
  0.84375000000000000       0.75000000000000000        0.0000000000000000     
  0.87500000000000000       0.75000000000000000        0.0000000000000000     
  0.75000000000000000       0.78125000000000000        0.0000000000000000     
  0.78125000000000000       0.78125000000000000        0.0000000000000000     
  0.81250000000000000       0.78125000000000000        0.0000000000000000     
  0.84375000000000000       0.78125000000000000        0.0000000000000000     
  0.87500000000000000       0.78125000000000000        0.0000000000000000     
  0.75000000000000000       0.81250000000000000        0.0000000000000000     
  0.78125000000000000       0.81250000000000000        0.0000000000000000     
  0.81250000000000000       0.81250000000000000        0.0000000000000000     
  0.84375000000000000       0.81250000000000000        0.0000000000000000     
  0.87500000000000000       0.81250000000000000        0.0000000000000000     
  0.75000000000000000       0.84375000000000000        0.0000000000000000     
  0.78125000000000000       0.84375000000000000        0.0000000000000000     
  0.81250000000000000       0.84375000000000000        0.0000000000000000     
  0.84375000000000000       0.84375000000000000        0.0000000000000000     
  0.87500000000000000       0.84375000000000000        0.0000000000000000     
  0.75000000000000000       0.87500000000000000        0.0000000000000000     
  0.78125000000000000       0.87500000000000000        0.0000000000000000     
  0.81250000000000000       0.87500000000000000        0.0000000000000000     
  0.84375000000000000       0.87500000000000000        0.0000000000000000     
  0.87500000000000000       0.87500000000000000        0.0000000000000000     
  0.87500000000000000       0.75000000000000000        0.0000000000000000     
  0.90625000000000000       0.75000000000000000        0.0000000000000000     
  0.93750000000000000       0.75000000000000000        0.0000000000000000     
  0.96875000000000000       0.75000000000000000        0.0000000000000000     
   1.0000000000000000       0.75000000000000000        0.0000000000000000     
  0.87500000000000000       0.78125000000000000        0.0000000000000000     
  0.90625000000000000       0.78125000000000000        0.0000000000000000     
  0.93750000000000000       0.78125000000000000        0.0000000000000000     
  0.96875000000000000       0.78125000000000000        0.0000000000000000     
   1.0000000000000000       0.78125000000000000        0.0000000000000000     
  0.87500000000000000       0.81250000000000000        0.0000000000000000     
  0.90625000000000000       0.81250000000000000        0.0000000000000000     
  0.93750000000000000       0.81250000000000000        0.0000000000000000     
  0.96875000000000000       0.81250000000000000        0.0000000000000000     
   1.0000000000000000       0.81250000000000000        0.0000000000000000     
  0.87500000000000000       0.84375000000000000        0.0000000000000000     
  0.90625000000000000       0.84375000000000000        0.0000000000000000     
  0.93750000000000000       0.84375000000000000        0.0000000000000000     
  0.96875000000000000       0.84375000000000000        0.0000000000000000     
   1.0000000000000000       0.84375000000000000        0.0000000000000000     
  0.87500000000000000       0.87500000000000000        0.0000000000000000     
  0.90625000000000000       0.87500000000000000        0.0000000000000000     
  0.93750000000000000       0.87500000000000000        0.0000000000000000     
  0.96875000000000000       0.87500000000000000        0.0000000000000000     
   1.0000000000000000       0.87500000000000000        0.0000000000000000     
   0.0000000000000000       0.87500000000000000        0.0000000000000000     
   3.1250000000000000E-002  0.87500000000000000        0.0000000000000000     
   6.2500000000000000E-002  0.87500000000000000        0.0000000000000000     
   9.3750000000000000E-002  0.87500000000000000        0.0000000000000000     
  0.12500000000000000       0.87500000000000000        0.0000000000000000     
   0.0000000000000000       0.90625000000000000        0.0000000000000000     
   3.1250000000000000E-002  0.90625000000000000        0.0000000000000000     
   6.2500000000000000E-002  0.90625000000000000        0.0000000000000000     
   9.3750000000000000E-002  0.90625000000000000        0.0000000000000000     
  0.12500000000000000       0.90625000000000000        0.0000000000000000     
   0.0000000000000000       0.93750000000000000        0.0000000000000000     
   3.1250000000000000E-002  0.93750000000000000        0.0000000000000000     
   6.2500000000000000E-002  0.93750000000000000        0.0000000000000000     
   9.3750000000000000E-002  0.93750000000000000        0.0000000000000000     
  0.12500000000000000       0.93750000000000000        0.0000000000000000     
   0.0000000000000000       0.96875000000000000        0.0000000000000000     
   3.1250000000000000E-002  0.96875000000000000        0.0000000000000000     
   6.2500000000000000E-002  0.96875000000000000        0.0000000000000000     
   9.3750000000000000E-002  0.96875000000000000        0.0000000000000000     
  0.12500000000000000       0.96875000000000000        0.0000000000000000     
   0.0000000000000000        1.0000000000000000        0.0000000000000000     
   3.1250000000000000E-002   1.0000000000000000        0.0000000000000000     
   6.2500000000000000E-002   1.0000000000000000        0.0000000000000000     
   9.3750000000000000E-002   1.0000000000000000        0.0000000000000000     
  0.12500000000000000        1.0000000000000000        0.0000000000000000     
  0.12500000000000000       0.87500000000000000        0.0000000000000000     
  0.15625000000000000       0.87500000000000000        0.0000000000000000     
  0.18750000000000000       0.87500000000000000        0.0000000000000000     
  0.21875000000000000       0.87500000000000000        0.0000000000000000     
  0.25000000000000000       0.87500000000000000        0.0000000000000000     
  0.12500000000000000       0.90625000000000000        0.0000000000000000     
  0.15625000000000000       0.90625000000000000        0.0000000000000000     
  0.18750000000000000       0.90625000000000000        0.0000000000000000     
  0.21875000000000000       0.90625000000000000        0.0000000000000000     
  0.25000000000000000       0.90625000000000000        0.0000000000000000     
  0.12500000000000000       0.93750000000000000        0.0000000000000000     
  0.15625000000000000       0.93750000000000000        0.0000000000000000     
  0.18750000000000000       0.93750000000000000        0.0000000000000000     
  0.21875000000000000       0.93750000000000000        0.0000000000000000     
  0.25000000000000000       0.93750000000000000        0.0000000000000000     
  0.12500000000000000       0.96875000000000000        0.0000000000000000     
  0.15625000000000000       0.96875000000000000        0.0000000000000000     
  0.18750000000000000       0.96875000000000000        0.0000000000000000     
  0.21875000000000000       0.96875000000000000        0.0000000000000000     
  0.25000000000000000       0.96875000000000000        0.0000000000000000     
  0.12500000000000000        1.0000000000000000        0.0000000000000000     
  0.15625000000000000        1.0000000000000000        0.0000000000000000     
  0.18750000000000000        1.0000000000000000        0.0000000000000000     
  0.21875000000000000        1.0000000000000000        0.0000000000000000     
  0.25000000000000000        1.0000000000000000        0.0000000000000000     
  0.25000000000000000       0.87500000000000000        0.0000000000000000     
  0.28125000000000000       0.87500000000000000        0.0000000000000000     
  0.31250000000000000       0.87500000000000000        0.0000000000000000     
  0.34375000000000000       0.87500000000000000        0.0000000000000000     
  0.37500000000000000       0.87500000000000000        0.0000000000000000     
  0.25000000000000000       0.90625000000000000        0.0000000000000000     
  0.28125000000000000       0.90625000000000000        0.0000000000000000     
  0.31250000000000000       0.90625000000000000        0.0000000000000000     
  0.34375000000000000       0.90625000000000000        0.0000000000000000     
  0.37500000000000000       0.90625000000000000        0.0000000000000000     
  0.25000000000000000       0.93750000000000000        0.0000000000000000     
  0.28125000000000000       0.93750000000000000        0.0000000000000000     
  0.31250000000000000       0.93750000000000000        0.0000000000000000     
  0.34375000000000000       0.93750000000000000        0.0000000000000000     
  0.37500000000000000       0.93750000000000000        0.0000000000000000     
  0.25000000000000000       0.96875000000000000        0.0000000000000000     
  0.28125000000000000       0.96875000000000000        0.0000000000000000     
  0.31250000000000000       0.96875000000000000        0.0000000000000000     
  0.34375000000000000       0.96875000000000000        0.0000000000000000     
  0.37500000000000000       0.96875000000000000        0.0000000000000000     
  0.25000000000000000        1.0000000000000000        0.0000000000000000     
  0.28125000000000000        1.0000000000000000        0.0000000000000000     
  0.31250000000000000        1.0000000000000000        0.0000000000000000     
  0.34375000000000000        1.0000000000000000        0.0000000000000000     
  0.37500000000000000        1.0000000000000000        0.0000000000000000     
  0.37500000000000000       0.87500000000000000        0.0000000000000000     
  0.40625000000000000       0.87500000000000000        0.0000000000000000     
  0.43750000000000000       0.87500000000000000        0.0000000000000000     
  0.46875000000000000       0.87500000000000000        0.0000000000000000     
  0.50000000000000000       0.87500000000000000        0.0000000000000000     
  0.37500000000000000       0.90625000000000000        0.0000000000000000     
  0.40625000000000000       0.90625000000000000        0.0000000000000000     
  0.43750000000000000       0.90625000000000000        0.0000000000000000     
  0.46875000000000000       0.90625000000000000        0.0000000000000000     
  0.50000000000000000       0.90625000000000000        0.0000000000000000     
  0.37500000000000000       0.93750000000000000        0.0000000000000000     
  0.40625000000000000       0.93750000000000000        0.0000000000000000     
  0.43750000000000000       0.93750000000000000        0.0000000000000000     
  0.46875000000000000       0.93750000000000000        0.0000000000000000     
  0.50000000000000000       0.93750000000000000        0.0000000000000000     
  0.37500000000000000       0.96875000000000000        0.0000000000000000     
  0.40625000000000000       0.96875000000000000        0.0000000000000000     
  0.43750000000000000       0.96875000000000000        0.0000000000000000     
  0.46875000000000000       0.96875000000000000        0.0000000000000000     
  0.50000000000000000       0.96875000000000000        0.0000000000000000     
  0.37500000000000000        1.0000000000000000        0.0000000000000000     
  0.40625000000000000        1.0000000000000000        0.0000000000000000     
  0.43750000000000000        1.0000000000000000        0.0000000000000000     
  0.46875000000000000        1.0000000000000000        0.0000000000000000     
  0.50000000000000000        1.0000000000000000        0.0000000000000000     
  0.50000000000000000       0.87500000000000000        0.0000000000000000     
  0.53125000000000000       0.87500000000000000        0.0000000000000000     
  0.56250000000000000       0.87500000000000000        0.0000000000000000     
  0.59375000000000000       0.87500000000000000        0.0000000000000000     
  0.62500000000000000       0.87500000000000000        0.0000000000000000     
  0.50000000000000000       0.90625000000000000        0.0000000000000000     
  0.53125000000000000       0.90625000000000000        0.0000000000000000     
  0.56250000000000000       0.90625000000000000        0.0000000000000000     
  0.59375000000000000       0.90625000000000000        0.0000000000000000     
  0.62500000000000000       0.90625000000000000        0.0000000000000000     
  0.50000000000000000       0.93750000000000000        0.0000000000000000     
  0.53125000000000000       0.93750000000000000        0.0000000000000000     
  0.56250000000000000       0.93750000000000000        0.0000000000000000     
  0.59375000000000000       0.93750000000000000        0.0000000000000000     
  0.62500000000000000       0.93750000000000000        0.0000000000000000     
  0.50000000000000000       0.96875000000000000        0.0000000000000000     
  0.53125000000000000       0.96875000000000000        0.0000000000000000     
  0.56250000000000000       0.96875000000000000        0.0000000000000000     
  0.59375000000000000       0.96875000000000000        0.0000000000000000     
  0.62500000000000000       0.96875000000000000        0.0000000000000000     
  0.50000000000000000        1.0000000000000000        0.0000000000000000     
  0.53125000000000000        1.0000000000000000        0.0000000000000000     
  0.56250000000000000        1.0000000000000000        0.0000000000000000     
  0.59375000000000000        1.0000000000000000        0.0000000000000000     
  0.62500000000000000        1.0000000000000000        0.0000000000000000     
  0.62500000000000000       0.87500000000000000        0.0000000000000000     
  0.65625000000000000       0.87500000000000000        0.0000000000000000     
  0.68750000000000000       0.87500000000000000        0.0000000000000000     
  0.71875000000000000       0.87500000000000000        0.0000000000000000     
  0.75000000000000000       0.87500000000000000        0.0000000000000000     
  0.62500000000000000       0.90625000000000000        0.0000000000000000     
  0.65625000000000000       0.90625000000000000        0.0000000000000000     
  0.68750000000000000       0.90625000000000000        0.0000000000000000     
  0.71875000000000000       0.90625000000000000        0.0000000000000000     
  0.75000000000000000       0.90625000000000000        0.0000000000000000     
  0.62500000000000000       0.93750000000000000        0.0000000000000000     
  0.65625000000000000       0.93750000000000000        0.0000000000000000     
  0.68750000000000000       0.93750000000000000        0.0000000000000000     
  0.71875000000000000       0.93750000000000000        0.0000000000000000     
  0.75000000000000000       0.93750000000000000        0.0000000000000000     
  0.62500000000000000       0.96875000000000000        0.0000000000000000     
  0.65625000000000000       0.96875000000000000        0.0000000000000000     
  0.68750000000000000       0.96875000000000000        0.0000000000000000     
  0.71875000000000000       0.96875000000000000        0.0000000000000000     
  0.75000000000000000       0.96875000000000000        0.0000000000000000     
  0.62500000000000000        1.0000000000000000        0.0000000000000000     
  0.65625000000000000        1.0000000000000000        0.0000000000000000     
  0.68750000000000000        1.0000000000000000        0.0000000000000000     
  0.71875000000000000        1.0000000000000000        0.0000000000000000     
  0.75000000000000000        1.0000000000000000        0.0000000000000000     
  0.75000000000000000       0.87500000000000000        0.0000000000000000     
  0.78125000000000000       0.87500000000000000        0.0000000000000000     
  0.81250000000000000       0.87500000000000000        0.0000000000000000     
  0.84375000000000000       0.87500000000000000        0.0000000000000000     
  0.87500000000000000       0.87500000000000000        0.0000000000000000     
  0.75000000000000000       0.90625000000000000        0.0000000000000000     
  0.78125000000000000       0.90625000000000000        0.0000000000000000     
  0.81250000000000000       0.90625000000000000        0.0000000000000000     
  0.84375000000000000       0.90625000000000000        0.0000000000000000     
  0.87500000000000000       0.90625000000000000        0.0000000000000000     
  0.75000000000000000       0.93750000000000000        0.0000000000000000     
  0.78125000000000000       0.93750000000000000        0.0000000000000000     
  0.81250000000000000       0.93750000000000000        0.0000000000000000     
  0.84375000000000000       0.93750000000000000        0.0000000000000000     
  0.87500000000000000       0.93750000000000000        0.0000000000000000     
  0.75000000000000000       0.96875000000000000        0.0000000000000000     
  0.78125000000000000       0.96875000000000000        0.0000000000000000     
  0.81250000000000000       0.96875000000000000        0.0000000000000000     
  0.84375000000000000       0.96875000000000000        0.0000000000000000     
  0.87500000000000000       0.96875000000000000        0.0000000000000000     
  0.75000000000000000        1.0000000000000000        0.0000000000000000     
  0.78125000000000000        1.0000000000000000        0.0000000000000000     
  0.81250000000000000        1.0000000000000000        0.0000000000000000     
  0.84375000000000000        1.0000000000000000        0.0000000000000000     
  0.87500000000000000        1.0000000000000000        0.0000000000000000     
  0.87500000000000000       0.87500000000000000        0.0000000000000000     
  0.90625000000000000       0.87500000000000000        0.0000000000000000     
  0.93750000000000000       0.87500000000000000        0.0000000000000000     
  0.96875000000000000       0.87500000000000000        0.0000000000000000     
   1.0000000000000000       0.87500000000000000        0.0000000000000000     
  0.87500000000000000       0.90625000000000000        0.0000000000000000     
  0.90625000000000000       0.90625000000000000        0.0000000000000000     
  0.93750000000000000       0.90625000000000000        0.0000000000000000     
  0.96875000000000000       0.90625000000000000        0.0000000000000000     
   1.0000000000000000       0.90625000000000000        0.0000000000000000     
  0.87500000000000000       0.93750000000000000        0.0000000000000000     
  0.90625000000000000       0.93750000000000000        0.0000000000000000     
  0.93750000000000000       0.93750000000000000        0.0000000000000000     
  0.96875000000000000       0.93750000000000000        0.0000000000000000     
   1.0000000000000000       0.93750000000000000        0.0000000000000000     
  0.87500000000000000       0.96875000000000000        0.0000000000000000     
  0.90625000000000000       0.96875000000000000        0.0000000000000000     
  0.93750000000000000       0.96875000000000000        0.0000000000000000     
  0.96875000000000000       0.96875000000000000        0.0000000000000000     
   1.0000000000000000       0.96875000000000000        0.0000000000000000     
  0.87500000000000000        1.0000000000000000        0.0000000000000000     
  0.90625000000000000        1.0000000000000000        0.0000000000000000     
  0.93750000000000000        1.0000000000000000        0.0000000000000000     
  0.96875000000000000        1.0000000000000000        0.0000000000000000     
   1.0000000000000000        1.0000000000000000        0.0000000000000000     
 </DataArray>
 </Points>
 <Cells>
 <DataArray  type="Int32"  Name="connectivity"  format="ascii">
           0           1           6           5
           1           2           7           6
           2           3           8           7
           3           4           9           8
           5           6          11          10
           6           7          12          11
           7           8          13          12
           8           9          14          13
          10          11          16          15
          11          12          17          16
          12          13          18          17
          13          14          19          18
          15          16          21          20
          16          17          22          21
          17          18          23          22
          18          19          24          23
          25          26          31          30
          26          27          32          31
          27          28          33          32
          28          29          34          33
          30          31          36          35
          31          32          37          36
          32          33          38          37
          33          34          39          38
          35          36          41          40
          36          37          42          41
          37          38          43          42
          38          39          44          43
          40          41          46          45
          41          42          47          46
          42          43          48          47
          43          44          49          48
          50          51          56          55
          51          52          57          56
          52          53          58          57
          53          54          59          58
          55          56          61          60
          56          57          62          61
          57          58          63          62
          58          59          64          63
          60          61          66          65
          61          62          67          66
          62          63          68          67
          63          64          69          68
          65          66          71          70
          66          67          72          71
          67          68          73          72
          68          69          74          73
          75          76          81          80
          76          77          82          81
          77          78          83          82
          78          79          84          83
          80          81          86          85
          81          82          87          86
          82          83          88          87
          83          84          89          88
          85          86          91          90
          86          87          92          91
          87          88          93          92
          88          89          94          93
          90          91          96          95
          91          92          97          96
          92          93          98          97
          93          94          99          98
         100         101         106         105
         101         102         107         106
         102         103         108         107
         103         104         109         108
         105         106         111         110
         106         107         112         111
         107         108         113         112
         108         109         114         113
         110         111         116         115
         111         112         117         116
         112         113         118         117
         113         114         119         118
         115         116         121         120
         116         117         122         121
         117         118         123         122
         118         119         124         123
         125         126         131         130
         126         127         132         131
         127         128         133         132
         128         129         134         133
         130         131         136         135
         131         132         137         136
         132         133         138         137
         133         134         139         138
         135         136         141         140
         136         137         142         141
         137         138         143         142
         138         139         144         143
         140         141         146         145
         141         142         147         146
         142         143         148         147
         143         144         149         148
         150         151         156         155
         151         152         157         156
         152         153         158         157
         153         154         159         158
         155         156         161         160
         156         157         162         161
         157         158         163         162
         158         159         164         163
         160         161         166         165
         161         162         167         166
         162         163         168         167
         163         164         169         168
         165         166         171         170
         166         167         172         171
         167         168         173         172
         168         169         174         173
         175         176         181         180
         176         177         182         181
         177         178         183         182
         178         179         184         183
         180         181         186         185
         181         182         187         186
         182         183         188         187
         183         184         189         188
         185         186         191         190
         186         187         192         191
         187         188         193         192
         188         189         194         193
         190         191         196         195
         191         192         197         196
         192         193         198         197
         193         194         199         198
         200         201         206         205
         201         202         207         206
         202         203         208         207
         203         204         209         208
         205         206         211         210
         206         207         212         211
         207         208         213         212
         208         209         214         213
         210         211         216         215
         211         212         217         216
         212         213         218         217
         213         214         219         218
         215         216         221         220
         216         217         222         221
         217         218         223         222
         218         219         224         223
         225         226         231         230
         226         227         232         231
         227         228         233         232
         228         229         234         233
         230         231         236         235
         231         232         237         236
         232         233         238         237
         233         234         239         238
         235         236         241         240
         236         237         242         241
         237         238         243         242
         238         239         244         243
         240         241         246         245
         241         242         247         246
         242         243         248         247
         243         244         249         248
         250         251         256         255
         251         252         257         256
         252         253         258         257
         253         254         259         258
         255         256         261         260
         256         257         262         261
         257         258         263         262
         258         259         264         263
         260         261         266         265
         261         262         267         266
         262         263         268         267
         263         264         269         268
         265         266         271         270
         266         267         272         271
         267         268         273         272
         268         269         274         273
         275         276         281         280
         276         277         282         281
         277         278         283         282
         278         279         284         283
         280         281         286         285
         281         282         287         286
         282         283         288         287
         283         284         289         288
         285         286         291         290
         286         287         292         291
         287         288         293         292
         288         289         294         293
         290         291         296         295
         291         292         297         296
         292         293         298         297
         293         294         299         298
         300         301         306         305
         301         302         307         306
         302         303         308         307
         303         304         309         308
         305         306         311         310
         306         307         312         311
         307         308         313         312
         308         309         314         313
         310         311         316         315
         311         312         317         316
         312         313         318         317
         313         314         319         318
         315         316         321         320
         316         317         322         321
         317         318         323         322
         318         319         324         323
         325         326         331         330
         326         327         332         331
         327         328         333         332
         328         329         334         333
         330         331         336         335
         331         332         337         336
         332         333         338         337
         333         334         339         338
         335         336         341         340
         336         337         342         341
         337         338         343         342
         338         339         344         343
         340         341         346         345
         341         342         347         346
         342         343         348         347
         343         344         349         348
         350         351         356         355
         351         352         357         356
         352         353         358         357
         353         354         359         358
         355         356         361         360
         356         357         362         361
         357         358         363         362
         358         359         364         363
         360         361         366         365
         361         362         367         366
         362         363         368         367
         363         364         369         368
         365         366         371         370
         366         367         372         371
         367         368         373         372
         368         369         374         373
         375         376         381         380
         376         377         382         381
         377         378         383         382
         378         379         384         383
         380         381         386         385
         381         382         387         386
         382         383         388         387
         383         384         389         388
         385         386         391         390
         386         387         392         391
         387         388         393         392
         388         389         394         393
         390         391         396         395
         391         392         397         396
         392         393         398         397
         393         394         399         398
         400         401         406         405
         401         402         407         406
         402         403         408         407
         403         404         409         408
         405         406         411         410
         406         407         412         411
         407         408         413         412
         408         409         414         413
         410         411         416         415
         411         412         417         416
         412         413         418         417
         413         414         419         418
         415         416         421         420
         416         417         422         421
         417         418         423         422
         418         419         424         423
         425         426         431         430
         426         427         432         431
         427         428         433         432
         428         429         434         433
         430         431         436         435
         431         432         437         436
         432         433         438         437
         433         434         439         438
         435         436         441         440
         436         437         442         441
         437         438         443         442
         438         439         444         443
         440         441         446         445
         441         442         447         446
         442         443         448         447
         443         444         449         448
         450         451         456         455
         451         452         457         456
         452         453         458         457
         453         454         459         458
         455         456         461         460
         456         457         462         461
         457         458         463         462
         458         459         464         463
         460         461         466         465
         461         462         467         466
         462         463         468         467
         463         464         469         468
         465         466         471         470
         466         467         472         471
         467         468         473         472
         468         469         474         473
         475         476         481         480
         476         477         482         481
         477         478         483         482
         478         479         484         483
         480         481         486         485
         481         482         487         486
         482         483         488         487
         483         484         489         488
         485         486         491         490
         486         487         492         491
         487         488         493         492
         488         489         494         493
         490         491         496         495
         491         492         497         496
         492         493         498         497
         493         494         499         498
         500         501         506         505
         501         502         507         506
         502         503         508         507
         503         504         509         508
         505         506         511         510
         506         507         512         511
         507         508         513         512
         508         509         514         513
         510         511         516         515
         511         512         517         516
         512         513         518         517
         513         514         519         518
         515         516         521         520
         516         517         522         521
         517         518         523         522
         518         519         524         523
         525         526         531         530
         526         527         532         531
         527         528         533         532
         528         529         534         533
         530         531         536         535
         531         532         537         536
         532         533         538         537
         533         534         539         538
         535         536         541         540
         536         537         542         541
         537         538         543         542
         538         539         544         543
         540         541         546         545
         541         542         547         546
         542         543         548         547
         543         544         549         548
         550         551         556         555
         551         552         557         556
         552         553         558         557
         553         554         559         558
         555         556         561         560
         556         557         562         561
         557         558         563         562
         558         559         564         563
         560         561         566         565
         561         562         567         566
         562         563         568         567
         563         564         569         568
         565         566         571         570
         566         567         572         571
         567         568         573         572
         568         569         574         573
         575         576         581         580
         576         577         582         581
         577         578         583         582
         578         579         584         583
         580         581         586         585
         581         582         587         586
         582         583         588         587
         583         584         589         588
         585         586         591         590
         586         587         592         591
         587         588         593         592
         588         589         594         593
         590         591         596         595
         591         592         597         596
         592         593         598         597
         593         594         599         598
         600         601         606         605
         601         602         607         606
         602         603         608         607
         603         604         609         608
         605         606         611         610
         606         607         612         611
         607         608         613         612
         608         609         614         613
         610         611         616         615
         611         612         617         616
         612         613         618         617
         613         614         619         618
         615         616         621         620
         616         617         622         621
         617         618         623         622
         618         619         624         623
         625         626         631         630
         626         627         632         631
         627         628         633         632
         628         629         634         633
         630         631         636         635
         631         632         637         636
         632         633         638         637
         633         634         639         638
         635         636         641         640
         636         637         642         641
         637         638         643         642
         638         639         644         643
         640         641         646         645
         641         642         647         646
         642         643         648         647
         643         644         649         648
         650         651         656         655
         651         652         657         656
         652         653         658         657
         653         654         659         658
         655         656         661         660
         656         657         662         661
         657         658         663         662
         658         659         664         663
         660         661         666         665
         661         662         667         666
         662         663         668         667
         663         664         669         668
         665         666         671         670
         666         667         672         671
         667         668         673         672
         668         669         674         673
         675         676         681         680
         676         677         682         681
         677         678         683         682
         678         679         684         683
         680         681         686         685
         681         682         687         686
         682         683         688         687
         683         684         689         688
         685         686         691         690
         686         687         692         691
         687         688         693         692
         688         689         694         693
         690         691         696         695
         691         692         697         696
         692         693         698         697
         693         694         699         698
         700         701         706         705
         701         702         707         706
         702         703         708         707
         703         704         709         708
         705         706         711         710
         706         707         712         711
         707         708         713         712
         708         709         714         713
         710         711         716         715
         711         712         717         716
         712         713         718         717
         713         714         719         718
         715         716         721         720
         716         717         722         721
         717         718         723         722
         718         719         724         723
         725         726         731         730
         726         727         732         731
         727         728         733         732
         728         729         734         733
         730         731         736         735
         731         732         737         736
         732         733         738         737
         733         734         739         738
         735         736         741         740
         736         737         742         741
         737         738         743         742
         738         739         744         743
         740         741         746         745
         741         742         747         746
         742         743         748         747
         743         744         749         748
         750         751         756         755
         751         752         757         756
         752         753         758         757
         753         754         759         758
         755         756         761         760
         756         757         762         761
         757         758         763         762
         758         759         764         763
         760         761         766         765
         761         762         767         766
         762         763         768         767
         763         764         769         768
         765         766         771         770
         766         767         772         771
         767         768         773         772
         768         769         774         773
         775         776         781         780
         776         777         782         781
         777         778         783         782
         778         779         784         783
         780         781         786         785
         781         782         787         786
         782         783         788         787
         783         784         789         788
         785         786         791         790
         786         787         792         791
         787         788         793         792
         788         789         794         793
         790         791         796         795
         791         792         797         796
         792         793         798         797
         793         794         799         798
         800         801         806         805
         801         802         807         806
         802         803         808         807
         803         804         809         808
         805         806         811         810
         806         807         812         811
         807         808         813         812
         808         809         814         813
         810         811         816         815
         811         812         817         816
         812         813         818         817
         813         814         819         818
         815         816         821         820
         816         817         822         821
         817         818         823         822
         818         819         824         823
         825         826         831         830
         826         827         832         831
         827         828         833         832
         828         829         834         833
         830         831         836         835
         831         832         837         836
         832         833         838         837
         833         834         839         838
         835         836         841         840
         836         837         842         841
         837         838         843         842
         838         839         844         843
         840         841         846         845
         841         842         847         846
         842         843         848         847
         843         844         849         848
         850         851         856         855
         851         852         857         856
         852         853         858         857
         853         854         859         858
         855         856         861         860
         856         857         862         861
         857         858         863         862
         858         859         864         863
         860         861         866         865
         861         862         867         866
         862         863         868         867
         863         864         869         868
         865         866         871         870
         866         867         872         871
         867         868         873         872
         868         869         874         873
         875         876         881         880
         876         877         882         881
         877         878         883         882
         878         879         884         883
         880         881         886         885
         881         882         887         886
         882         883         888         887
         883         884         889         888
         885         886         891         890
         886         887         892         891
         887         888         893         892
         888         889         894         893
         890         891         896         895
         891         892         897         896
         892         893         898         897
         893         894         899         898
         900         901         906         905
         901         902         907         906
         902         903         908         907
         903         904         909         908
         905         906         911         910
         906         907         912         911
         907         908         913         912
         908         909         914         913
         910         911         916         915
         911         912         917         916
         912         913         918         917
         913         914         919         918
         915         916         921         920
         916         917         922         921
         917         918         923         922
         918         919         924         923
         925         926         931         930
         926         927         932         931
         927         928         933         932
         928         929         934         933
         930         931         936         935
         931         932         937         936
         932         933         938         937
         933         934         939         938
         935         936         941         940
         936         937         942         941
         937         938         943         942
         938         939         944         943
         940         941         946         945
         941         942         947         946
         942         943         948         947
         943         944         949         948
         950         951         956         955
         951         952         957         956
         952         953         958         957
         953         954         959         958
         955         956         961         960
         956         957         962         961
         957         958         963         962
         958         959         964         963
         960         961         966         965
         961         962         967         966
         962         963         968         967
         963         964         969         968
         965         966         971         970
         966         967         972         971
         967         968         973         972
         968         969         974         973
         975         976         981         980
         976         977         982         981
         977         978         983         982
         978         979         984         983
         980         981         986         985
         981         982         987         986
         982         983         988         987
         983         984         989         988
         985         986         991         990
         986         987         992         991
         987         988         993         992
         988         989         994         993
         990         991         996         995
         991         992         997         996
         992         993         998         997
         993         994         999         998
        1000        1001        1006        1005
        1001        1002        1007        1006
        1002        1003        1008        1007
        1003        1004        1009        1008
        1005        1006        1011        1010
        1006        1007        1012        1011
        1007        1008        1013        1012
        1008        1009        1014        1013
        1010        1011        1016        1015
        1011        1012        1017        1016
        1012        1013        1018        1017
        1013        1014        1019        1018
        1015        1016        1021        1020
        1016        1017        1022        1021
        1017        1018        1023        1022
        1018        1019        1024        1023
        1025        1026        1031        1030
        1026        1027        1032        1031
        1027        1028        1033        1032
        1028        1029        1034        1033
        1030        1031        1036        1035
        1031        1032        1037        1036
        1032        1033        1038        1037
        1033        1034        1039        1038
        1035        1036        1041        1040
        1036        1037        1042        1041
        1037        1038        1043        1042
        1038        1039        1044        1043
        1040        1041        1046        1045
        1041        1042        1047        1046
        1042        1043        1048        1047
        1043        1044        1049        1048
        1050        1051        1056        1055
        1051        1052        1057        1056
        1052        1053        1058        1057
        1053        1054        1059        1058
        1055        1056        1061        1060
        1056        1057        1062        1061
        1057        1058        1063        1062
        1058        1059        1064        1063
        1060        1061        1066        1065
        1061        1062        1067        1066
        1062        1063        1068        1067
        1063        1064        1069        1068
        1065        1066        1071        1070
        1066        1067        1072        1071
        1067        1068        1073        1072
        1068        1069        1074        1073
        1075        1076        1081        1080
        1076        1077        1082        1081
        1077        1078        1083        1082
        1078        1079        1084        1083
        1080        1081        1086        1085
        1081        1082        1087        1086
        1082        1083        1088        1087
        1083        1084        1089        1088
        1085        1086        1091        1090
        1086        1087        1092        1091
        1087        1088        1093        1092
        1088        1089        1094        1093
        1090        1091        1096        1095
        1091        1092        1097        1096
        1092        1093        1098        1097
        1093        1094        1099        1098
        1100        1101        1106        1105
        1101        1102        1107        1106
        1102        1103        1108        1107
        1103        1104        1109        1108
        1105        1106        1111        1110
        1106        1107        1112        1111
        1107        1108        1113        1112
        1108        1109        1114        1113
        1110        1111        1116        1115
        1111        1112        1117        1116
        1112        1113        1118        1117
        1113        1114        1119        1118
        1115        1116        1121        1120
        1116        1117        1122        1121
        1117        1118        1123        1122
        1118        1119        1124        1123
        1125        1126        1131        1130
        1126        1127        1132        1131
        1127        1128        1133        1132
        1128        1129        1134        1133
        1130        1131        1136        1135
        1131        1132        1137        1136
        1132        1133        1138        1137
        1133        1134        1139        1138
        1135        1136        1141        1140
        1136        1137        1142        1141
        1137        1138        1143        1142
        1138        1139        1144        1143
        1140        1141        1146        1145
        1141        1142        1147        1146
        1142        1143        1148        1147
        1143        1144        1149        1148
        1150        1151        1156        1155
        1151        1152        1157        1156
        1152        1153        1158        1157
        1153        1154        1159        1158
        1155        1156        1161        1160
        1156        1157        1162        1161
        1157        1158        1163        1162
        1158        1159        1164        1163
        1160        1161        1166        1165
        1161        1162        1167        1166
        1162        1163        1168        1167
        1163        1164        1169        1168
        1165        1166        1171        1170
        1166        1167        1172        1171
        1167        1168        1173        1172
        1168        1169        1174        1173
        1175        1176        1181        1180
        1176        1177        1182        1181
        1177        1178        1183        1182
        1178        1179        1184        1183
        1180        1181        1186        1185
        1181        1182        1187        1186
        1182        1183        1188        1187
        1183        1184        1189        1188
        1185        1186        1191        1190
        1186        1187        1192        1191
        1187        1188        1193        1192
        1188        1189        1194        1193
        1190        1191        1196        1195
        1191        1192        1197        1196
        1192        1193        1198        1197
        1193        1194        1199        1198
        1200        1201        1206        1205
        1201        1202        1207        1206
        1202        1203        1208        1207
        1203        1204        1209        1208
        1205        1206        1211        1210
        1206        1207        1212        1211
        1207        1208        1213        1212
        1208        1209        1214        1213
        1210        1211        1216        1215
        1211        1212        1217        1216
        1212        1213        1218        1217
        1213        1214        1219        1218
        1215        1216        1221        1220
        1216        1217        1222        1221
        1217        1218        1223        1222
        1218        1219        1224        1223
        1225        1226        1231        1230
        1226        1227        1232        1231
        1227        1228        1233        1232
        1228        1229        1234        1233
        1230        1231        1236        1235
        1231        1232        1237        1236
        1232        1233        1238        1237
        1233        1234        1239        1238
        1235        1236        1241        1240
        1236        1237        1242        1241
        1237        1238        1243        1242
        1238        1239        1244        1243
        1240        1241        1246        1245
        1241        1242        1247        1246
        1242        1243        1248        1247
        1243        1244        1249        1248
        1250        1251        1256        1255
        1251        1252        1257        1256
        1252        1253        1258        1257
        1253        1254        1259        1258
        1255        1256        1261        1260
        1256        1257        1262        1261
        1257        1258        1263        1262
        1258        1259        1264        1263
        1260        1261        1266        1265
        1261        1262        1267        1266
        1262        1263        1268        1267
        1263        1264        1269        1268
        1265        1266        1271        1270
        1266        1267        1272        1271
        1267        1268        1273        1272
        1268        1269        1274        1273
        1275        1276        1281        1280
        1276        1277        1282        1281
        1277        1278        1283        1282
        1278        1279        1284        1283
        1280        1281        1286        1285
        1281        1282        1287        1286
        1282        1283        1288        1287
        1283        1284        1289        1288
        1285        1286        1291        1290
        1286        1287        1292        1291
        1287        1288        1293        1292
        1288        1289        1294        1293
        1290        1291        1296        1295
        1291        1292        1297        1296
        1292        1293        1298        1297
        1293        1294        1299        1298
        1300        1301        1306        1305
        1301        1302        1307        1306
        1302        1303        1308        1307
        1303        1304        1309        1308
        1305        1306        1311        1310
        1306        1307        1312        1311
        1307        1308        1313        1312
        1308        1309        1314        1313
        1310        1311        1316        1315
        1311        1312        1317        1316
        1312        1313        1318        1317
        1313        1314        1319        1318
        1315        1316        1321        1320
        1316        1317        1322        1321
        1317        1318        1323        1322
        1318        1319        1324        1323
        1325        1326        1331        1330
        1326        1327        1332        1331
        1327        1328        1333        1332
        1328        1329        1334        1333
        1330        1331        1336        1335
        1331        1332        1337        1336
        1332        1333        1338        1337
        1333        1334        1339        1338
        1335        1336        1341        1340
        1336        1337        1342        1341
        1337        1338        1343        1342
        1338        1339        1344        1343
        1340        1341        1346        1345
        1341        1342        1347        1346
        1342        1343        1348        1347
        1343        1344        1349        1348
        1350        1351        1356        1355
        1351        1352        1357        1356
        1352        1353        1358        1357
        1353        1354        1359        1358
        1355        1356        1361        1360
        1356        1357        1362        1361
        1357        1358        1363        1362
        1358        1359        1364        1363
        1360        1361        1366        1365
        1361        1362        1367        1366
        1362        1363        1368        1367
        1363        1364        1369        1368
        1365        1366        1371        1370
        1366        1367        1372        1371
        1367        1368        1373        1372
        1368        1369        1374        1373
        1375        1376        1381        1380
        1376        1377        1382        1381
        1377        1378        1383        1382
        1378        1379        1384        1383
        1380        1381        1386        1385
        1381        1382        1387        1386
        1382        1383        1388        1387
        1383        1384        1389        1388
        1385        1386        1391        1390
        1386        1387        1392        1391
        1387        1388        1393        1392
        1388        1389        1394        1393
        1390        1391        1396        1395
        1391        1392        1397        1396
        1392        1393        1398        1397
        1393        1394        1399        1398
        1400        1401        1406        1405
        1401        1402        1407        1406
        1402        1403        1408        1407
        1403        1404        1409        1408
        1405        1406        1411        1410
        1406        1407        1412        1411
        1407        1408        1413        1412
        1408        1409        1414        1413
        1410        1411        1416        1415
        1411        1412        1417        1416
        1412        1413        1418        1417
        1413        1414        1419        1418
        1415        1416        1421        1420
        1416        1417        1422        1421
        1417        1418        1423        1422
        1418        1419        1424        1423
        1425        1426        1431        1430
        1426        1427        1432        1431
        1427        1428        1433        1432
        1428        1429        1434        1433
        1430        1431        1436        1435
        1431        1432        1437        1436
        1432        1433        1438        1437
        1433        1434        1439        1438
        1435        1436        1441        1440
        1436        1437        1442        1441
        1437        1438        1443        1442
        1438        1439        1444        1443
        1440        1441        1446        1445
        1441        1442        1447        1446
        1442        1443        1448        1447
        1443        1444        1449        1448
        1450        1451        1456        1455
        1451        1452        1457        1456
        1452        1453        1458        1457
        1453        1454        1459        1458
        1455        1456        1461        1460
        1456        1457        1462        1461
        1457        1458        1463        1462
        1458        1459        1464        1463
        1460        1461        1466        1465
        1461        1462        1467        1466
        1462        1463        1468        1467
        1463        1464        1469        1468
        1465        1466        1471        1470
        1466        1467        1472        1471
        1467        1468        1473        1472
        1468        1469        1474        1473
        1475        1476        1481        1480
        1476        1477        1482        1481
        1477        1478        1483        1482
        1478        1479        1484        1483
        1480        1481        1486        1485
        1481        1482        1487        1486
        1482        1483        1488        1487
        1483        1484        1489        1488
        1485        1486        1491        1490
        1486        1487        1492        1491
        1487        1488        1493        1492
        1488        1489        1494        1493
        1490        1491        1496        1495
        1491        1492        1497        1496
        1492        1493        1498        1497
        1493        1494        1499        1498
        1500        1501        1506        1505
        1501        1502        1507        1506
        1502        1503        1508        1507
        1503        1504        1509        1508
        1505        1506        1511        1510
        1506        1507        1512        1511
        1507        1508        1513        1512
        1508        1509        1514        1513
        1510        1511        1516        1515
        1511        1512        1517        1516
        1512        1513        1518        1517
        1513        1514        1519        1518
        1515        1516        1521        1520
        1516        1517        1522        1521
        1517        1518        1523        1522
        1518        1519        1524        1523
        1525        1526        1531        1530
        1526        1527        1532        1531
        1527        1528        1533        1532
        1528        1529        1534        1533
        1530        1531        1536        1535
        1531        1532        1537        1536
        1532        1533        1538        1537
        1533        1534        1539        1538
        1535        1536        1541        1540
        1536        1537        1542        1541
        1537        1538        1543        1542
        1538        1539        1544        1543
        1540        1541        1546        1545
        1541        1542        1547        1546
        1542        1543        1548        1547
        1543        1544        1549        1548
        1550        1551        1556        1555
        1551        1552        1557        1556
        1552        1553        1558        1557
        1553        1554        1559        1558
        1555        1556        1561        1560
        1556        1557        1562        1561
        1557        1558        1563        1562
        1558        1559        1564        1563
        1560        1561        1566        1565
        1561        1562        1567        1566
        1562        1563        1568        1567
        1563        1564        1569        1568
        1565        1566        1571        1570
        1566        1567        1572        1571
        1567        1568        1573        1572
        1568        1569        1574        1573
        1575        1576        1581        1580
        1576        1577        1582        1581
        1577        1578        1583        1582
        1578        1579        1584        1583
        1580        1581        1586        1585
        1581        1582        1587        1586
        1582        1583        1588        1587
        1583        1584        1589        1588
        1585        1586        1591        1590
        1586        1587        1592        1591
        1587        1588        1593        1592
        1588        1589        1594        1593
        1590        1591        1596        1595
        1591        1592        1597        1596
        1592        1593        1598        1597
        1593        1594        1599        1598
 </DataArray>
 <DataArray  type="Int32"  Name="offsets"  format="ascii"> 
           4
           8
          12
          16
          20
          24
          28
          32
          36
          40
          44
          48
          52
          56
          60
          64
          68
          72
          76
          80
          84
          88
          92
          96
         100
         104
         108
         112
         116
         120
         124
         128
         132
         136
         140
         144
         148
         152
         156
         160
         164
         168
         172
         176
         180
         184
         188
         192
         196
         200
         204
         208
         212
         216
         220
         224
         228
         232
         236
         240
         244
         248
         252
         256
         260
         264
         268
         272
         276
         280
         284
         288
         292
         296
         300
         304
         308
         312
         316
         320
         324
         328
         332
         336
         340
         344
         348
         352
         356
         360
         364
         368
         372
         376
         380
         384
         388
         392
         396
         400
         404
         408
         412
         416
         420
         424
         428
         432
         436
         440
         444
         448
         452
         456
         460
         464
         468
         472
         476
         480
         484
         488
         492
         496
         500
         504
         508
         512
         516
         520
         524
         528
         532
         536
         540
         544
         548
         552
         556
         560
         564
         568
         572
         576
         580
         584
         588
         592
         596
         600
         604
         608
         612
         616
         620
         624
         628
         632
         636
         640
         644
         648
         652
         656
         660
         664
         668
         672
         676
         680
         684
         688
         692
         696
         700
         704
         708
         712
         716
         720
         724
         728
         732
         736
         740
         744
         748
         752
         756
         760
         764
         768
         772
         776
         780
         784
         788
         792
         796
         800
         804
         808
         812
         816
         820
         824
         828
         832
         836
         840
         844
         848
         852
         856
         860
         864
         868
         872
         876
         880
         884
         888
         892
         896
         900
         904
         908
         912
         916
         920
         924
         928
         932
         936
         940
         944
         948
         952
         956
         960
         964
         968
         972
         976
         980
         984
         988
         992
         996
        1000
        1004
        1008
        1012
        1016
        1020
        1024
        1028
        1032
        1036
        1040
        1044
        1048
        1052
        1056
        1060
        1064
        1068
        1072
        1076
        1080
        1084
        1088
        1092
        1096
        1100
        1104
        1108
        1112
        1116
        1120
        1124
        1128
        1132
        1136
        1140
        1144
        1148
        1152
        1156
        1160
        1164
        1168
        1172
        1176
        1180
        1184
        1188
        1192
        1196
        1200
        1204
        1208
        1212
        1216
        1220
        1224
        1228
        1232
        1236
        1240
        1244
        1248
        1252
        1256
        1260
        1264
        1268
        1272
        1276
        1280
        1284
        1288
        1292
        1296
        1300
        1304
        1308
        1312
        1316
        1320
        1324
        1328
        1332
        1336
        1340
        1344
        1348
        1352
        1356
        1360
        1364
        1368
        1372
        1376
        1380
        1384
        1388
        1392
        1396
        1400
        1404
        1408
        1412
        1416
        1420
        1424
        1428
        1432
        1436
        1440
        1444
        1448
        1452
        1456
        1460
        1464
        1468
        1472
        1476
        1480
        1484
        1488
        1492
        1496
        1500
        1504
        1508
        1512
        1516
        1520
        1524
        1528
        1532
        1536
        1540
        1544
        1548
        1552
        1556
        1560
        1564
        1568
        1572
        1576
        1580
        1584
        1588
        1592
        1596
        1600
        1604
        1608
        1612
        1616
        1620
        1624
        1628
        1632
        1636
        1640
        1644
        1648
        1652
        1656
        1660
        1664
        1668
        1672
        1676
        1680
        1684
        1688
        1692
        1696
        1700
        1704
        1708
        1712
        1716
        1720
        1724
        1728
        1732
        1736
        1740
        1744
        1748
        1752
        1756
        1760
        1764
        1768
        1772
        1776
        1780
        1784
        1788
        1792
        1796
        1800
        1804
        1808
        1812
        1816
        1820
        1824
        1828
        1832
        1836
        1840
        1844
        1848
        1852
        1856
        1860
        1864
        1868
        1872
        1876
        1880
        1884
        1888
        1892
        1896
        1900
        1904
        1908
        1912
        1916
        1920
        1924
        1928
        1932
        1936
        1940
        1944
        1948
        1952
        1956
        1960
        1964
        1968
        1972
        1976
        1980
        1984
        1988
        1992
        1996
        2000
        2004
        2008
        2012
        2016
        2020
        2024
        2028
        2032
        2036
        2040
        2044
        2048
        2052
        2056
        2060
        2064
        2068
        2072
        2076
        2080
        2084
        2088
        2092
        2096
        2100
        2104
        2108
        2112
        2116
        2120
        2124
        2128
        2132
        2136
        2140
        2144
        2148
        2152
        2156
        2160
        2164
        2168
        2172
        2176
        2180
        2184
        2188
        2192
        2196
        2200
        2204
        2208
        2212
        2216
        2220
        2224
        2228
        2232
        2236
        2240
        2244
        2248
        2252
        2256
        2260
        2264
        2268
        2272
        2276
        2280
        2284
        2288
        2292
        2296
        2300
        2304
        2308
        2312
        2316
        2320
        2324
        2328
        2332
        2336
        2340
        2344
        2348
        2352
        2356
        2360
        2364
        2368
        2372
        2376
        2380
        2384
        2388
        2392
        2396
        2400
        2404
        2408
        2412
        2416
        2420
        2424
        2428
        2432
        2436
        2440
        2444
        2448
        2452
        2456
        2460
        2464
        2468
        2472
        2476
        2480
        2484
        2488
        2492
        2496
        2500
        2504
        2508
        2512
        2516
        2520
        2524
        2528
        2532
        2536
        2540
        2544
        2548
        2552
        2556
        2560
        2564
        2568
        2572
        2576
        2580
        2584
        2588
        2592
        2596
        2600
        2604
        2608
        2612
        2616
        2620
        2624
        2628
        2632
        2636
        2640
        2644
        2648
        2652
        2656
        2660
        2664
        2668
        2672
        2676
        2680
        2684
        2688
        2692
        2696
        2700
        2704
        2708
        2712
        2716
        2720
        2724
        2728
        2732
        2736
        2740
        2744
        2748
        2752
        2756
        2760
        2764
        2768
        2772
        2776
        2780
        2784
        2788
        2792
        2796
        2800
        2804
        2808
        2812
        2816
        2820
        2824
        2828
        2832
        2836
        2840
        2844
        2848
        2852
        2856
        2860
        2864
        2868
        2872
        2876
        2880
        2884
        2888
        2892
        2896
        2900
        2904
        2908
        2912
        2916
        2920
        2924
        2928
        2932
        2936
        2940
        2944
        2948
        2952
        2956
        2960
        2964
        2968
        2972
        2976
        2980
        2984
        2988
        2992
        2996
        3000
        3004
        3008
        3012
        3016
        3020
        3024
        3028
        3032
        3036
        3040
        3044
        3048
        3052
        3056
        3060
        3064
        3068
        3072
        3076
        3080
        3084
        3088
        3092
        3096
        3100
        3104
        3108
        3112
        3116
        3120
        3124
        3128
        3132
        3136
        3140
        3144
        3148
        3152
        3156
        3160
        3164
        3168
        3172
        3176
        3180
        3184
        3188
        3192
        3196
        3200
        3204
        3208
        3212
        3216
        3220
        3224
        3228
        3232
        3236
        3240
        3244
        3248
        3252
        3256
        3260
        3264
        3268
        3272
        3276
        3280
        3284
        3288
        3292
        3296
        3300
        3304
        3308
        3312
        3316
        3320
        3324
        3328
        3332
        3336
        3340
        3344
        3348
        3352
        3356
        3360
        3364
        3368
        3372
        3376
        3380
        3384
        3388
        3392
        3396
        3400
        3404
        3408
        3412
        3416
        3420
        3424
        3428
        3432
        3436
        3440
        3444
        3448
        3452
        3456
        3460
        3464
        3468
        3472
        3476
        3480
        3484
        3488
        3492
        3496
        3500
        3504
        3508
        3512
        3516
        3520
        3524
        3528
        3532
        3536
        3540
        3544
        3548
        3552
        3556
        3560
        3564
        3568
        3572
        3576
        3580
        3584
        3588
        3592
        3596
        3600
        3604
        3608
        3612
        3616
        3620
        3624
        3628
        3632
        3636
        3640
        3644
        3648
        3652
        3656
        3660
        3664
        3668
        3672
        3676
        3680
        3684
        3688
        3692
        3696
        3700
        3704
        3708
        3712
        3716
        3720
        3724
        3728
        3732
        3736
        3740
        3744
        3748
        3752
        3756
        3760
        3764
        3768
        3772
        3776
        3780
        3784
        3788
        3792
        3796
        3800
        3804
        3808
        3812
        3816
        3820
        3824
        3828
        3832
        3836
        3840
        3844
        3848
        3852
        3856
        3860
        3864
        3868
        3872
        3876
        3880
        3884
        3888
        3892
        3896
        3900
        3904
        3908
        3912
        3916
        3920
        3924
        3928
        3932
        3936
        3940
        3944
        3948
        3952
        3956
        3960
        3964
        3968
        3972
        3976
        3980
        3984
        3988
        3992
        3996
        4000
        4004
        4008
        4012
        4016
        4020
        4024
        4028
        4032
        4036
        4040
        4044
        4048
        4052
        4056
        4060
        4064
        4068
        4072
        4076
        4080
        4084
        4088
        4092
        4096
 </DataArray>
 <DataArray  type="UInt8"  Name="types"  format="ascii">
 9
 9
 9
 9
 9
 9
 9
 9
 9
 9
 9
 9
 9
 9
 9
 9
 9
 9
 9
 9
 9
 9
 9
 9
 9
 9
 9
 9
 9
 9
 9
 9
 9
 9
 9
 9
 9
 9
 9
 9
 9
 9
 9
 9
 9
 9
 9
 9
 9
 9
 9
 9
 9
 9
 9
 9
 9
 9
 9
 9
 9
 9
 9
 9
 9
 9
 9
 9
 9
 9
 9
 9
 9
 9
 9
 9
 9
 9
 9
 9
 9
 9
 9
 9
 9
 9
 9
 9
 9
 9
 9
 9
 9
 9
 9
 9
 9
 9
 9
 9
 9
 9
 9
 9
 9
 9
 9
 9
 9
 9
 9
 9
 9
 9
 9
 9
 9
 9
 9
 9
 9
 9
 9
 9
 9
 9
 9
 9
 9
 9
 9
 9
 9
 9
 9
 9
 9
 9
 9
 9
 9
 9
 9
 9
 9
 9
 9
 9
 9
 9
 9
 9
 9
 9
 9
 9
 9
 9
 9
 9
 9
 9
 9
 9
 9
 9
 9
 9
 9
 9
 9
 9
 9
 9
 9
 9
 9
 9
 9
 9
 9
 9
 9
 9
 9
 9
 9
 9
 9
 9
 9
 9
 9
 9
 9
 9
 9
 9
 9
 9
 9
 9
 9
 9
 9
 9
 9
 9
 9
 9
 9
 9
 9
 9
 9
 9
 9
 9
 9
 9
 9
 9
 9
 9
 9
 9
 9
 9
 9
 9
 9
 9
 9
 9
 9
 9
 9
 9
 9
 9
 9
 9
 9
 9
 9
 9
 9
 9
 9
 9
 9
 9
 9
 9
 9
 9
 9
 9
 9
 9
 9
 9
 9
 9
 9
 9
 9
 9
 9
 9
 9
 9
 9
 9
 9
 9
 9
 9
 9
 9
 9
 9
 9
 9
 9
 9
 9
 9
 9
 9
 9
 9
 9
 9
 9
 9
 9
 9
 9
 9
 9
 9
 9
 9
 9
 9
 9
 9
 9
 9
 9
 9
 9
 9
 9
 9
 9
 9
 9
 9
 9
 9
 9
 9
 9
 9
 9
 9
 9
 9
 9
 9
 9
 9
 9
 9
 9
 9
 9
 9
 9
 9
 9
 9
 9
 9
 9
 9
 9
 9
 9
 9
 9
 9
 9
 9
 9
 9
 9
 9
 9
 9
 9
 9
 9
 9
 9
 9
 9
 9
 9
 9
 9
 9
 9
 9
 9
 9
 9
 9
 9
 9
 9
 9
 9
 9
 9
 9
 9
 9
 9
 9
 9
 9
 9
 9
 9
 9
 9
 9
 9
 9
 9
 9
 9
 9
 9
 9
 9
 9
 9
 9
 9
 9
 9
 9
 9
 9
 9
 9
 9
 9
 9
 9
 9
 9
 9
 9
 9
 9
 9
 9
 9
 9
 9
 9
 9
 9
 9
 9
 9
 9
 9
 9
 9
 9
 9
 9
 9
 9
 9
 9
 9
 9
 9
 9
 9
 9
 9
 9
 9
 9
 9
 9
 9
 9
 9
 9
 9
 9
 9
 9
 9
 9
 9
 9
 9
 9
 9
 9
 9
 9
 9
 9
 9
 9
 9
 9
 9
 9
 9
 9
 9
 9
 9
 9
 9
 9
 9
 9
 9
 9
 9
 9
 9
 9
 9
 9
 9
 9
 9
 9
 9
 9
 9
 9
 9
 9
 9
 9
 9
 9
 9
 9
 9
 9
 9
 9
 9
 9
 9
 9
 9
 9
 9
 9
 9
 9
 9
 9
 9
 9
 9
 9
 9
 9
 9
 9
 9
 9
 9
 9
 9
 9
 9
 9
 9
 9
 9
 9
 9
 9
 9
 9
 9
 9
 9
 9
 9
 9
 9
 9
 9
 9
 9
 9
 9
 9
 9
 9
 9
 9
 9
 9
 9
 9
 9
 9
 9
 9
 9
 9
 9
 9
 9
 9
 9
 9
 9
 9
 9
 9
 9
 9
 9
 9
 9
 9
 9
 9
 9
 9
 9
 9
 9
 9
 9
 9
 9
 9
 9
 9
 9
 9
 9
 9
 9
 9
 9
 9
 9
 9
 9
 9
 9
 9
 9
 9
 9
 9
 9
 9
 9
 9
 9
 9
 9
 9
 9
 9
 9
 9
 9
 9
 9
 9
 9
 9
 9
 9
 9
 9
 9
 9
 9
 9
 9
 9
 9
 9
 9
 9
 9
 9
 9
 9
 9
 9
 9
 9
 9
 9
 9
 9
 9
 9
 9
 9
 9
 9
 9
 9
 9
 9
 9
 9
 9
 9
 9
 9
 9
 9
 9
 9
 9
 9
 9
 9
 9
 9
 9
 9
 9
 9
 9
 9
 9
 9
 9
 9
 9
 9
 9
 9
 9
 9
 9
 9
 9
 9
 9
 9
 9
 9
 9
 9
 9
 9
 9
 9
 9
 9
 9
 9
 9
 9
 9
 9
 9
 9
 9
 9
 9
 9
 9
 9
 9
 9
 9
 9
 9
 9
 9
 9
 9
 9
 9
 9
 9
 9
 9
 9
 9
 9
 9
 9
 9
 9
 9
 9
 9
 9
 9
 9
 9
 9
 9
 9
 9
 9
 9
 9
 9
 9
 9
 9
 9
 9
 9
 9
 9
 9
 9
 9
 9
 9
 9
 9
 9
 9
 9
 9
 9
 9
 9
 9
 9
 9
 9
 9
 9
 9
 9
 9
 9
 9
 9
 9
 9
 9
 9
 9
 9
 9
 9
 9
 9
 9
 9
 9
 9
 9
 9
 9
 9
 9
 9
 9
 9
 9
 9
 9
 9
 9
 9
 9
 9
 9
 9
 9
 9
 9
 9
 9
 9
 9
 9
 9
 9
 9
 9
 9
 9
 9
 9
 9
 9
 9
 9
 9
 9
 9
 9
 9
 9
 9
 9
 9
 9
 9
 9
 9
 9
 9
 9
 9
 9
 9
 9
 9
 9
 9
 9
 9
 9
 9
 9
 9
 9
 9
 9
 9
 9
 9
 9
 9
 9
 9
 9
 9
 9
 9
 9
 9
 9
 9
 9
 9
 9
 9
 9
 9
 9
 9
 9
 9
 9
 9
 9
 9
 9
 9
 9
 9
 9
 9
 9
 9
 9
 9
 9
 9
 9
 9
 9
 9
 9
 9
 9
 9
 9
 9
 9
 9
 9
 9
 9
 9
 9
 9
 9
 9
 9
 9
 9
 9
 9
 9
 9
 9
 9
 9
 9
 9
 9
 9
 9
 9
 9
 9
 9
 9
 9
 9
 9
 9
 9
 9
 9
 9
 9
 9
 9
 9
 9
 9
 9
 9
 9
 9
 9
 9
 9
 9
 9
 9
 9
 9
 9
 9
 9
 9
 9
 9
 </DataArray>
 </Cells> 
 <PointData>
 <DataArray  type="Float64" Name="disp" NumberOfComponents="3" format="ascii">
   0.0000000000000000        0.0000000000000000        0.0000000000000000     
   6.0960806014880046E-003   3.7905313081689996E-003   0.0000000000000000     
   1.1666128917334147E-002   7.3240949302916742E-003   0.0000000000000000     
   1.6710144947538429E-002   1.0600690866368024E-002   0.0000000000000000     
   2.1228128692100848E-002   1.3620319116398048E-002   0.0000000000000000     
   0.0000000000000000        0.0000000000000000        0.0000000000000000     
   4.8911649798686436E-003   3.0222895132141995E-003   0.0000000000000000     
   9.5736105234315253E-003   6.0608451049355711E-003   0.0000000000000000     
   1.4047336630688644E-002   9.1156667751641166E-003   0.0000000000000000     
   1.8312343301640003E-002   1.2186754523899833E-002   0.0000000000000000     
   0.0000000000000000        0.0000000000000000        0.0000000000000000     
   3.9535175322336722E-003   2.4252897167907688E-003   0.0000000000000000     
   7.9105128399659073E-003   5.0632391819034218E-003   0.0000000000000000     
   1.1870985923196707E-002   7.9138483953379597E-003   0.0000000000000000     
   1.5834936781926070E-002   1.0977117357094382E-002   0.0000000000000000     
   0.0000000000000000        0.0000000000000000        0.0000000000000000     
   3.2831382585830904E-003   1.9995319188987090E-003   0.0000000000000000     
   6.6768358669372970E-003   4.3312771611952270E-003   0.0000000000000000     
   1.0181092825062618E-002   6.9952357268895536E-003   0.0000000000000000     
   1.3795909132959056E-002   9.9914076159816918E-003   0.0000000000000000     
   0.0000000000000000        0.0000000000000000        0.0000000000000000     
   2.8800271589168982E-003   1.7450161195380191E-003   0.0000000000000000     
   5.8725796043456908E-003   3.8649590428109859E-003   0.0000000000000000     
   8.9776573362863772E-003   6.3598287698189010E-003   0.0000000000000000     
   1.2195260354738960E-002   9.2296253005617630E-003   0.0000000000000000     
   2.1228128692100848E-002   1.3620319116398048E-002   0.0000000000000000     
   2.5433052524851889E-002   1.6613553208491262E-002   0.0000000000000000     
   2.9537888819622028E-002   1.9810966670757185E-002   0.0000000000000000     
   3.3542637576411259E-002   2.3212559503195809E-002   0.0000000000000000     
   3.7447298795219595E-002   2.6818331705807146E-002   0.0000000000000000     
   1.8312343301640003E-002   1.2186754523899833E-002   0.0000000000000000     
   2.2406872101179774E-002   1.5342469279178520E-002   0.0000000000000000     
   2.6369164594202143E-002   1.8651171969035974E-002   0.0000000000000000     
   3.0199220780707109E-002   2.2112862593472195E-002   0.0000000000000000     
   3.3897040660694669E-002   2.5727541152487179E-002   0.0000000000000000     
   1.5834936781926070E-002   1.0977117357094382E-002   0.0000000000000000     
   1.9730577500216194E-002   1.4211905672672867E-002   0.0000000000000000     
   2.3486120162129285E-002   1.7577072947573592E-002   0.0000000000000000     
   2.7101564767665339E-002   2.1072619181796561E-002   0.0000000000000000     
   3.0576911316824350E-002   2.4698544375341774E-002   0.0000000000000000     
   1.3795909132959056E-002   9.9914076159816918E-003   0.0000000000000000     
   1.7404168721961152E-002   1.3221862388974302E-002   0.0000000000000000     
   2.0888755523403451E-002   1.6588669606370045E-002   0.0000000000000000     
   2.4249669537285946E-002   2.0091829268168920E-002   0.0000000000000000     
   2.7486910763608645E-002   2.3731341374370937E-002   0.0000000000000000     
   1.2195260354738960E-002   9.2296253005617630E-003   0.0000000000000000     
   1.5427645766414644E-002   1.2372339428082822E-002   0.0000000000000000     
   1.8577070678024634E-002   1.5685961945425323E-002   0.0000000000000000     
   2.1643535089568938E-002   1.9170492852589271E-002   0.0000000000000000     
   2.4627039001047551E-002   2.2825932149574665E-002   0.0000000000000000     
   3.7447298795219595E-002   2.6818331705807146E-002   0.0000000000000000     
   4.1255595282808449E-002   3.0623830200835575E-002   0.0000000000000000     
   4.4971249845939240E-002   3.4624601910525479E-002   0.0000000000000000     
   4.8594262484611968E-002   3.8820646834876869E-002   0.0000000000000000     
   5.2124633198826639E-002   4.3211964973889738E-002   0.0000000000000000     
   3.3897040660694669E-002   2.5727541152487179E-002   0.0000000000000000     
   3.7485454995200784E-002   2.9524190869777894E-002   0.0000000000000000     
   4.0987294545261441E-002   3.3531794969041302E-002   0.0000000000000000     
   4.4402559310876617E-002   3.7750353450277413E-002   0.0000000000000000     
   4.7731249292046342E-002   4.2179866313486206E-002   0.0000000000000000     
   3.0576911316824350E-002   2.4698544375341774E-002   0.0000000000000000     
   3.3941458109299605E-002   2.8499480272673353E-002   0.0000000000000000     
   3.7224503444784389E-002   3.2520058618255430E-002   0.0000000000000000     
   4.0426047323278709E-002   3.6760279412088009E-002   0.0000000000000000     
   4.3546089744782551E-002   4.1220142654171080E-002   0.0000000000000000     
   2.7486910763608645E-002   2.3731341374370937E-002   0.0000000000000000     
   3.0623604625104908E-002   2.7549698409521966E-002   0.0000000000000000     
   3.3682876544508106E-002   3.1589392858167878E-002   0.0000000000000000     
   3.6664726521818236E-002   3.5850424720308673E-002   0.0000000000000000     
   3.9569154557035281E-002   4.0332793995944367E-002   0.0000000000000000     
   2.4627039001047551E-002   2.2825932149574665E-002   0.0000000000000000     
   2.7531894542616685E-002   2.6674845280323711E-002   0.0000000000000000     
   3.0362413844432563E-002   3.0739797688778624E-002   0.0000000000000000     
   3.3118596906495178E-002   3.5020789374939403E-002   0.0000000000000000     
   3.5800443728804539E-002   3.9517820338806048E-002   0.0000000000000000     
   5.2124633198826639E-002   4.3211964973889738E-002   0.0000000000000000     
   5.5558918482018028E-002   4.7801789972052977E-002   0.0000000000000000     
   5.8893674827620895E-002   5.2593355473855491E-002   0.0000000000000000     
   6.2128902235635247E-002   5.7586661479297287E-002   0.0000000000000000     
   6.5264600706061091E-002   6.2781707988378344E-002   0.0000000000000000     
   4.7731249292046342E-002   4.2179866313486206E-002   0.0000000000000000     
   5.0969711970668442E-002   4.6812347807013918E-002   0.0000000000000000     
   5.4114294828640795E-002   5.1639812179206740E-002   0.0000000000000000     
   5.7164997865963400E-002   5.6662259430064692E-002   0.0000000000000000     
   6.0121821082636279E-002   6.1879689559587753E-002   0.0000000000000000     
   4.3546089744782551E-002   4.1220142654171080E-002   0.0000000000000000     
   4.6581571020983509E-002   4.5885735816379045E-002   0.0000000000000000     
   4.9529431463569182E-002   5.0743146370586280E-002   0.0000000000000000     
   5.2389671072539570E-002   5.5792374316792778E-002   0.0000000000000000     
   5.5162289847894667E-002   6.1033419654998561E-002   0.0000000000000000     
   3.9569154557035281E-002   4.0332793995944367E-002   0.0000000000000000     
   4.2394495632963242E-002   4.5021954000148363E-002   0.0000000000000000     
   4.5139084732406055E-002   4.9903358047994097E-002   0.0000000000000000     
   4.7802921855363750E-002   5.4977006139481560E-002   0.0000000000000000     
   5.0386007001836305E-002   6.0242898274610754E-002   0.0000000000000000     
   3.5800443728804539E-002   3.9517820338806048E-002   0.0000000000000000     
   3.8408485806607627E-002   4.4221002358321874E-002   0.0000000000000000     
   4.0943254635151423E-002   4.9120447211430211E-002   0.0000000000000000     
   4.3404750214435933E-002   5.4216154898131023E-002   0.0000000000000000     
   4.5792972544461158E-002   5.9508125418424339E-002   0.0000000000000000     
   6.5264600706061091E-002   6.2781707988378344E-002   0.0000000000000000     
   6.8305170770750975E-002   6.8168943047206138E-002   0.0000000000000000     
   7.1255012961557451E-002   7.3738814701888075E-002   0.0000000000000000     
   7.4114127278480532E-002   7.9491322952424184E-002   0.0000000000000000     
   7.6882513721520204E-002   8.5426467798814465E-002   0.0000000000000000     
   6.0121821082636279E-002   6.1879689559587753E-002   0.0000000000000000     
   6.2987727503405297E-002   6.7287370178445341E-002   0.0000000000000000     
   6.5765680153016426E-002   7.2880568897306833E-002   0.0000000000000000     
   6.8455679031469638E-002   7.8659285716172214E-002   0.0000000000000000     
   7.1057724138764947E-002   8.4623520635041527E-002   0.0000000000000000     
   5.5162289847894667E-002   6.1033419654998561E-002   0.0000000000000000     
   5.7848879590147215E-002   6.6463691018082929E-002   0.0000000000000000     
   6.0451032099809898E-002   7.2080597038925193E-002   0.0000000000000000     
   6.2968747376882753E-002   7.7884137717525406E-002   0.0000000000000000     
   6.5402025421365764E-002   8.3874313053883487E-002   0.0000000000000000     
   5.0386007001836305E-002   6.0242898274610754E-002   0.0000000000000000     
   5.2888627030976694E-002   6.5697905566118903E-002   0.0000000000000000     
   5.5311068801937868E-002   7.1338899126743224E-002   0.0000000000000000     
   5.7653332314719863E-002   7.7165878956483691E-002   0.0000000000000000     
   5.9915417569322650E-002   8.3178845055340372E-002   0.0000000000000000     
   4.5792972544461158E-002   5.9508125418424339E-002   0.0000000000000000     
   4.8106969825893749E-002   6.4990013822553247E-002   0.0000000000000000     
   5.0345790259400350E-002   7.0655475160760858E-002   0.0000000000000000     
   5.2509433844980975E-002   7.6504509433047152E-002   0.0000000000000000     
   5.4597900582635611E-002   8.2537116639412142E-002   0.0000000000000000     
   7.6882513721520204E-002   8.5426467798814465E-002   0.0000000000000000     
   7.9556770516637135E-002   9.1529265684749714E-002   0.0000000000000000     
   8.2133495889792019E-002   9.7784733053920714E-002   0.0000000000000000     
   8.4612689840984787E-002  0.10419286990632752        0.0000000000000000     
   8.6994352370215508E-002  0.11075367624197006        0.0000000000000000     
   7.1057724138764947E-002   8.4623520635041527E-002   0.0000000000000000     
   7.3570618478531039E-002   9.0756272424419165E-002   0.0000000000000000     
   7.5993165054396600E-002   9.7040539854809565E-002   0.0000000000000000     
   7.8325363866361630E-002  0.10347632292621270        0.0000000000000000     
   8.0567214914426158E-002  0.11006362163862859        0.0000000000000000     
   6.5402025421365764E-002   8.3874313053883487E-002   0.0000000000000000     
   6.7751296580142908E-002   9.0033579776351486E-002   0.0000000000000000     
   7.0016991200098119E-002   9.6344394613281342E-002   0.0000000000000000     
   7.2199109281231452E-002  0.10280675756467306        0.0000000000000000     
   7.4297650823542880E-002  0.10942066863052666        0.0000000000000000     
   5.9915417569322650E-002   8.3178845055340372E-002   0.0000000000000000     
   6.2098804821472731E-002   8.9361187740546660E-002   0.0000000000000000     
   6.4204974326896605E-002   9.5696297329336058E-002   0.0000000000000000     
   6.6233926085594239E-002  0.10218417382170859        0.0000000000000000     
   6.8185660097565659E-002  0.10882481721766422        0.0000000000000000     
   5.4597900582635611E-002   8.2537116639412142E-002   0.0000000000000000     
   5.6613143202520533E-002   8.8739096317004704E-002   0.0000000000000000     
   5.8557114434791981E-002   9.5096248002973754E-002   0.0000000000000000     
   6.0429814279449982E-002  0.10160857169731928        0.0000000000000000     
   6.2231242736494510E-002  0.10827606740004131        0.0000000000000000     
   8.6994352370215508E-002  0.11075367624197006        0.0000000000000000     
   8.9275633412129435E-002  0.11746153107190344        0.0000000000000000     
   9.1453682901371874E-002  0.12431081340718264        0.0000000000000000     
   9.3528500837942813E-002  0.13130152324780767        0.0000000000000000     
   9.5500087221842264E-002  0.13843366059377857        0.0000000000000000     
   8.0567214914426158E-002  0.11006362163862859        0.0000000000000000     
   8.2717015603428423E-002  0.11679736916934705        0.0000000000000000     
   8.4773063338206792E-002  0.12367249869565780        0.0000000000000000     
   8.6735358118761222E-002  0.13068901021756088        0.0000000000000000     
   8.8603899945091713E-002  0.13784690373505629        0.0000000000000000     
   7.4297650823542880E-002  0.10942066863052666        0.0000000000000000     
   7.6311537448025671E-002  0.11618057332593151        0.0000000000000000     
   7.8239690775673151E-002  0.12308091716597702        0.0000000000000000     
   8.0082110806485307E-002  0.13012170015066318        0.0000000000000000     
   8.1838797540462166E-002  0.13730292227999000        0.0000000000000000     
   6.8185660097565659E-002  0.10882481721766422        0.0000000000000000     
   7.0059198945921136E-002  0.11561114354165682        0.0000000000000000     
   7.1853565213770967E-002  0.12253606881814029        0.0000000000000000     
   7.3568758901115125E-002  0.12959959304711455        0.0000000000000000     
   7.5204780007953637E-002  0.13680171622857967        0.0000000000000000     
   6.2231242736494510E-002  0.10827606740004131        0.0000000000000000     
   6.3960000097114833E-002  0.11508907981652301        0.0000000000000000     
   6.5614686652500212E-002  0.12203795365214759        0.0000000000000000     
   6.7195302402650633E-002  0.12912268890691503        0.0000000000000000     
   6.8701847347566125E-002  0.13634328558082540        0.0000000000000000     
   9.5500087221842264E-002  0.13843366059377857        0.0000000000000000     
   9.7349850504298618E-002  0.14568043261008234        0.0000000000000000     
   9.9059199136540266E-002  0.15301504646170611        0.0000000000000000     
  0.10062813311856721       0.16043750214864982        0.0000000000000000     
  0.10205665245037944       0.16794779967091350        0.0000000000000000     
   8.8603899945091713E-002  0.13784690373505629        0.0000000000000000     
   9.0376941108976067E-002  0.14512099981698587        0.0000000000000000     
   9.2052733902192083E-002  0.15248611903219156        0.0000000000000000     
   9.3631278324739761E-002  0.15994226138067330        0.0000000000000000     
   9.5112574376619130E-002  0.16748942686243107        0.0000000000000000     
   8.1838797540462166E-002  0.13730292227999000        0.0000000000000000     
   8.3518356599470767E-002  0.14460186227558824        0.0000000000000000     
   8.5129393605378231E-002  0.15199579885908876        0.0000000000000000     
   8.6671908558184560E-002  0.15948473203049152        0.0000000000000000     
   8.8145901457889739E-002  0.16706866178979662        0.0000000000000000     
   7.5204780007953637E-002  0.13680171622857967        0.0000000000000000     
   7.6774096975782719E-002  0.14412301998588950        0.0000000000000000     
   7.8289178246098712E-002  0.15154408594239782        0.0000000000000000     
   7.9750023818901575E-002  0.15906491409810466        0.0000000000000000     
   8.1156633694191266E-002  0.16668550445301003        0.0000000000000000     
   6.8701847347566125E-002  0.13634328558082540        0.0000000000000000     
   7.0144162237911964E-002  0.14368447294788958        0.0000000000000000     
   7.1532087824353524E-002  0.15113098028211869        0.0000000000000000     
   7.2865624106890750E-002  0.15868280758351261        0.0000000000000000     
   7.4144771085523711E-002  0.16633995485207143        0.0000000000000000     
   0.0000000000000000        0.0000000000000000        0.0000000000000000     
   2.8800271589168982E-003   1.7450161195380191E-003   0.0000000000000000     
   5.8725796043456908E-003   3.8649590428109859E-003   0.0000000000000000     
   8.9776573362863772E-003   6.3598287698189010E-003   0.0000000000000000     
   1.2195260354738960E-002   9.2296253005617630E-003   0.0000000000000000     
   0.0000000000000000        0.0000000000000000        0.0000000000000000     
   2.6103175408938627E-003   1.5890861242619559E-003   0.0000000000000000     
   5.2897262614037413E-003   3.5569779680768741E-003   0.0000000000000000     
   8.0382261615296342E-003   5.9036755314447542E-003   0.0000000000000000     
   1.0855817241271543E-002   8.6291788143655970E-003   0.0000000000000000     
   0.0000000000000000        0.0000000000000000        0.0000000000000000     
   2.3401427121727491E-003   1.4590857386237762E-003   0.0000000000000000     
   4.7202580473240940E-003   3.3000270783190679E-003   0.0000000000000000     
   7.1403460054540345E-003   5.5228240190858752E-003   0.0000000000000000     
   9.6004065865625699E-003   8.1274765609241975E-003   0.0000000000000000     
   0.0000000000000000        0.0000000000000000        0.0000000000000000     
   2.0695026727535573E-003   1.3550149626234801E-003   0.0000000000000000     
   4.1641749621067516E-003   3.0941063735375673E-003   0.0000000000000000     
   6.2840168680595790E-003   5.2172742327422604E-003   0.0000000000000000     
   8.4290283906120408E-003   7.7245185402375627E-003   0.0000000000000000     
   0.0000000000000000        0.0000000000000000        0.0000000000000000     
   1.7983974226362890E-003   1.2768737962610673E-003   0.0000000000000000     
   3.6214770057517113E-003   2.9392158537323719E-003   0.0000000000000000     
   5.4692387493462677E-003   4.9870261724139133E-003   0.0000000000000000     
   7.3416826534199566E-003   7.4203047523056925E-003   0.0000000000000000     
   1.2195260354738960E-002   9.2296253005617630E-003   0.0000000000000000     
   1.5427645766414644E-002   1.2372339428082822E-002   0.0000000000000000     
   1.8577070678024634E-002   1.5685961945425323E-002   0.0000000000000000     
   2.1643535089568938E-002   1.9170492852589271E-002   0.0000000000000000     
   2.4627039001047551E-002   2.2825932149574665E-002   0.0000000000000000     
   1.0855817241271543E-002   8.6291788143655970E-003   0.0000000000000000     
   1.3689183549454588E-002   1.1651285852266144E-002   0.0000000000000000     
   1.6485009134903889E-002   1.4887794680573132E-002   0.0000000000000000     
   1.9243293997619440E-002   1.8338705299286565E-002   0.0000000000000000     
   2.1964038137601252E-002   2.2004017708406442E-002   0.0000000000000000     
   9.6004065865625699E-003   8.1274765609241975E-003   0.0000000000000000     
   1.2076956986958905E-002   1.1046650723791979E-002   0.0000000000000000     
   1.4546514402952248E-002   1.4213012527647166E-002   0.0000000000000000     
   1.7009078834542592E-002   1.7626561972489754E-002   0.0000000000000000     
   1.9464650281729941E-002   2.1287299058319747E-002   0.0000000000000000     
   8.4290283906120408E-003   7.7245185402375627E-003   0.0000000000000000     
   1.0590966078927601E-002   1.0558434042660332E-002   0.0000000000000000     
   1.2761586482169714E-002   1.3661615486647424E-002   0.0000000000000000     
   1.4940889600338386E-002   1.7034062872198844E-002   0.0000000000000000     
   1.7128875433433614E-002   2.0675776199314589E-002   0.0000000000000000     
   7.3416826534199566E-003   7.4203047523056925E-003   0.0000000000000000     
   9.2312108253606688E-003   1.0186635808871197E-002   0.0000000000000000     
   1.1130225372556288E-002   1.3233603557573909E-002   0.0000000000000000     
   1.3038726295006822E-002   1.6561207998413832E-002   0.0000000000000000     
   1.4956713592712265E-002   2.0169449131390970E-002   0.0000000000000000     
   2.4627039001047551E-002   2.2825932149574665E-002   0.0000000000000000     
   2.7531894542616685E-002   2.6674845280323711E-002   0.0000000000000000     
   3.0362413844432563E-002   3.0739797688778624E-002   0.0000000000000000     
   3.3118596906495178E-002   3.5020789374939403E-002   0.0000000000000000     
   3.5800443728804539E-002   3.9517820338806048E-002   0.0000000000000000     
   2.1964038137601252E-002   2.2004017708406442E-002   0.0000000000000000     
   2.4630845360160358E-002   2.5881474973888815E-002   0.0000000000000000     
   2.7227319470607799E-002   2.9968820161689749E-002   0.0000000000000000     
   2.9753460468943570E-002   3.4266053271809253E-002   0.0000000000000000     
   3.2209268355167686E-002   3.8773174304247308E-002   0.0000000000000000     
   1.9464650281729941E-002   2.1287299058319747E-002   0.0000000000000000     
   2.1884974576061336E-002   2.5176141579027495E-002   0.0000000000000000     
   2.4241797549083826E-002   2.9274007328503337E-002   0.0000000000000000     
   2.6535119200797406E-002   3.3580896306747286E-002   0.0000000000000000     
   2.8764939531202079E-002   3.8096808513759330E-002   0.0000000000000000     
   1.7128875433433614E-002   2.0675776199314589E-002   0.0000000000000000     
   1.9294282190319624E-002   2.4558845095739742E-002   0.0000000000000000     
   2.1405848079860644E-002   2.8655359189219371E-002   0.0000000000000000     
   2.3463573102056681E-002   3.2965318479753494E-002   0.0000000000000000     
   2.5467457256907730E-002   3.7488722967342090E-002   0.0000000000000000     
   1.4956713592712265E-002   2.0169449131390970E-002   0.0000000000000000     
   1.6858768202935210E-002   2.4029585524025565E-002   0.0000000000000000     
   1.8719471062938257E-002   2.8112875743837869E-002   0.0000000000000000     
   2.0538822172721394E-002   3.2419319790827884E-002   0.0000000000000000     
   2.2316821532284634E-002   3.6948917664995612E-002   0.0000000000000000     
   3.5800443728804539E-002   3.9517820338806048E-002   0.0000000000000000     
   3.8408485806607627E-002   4.4221002358321874E-002   0.0000000000000000     
   4.0943254635151423E-002   4.9120447211430211E-002   0.0000000000000000     
   4.3404750214435933E-002   5.4216154898131023E-002   0.0000000000000000     
   4.5792972544461158E-002   5.9508125418424339E-002   0.0000000000000000     
   3.2209268355167686E-002   3.8773174304247308E-002   0.0000000000000000     
   3.4597012752055074E-002   4.3485876318217459E-002   0.0000000000000000     
   3.6918963282380694E-002   4.8399852372933226E-002   0.0000000000000000     
   3.9175119946144546E-002   5.3515102468394596E-002   0.0000000000000000     
   4.1365482743346636E-002   5.8831626604601589E-002   0.0000000000000000     
   2.8764939531202079E-002   3.8096808513759330E-002   0.0000000000000000     
   3.0933547679443993E-002   4.2819571307152991E-002   0.0000000000000000     
   3.3043232784669307E-002   4.7747012044541785E-002   0.0000000000000000     
   3.5093994846878029E-002   5.2879130725925705E-002   0.0000000000000000     
   3.7085833866070131E-002   5.8215927351304771E-002   0.0000000000000000     
   2.5467457256907730E-002   3.7488722967342090E-002   0.0000000000000000     
   2.7418090588774389E-002   4.2222087325128450E-002   0.0000000000000000     
   2.9316063142017262E-002   4.7161926226255889E-002   0.0000000000000000     
   3.1161374916636349E-002   5.2308239670724357E-002   0.0000000000000000     
   3.2954025912631663E-002   5.7661027658533898E-002   0.0000000000000000     
   2.2316821532284634E-002   3.6948917664995612E-002   0.0000000000000000     
   2.4050641480046257E-002   4.1693424372143885E-002   0.0000000000000000     
   2.5737454354424559E-002   4.6644594918075530E-002   0.0000000000000000     
   2.7377260155419539E-002   5.1802429302790554E-002   0.0000000000000000     
   2.8970058883031200E-002   5.7166927526288949E-002   0.0000000000000000     
   4.5792972544461158E-002   5.9508125418424339E-002   0.0000000000000000     
   4.8106969825893749E-002   6.4990013822553247E-002   0.0000000000000000     
   5.0345790259400350E-002   7.0655475160760858E-002   0.0000000000000000     
   5.2509433844980975E-002   7.6504509433047152E-002   0.0000000000000000     
   5.4597900582635611E-002   8.2537116639412142E-002   0.0000000000000000     
   4.1365482743346636E-002   5.8831626604601589E-002   0.0000000000000000     
   4.3488160311974305E-002   6.4339258949711486E-002   0.0000000000000000     
   4.5541261290014928E-002   7.0027833671881562E-002   0.0000000000000000     
   4.7524785677468498E-002   7.5897350771111843E-002   0.0000000000000000     
   4.9438733474335014E-002   8.1947810247402303E-002   0.0000000000000000     
   3.7085833866070131E-002   5.8215927351304771E-002   0.0000000000000000     
   3.9016450826294312E-002   6.3744884109919103E-002   0.0000000000000000     
   4.0883546711599217E-002   6.9453483191008816E-002   0.0000000000000000     
   4.2687121521984853E-002   7.5341724594573917E-002   0.0000000000000000     
   4.4427175257451212E-002   8.1409608320614391E-002   0.0000000000000000     
   3.2954025912631663E-002   5.7661027658533898E-002   0.0000000000000000     
   3.4691841368853754E-002   6.3206889303176098E-002   0.0000000000000000     
   3.6372646524153202E-002   6.8932423718142580E-002   0.0000000000000000     
   3.7996441378530026E-002   7.4837630903433358E-002   0.0000000000000000     
   3.9563225931984213E-002   8.0922510859048391E-002   0.0000000000000000     
   2.8970058883031200E-002   5.7166927526288949E-002   0.0000000000000000     
   3.0514331939652625E-002   6.2725274529482469E-002   0.0000000000000000     
   3.2008560727676896E-002   6.8464655253282880E-002   0.0000000000000000     
   3.3452745247104031E-002   7.4385069697690154E-002   0.0000000000000000     
   3.4846885497934008E-002   8.0486517862704290E-002   0.0000000000000000     
   5.4597900582635611E-002   8.2537116639412142E-002   0.0000000000000000     
   5.6613143202520533E-002   8.8739096317004704E-002   0.0000000000000000     
   5.8557114434791981E-002   9.5096248002973754E-002   0.0000000000000000     
   6.0429814279449982E-002  0.10160857169731928        0.0000000000000000     
   6.2231242736494510E-002  0.10827606740004131        0.0000000000000000     
   4.9438733474335014E-002   8.1947810247402303E-002   0.0000000000000000     
   5.1285099947000604E-002   8.8167577513766221E-002   0.0000000000000000     
   5.3065880361851364E-002   9.4545017983216809E-002   0.0000000000000000     
   5.4781074718887317E-002  0.10108013165575407        0.0000000000000000     
   5.6430683018108448E-002  0.10777291853137801        0.0000000000000000     
   4.4427175257451212E-002   8.1409608320614391E-002   0.0000000000000000     
   4.6105463278627211E-002   8.7646903338871790E-002   0.0000000000000000     
   4.7723740946141749E-002   9.4043378619087584E-002   0.0000000000000000     
   4.9282008259994840E-002  0.10059903416126180        0.0000000000000000     
   5.0780265220186471E-002  0.10731386996539445        0.0000000000000000     
   3.9563225931984213E-002   8.0922510859048391E-002   0.0000000000000000     
   4.1074233197400382E-002   8.7177073792321438E-002   0.0000000000000000     
   4.2530696187663170E-002   9.3591329910586135E-002   0.0000000000000000     
   4.3932614902772574E-002  0.10016527921384252        0.0000000000000000     
   4.5279989342728581E-002  0.10689892170209062        0.0000000000000000     
   3.4846885497934008E-002   8.0486517862704290E-002   0.0000000000000000     
   3.6191409703320111E-002   8.6758088874115125E-002   0.0000000000000000     
   3.7486746086415612E-002   9.3188871857712435E-002   0.0000000000000000     
   3.8732894647220489E-002   9.9778866813496236E-002   0.0000000000000000     
   3.9929855385734778E-002  0.10652807374146650        0.0000000000000000     
   6.2231242736494510E-002  0.10827606740004131        0.0000000000000000     
   6.3960000097114833E-002  0.11508907981652301        0.0000000000000000     
   6.5614686652500212E-002  0.12203795365214759        0.0000000000000000     
   6.7195302402650633E-002  0.12912268890691503        0.0000000000000000     
   6.8701847347566125E-002  0.13634328558082540        0.0000000000000000     
   5.6430683018108448E-002  0.10777291853137801        0.0000000000000000     
   5.8012779426304617E-002  0.11461119245600271        0.0000000000000000     
   5.9525438110265678E-002  0.12158276727554225        0.0000000000000000     
   6.0968659069991611E-002  0.12868764298999658        0.0000000000000000     
   6.2342442305482443E-002  0.13592581959936575        0.0000000000000000     
   5.0780265220186471E-002  0.10731386996539445        0.0000000000000000     
   5.2216375458188337E-002  0.11417429176556866        0.0000000000000000     
   5.3588202605472118E-002  0.12116670529586754        0.0000000000000000     
   5.4895746662037809E-002  0.12829111055629114        0.0000000000000000     
   5.6139007627885436E-002  0.13554750754683945        0.0000000000000000     
   4.5279989342728581E-002  0.10689892170209062        0.0000000000000000     
   4.6570788192765979E-002  0.11377837774522079        0.0000000000000000     
   4.7802980138119525E-002  0.12078976771312351        0.0000000000000000     
   4.8976565178789233E-002  0.12793309160579872        0.0000000000000000     
   5.0091543314775090E-002  0.13520834942324644        0.0000000000000000     
   3.9929855385734778E-002  0.10652807374146650        0.0000000000000000     
   4.1076017630037542E-002  0.11342345039495917        0.0000000000000000     
   4.2169770708207911E-002  0.12045195452731011        0.0000000000000000     
   4.3211114620245863E-002  0.12761358613851934        0.0000000000000000     
   4.4200049366151420E-002  0.13490834522858683        0.0000000000000000     
   6.8701847347566125E-002  0.13634328558082540        0.0000000000000000     
   7.0144162237911964E-002  0.14368447294788958        0.0000000000000000     
   7.1532087824353524E-002  0.15113098028211869        0.0000000000000000     
   7.2865624106890750E-002  0.15868280758351261        0.0000000000000000     
   7.4144771085523711E-002  0.16633995485207143        0.0000000000000000     
   6.2342442305482443E-002  0.13592581959936575        0.0000000000000000     
   6.3651570237582167E-002  0.14328577200338949        0.0000000000000000     
   6.4900825287134797E-002  0.15075597510180755        0.0000000000000000     
   6.6090207454140334E-002  0.15833642889461993        0.0000000000000000     
   6.7219716738598806E-002  0.16602713338182665        0.0000000000000000     
   5.6139007627885436E-002  0.13554750754683945        0.0000000000000000     
   5.7319338826517047E-002  0.14292646799419004        0.0000000000000000     
   5.8438093581434716E-002  0.15041856362502062        0.0000000000000000     
   5.9495271892638472E-002  0.15802379443933112        0.0000000000000000     
   6.0490873760128273E-002  0.16574216043712159        0.0000000000000000     
   5.0091543314775090E-002  0.13520834942324644        0.0000000000000000     
   5.1147468004716611E-002  0.14260656092029131        0.0000000000000000     
   5.2143892707253288E-002  0.15011874585175791        0.0000000000000000     
   5.3080817422385108E-002  0.15774490421764623        0.0000000000000000     
   5.3958242150112100E-002  0.16548503601795625        0.0000000000000000     
   4.4200049366151420E-002  0.13490834522858683        0.0000000000000000     
   4.5135957772180858E-002  0.14232605078169325        0.0000000000000000     
   4.6018222664590484E-002  0.14985652178201939        0.0000000000000000     
   4.6846844043380298E-002  0.15749975822956516        0.0000000000000000     
   4.7621821908550313E-002  0.16525576012433063        0.0000000000000000     
   0.0000000000000000        0.0000000000000000        0.0000000000000000     
   1.7983974226362890E-003   1.2768737962610673E-003   0.0000000000000000     
   3.6214770057517113E-003   2.9392158537323719E-003   0.0000000000000000     
   5.4692387493462677E-003   4.9870261724139133E-003   0.0000000000000000     
   7.3416826534199566E-003   7.4203047523056925E-003   0.0000000000000000     
   0.0000000000000000        0.0000000000000000        0.0000000000000000     
   1.5351012202173225E-003   1.2175546087147969E-003   0.0000000000000000     
   3.0995195686187899E-003   2.8208528385158288E-003   0.0000000000000000     
   4.6932550452044022E-003   4.8098946894030940E-003   0.0000000000000000     
   6.3163076499741597E-003   7.1846801613765950E-003   0.0000000000000000     
   0.0000000000000000        0.0000000000000000        0.0000000000000000     
   1.2878883238930387E-003   1.1699497691629282E-003   0.0000000000000000     
   2.6056580410678005E-003   2.7245146475002838E-003   0.0000000000000000     
   3.9533091515242856E-003   4.6636946350120658E-003   0.0000000000000000     
   5.3308416552624947E-003   6.9874897316982770E-003   0.0000000000000000     
   0.0000000000000000        0.0000000000000000        0.0000000000000000     
   1.0567587336634372E-003   1.1340592776054614E-003   0.0000000000000000     
   2.1398924230987435E-003   2.6502012806857386E-003   0.0000000000000000     
   3.2494010683059189E-003   4.5484260092408298E-003   0.0000000000000000     
   4.3852846692849640E-003   6.8287334632707395E-003   0.0000000000000000     
   0.0000000000000000        0.0000000000000000        0.0000000000000000     
   8.4171244952851824E-004   1.1098831340423964E-003   0.0000000000000000     
   1.7022227147116182E-003   2.5979127380721919E-003   0.0000000000000000     
   2.5815307955492999E-003   4.4640888120893859E-003   0.0000000000000000     
   3.4796366920415637E-003   6.7084113560939790E-003   0.0000000000000000     
   7.3416826534199566E-003   7.4203047523056925E-003   0.0000000000000000     
   9.2312108253606688E-003   1.0186635808871197E-002   0.0000000000000000     
   1.1130225372556288E-002   1.3233603557573909E-002   0.0000000000000000     
   1.3038726295006822E-002   1.6561207998413832E-002   0.0000000000000000     
   1.4956713592712265E-002   2.0169449131390970E-002   0.0000000000000000     
   6.3163076499741597E-003   7.1846801613765950E-003   0.0000000000000000     
   7.9560508492043189E-003   9.8956247930099862E-003   0.0000000000000000     
   9.5998581091711350E-003   1.2893144122876924E-002   0.0000000000000000     
   1.1247729429874608E-002   1.6177238150977408E-002   0.0000000000000000     
   1.2899664811314738E-002   1.9747906877311441E-002   0.0000000000000000     
   5.3308416552624947E-003   6.9874897316982770E-003   0.0000000000000000     
   6.7238457734047595E-003   9.6497697656621143E-003   0.0000000000000000     
   8.1179117270734104E-003   1.2604404565006775E-002   0.0000000000000000     
   9.5130395162684490E-003   1.5851394129732257E-002   0.0000000000000000     
   1.0909229140989872E-002   1.9390738459838568E-002   0.0000000000000000     
   4.3852846692849640E-003   6.8287334632707395E-003   0.0000000000000000     
   5.5345955979619913E-003   9.4490707268275777E-003   0.0000000000000000     
   6.6843862262631172E-003   1.2367384883963457E-002   0.0000000000000000     
   7.8346565541883399E-003   1.5583675934678382E-002   0.0000000000000000     
   8.9854065817376629E-003   1.9097943878972349E-002   0.0000000000000000     
   3.4796366920415637E-003   6.7084113560939790E-003   0.0000000000000000     
   4.3883003228760136E-003   9.2935276765063763E-003   0.0000000000000000     
   5.2992816067402547E-003   1.2182085079746977E-002   0.0000000000000000     
   6.2125805436342874E-003   1.5374083565815783E-002   0.0000000000000000     
   7.1281971335581118E-003   1.8869523134712792E-002   0.0000000000000000     
   1.4956713592712265E-002   2.0169449131390970E-002   0.0000000000000000     
   1.6858768202935210E-002   2.4029585524025565E-002   0.0000000000000000     
   1.8719471062938257E-002   2.8112875743837869E-002   0.0000000000000000     
   2.0538822172721394E-002   3.2419319790827884E-002   0.0000000000000000     
   2.2316821532284634E-002   3.6948917664995612E-002   0.0000000000000000     
   1.2899664811314738E-002   1.9747906877311441E-002   0.0000000000000000     
   1.4539118116776512E-002   2.3578964691611918E-002   0.0000000000000000     
   1.6149543209544912E-002   2.7644225983611759E-002   0.0000000000000000     
   1.7730940089619941E-002   3.1943690753310945E-002   0.0000000000000000     
   1.9283308757001592E-002   3.6477359000709496E-002   0.0000000000000000     
   1.0909229140989872E-002   1.9390738459838568E-002   0.0000000000000000     
   1.2296017434711931E-002   2.3197584426225781E-002   0.0000000000000000     
   1.3662941230908875E-002   2.7247078899793983E-002   0.0000000000000000     
   1.5010000529580703E-002   3.1539221880543179E-002   0.0000000000000000     
   1.6337195330727413E-002   3.6074013368473351E-002   0.0000000000000000     
   8.9854065817376629E-003   1.9097943878972349E-002   0.0000000000000000     
   1.0129466156741469E-002   2.2885444727867150E-002   0.0000000000000000     
   1.1259665127030140E-002   2.6921434492384558E-002   0.0000000000000000     
   1.2376003492603684E-002   3.1205913172524569E-002   0.0000000000000000     
   1.3478481253462094E-002   3.5738880768287198E-002   0.0000000000000000     
   7.1281971335581118E-003   1.8869523134712792E-002   0.0000000000000000     
   8.0394642828651216E-003   2.2642545596536015E-002   0.0000000000000000     
   8.9397148979087106E-003   2.6667292761383465E-002   0.0000000000000000     
   9.8289489786888840E-003   3.0943764629255133E-002   0.0000000000000000     
   1.0707166525205635E-002   3.5471961200151024E-002   0.0000000000000000     
   2.2316821532284634E-002   3.6948917664995612E-002   0.0000000000000000     
   2.4050641480046257E-002   4.1693424372143885E-002   0.0000000000000000     
   2.5737454354424559E-002   4.6644594918075530E-002   0.0000000000000000     
   2.7377260155419539E-002   5.1802429302790554E-002   0.0000000000000000     
   2.8970058883031200E-002   5.7166927526288949E-002   0.0000000000000000     
   1.9283308757001592E-002   3.6477359000709496E-002   0.0000000000000000     
   2.0800447127007109E-002   4.1231375193329714E-002   0.0000000000000000     
   2.2276153114953724E-002   4.6191883798693940E-002   0.0000000000000000     
   2.3710426720841438E-002   5.1358884816802175E-002   0.0000000000000000     
   2.5103267944670247E-002   5.6732378247654411E-002   0.0000000000000000     
   1.6337195330727413E-002   3.6074013368473351E-002   0.0000000000000000     
   1.7636754303404455E-002   4.0833732533816440E-002   0.0000000000000000     
   1.8900906116667282E-002   4.5800658546804374E-002   0.0000000000000000     
   2.0129650770515897E-002   5.0974791407437131E-002   0.0000000000000000     
   2.1322988264950285E-002   5.6356131115714733E-002   0.0000000000000000     
   1.3478481253462094E-002   3.5738880768287198E-002   0.0000000000000000     
   1.4559563009238304E-002   4.0500496393604070E-002   0.0000000000000000     
   1.5611713359565241E-002   4.5470919162406809E-002   0.0000000000000000     
   1.6634932304442917E-002   5.0650149074695422E-002   0.0000000000000000     
   1.7629219843871311E-002   5.6038186130469909E-002   0.0000000000000000     
   1.0707166525205635E-002   3.5471961200151024E-002   0.0000000000000000     
   1.1568873244508648E-002   4.0231666772692576E-002   0.0000000000000000     
   1.2408574843647600E-002   4.5202665645501253E-002   0.0000000000000000     
   1.3226271322622494E-002   5.0384957818577047E-002   0.0000000000000000     
   1.4021962681433329E-002   5.5778543291919967E-002   0.0000000000000000     
   2.8970058883031200E-002   5.7166927526288949E-002   0.0000000000000000     
   3.0514331939652625E-002   6.2725274529482469E-002   0.0000000000000000     
   3.2008560727676896E-002   6.8464655253282880E-002   0.0000000000000000     
   3.3452745247104031E-002   7.4385069697690154E-002   0.0000000000000000     
   3.4846885497934008E-002   8.0486517862704290E-002   0.0000000000000000     
   2.5103267944670247E-002   5.6732378247654411E-002   0.0000000000000000     
   2.6453862728183487E-002   6.2300521567799874E-002   0.0000000000000000     
   2.7761397013124467E-002   6.8051472253787798E-002   0.0000000000000000     
   2.9025870799493200E-002   7.3985230305618210E-002   0.0000000000000000     
   3.0247284087289682E-002   8.0101795723291069E-002   0.0000000000000000     
   2.1322988264950285E-002   5.6356131115714733E-002   0.0000000000000000     
   2.2480373923938875E-002   6.1933112197089919E-002   0.0000000000000000     
   2.3601263071450072E-002   6.7694169177015470E-002   0.0000000000000000     
   2.4685655707483878E-002   7.3639302055491421E-002   0.0000000000000000     
   2.5733551832040295E-002   7.9768510832517722E-002   0.0000000000000000     
   1.7629219843871311E-002   5.6038186130469909E-002   0.0000000000000000     
   1.8593865526918801E-002   6.1623046417352632E-002   0.0000000000000000     
   1.9528158902653716E-002   6.7392746022965896E-002   0.0000000000000000     
   2.0432099971076065E-002   7.3347284947309785E-002   0.0000000000000000     
   2.1305688732185860E-002   7.9486663190384221E-002   0.0000000000000000     
   1.4021962681433329E-002   5.5778543291919967E-002   0.0000000000000000     
   1.4794337537123246E-002   6.1370324228587986E-002   0.0000000000000000     
   1.5542084506735391E-002   6.7147202791639091E-002   0.0000000000000000     
   1.6265203590269766E-002   7.3109178981073275E-002   0.0000000000000000     
   1.6963694787726365E-002   7.9256252796890567E-002   0.0000000000000000     
   3.4846885497934008E-002   8.0486517862704290E-002   0.0000000000000000     
   3.6191409703320111E-002   8.6758088874115125E-002   0.0000000000000000     
   3.7486746086415612E-002   9.3188871857712435E-002   0.0000000000000000     
   3.8732894647220489E-002   9.9778866813496236E-002   0.0000000000000000     
   3.9929855385734778E-002  0.10652807374146650        0.0000000000000000     
   3.0247284087289682E-002   8.0101795723291069E-002   0.0000000000000000     
   3.1425310576303572E-002   8.6388991019387226E-002   0.0000000000000000     
   3.2559623966324523E-002   9.2834638706487477E-002   0.0000000000000000     
   3.3650224257352555E-002   9.9438738784591835E-002   0.0000000000000000     
   3.4697111449387648E-002  0.10620129125370027        0.0000000000000000     
   2.5733551832040295E-002   7.9768510832517722E-002   0.0000000000000000     
   2.6744253596267933E-002   8.6068822663272093E-002   0.0000000000000000     
   2.7717063151315394E-002   9.2527264702932280E-002   0.0000000000000000     
   2.8651980497182677E-002   9.9143836951498254E-002   0.0000000000000000     
   2.9549005633869800E-002  0.10591853940897003        0.0000000000000000     
   2.1305688732185860E-002   7.9486663190384221E-002   0.0000000000000000     
   2.2148238763213198E-002   8.5797583805769739E-002   0.0000000000000000     
   2.2959063641388208E-002   9.2266749847046831E-002   0.0000000000000000     
   2.3738163366710887E-002   9.8894161314215537E-002   0.0000000000000000     
   2.4485537939181221E-002  0.10567981820727580        0.0000000000000000     
   1.6963694787726365E-002   7.9256252796890567E-002   0.0000000000000000     
   1.7637266077139370E-002   8.5575274446880123E-002   0.0000000000000000     
   1.8285625436542968E-002   9.2053094138831143E-002   0.0000000000000000     
   1.8908772865937149E-002   9.8689711872743641E-002   0.0000000000000000     
   1.9506708365321920E-002  0.10548512764861759        0.0000000000000000     
   3.9929855385734778E-002  0.10652807374146650        0.0000000000000000     
   4.1076017630037542E-002  0.11342345039495917        0.0000000000000000     
   4.2169770708207911E-002  0.12045195452731011        0.0000000000000000     
   4.3211114620245863E-002  0.12761358613851934        0.0000000000000000     
   4.4200049366151420E-002  0.13490834522858683        0.0000000000000000     
   3.4697111449387648E-002  0.10620129125370027        0.0000000000000000     
   3.5699155924888121E-002  0.11311040942661625        0.0000000000000000     
   3.6655228066312273E-002  0.12015420661614322        0.0000000000000000     
   3.7565327873660091E-002  0.12733268282228113        0.0000000000000000     
   3.8429455346931589E-002  0.13464583804503005        0.0000000000000000     
   2.9549005633869800E-002  0.10591853940897003        0.0000000000000000     
   3.0407295232202761E-002  0.11284015455202452        0.0000000000000000     
   3.1226005963007578E-002  0.11989746485733861        0.0000000000000000     
   3.2005137826284266E-002  0.12709047032491236        0.0000000000000000     
   3.2744690822032796E-002  0.13441917095474570        0.0000000000000000     
   2.4485537939181221E-002  0.10567981820727580        0.0000000000000000     
   2.5200435551981468E-002  0.11261268577118400        0.0000000000000000     
   2.5882104398293856E-002  0.11968172925089636        0.0000000000000000     
   2.6530544478118367E-002  0.12688694864641301        0.0000000000000000     
   2.7145755791455027E-002  0.13422834395773384        0.0000000000000000     
   1.9506708365321920E-002  0.10548512764861759        0.0000000000000000     
   2.0078576884224240E-002  0.11242800308409463        0.0000000000000000     
   2.0623523372171076E-002  0.11950699979681645        0.0000000000000000     
   2.1141547829162430E-002  0.12672211778678302        0.0000000000000000     
   2.1632650255198293E-002  0.13407335705399440        0.0000000000000000     
   4.4200049366151420E-002  0.13490834522858683        0.0000000000000000     
   4.5135957772180858E-002  0.14232605078169325        0.0000000000000000     
   4.6018222664590484E-002  0.14985652178201939        0.0000000000000000     
   4.6846844043380298E-002  0.15749975822956516        0.0000000000000000     
   4.7621821908550313E-002  0.16525576012433063        0.0000000000000000     
   3.8429455346931589E-002  0.13464583804503005        0.0000000000000000     
   3.9247551602197152E-002  0.14208181295776140        0.0000000000000000     
   4.0019557755527159E-002  0.14962874823384675        0.0000000000000000     
   4.0745473806921631E-002  0.15728664387328611        0.0000000000000000     
   4.1425299756380547E-002  0.16505549987607940        0.0000000000000000     
   3.2744690822032796E-002  0.13441917095474570        0.0000000000000000     
   3.3444992968052874E-002  0.14187072282786131        0.0000000000000000     
   3.4106372282144172E-002  0.14943228202528175        0.0000000000000000     
   3.4728828764306711E-002  0.15710384854700707        0.0000000000000000     
   3.5312362414540471E-002  0.16488542239303719        0.0000000000000000     
   2.7145755791455027E-002  0.13422834395773384        0.0000000000000000     
   2.7728281869748014E-002  0.14169278039199293        0.0000000000000000     
   2.8278666244441517E-002  0.14926712315632432        0.0000000000000000     
   2.8796908915535532E-002  0.15695137225072806        0.0000000000000000     
   2.9283009883030075E-002  0.16474552767520401        0.0000000000000000     
   2.1632650255198293E-002  0.13407335705399440        0.0000000000000000     
   2.2097418307282578E-002  0.14154798565015628        0.0000000000000000     
   2.2536439642419182E-002  0.14913327162697451        0.0000000000000000     
   2.2949714260608111E-002  0.15682921498444899        0.0000000000000000     
   2.3337242161849365E-002  0.16463581572257985        0.0000000000000000     
   0.0000000000000000        0.0000000000000000        0.0000000000000000     
   8.4171244952851824E-004   1.1098831340423964E-003   0.0000000000000000     
   1.7022227147116182E-003   2.5979127380721919E-003   0.0000000000000000     
   2.5815307955492999E-003   4.4640888120893859E-003   0.0000000000000000     
   3.4796366920415637E-003   6.7084113560939790E-003   0.0000000000000000     
   0.0000000000000000        0.0000000000000000        0.0000000000000000     
   6.3385194811835385E-004   1.0938540356710586E-003   0.0000000000000000     
   1.2781174798475851E-003   2.5617961238709182E-003   0.0000000000000000     
   1.9327965951876939E-003   4.4038262645995779E-003   0.0000000000000000     
   2.5978892941386799E-003   6.6199444578570396E-003   0.0000000000000000     
   0.0000000000000000        0.0000000000000000        0.0000000000000000     
   4.2427970606301628E-004   1.0824046796887746E-003   0.0000000000000000     
   8.5304528244780427E-004   2.5359985422931928E-003   0.0000000000000000     
   1.2862967291543642E-003   4.3607815878132549E-003   0.0000000000000000     
   1.7240340461826961E-003   6.5567538162489593E-003   0.0000000000000000     
   0.0000000000000000        0.0000000000000000        0.0000000000000000     
   2.1299572336250540E-004   1.0755350660955436E-003   0.0000000000000000     
   4.2700612251227578E-004   2.5205199933390145E-003   0.0000000000000000     
   6.4203119744931118E-004   4.3349547817304124E-003   0.0000000000000000     
   8.5807094817361141E-004   6.5188394312697389E-003   0.0000000000000000     
   0.0000000000000000        0.0000000000000000        0.0000000000000000     
   1.6821315390949665E-014   1.0732451948913661E-003   0.0000000000000000     
   4.0999376203082472E-014   2.5153604770083841E-003   0.0000000000000000     
   7.2534426381887229E-014   4.3263458463510549E-003   0.0000000000000000     
   1.1142614066671219E-013   6.5062013029193767E-003   0.0000000000000000     
   3.4796366920415637E-003   6.7084113560939790E-003   0.0000000000000000     
   4.3883003228760136E-003   9.2935276765063763E-003   0.0000000000000000     
   5.2992816067402547E-003   1.2182085079746977E-002   0.0000000000000000     
   6.2125805436342874E-003   1.5374083565815783E-002   0.0000000000000000     
   7.1281971335581118E-003   1.8869523134712792E-002   0.0000000000000000     
   2.5978892941386799E-003   6.6199444578570396E-003   0.0000000000000000     
   3.2704181840255702E-003   9.1771832524443053E-003   0.0000000000000000     
   3.9474058721733910E-003   1.2042575197162382E-002   0.0000000000000000     
   4.6288523585821416E-003   1.5216120292011262E-002   0.0000000000000000     
   5.3147576432518231E-003   1.8697818536990953E-002   0.0000000000000000     
   1.7240340461826961E-003   6.5567538162489593E-003   0.0000000000000000     
   2.1664074172894035E-003   9.0940800923871631E-003   0.0000000000000000     
   2.6135670262310900E-003   1.1942925281014724E-002   0.0000000000000000     
   3.0655128730077558E-003   1.5103289382131633E-002   0.0000000000000000     
   3.5222449576194012E-003   1.8575172395737902E-002   0.0000000000000000     
   8.5807094817361141E-004   6.5188394312697389E-003   0.0000000000000000     
   1.0762680226675128E-003   9.0442181963349480E-003   0.0000000000000000     
   1.2977650689133522E-003   1.1883135331304001E-002   0.0000000000000000     
   1.5225620869111301E-003   1.5035590836176890E-002   0.0000000000000000     
   1.7506590766608451E-003   1.8501584710953627E-002   0.0000000000000000     
   1.1142614066671219E-013   6.5062013029193767E-003   0.0000000000000000     
   1.5989936967813340E-013   9.0275975642876618E-003   0.0000000000000000     
   2.2017868620992018E-013   1.1863205348030216E-002   0.0000000000000000     
   2.9226420376448747E-013   1.5013024654147038E-002   0.0000000000000000     
   3.7615581222755212E-013   1.8477055482638137E-002   0.0000000000000000     
   7.1281971335581118E-003   1.8869523134712792E-002   0.0000000000000000     
   8.0394642828651216E-003   2.2642545596536015E-002   0.0000000000000000     
   8.9397148979087106E-003   2.6667292761383465E-002   0.0000000000000000     
   9.8289489786888840E-003   3.0943764629255133E-002   0.0000000000000000     
   1.0707166525205635E-002   3.5471961200151024E-002   0.0000000000000000     
   5.3147576432518231E-003   1.8697818536990953E-002   0.0000000000000000     
   5.9982023863446102E-003   2.2460301604684086E-002   0.0000000000000000     
   6.6722672480226761E-003   2.6476201167673286E-002   0.0000000000000000     
   7.3369522282860245E-003   3.0745517225958568E-002   0.0000000000000000     
   7.9922573271346518E-003   3.5268249779539920E-002   0.0000000000000000     
   3.5222449576194012E-003   1.8575172395737902E-002   0.0000000000000000     
   3.9778710404416492E-003   2.2330127324763045E-002   0.0000000000000000     
   4.4264988818501260E-003   2.6339707172136614E-002   0.0000000000000000     
   4.8681284818448299E-003   3.0603911937858590E-002   0.0000000000000000     
   5.3027598404257609E-003   3.5122741621928986E-002   0.0000000000000000     
   1.7506590766608451E-003   1.8501584710953627E-002   0.0000000000000000     
   1.9784702451562403E-003   2.2252022756772905E-002   0.0000000000000000     
   2.2024097993910583E-003   2.6257810774773429E-002   0.0000000000000000     
   2.4224777393652992E-003   3.0518948764955204E-002   0.0000000000000000     
   2.6386740650789619E-003   3.5035436727318230E-002   0.0000000000000000     
   3.7615581222755212E-013   1.8477055482638137E-002   0.0000000000000000     
   4.8838288014413367E-013   2.2225987900713649E-002   0.0000000000000000     
   6.4547539947550081E-013   2.6230511975583744E-002   0.0000000000000000     
   8.4743274002914079E-013   3.0490627707248408E-002   0.0000000000000000     
   1.0942557623905280E-012   3.5006335095707650E-002   0.0000000000000000     
   1.0707166525205635E-002   3.5471961200151024E-002   0.0000000000000000     
   1.1568873244508648E-002   4.0231666772692576E-002   0.0000000000000000     
   1.2408574843647600E-002   4.5202665645501253E-002   0.0000000000000000     
   1.3226271322622494E-002   5.0384957818577047E-002   0.0000000000000000     
   1.4021962681433329E-002   5.5778543291919967E-002   0.0000000000000000     
   7.9922573271346518E-003   3.5268249779539920E-002   0.0000000000000000     
   8.6352394168035841E-003   4.0024618706574602E-002   0.0000000000000000     
   9.2629553695278474E-003   4.4994843885219890E-002   0.0000000000000000     
   9.8754051853074398E-003   5.0178925315475784E-002   0.0000000000000000     
   1.0472588864142365E-002   5.5576862997342276E-002   0.0000000000000000     
   5.3027598404257609E-003   3.5122741621928986E-002   0.0000000000000000     
   5.7292159337112136E-003   3.9876727230742766E-002   0.0000000000000000     
   6.1463197378194782E-003   4.4846399770694892E-002   0.0000000000000000     
   6.5540712527505582E-003   5.0031759241785378E-002   0.0000000000000000     
   6.9524704785044527E-003   5.5432805644014226E-002   0.0000000000000000     
   2.6386740650789619E-003   3.5035436727318230E-002   0.0000000000000000     
   2.8508027952315320E-003   3.9787992345197067E-002   0.0000000000000000     
   3.0586679485224951E-003   4.4757333301926279E-002   0.0000000000000000     
   3.2622695249518475E-003   4.9943459597505867E-002   0.0000000000000000     
   3.4616075245195938E-003   5.5346371231935830E-002   0.0000000000000000     
   1.0942557623905280E-012   3.5006335095707650E-002   0.0000000000000000     
   1.3645428103420398E-012   3.9758414049937504E-002   0.0000000000000000     
   1.6368935829187692E-012   4.4727644478914023E-002   0.0000000000000000     
   1.9113088526147640E-012   4.9914026382637221E-002   0.0000000000000000     
   2.1877872777298357E-012   5.5317559761107075E-002   0.0000000000000000     
   1.4021962681433329E-002   5.5778543291919967E-002   0.0000000000000000     
   1.4794337537123246E-002   6.1370324228587986E-002   0.0000000000000000     
   1.5542084506735391E-002   6.7147202791639091E-002   0.0000000000000000     
   1.6265203590269766E-002   7.3109178981073275E-002   0.0000000000000000     
   1.6963694787726365E-002   7.9256252796890567E-002   0.0000000000000000     
   1.0472588864142365E-002   5.5576862997342276E-002   0.0000000000000000     
   1.1052663101596924E-002   6.1174280134413013E-002   0.0000000000000000     
   1.1613784593235428E-002   6.6956799930281669E-002   0.0000000000000000     
   1.2155953339057878E-002   7.2924422384948243E-002   0.0000000000000000     
   1.2679169339064272E-002   7.9077147498412714E-002   0.0000000000000000     
   6.9524704785044527E-003   5.5432805644014226E-002   0.0000000000000000     
   7.3397153673845266E-003   6.1034248638444762E-002   0.0000000000000000     
   7.7140038716941479E-003   6.6820797886140329E-002   0.0000000000000000     
   8.0753359914333168E-003   7.2792453387100955E-002   0.0000000000000000     
   8.4237117266020341E-003   7.8949215141326579E-002   0.0000000000000000     
   3.4616075245195938E-003   5.5346371231935830E-002   0.0000000000000000     
   3.6554943344860530E-003   6.0950229740683211E-002   0.0000000000000000     
   3.8427423421115484E-003   6.6739196659215086E-002   0.0000000000000000     
   4.0233515473960813E-003   7.2713271987531386E-002   0.0000000000000000     
   4.1973219503396494E-003   7.8872455725632187E-002   0.0000000000000000     
   2.1877872777298357E-012   5.5317559761107075E-002   0.0000000000000000     
   2.9015037985094527E-012   6.0922223441128368E-002   0.0000000000000000     
   4.4876304820633262E-012   6.6711996249505856E-002   0.0000000000000000     
   6.9461695916634911E-012   7.2686878186239576E-002   0.0000000000000000     
   1.0277120517446225E-011   7.8846869251329513E-002   0.0000000000000000     
   1.6963694787726365E-002   7.9256252796890567E-002   0.0000000000000000     
   1.7637266077139370E-002   8.5575274446880123E-002   0.0000000000000000     
   1.8285625436542968E-002   9.2053094138831143E-002   0.0000000000000000     
   1.8908772865937149E-002   9.8689711872743641E-002   0.0000000000000000     
   1.9506708365321920E-002  0.10548512764861759        0.0000000000000000     
   1.2679169339064272E-002   7.9077147498412714E-002   0.0000000000000000     
   1.3183598238730243E-002   8.5402160412874961E-002   0.0000000000000000     
   1.3669405683531425E-002   9.1886646270534861E-002   0.0000000000000000     
   1.4136591673467818E-002   9.8530605071392385E-002   0.0000000000000000     
   1.4585156208539424E-002  0.10533403681544760        0.0000000000000000     
   8.4237117266020341E-003   7.8949215141326579E-002   0.0000000000000000     
   8.7594979486696027E-003   8.5278507530025915E-002   0.0000000000000000     
   9.0830615291053324E-003   9.1767754934407642E-002   0.0000000000000000     
   9.3944024679092197E-003   9.8416957354471715E-002   0.0000000000000000     
   9.6935207650812663E-003  0.10522611479021815        0.0000000000000000     
   4.1973219503396494E-003   7.8872455725632187E-002   0.0000000000000000     
   4.3649652069574531E-003   8.5204315798333013E-002   0.0000000000000000     
   4.5265929732646879E-003   9.1696420130449471E-002   0.0000000000000000     
   4.6822052492613547E-003   9.8348768721981547E-002   0.0000000000000000     
   4.8318020349474534E-003  0.10516136157292923        0.0000000000000000     
   1.0277120517446225E-011   7.8846869251329513E-002   0.0000000000000000     
   1.3593791673913169E-011   8.5179585217796228E-002   0.0000000000000000     
   1.6009492071877157E-011   9.1672641858660350E-002   0.0000000000000000     
   1.7524220722003707E-011   9.8326039173921881E-002   0.0000000000000000     
   1.8137980700716483E-011  0.10513977716358082        0.0000000000000000     
   1.9506708365321920E-002  0.10548512764861759        0.0000000000000000     
   2.0078576884224240E-002  0.11242800308409463        0.0000000000000000     
   2.0623523372171076E-002  0.11950699979681645        0.0000000000000000     
   2.1141547829162430E-002  0.12672211778678302        0.0000000000000000     
   2.1632650255198293E-002  0.13407335705399440        0.0000000000000000     
   1.4585156208539424E-002  0.10533403681544760        0.0000000000000000     
   1.5014147208802687E-002  0.11228512464838883        0.0000000000000000     
   1.5422612594314057E-002  0.11937205171590450        0.0000000000000000     
   1.5810552365073532E-002  0.12659481801799458        0.0000000000000000     
   1.6177966521081118E-002  0.13395342355465906        0.0000000000000000     
   9.6935207650812663E-003  0.10522611479021815        0.0000000000000000     
   9.9795745055884112E-003  0.11218306862169897        0.0000000000000000     
   1.0251721774397586E-002  0.11927566022896613        0.0000000000000000     
   1.0509962571508791E-002  0.12650388961201964        0.0000000000000000     
   1.0754296896922028E-002  0.13386775677085955        0.0000000000000000     
   4.8318020349474534E-003  0.10516136157292923        0.0000000000000000     
   4.9748587745814142E-003  0.11212183500402503        0.0000000000000000     
   5.1108509124216626E-003  0.11921782533600138        0.0000000000000000     
   5.2397784484682006E-003  0.12644933256885829        0.0000000000000000     
   5.3616413827210279E-003  0.13381635670259581        0.0000000000000000     
   1.8137980700716483E-011  0.10513977716358082        0.0000000000000000     
   1.5781694961275461E-011  0.11210142379536697        0.0000000000000000     
   8.3862878664034413E-012  0.11919854703701022        0.0000000000000000     
  -4.0482381715497423E-012  0.12643114688851054        0.0000000000000000     
  -2.1521884534941860E-011  0.13379922334986794        0.0000000000000000     
   2.1632650255198293E-002  0.13407335705399440        0.0000000000000000     
   2.2097418307282578E-002  0.14154798565015628        0.0000000000000000     
   2.2536439642419182E-002  0.14913327162697451        0.0000000000000000     
   2.2949714260608111E-002  0.15682921498444899        0.0000000000000000     
   2.3337242161849365E-002  0.16463581572257985        0.0000000000000000     
   1.6177966521081118E-002  0.13395342355465906        0.0000000000000000     
   1.6525374814445083E-002  0.14143579236824522        0.0000000000000000     
   1.6853296997273712E-002  0.14902984850110024        0.0000000000000000     
   1.7161733069567000E-002  0.15673559195322415        0.0000000000000000     
   1.7450683031324955E-002  0.16455302272461692        0.0000000000000000     
   1.0754296896922028E-002  0.13386775677085955        0.0000000000000000     
   1.0985123925024057E-002  0.14135565431215358        0.0000000000000000     
   1.1202842830201638E-002  0.14895597484256959        0.0000000000000000     
   1.1407453612454769E-002  0.15666871836210755        0.0000000000000000     
   1.1598956271783450E-002  0.16449388487076744        0.0000000000000000     
   5.3616413827210279E-003  0.13381635670259581        0.0000000000000000     
   5.4766656390194965E-003  0.14130757148188144        0.0000000000000000     
   5.5850771412029572E-003  0.14891165065138257        0.0000000000000000     
   5.6868758892714101E-003  0.15662859421109923        0.0000000000000000     
   5.7820618832248585E-003  0.16445840216103144        0.0000000000000000     
  -2.1521884534941860E-011  0.13379922334986794        0.0000000000000000     
  -4.3568597948157040E-011  0.14129154387742870        0.0000000000000000     
  -6.9722326978723104E-011  0.14889687592753909        0.0000000000000000     
  -9.9983068943239675E-011  0.15661521950019919        0.0000000000000000     
  -1.3435082647089702E-010  0.16444657459540890        0.0000000000000000     
   0.0000000000000000        0.0000000000000000        0.0000000000000000     
   1.6821315390949665E-014   1.0732451948913661E-003   0.0000000000000000     
   4.0999376203082472E-014   2.5153604770083841E-003   0.0000000000000000     
   7.2534426381887229E-014   4.3263458463510549E-003   0.0000000000000000     
   1.1142614066671219E-013   6.5062013029193767E-003   0.0000000000000000     
   0.0000000000000000        0.0000000000000000        0.0000000000000000     
  -2.1299572333054802E-004   1.0755350660782931E-003   0.0000000000000000     
  -4.2700612243443635E-004   2.5205199933054190E-003   0.0000000000000000     
  -6.4203119731166499E-004   4.3349547816813770E-003   0.0000000000000000     
  -8.5807094796223448E-004   6.5188394312061691E-003   0.0000000000000000     
   0.0000000000000000        0.0000000000000000        0.0000000000000000     
  -4.2427970603611435E-004   1.0824046796583759E-003   0.0000000000000000     
  -8.5304528238244336E-004   2.5359985422342356E-003   0.0000000000000000     
  -1.2862967290389869E-003   4.3607815877275786E-003   0.0000000000000000     
  -1.7240340460057445E-003   6.5567538161384071E-003   0.0000000000000000     
   0.0000000000000000        0.0000000000000000        0.0000000000000000     
  -6.3385194809987796E-004   1.0938540356316142E-003   0.0000000000000000     
  -1.2781174798030212E-003   2.5617961237948341E-003   0.0000000000000000     
  -1.9327965951094301E-003   4.4038262644896589E-003   0.0000000000000000     
  -2.5978892940191050E-003   6.6199444577160890E-003   0.0000000000000000     
   0.0000000000000000        0.0000000000000000        0.0000000000000000     
  -8.4171244952183847E-004   1.1098831339980085E-003   0.0000000000000000     
  -1.7022227146961703E-003   2.5979127379872143E-003   0.0000000000000000     
  -2.5815307955229959E-003   4.4640888119676170E-003   0.0000000000000000     
  -3.4796366920023152E-003   6.7084113559392174E-003   0.0000000000000000     
   1.1142614066671219E-013   6.5062013029193767E-003   0.0000000000000000     
   1.5989936967813340E-013   9.0275975642876618E-003   0.0000000000000000     
   2.2017868620992018E-013   1.1863205348030216E-002   0.0000000000000000     
   2.9226420376448747E-013   1.5013024654147038E-002   0.0000000000000000     
   3.7615581222755212E-013   1.8477055482638137E-002   0.0000000000000000     
  -8.5807094796223448E-004   6.5188394312061691E-003   0.0000000000000000     
  -1.0762680223644404E-003   9.0442181962556868E-003   0.0000000000000000     
  -1.2977650684965797E-003   1.1883135331205830E-002   0.0000000000000000     
  -1.5225620863586521E-003   1.5035590836056592E-002   0.0000000000000000     
  -1.7506590759506580E-003   1.8501584710807980E-002   0.0000000000000000     
  -1.7240340460057445E-003   6.5567538161384071E-003   0.0000000000000000     
  -2.1664074170365082E-003   9.0940800922494156E-003   0.0000000000000000     
  -2.6135670258850708E-003   1.1942925280843298E-002   0.0000000000000000     
  -3.0655128725514303E-003   1.5103289381920066E-002   0.0000000000000000     
  -3.5222449570355878E-003   1.8575172395479709E-002   0.0000000000000000     
  -2.5978892940191050E-003   6.6199444577160890E-003   0.0000000000000000     
  -3.2704181838563062E-003   9.1771832522688414E-003   0.0000000000000000     
  -3.9474058719452939E-003   1.2042575196942629E-002   0.0000000000000000     
  -4.6288523582860711E-003   1.5216120291737458E-002   0.0000000000000000     
  -5.3147576428786330E-003   1.8697818536653320E-002   0.0000000000000000     
  -3.4796366920023152E-003   6.7084113559392174E-003   0.0000000000000000     
  -4.3883003228238331E-003   9.2935276763139677E-003   0.0000000000000000     
  -5.2992816066772513E-003   1.2182085079503817E-002   0.0000000000000000     
  -6.2125805435625722E-003   1.5374083565508772E-002   0.0000000000000000     
  -7.1281971334797942E-003   1.8869523134328822E-002   0.0000000000000000     
   3.7615581222755212E-013   1.8477055482638137E-002   0.0000000000000000     
   4.8838288014413367E-013   2.2225987900713649E-002   0.0000000000000000     
   6.4547539947550081E-013   2.6230511975583744E-002   0.0000000000000000     
   8.4743274002914079E-013   3.0490627707248408E-002   0.0000000000000000     
   1.0942557623905280E-012   3.5006335095707650E-002   0.0000000000000000     
  -1.7506590759506580E-003   1.8501584710807980E-002   0.0000000000000000     
  -1.9784702442343185E-003   2.2252022756605518E-002   0.0000000000000000     
  -2.2024097981713539E-003   2.6257810774594735E-002   0.0000000000000000     
  -2.4224777377617646E-003   3.0518948764775643E-002   0.0000000000000000     
  -2.6386740630055501E-003   3.5035436727148234E-002   0.0000000000000000     
  -3.5222449570355878E-003   1.8575172395479709E-002   0.0000000000000000     
  -3.9778710396842585E-003   2.2330127324468721E-002   0.0000000000000000     
  -4.4264988808441598E-003   2.6339707171833603E-002   0.0000000000000000     
  -4.8681284805152892E-003   3.0603911937574352E-002   0.0000000000000000     
  -5.3027598386976476E-003   3.5122741621690975E-002   0.0000000000000000     
  -5.3147576428786330E-003   1.8697818536653320E-002   0.0000000000000000     
  -5.9982023858614385E-003   2.2460301604303273E-002   0.0000000000000000     
  -6.6722672473729415E-003   2.6476201167300348E-002   0.0000000000000000     
  -7.3369522274131394E-003   3.0745517225644552E-002   0.0000000000000000     
  -7.9922573259820339E-003   3.5268249779335882E-002   0.0000000000000000     
  -7.1281971334797942E-003   1.8869523134328822E-002   0.0000000000000000     
  -8.0394642827658590E-003   2.2642545596109159E-002   0.0000000000000000     
  -8.9397148977576977E-003   2.6667292760994964E-002   0.0000000000000000     
  -9.8289489784553173E-003   3.0943764628986226E-002   0.0000000000000000     
  -1.0707166524858716E-002   3.5471961200082953E-002   0.0000000000000000     
   1.0942557623905280E-012   3.5006335095707650E-002   0.0000000000000000     
   1.3645428103420398E-012   3.9758414049937504E-002   0.0000000000000000     
   1.6368935829187692E-012   4.4727644478914023E-002   0.0000000000000000     
   1.9113088526147640E-012   4.9914026382637221E-002   0.0000000000000000     
   2.1877872777298357E-012   5.5317559761107075E-002   0.0000000000000000     
  -2.6386740630055501E-003   3.5035436727148234E-002   0.0000000000000000     
  -2.8508027926537737E-003   3.9787992345039609E-002   0.0000000000000000     
  -3.0586679454574989E-003   4.4757333301776878E-002   0.0000000000000000     
  -3.2622695214167248E-003   4.9943459597360053E-002   0.0000000000000000     
  -3.4616075205314519E-003   5.5346371231789114E-002   0.0000000000000000     
  -5.3027598386976476E-003   3.5122741621690975E-002   0.0000000000000000     
  -5.7292159315874376E-003   3.9876727230578890E-002   0.0000000000000000     
  -6.1463197353808603E-003   4.4846399770633559E-002   0.0000000000000000     
  -6.5540712500779183E-003   5.0031759241854948E-002   0.0000000000000000     
  -6.9524704756786090E-003   5.5432805644243091E-002   0.0000000000000000     
  -7.9922573259820339E-003   3.5268249779335882E-002   0.0000000000000000     
  -8.6352394154364468E-003   4.0024618706555382E-002   0.0000000000000000     
  -9.2629553681331939E-003   4.4994843885484054E-002   0.0000000000000000     
  -9.8754051840722699E-003   5.0178925316121933E-002   0.0000000000000000     
  -1.0472588863253685E-002   5.5576862998469007E-002   0.0000000000000000     
  -1.0707166524858716E-002   3.5471961200082953E-002   0.0000000000000000     
  -1.1568873244200802E-002   4.0231666772969049E-002   0.0000000000000000     
  -1.2408574843714493E-002   4.5202665646328390E-002   0.0000000000000000     
  -1.3226271323399782E-002   5.0384957820160996E-002   0.0000000000000000     
  -1.4021962683256676E-002   5.5778543294466860E-002   0.0000000000000000     
   2.1877872777298357E-012   5.5317559761107075E-002   0.0000000000000000     
   2.9015037985094527E-012   6.0922223441128368E-002   0.0000000000000000     
   4.4876304820633262E-012   6.6711996249505856E-002   0.0000000000000000     
   6.9461695916634911E-012   7.2686878186239576E-002   0.0000000000000000     
   1.0277120517446225E-011   7.8846869251329513E-002   0.0000000000000000     
  -3.4616075205314519E-003   5.5346371231789114E-002   0.0000000000000000     
  -3.6554943292003051E-003   6.0950229740142997E-002   0.0000000000000000     
  -3.8427423338219064E-003   6.6739196657500638E-002   0.0000000000000000     
  -4.0233515343962569E-003   7.2713271983862030E-002   0.0000000000000000     
  -4.1973219309233561E-003   7.8872455719227158E-002   0.0000000000000000     
  -6.9524704756786090E-003   5.5432805644243091E-002   0.0000000000000000     
  -7.3397153636505499E-003   6.1034248638089893E-002   0.0000000000000000     
  -7.7140038654613602E-003   6.6820797883687263E-002   0.0000000000000000     
  -8.0753359811110391E-003   7.2792453381035210E-002   0.0000000000000000     
  -8.4237117105995848E-003   7.8949215130133754E-002   0.0000000000000000     
  -1.0472588863253685E-002   5.5576862998469007E-002   0.0000000000000000     
  -1.1052663100449235E-002   6.1174280134969020E-002   0.0000000000000000     
  -1.1613784590430732E-002   6.6956799928065733E-002   0.0000000000000000     
  -1.2155953333198176E-002   7.2924422377759174E-002   0.0000000000000000     
  -1.2679169328751563E-002   7.9077147484049315E-002   0.0000000000000000     
  -1.4021962683256676E-002   5.5778543294466860E-002   0.0000000000000000     
  -1.4794337539596360E-002   6.1370324230780413E-002   0.0000000000000000     
  -1.5542084508730025E-002   6.7147202790636074E-002   0.0000000000000000     
  -1.6265203590657671E-002   7.3109178974033892E-002   0.0000000000000000     
  -1.6963694785379291E-002   7.9256252780973785E-002   0.0000000000000000     
   1.0277120517446225E-011   7.8846869251329513E-002   0.0000000000000000     
   1.3593791673913169E-011   8.5179585217796228E-002   0.0000000000000000     
   1.6009492071877157E-011   9.1672641858660350E-002   0.0000000000000000     
   1.7524220722003707E-011   9.8326039173921881E-002   0.0000000000000000     
   1.8137980700716483E-011  0.10513977716358082        0.0000000000000000     
  -4.1973219309233561E-003   7.8872455719227158E-002   0.0000000000000000     
  -4.3649651811198589E-003   8.5204315789336293E-002   0.0000000000000000     
  -4.5265929427024103E-003   9.1696420119929706E-002   0.0000000000000000     
  -4.6822052156710123E-003   9.8348768711007339E-002   0.0000000000000000     
  -4.8318020000256666E-003  0.10516136156256926        0.0000000000000000     
  -8.4237117105995848E-003   7.8949215130133754E-002   0.0000000000000000     
  -8.7594979268819720E-003   8.5278507513873961E-002   0.0000000000000000     
  -9.0830615029131746E-003   9.1767754915146882E-002   0.0000000000000000     
  -9.3944024386931804E-003   9.8416957333952532E-002   0.0000000000000000     
  -9.6935207342220050E-003  0.10522611477029091        0.0000000000000000     
  -1.2679169328751563E-002   7.9077147484049315E-002   0.0000000000000000     
  -1.3183598223692552E-002   8.5402160391409201E-002   0.0000000000000000     
  -1.3669405664622790E-002   9.1886646244311893E-002   0.0000000000000000     
  -1.4136591651542286E-002   9.8530605042757430E-002   0.0000000000000000     
  -1.4585156184451031E-002  0.10533403678674580        0.0000000000000000     
  -1.6963694785379291E-002   7.9256252780973785E-002   0.0000000000000000     
  -1.7637266071551593E-002   8.5575274421942044E-002   0.0000000000000000     
  -1.8285625427831270E-002   9.2053094107424793E-002   0.0000000000000000     
  -1.8908772854218318E-002   9.8689711837422089E-002   0.0000000000000000     
  -1.9506708350712748E-002  0.10548512761193388        0.0000000000000000     
   1.8137980700716483E-011  0.10513977716358082        0.0000000000000000     
   1.5781694961275461E-011  0.11210142379536697        0.0000000000000000     
   8.3862878664034413E-012  0.11919854703701022        0.0000000000000000     
  -4.0482381715497423E-012  0.12643114688851054        0.0000000000000000     
  -2.1521884534941860E-011  0.13379922334986794        0.0000000000000000     
  -4.8318020000256666E-003  0.10516136156256926        0.0000000000000000     
  -4.9748587440213484E-003  0.11212183499569596        0.0000000000000000     
  -5.1108508959130314E-003  0.11921782533146791        0.0000000000000000     
  -5.2397784557007190E-003  0.12644933256988516        0.0000000000000000     
  -5.3616414233844060E-003  0.13381635671094769        0.0000000000000000     
  -9.6935207342220050E-003  0.10522611477029091        0.0000000000000000     
  -9.9795744780383135E-003  0.11218306860498298        0.0000000000000000     
  -1.0251721758680788E-002  0.11927566021884968        0.0000000000000000     
  -1.0509962576149428E-002  0.12650388961189102        0.0000000000000000     
  -1.0754296930444232E-002  0.13386775678410695        0.0000000000000000     
  -1.4585156184451031E-002  0.10533403678674580        0.0000000000000000     
  -1.5014147186269207E-002  0.11228512462322812        0.0000000000000000     
  -1.5422612579916985E-002  0.11937205169915556        0.0000000000000000     
  -1.5810552365394373E-002  0.12659481801452813        0.0000000000000000     
  -1.6177966542701365E-002  0.13395342356934581        0.0000000000000000     
  -1.9506708350712748E-002  0.10548512761193388        0.0000000000000000     
  -2.0078576868714025E-002  0.11242800305043132        0.0000000000000000     
  -2.0623523359621625E-002  0.11950699977238551        0.0000000000000000     
  -2.1141547823435549E-002  0.12672211777779646        0.0000000000000000     
  -2.1632650260155799E-002  0.13407335706666418        0.0000000000000000     
  -2.1521884534941860E-011  0.13379922334986794        0.0000000000000000     
  -4.3568597948157040E-011  0.14129154387742870        0.0000000000000000     
  -6.9722326978723104E-011  0.14889687592753909        0.0000000000000000     
  -9.9983068943239675E-011  0.15661521950019919        0.0000000000000000     
  -1.3435082647089702E-010  0.16444657459540890        0.0000000000000000     
  -5.3616414233844060E-003  0.13381635671094769        0.0000000000000000     
  -5.4766657219471396E-003  0.14130757149668943        0.0000000000000000     
  -5.5850772743719600E-003  0.14891165066914439        0.0000000000000000     
  -5.6868760806588698E-003  0.15662859422831252        0.0000000000000000     
  -5.7820621408078664E-003  0.16445840217419380        0.0000000000000000     
  -1.0754296930444232E-002  0.13386775678410695        0.0000000000000000     
  -1.0985123995323037E-002  0.14135565433755778        0.0000000000000000     
  -1.1202842944543691E-002  0.14895597487430356        0.0000000000000000     
  -1.1407453778106183E-002  0.15666871839434435        0.0000000000000000     
  -1.1598956496010521E-002  0.16449388489768010        0.0000000000000000     
  -1.6177966542701365E-002  0.13395342356934581        0.0000000000000000     
  -1.6525374863696297E-002  0.14143579240003362        0.0000000000000000     
  -1.6853297080237518E-002  0.14902984854301657        0.0000000000000000     
  -1.7161733192325015E-002  0.15673559199829459        0.0000000000000000     
  -1.7450683199958798E-002  0.16455302276586783        0.0000000000000000     
  -2.1632650260155799E-002  0.13407335706666418        0.0000000000000000     
  -2.2097418327066916E-002  0.14154798568411703        0.0000000000000000     
  -2.2536439681453437E-002  0.14913327167528345        0.0000000000000000     
  -2.2949714323315357E-002  0.15682921504016345        0.0000000000000000     
  -2.3337242252652692E-002  0.16463581577875697        0.0000000000000000     
   0.0000000000000000        0.0000000000000000        0.0000000000000000     
  -8.4171244952183847E-004   1.1098831339980085E-003   0.0000000000000000     
  -1.7022227146961703E-003   2.5979127379872143E-003   0.0000000000000000     
  -2.5815307955229959E-003   4.4640888119676170E-003   0.0000000000000000     
  -3.4796366920023152E-003   6.7084113559392174E-003   0.0000000000000000     
   0.0000000000000000        0.0000000000000000        0.0000000000000000     
  -1.0567587336692671E-003   1.1340592775604019E-003   0.0000000000000000     
  -2.1398924231137229E-003   2.6502012806005515E-003   0.0000000000000000     
  -3.2494010683333670E-003   4.5484260091204478E-003   0.0000000000000000     
  -4.3852846693281993E-003   6.8287334631200944E-003   0.0000000000000000     
   0.0000000000000000        0.0000000000000000        0.0000000000000000     
  -1.2878883239094349E-003   1.1699497691216379E-003   0.0000000000000000     
  -2.6056580411075096E-003   2.7245146474240206E-003   0.0000000000000000     
  -3.9533091515942245E-003   4.6636946349071480E-003   0.0000000000000000     
  -5.3308416553695800E-003   6.9874897315710185E-003   0.0000000000000000     
   0.0000000000000000        0.0000000000000000        0.0000000000000000     
  -1.5351012202423422E-003   1.2175546086817173E-003   0.0000000000000000     
  -3.0995195686775319E-003   2.8208528384576215E-003   0.0000000000000000     
  -4.6932550453055695E-003   4.8098946893277142E-003   0.0000000000000000     
  -6.3163076501264563E-003   7.1846801612919960E-003   0.0000000000000000     
   0.0000000000000000        0.0000000000000000        0.0000000000000000     
  -1.7983974226679883E-003   1.2768737962406387E-003   0.0000000000000000     
  -3.6214770058237890E-003   2.9392158537013546E-003   0.0000000000000000     
  -5.4692387494674026E-003   4.9870261723821488E-003   0.0000000000000000     
  -7.3416826535988291E-003   7.4203047522830206E-003   0.0000000000000000     
  -3.4796366920023152E-003   6.7084113559392174E-003   0.0000000000000000     
  -4.3883003228238331E-003   9.2935276763139677E-003   0.0000000000000000     
  -5.2992816066772513E-003   1.2182085079503817E-002   0.0000000000000000     
  -6.2125805435625722E-003   1.5374083565508772E-002   0.0000000000000000     
  -7.1281971334797942E-003   1.8869523134328822E-002   0.0000000000000000     
  -4.3852846693281993E-003   6.8287334631200944E-003   0.0000000000000000     
  -5.5345955980295770E-003   9.4490707266408017E-003   0.0000000000000000     
  -6.6843862263688634E-003   1.2367384883723895E-002   0.0000000000000000     
  -7.8346565543460540E-003   1.5583675934369370E-002   0.0000000000000000     
  -8.9854065819611525E-003   1.9097943878577224E-002   0.0000000000000000     
  -5.3308416553695800E-003   6.9874897315710185E-003   0.0000000000000000     
  -6.7238457735640357E-003   9.6497697655053595E-003   0.0000000000000000     
  -8.1179117273080560E-003   1.2604404564799896E-002   0.0000000000000000     
  -9.5130395166016391E-003   1.5851394129454622E-002   0.0000000000000000     
  -1.0909229141444788E-002   1.9390738459469547E-002   0.0000000000000000     
  -6.3163076501264563E-003   7.1846801612919960E-003   0.0000000000000000     
  -7.9560508494272032E-003   9.8956247929076358E-003   0.0000000000000000     
  -9.5998581094948257E-003   1.2893144122731813E-002   0.0000000000000000     
  -1.1247729430329327E-002   1.6177238150764529E-002   0.0000000000000000     
  -1.2899664811930701E-002   1.9747906877005780E-002   0.0000000000000000     
  -7.3416826535988291E-003   7.4203047522830206E-003   0.0000000000000000     
  -9.2312108256190836E-003   1.0186635808847636E-002   0.0000000000000000     
  -1.1130225372929178E-002   1.3233603557519657E-002   0.0000000000000000     
  -1.3038726295529117E-002   1.6561207998299087E-002   0.0000000000000000     
  -1.4956713593418896E-002   2.0169449131185929E-002   0.0000000000000000     
  -7.1281971334797942E-003   1.8869523134328822E-002   0.0000000000000000     
  -8.0394642827658590E-003   2.2642545596109159E-002   0.0000000000000000     
  -8.9397148977576977E-003   2.6667292760994964E-002   0.0000000000000000     
  -9.8289489784553173E-003   3.0943764628986226E-002   0.0000000000000000     
  -1.0707166524858716E-002   3.5471961200082953E-002   0.0000000000000000     
  -8.9854065819611525E-003   1.9097943878577224E-002   0.0000000000000000     
  -1.0129466157034507E-002   2.2885444727430558E-002   0.0000000000000000     
  -1.1259665127386463E-002   2.6921434492012470E-002   0.0000000000000000     
  -1.2376003493017020E-002   3.1205913172322946E-002   0.0000000000000000     
  -1.3478481253926186E-002   3.5738880768362007E-002   0.0000000000000000     
  -1.0909229141444788E-002   1.9390738459469547E-002   0.0000000000000000     
  -1.2296017435304374E-002   2.3197584425811643E-002   0.0000000000000000     
  -1.3662941231647260E-002   2.7247078899447889E-002   0.0000000000000000     
  -1.5010000530473456E-002   3.1539221880378290E-002   0.0000000000000000     
  -1.6337195331782958E-002   3.6074013368602845E-002   0.0000000000000000     
  -1.2899664811930701E-002   1.9747906877005780E-002   0.0000000000000000     
  -1.4539118117575458E-002   2.3578964691252393E-002   0.0000000000000000     
  -1.6149543210540095E-002   2.7644225983301223E-002   0.0000000000000000     
  -1.7730940090824616E-002   3.1943690753152246E-002   0.0000000000000000     
  -1.9283308758429023E-002   3.6477359000805488E-002   0.0000000000000000     
  -1.4956713593418896E-002   2.0169449131185929E-002   0.0000000000000000     
  -1.6858768203847765E-002   2.4029585523752832E-002   0.0000000000000000     
  -1.8719471064064970E-002   2.8112875743572466E-002   0.0000000000000000     
  -2.0538822174070506E-002   3.2419319790644836E-002   0.0000000000000000     
  -2.2316821533864377E-002   3.6948917664969917E-002   0.0000000000000000     
  -1.0707166524858716E-002   3.5471961200082953E-002   0.0000000000000000     
  -1.1568873244200802E-002   4.0231666772969049E-002   0.0000000000000000     
  -1.2408574843714493E-002   4.5202665646328390E-002   0.0000000000000000     
  -1.3226271323399782E-002   5.0384957820160996E-002   0.0000000000000000     
  -1.4021962683256676E-002   5.5778543294466860E-002   0.0000000000000000     
  -1.3478481253926186E-002   3.5738880768362007E-002   0.0000000000000000     
  -1.4559563009970132E-002   4.0500496394173920E-002   0.0000000000000000     
  -1.5611713361005031E-002   4.5470919163802970E-002   0.0000000000000000     
  -1.6634932307030888E-002   5.0650149077249178E-002   0.0000000000000000     
  -1.7629219848047693E-002   5.6038186134512523E-002   0.0000000000000000     
  -1.6337195331782958E-002   3.6074013368602845E-002   0.0000000000000000     
  -1.7636754304834062E-002   4.0833732534524013E-002   0.0000000000000000     
  -1.8900906118885077E-002   4.5800658548544239E-002   0.0000000000000000     
  -2.0129650773936001E-002   5.0974791410663522E-002   0.0000000000000000     
  -2.1322988269986839E-002   5.6356131120881850E-002   0.0000000000000000     
  -1.9283308758429023E-002   3.6477359000805488E-002   0.0000000000000000     
  -2.0800447128792591E-002   4.1231375194019336E-002   0.0000000000000000     
  -2.2276153117354640E-002   4.6191883800552169E-002   0.0000000000000000     
  -2.3710426724115139E-002   5.1358884820404016E-002   0.0000000000000000     
  -2.5103267949074120E-002   5.6732378253574869E-002   0.0000000000000000     
  -2.2316821533864377E-002   3.6948917664969917E-002   0.0000000000000000     
  -2.4050641481845728E-002   4.1693424372659861E-002   0.0000000000000000     
  -2.5737454356413704E-002   4.6644594919826782E-002   0.0000000000000000     
  -2.7377260157568303E-002   5.1802429306470679E-002   0.0000000000000000     
  -2.8970058885309524E-002   5.7166927532591574E-002   0.0000000000000000     
  -1.4021962683256676E-002   5.5778543294466860E-002   0.0000000000000000     
  -1.4794337539596360E-002   6.1370324230780413E-002   0.0000000000000000     
  -1.5542084508730025E-002   6.7147202790636074E-002   0.0000000000000000     
  -1.6265203590657671E-002   7.3109178974033892E-002   0.0000000000000000     
  -1.6963694785379291E-002   7.9256252780973785E-002   0.0000000000000000     
  -1.7629219848047693E-002   5.6038186134512523E-002   0.0000000000000000     
  -1.8593865532501974E-002   6.1623046421402081E-002   0.0000000000000000     
  -1.9528158908840246E-002   6.7392746023726927E-002   0.0000000000000000     
  -2.0432099977062513E-002   7.3347284941487054E-002   0.0000000000000000     
  -2.1305688737168774E-002   7.9486663174682476E-002   0.0000000000000000     
  -2.1322988269986839E-002   5.6356131120881850E-002   0.0000000000000000     
  -2.2480373930576131E-002   6.1933112202712061E-002   0.0000000000000000     
  -2.3601263079242422E-002   6.7694169179666919E-002   0.0000000000000000     
  -2.4685655715985712E-002   7.3639302051746403E-002   0.0000000000000000     
  -2.5733551840806015E-002   7.9768510818950561E-002   0.0000000000000000     
  -2.5103267949074120E-002   5.6732378253574869E-002   0.0000000000000000     
  -2.6453862733818830E-002   6.2300521574710346E-002   0.0000000000000000     
  -2.7761397019936546E-002   6.8051472258456022E-002   0.0000000000000000     
  -2.9025870807427277E-002   7.3985230304811939E-002   0.0000000000000000     
  -3.0247284096291009E-002   8.0101795713778082E-002   0.0000000000000000     
  -2.8970058885309524E-002   5.7166927532591574E-002   0.0000000000000000     
  -3.0514331942230067E-002   6.2725274537396930E-002   0.0000000000000000     
  -3.2008560730922619E-002   6.8464655260094293E-002   0.0000000000000000     
  -3.3452745251387181E-002   7.4385069700683648E-002   0.0000000000000000     
  -3.4846885503623769E-002   8.0486517859165010E-002   0.0000000000000000     
  -1.6963694785379291E-002   7.9256252780973785E-002   0.0000000000000000     
  -1.7637266071551593E-002   8.5575274421942044E-002   0.0000000000000000     
  -1.8285625427831270E-002   9.2053094107424793E-002   0.0000000000000000     
  -1.8908772854218318E-002   9.8689711837422089E-002   0.0000000000000000     
  -1.9506708350712748E-002  0.10548512761193388        0.0000000000000000     
  -2.1305688737168774E-002   7.9486663174682476E-002   0.0000000000000000     
  -2.2148238766508569E-002   8.5797583779746014E-002   0.0000000000000000     
  -2.2959063642431443E-002   9.2266749813110477E-002   0.0000000000000000     
  -2.3738163364937396E-002   9.8894161274775905E-002   0.0000000000000000     
  -2.4485537934026431E-002  0.10567981816474226        0.0000000000000000     
  -2.5733551840806015E-002   7.9768510818950561E-002   0.0000000000000000     
  -2.6744253604612946E-002   8.6068822639094641E-002   0.0000000000000000     
  -2.7717063158316149E-002   9.2527264669993933E-002   0.0000000000000000     
  -2.8651980501915621E-002   9.9143836911648381E-002   0.0000000000000000     
  -2.9549005635411366E-002  0.10591853936405808        0.0000000000000000     
  -3.0247284096291009E-002   8.0101795713778082E-002   0.0000000000000000     
  -3.1425310585864723E-002   8.6388990999987952E-002   0.0000000000000000     
  -3.2559623975485390E-002   9.2834638678075121E-002   0.0000000000000000     
  -3.3650224265152996E-002   9.9438738748039573E-002   0.0000000000000000     
  -3.4697111454867549E-002  0.10620129120988128        0.0000000000000000     
  -3.4846885503623769E-002   8.0486517859165010E-002   0.0000000000000000     
  -3.6191409710263904E-002   8.6758088862425947E-002   0.0000000000000000     
  -3.7486746093939156E-002   9.3188871837354081E-002   0.0000000000000000     
  -3.8732894654649512E-002   9.9778866783949399E-002   0.0000000000000000     
  -3.9929855392394978E-002  0.10652807370221190        0.0000000000000000     
  -1.9506708350712748E-002  0.10548512761193388        0.0000000000000000     
  -2.0078576868714025E-002  0.11242800305043132        0.0000000000000000     
  -2.0623523359621625E-002  0.11950699977238551        0.0000000000000000     
  -2.1141547823435549E-002  0.12672211777779646        0.0000000000000000     
  -2.1632650260155799E-002  0.13407335706666418        0.0000000000000000     
  -2.4485537934026431E-002  0.10567981816474226        0.0000000000000000     
  -2.5200435543661661E-002  0.11261268573039013        0.0000000000000000     
  -2.5882104387806210E-002  0.11968172921910004        0.0000000000000000     
  -2.6530544466460072E-002  0.12688694863087202        0.0000000000000000     
  -2.7145755779623255E-002  0.13422834396570607        0.0000000000000000     
  -2.9549005635411366E-002  0.10591853936405808        0.0000000000000000     
  -3.0407295229401030E-002  0.11284015450690212        0.0000000000000000     
  -3.1226005954482262E-002  0.11989746481985970        0.0000000000000000     
  -3.2005137810655060E-002  0.12709047030293083        0.0000000000000000     
  -3.2744690797919439E-002  0.13441917095611550        0.0000000000000000     
  -3.4697111454867549E-002  0.10620129120988128        0.0000000000000000     
  -3.5699155925932119E-002  0.11311040937996725        0.0000000000000000     
  -3.6655228059649776E-002  0.12015420657466443        0.0000000000000000     
  -3.7565327856020521E-002  0.12733268279397286        0.0000000000000000     
  -3.8429455315044346E-002  0.13464583803789248        0.0000000000000000     
  -3.9929855392394978E-002  0.10652807370221190        0.0000000000000000     
  -4.1076017633254934E-002  0.11342345034958556        0.0000000000000000     
  -4.2169770703308754E-002  0.12045195448351428        0.0000000000000000     
  -4.3211114602556444E-002  0.12761358610399812        0.0000000000000000     
  -4.4200049330997991E-002  0.13490834521103701        0.0000000000000000     
  -2.1632650260155799E-002  0.13407335706666418        0.0000000000000000     
  -2.2097418327066916E-002  0.14154798568411703        0.0000000000000000     
  -2.2536439681453437E-002  0.14913327167528345        0.0000000000000000     
  -2.2949714323315357E-002  0.15682921504016345        0.0000000000000000     
  -2.3337242252652692E-002  0.16463581577875697        0.0000000000000000     
  -2.7145755779623255E-002  0.13422834396570607        0.0000000000000000     
  -2.7728281859532054E-002  0.14169278042427685        0.0000000000000000     
  -2.8278666238422762E-002  0.14926712320725896        0.0000000000000000     
  -2.8796908916295400E-002  0.15695137231465253        0.0000000000000000     
  -2.9283009893149945E-002  0.16474552774645754        0.0000000000000000     
  -3.2744690797919439E-002  0.13441917095611550        0.0000000000000000     
  -3.3444992935188864E-002  0.14187072285498184        0.0000000000000000     
  -3.4106372241376810E-002  0.14943228207509796        0.0000000000000000     
  -3.4728828716483300E-002  0.15710384861646387        0.0000000000000000     
  -3.5312362360508311E-002  0.16488542247907956        0.0000000000000000     
  -3.8429455315044346E-002  0.13464583803789248        0.0000000000000000     
  -3.9247551554037349E-002  0.14208181297623210        0.0000000000000000     
  -4.0019557690315580E-002  0.14962874827880032        0.0000000000000000     
  -4.0745473723879051E-002  0.15728664394559735        0.0000000000000000     
  -4.1425299654727778E-002  0.16505549997662305        0.0000000000000000     
  -4.4200049330997991E-002  0.13490834521103701        0.0000000000000000     
  -4.5135957716077500E-002  0.14232605078802754        0.0000000000000000     
  -4.6018222585239070E-002  0.14985652181836620        0.0000000000000000     
  -4.6846843938482673E-002  0.15749975830205304        0.0000000000000000     
  -4.7621821775808343E-002  0.16525576023908800        0.0000000000000000     
   0.0000000000000000        0.0000000000000000        0.0000000000000000     
  -1.7983974226679883E-003   1.2768737962406387E-003   0.0000000000000000     
  -3.6214770058237890E-003   2.9392158537013546E-003   0.0000000000000000     
  -5.4692387494674026E-003   4.9870261723821488E-003   0.0000000000000000     
  -7.3416826535988291E-003   7.4203047522830206E-003   0.0000000000000000     
   0.0000000000000000        0.0000000000000000        0.0000000000000000     
  -2.0695026727885688E-003   1.3550149626190000E-003   0.0000000000000000     
  -4.1641749621840075E-003   3.0941063735380470E-003   0.0000000000000000     
  -6.2840168681863135E-003   5.2172742327571417E-003   0.0000000000000000     
  -8.4290283907954913E-003   7.7245185402762817E-003   0.0000000000000000     
   0.0000000000000000        0.0000000000000000        0.0000000000000000     
  -2.3401427122062782E-003   1.4590857386373979E-003   0.0000000000000000     
  -4.7202580473959107E-003   3.3000270783505245E-003   0.0000000000000000     
  -7.1403460055688940E-003   5.5228240191393801E-003   0.0000000000000000     
  -9.6004065867252315E-003   8.1274765610039670E-003   0.0000000000000000     
   0.0000000000000000        0.0000000000000000        0.0000000000000000     
  -2.6103175409211169E-003   1.5890861242958321E-003   0.0000000000000000     
  -5.2897262614594988E-003   3.5569779681387877E-003   0.0000000000000000     
  -8.0382261616151439E-003   5.9036755315288684E-003   0.0000000000000000     
  -1.0855817241388056E-002   8.6291788144660722E-003   0.0000000000000000     
   0.0000000000000000        0.0000000000000000        0.0000000000000000     
  -2.8800271589330844E-003   1.7450161195943031E-003   0.0000000000000000     
  -5.8725796043747718E-003   3.8649590429028374E-003   0.0000000000000000     
  -8.9776573363250615E-003   6.3598287699256038E-003   0.0000000000000000     
  -1.2195260354783955E-002   9.2296253006626024E-003   0.0000000000000000     
  -7.3416826535988291E-003   7.4203047522830206E-003   0.0000000000000000     
  -9.2312108256190836E-003   1.0186635808847636E-002   0.0000000000000000     
  -1.1130225372929178E-002   1.3233603557519657E-002   0.0000000000000000     
  -1.3038726295529117E-002   1.6561207998299087E-002   0.0000000000000000     
  -1.4956713593418896E-002   2.0169449131185929E-002   0.0000000000000000     
  -8.4290283907954913E-003   7.7245185402762817E-003   0.0000000000000000     
  -1.0590966079189417E-002   1.0558434042713220E-002   0.0000000000000000     
  -1.2761586482545974E-002   1.3661615486685715E-002   0.0000000000000000     
  -1.4940889600865167E-002   1.7034062872193754E-002   0.0000000000000000     
  -1.7128875434146984E-002   2.0675776199237342E-002   0.0000000000000000     
  -9.6004065867252315E-003   8.1274765610039670E-003   0.0000000000000000     
  -1.2076956987187951E-002   1.1046650723892267E-002   0.0000000000000000     
  -1.4546514403280088E-002   1.4213012527752271E-002   0.0000000000000000     
  -1.7009078835001631E-002   1.7626561972583978E-002   0.0000000000000000     
  -1.9464650282352600E-002   2.1287299058387391E-002   0.0000000000000000     
  -1.0855817241388056E-002   8.6291788144660722E-003   0.0000000000000000     
  -1.3689183549614689E-002   1.1651285852384771E-002   0.0000000000000000     
  -1.6485009135131512E-002   1.4887794680719336E-002   0.0000000000000000     
  -1.9243293997938525E-002   1.8338705299469765E-002   0.0000000000000000     
  -2.1964038138035727E-002   2.2004017708636057E-002   0.0000000000000000     
  -1.2195260354783955E-002   9.2296253006626024E-003   0.0000000000000000     
  -1.5427645766469626E-002   1.2372339428190736E-002   0.0000000000000000     
  -1.8577070678100258E-002   1.5685961945586902E-002   0.0000000000000000     
  -2.1643535089675835E-002   1.9170492852851106E-002   0.0000000000000000     
  -2.4627039001196376E-002   2.2825932149983349E-002   0.0000000000000000     
  -1.4956713593418896E-002   2.0169449131185929E-002   0.0000000000000000     
  -1.6858768203847765E-002   2.4029585523752832E-002   0.0000000000000000     
  -1.8719471064064970E-002   2.8112875743572466E-002   0.0000000000000000     
  -2.0538822174070506E-002   3.2419319790644836E-002   0.0000000000000000     
  -2.2316821533864377E-002   3.6948917664969917E-002   0.0000000000000000     
  -1.7128875434146984E-002   2.0675776199237342E-002   0.0000000000000000     
  -1.9294282191240839E-002   2.4558845095586795E-002   0.0000000000000000     
  -2.1405848080996111E-002   2.8655359189012415E-002   0.0000000000000000     
  -2.3463573103412811E-002   3.2965318479514207E-002   0.0000000000000000     
  -2.5467457258490932E-002   3.7488722967092152E-002   0.0000000000000000     
  -1.9464650282352600E-002   2.1287299058387391E-002   0.0000000000000000     
  -2.1884974576874223E-002   2.5176141579028134E-002   0.0000000000000000     
  -2.4241797550107764E-002   2.9274007328371848E-002   0.0000000000000000     
  -2.6535119202053221E-002   3.3580896306418528E-002   0.0000000000000000     
  -2.8764939532710598E-002   3.8096808513168184E-002   0.0000000000000000     
  -2.1964038138035727E-002   2.2004017708636057E-002   0.0000000000000000     
  -2.4630845360747923E-002   2.5881474974076848E-002   0.0000000000000000     
  -2.7227319471399926E-002   2.9968820161650769E-002   0.0000000000000000     
  -2.9753460469991742E-002   3.4266053271357837E-002   0.0000000000000000     
  -3.2209268356523352E-002   3.8773174303198030E-002   0.0000000000000000     
  -2.4627039001196376E-002   2.2825932149983349E-002   0.0000000000000000     
  -2.7531894542861944E-002   2.6674845280732936E-002   0.0000000000000000     
  -3.0362413844872604E-002   3.0739797688849185E-002   0.0000000000000000     
  -3.3118596907228369E-002   3.5020789374332104E-002   0.0000000000000000     
  -3.5800443729929222E-002   3.9517820337181674E-002   0.0000000000000000     
  -2.2316821533864377E-002   3.6948917664969917E-002   0.0000000000000000     
  -2.4050641481845728E-002   4.1693424372659861E-002   0.0000000000000000     
  -2.5737454356413704E-002   4.6644594919826782E-002   0.0000000000000000     
  -2.7377260157568303E-002   5.1802429306470679E-002   0.0000000000000000     
  -2.8970058885309524E-002   5.7166927532591574E-002   0.0000000000000000     
  -2.5467457258490932E-002   3.7488722967092152E-002   0.0000000000000000     
  -2.7418090590412975E-002   4.2222087325265008E-002   0.0000000000000000     
  -2.9316063143361416E-002   4.7161926227551519E-002   0.0000000000000000     
  -3.1161374917336272E-002   5.2308239673951679E-002   0.0000000000000000     
  -3.2954025912337523E-002   5.7661027664465479E-002   0.0000000000000000     
  -2.8764939532710598E-002   3.8096808513168184E-002   0.0000000000000000     
  -3.0933547680913841E-002   4.2819571306654168E-002   0.0000000000000000     
  -3.3043232785496916E-002   4.7747012044909824E-002   0.0000000000000000     
  -3.5093994846459843E-002   5.2879130727935160E-002   0.0000000000000000     
  -3.7085833863802584E-002   5.8215927355730168E-002   0.0000000000000000     
  -3.2209268356523352E-002   3.8773174303198030E-002   0.0000000000000000     
  -3.4597012753348332E-002   4.3485876316827328E-002   0.0000000000000000     
  -3.6918963282820211E-002   4.8399852371901690E-002   0.0000000000000000     
  -3.9175119944939003E-002   5.3515102468421137E-002   0.0000000000000000     
  -4.1365482739704695E-002   5.8831626606385634E-002   0.0000000000000000     
  -3.5800443729929222E-002   3.9517820337181674E-002   0.0000000000000000     
  -3.8408485807716448E-002   4.4221002355784488E-002   0.0000000000000000     
  -4.0943254635331300E-002   4.9120447208527124E-002   0.0000000000000000     
  -4.3404750212773770E-002   5.4216154895409589E-002   0.0000000000000000     
  -4.5792972540043886E-002   5.9508125416431877E-002   0.0000000000000000     
  -2.8970058885309524E-002   5.7166927532591574E-002   0.0000000000000000     
  -3.0514331942230067E-002   6.2725274537396930E-002   0.0000000000000000     
  -3.2008560730922619E-002   6.8464655260094293E-002   0.0000000000000000     
  -3.3452745251387181E-002   7.4385069700683648E-002   0.0000000000000000     
  -3.4846885503623769E-002   8.0486517859165010E-002   0.0000000000000000     
  -3.2954025912337523E-002   5.7661027664465479E-002   0.0000000000000000     
  -3.4691841367759275E-002   6.3206889311254177E-002   0.0000000000000000     
  -3.6372646522995579E-002   6.8932423726478953E-002   0.0000000000000000     
  -3.7996441378046468E-002   7.4837630910139855E-002   0.0000000000000000     
  -3.9563225932911908E-002   8.0922510862236868E-002   0.0000000000000000     
  -3.7085833863802584E-002   5.8215927355730168E-002   0.0000000000000000     
  -3.9016450822355865E-002   6.3744884116764378E-002   0.0000000000000000     
  -4.0883546706950373E-002   6.9453483199507268E-002   0.0000000000000000     
  -4.2687121517586107E-002   7.5341724603958854E-002   0.0000000000000000     
  -4.4427175254263082E-002   8.1409608330119163E-002   0.0000000000000000     
  -4.1365482739704695E-002   5.8831626606385634E-002   0.0000000000000000     
  -4.3488160306019853E-002   6.4339258953927558E-002   0.0000000000000000     
  -4.5541261282787002E-002   7.0027833679179238E-002   0.0000000000000000     
  -4.7524785670006148E-002   7.5897350782140688E-002   0.0000000000000000     
  -4.9438733467677291E-002   8.1947810262811879E-002   0.0000000000000000     
  -4.5792972540043886E-002   5.9508125416431877E-002   0.0000000000000000     
  -4.8106969818751240E-002   6.4990013822743720E-002   0.0000000000000000     
  -5.0345790250505472E-002   7.0655475165494849E-002   0.0000000000000000     
  -5.2509433835306554E-002   7.6504509444685301E-002   0.0000000000000000     
  -5.4597900573154515E-002   8.2537116660315032E-002   0.0000000000000000     
  -3.4846885503623769E-002   8.0486517859165010E-002   0.0000000000000000     
  -3.6191409710263904E-002   8.6758088862425947E-002   0.0000000000000000     
  -3.7486746093939156E-002   9.3188871837354081E-002   0.0000000000000000     
  -3.8732894654649512E-002   9.9778866783949399E-002   0.0000000000000000     
  -3.9929855392394978E-002  0.10652807370221190        0.0000000000000000     
  -3.9563225932911908E-002   8.0922510862236868E-002   0.0000000000000000     
  -4.1074233200004889E-002   8.7177073789987111E-002   0.0000000000000000     
  -4.2530696191738389E-002   9.3591329900607728E-002   0.0000000000000000     
  -4.3932614908112358E-002  0.10016527919409873        0.0000000000000000     
  -4.5279989349126838E-002  0.10689892167046014        0.0000000000000000     
  -4.4427175254263082E-002   8.1409608330119163E-002   0.0000000000000000     
  -4.6105463277282099E-002   8.7646903346249957E-002   0.0000000000000000     
  -4.7723740946943975E-002   9.4043378620613044E-002   0.0000000000000000     
  -4.9282008263248703E-002  0.10059903415320844        0.0000000000000000     
  -5.0780265226196289E-002  0.10731386994403615        0.0000000000000000     
  -4.9438733467677291E-002   8.1947810262811879E-002   0.0000000000000000     
  -5.1285099942095527E-002   8.8167577531214431E-002   0.0000000000000000     
  -5.3065880359555936E-002   9.4545017997369973E-002   0.0000000000000000     
  -5.4781074720058540E-002  0.10108013166127849        0.0000000000000000     
  -5.6430683023603337E-002  0.10777291852293999        0.0000000000000000     
  -5.4597900573154515E-002   8.2537116660315032E-002   0.0000000000000000     
  -5.6613143194445159E-002   8.8739096344880614E-002   0.0000000000000000     
  -5.8557114429574279E-002   9.5096248030878558E-002   0.0000000000000000     
  -6.0429814278541889E-002  0.10160857171830889        0.0000000000000000     
  -6.2231242741347975E-002  0.10827606740717159        0.0000000000000000     
  -3.9929855392394978E-002  0.10652807370221190        0.0000000000000000     
  -4.1076017633254934E-002  0.11342345034958556        0.0000000000000000     
  -4.2169770703308754E-002  0.12045195448351428        0.0000000000000000     
  -4.3211114602556444E-002  0.12761358610399812        0.0000000000000000     
  -4.4200049330997991E-002  0.13490834521103701        0.0000000000000000     
  -4.5279989349126838E-002  0.10689892167046014        0.0000000000000000     
  -4.6570788197366528E-002  0.11377837770415007        0.0000000000000000     
  -4.7802980135416145E-002  0.12078976766962668        0.0000000000000000     
  -4.8976565163275684E-002  0.12793309156689003        0.0000000000000000     
  -5.0091543280945158E-002  0.13520834939594004        0.0000000000000000     
  -5.0780265226196289E-002  0.10731386994403615        0.0000000000000000     
  -5.2216375464263942E-002  0.11417429173205385        0.0000000000000000     
  -5.3588202605928892E-002  0.12116670525621911        0.0000000000000000     
  -5.4895746651191131E-002  0.12829111051653203        0.0000000000000000     
  -5.6139007600050667E-002  0.13554750751299252        0.0000000000000000     
  -5.6430683023603337E-002  0.10777291852293999        0.0000000000000000     
  -5.8012779433947198E-002  0.11461119243329687        0.0000000000000000     
  -5.9525438114847021E-002  0.12158276724329158        0.0000000000000000     
  -6.0968659066302784E-002  0.12868764295292409        0.0000000000000000     
  -6.2342442288314495E-002  0.13592581956219446        0.0000000000000000     
  -6.2231242741347975E-002  0.10827606740717159        0.0000000000000000     
  -6.3960000106416282E-002  0.11508907980787916        0.0000000000000000     
  -6.5614686662170491E-002  0.12203795363084406        0.0000000000000000     
  -6.7195302408610616E-002  0.12912268887606629        0.0000000000000000     
  -6.8701847345736672E-002  0.13634328554354586        0.0000000000000000     
  -4.4200049330997991E-002  0.13490834521103701        0.0000000000000000     
  -4.5135957716077500E-002  0.14232605078802754        0.0000000000000000     
  -4.6018222585239070E-002  0.14985652181836620        0.0000000000000000     
  -4.6846843938482673E-002  0.15749975830205304        0.0000000000000000     
  -4.7621821775808343E-002  0.16525576023908800        0.0000000000000000     
  -5.0091543280945158E-002  0.13520834939594004        0.0000000000000000     
  -5.1147467948092822E-002  0.14260656091392435        0.0000000000000000     
  -5.2143892624386942E-002  0.15011874587799051        0.0000000000000000     
  -5.3080817309827513E-002  0.15774490428813859        0.0000000000000000     
  -5.3958242004414528E-002  0.16548503614436852        0.0000000000000000     
  -5.6139007600050667E-002  0.13554750751299252        0.0000000000000000     
  -5.7319338776866811E-002  0.14292646797747863        0.0000000000000000     
  -5.8438093505998878E-002  0.15041856364186840        0.0000000000000000     
  -5.9495271787446888E-002  0.15802379450616172        0.0000000000000000     
  -6.0490873621210833E-002  0.16574216057035873        0.0000000000000000     
  -6.2342442288314495E-002  0.13592581956219446        0.0000000000000000     
  -6.3651570202399449E-002  0.14328577197869044        0.0000000000000000     
  -6.4900825230074871E-002  0.15075597510999980        0.0000000000000000     
  -6.6090207371340831E-002  0.15833642895612252        0.0000000000000000     
  -6.7219716626197260E-002  0.16602713351705867        0.0000000000000000     
  -6.8701847345736672E-002  0.13634328554354586        0.0000000000000000     
  -7.0144162224690748E-002  0.14368447291755970        0.0000000000000000     
  -7.1532087796614963E-002  0.15113098028238470        0.0000000000000000     
  -7.2865624061509315E-002  0.15868280763802087        0.0000000000000000     
  -7.4144771019373806E-002  0.16633995498446824        0.0000000000000000     
   0.0000000000000000        0.0000000000000000        0.0000000000000000     
  -2.8800271589330844E-003   1.7450161195943031E-003   0.0000000000000000     
  -5.8725796043747718E-003   3.8649590429028374E-003   0.0000000000000000     
  -8.9776573363250615E-003   6.3598287699256038E-003   0.0000000000000000     
  -1.2195260354783955E-002   9.2296253006626024E-003   0.0000000000000000     
   0.0000000000000000        0.0000000000000000        0.0000000000000000     
  -3.2831382585856157E-003   1.9995319189742267E-003   0.0000000000000000     
  -6.6768358669359257E-003   4.3312771613107457E-003   0.0000000000000000     
  -1.0181092825050931E-002   6.9952357270095583E-003   0.0000000000000000     
  -1.3795909132930629E-002   9.9914076160706623E-003   0.0000000000000000     
   0.0000000000000000        0.0000000000000000        0.0000000000000000     
  -3.9535175322221450E-003   2.4252897168770210E-003   0.0000000000000000     
  -7.9105128399371543E-003   5.0632391820305883E-003   0.0000000000000000     
  -1.1870985923145030E-002   7.9138483954607000E-003   0.0000000000000000     
  -1.5834936781845770E-002   1.0977117357167356E-002   0.0000000000000000     
   0.0000000000000000        0.0000000000000000        0.0000000000000000     
  -4.8911649798426722E-003   3.0222895133026860E-003   0.0000000000000000     
  -9.5736105233784584E-003   6.0608451050623629E-003   0.0000000000000000     
  -1.4047336630607359E-002   9.1156667752790299E-003   0.0000000000000000     
  -1.8312343301529373E-002   1.2186754523952686E-002   0.0000000000000000     
   0.0000000000000000        0.0000000000000000        0.0000000000000000     
  -6.0960806014471952E-003   3.7905313082512208E-003   0.0000000000000000     
  -1.1666128917259835E-002   7.3240949304060696E-003   0.0000000000000000     
  -1.6710144947437916E-002   1.0600690866464547E-002   0.0000000000000000     
  -2.1228128691981443E-002   1.3620319116426652E-002   0.0000000000000000     
  -1.2195260354783955E-002   9.2296253006626024E-003   0.0000000000000000     
  -1.5427645766469626E-002   1.2372339428190736E-002   0.0000000000000000     
  -1.8577070678100258E-002   1.5685961945586902E-002   0.0000000000000000     
  -2.1643535089675835E-002   1.9170492852851106E-002   0.0000000000000000     
  -2.4627039001196376E-002   2.2825932149983349E-002   0.0000000000000000     
  -1.3795909132930629E-002   9.9914076160706623E-003   0.0000000000000000     
  -1.7404168721909894E-002   1.3221862389056148E-002   0.0000000000000000     
  -2.0888755523323612E-002   1.6588669606528102E-002   0.0000000000000000     
  -2.4249669537171770E-002   2.0091829268486534E-002   0.0000000000000000     
  -2.7486910763454372E-002   2.3731341374931429E-002   0.0000000000000000     
  -1.5834936781845770E-002   1.0977117357167356E-002   0.0000000000000000     
  -1.9730577500092633E-002   1.4211905672726999E-002   0.0000000000000000     
  -2.3486120161938885E-002   1.7577072947716058E-002   0.0000000000000000     
  -2.7101564767384519E-002   2.1072619182134551E-002   0.0000000000000000     
  -3.0576911316429548E-002   2.4698544375982467E-002   0.0000000000000000     
  -1.8312343301529373E-002   1.2186754523952686E-002   0.0000000000000000     
  -2.2406872101017838E-002   1.5342469279203288E-002   0.0000000000000000     
  -2.6369164593946077E-002   1.8651171969150778E-002   0.0000000000000000     
  -3.0199220780314097E-002   2.2112862593795170E-002   0.0000000000000000     
  -3.3897040660121898E-002   2.5727541153136458E-002   0.0000000000000000     
  -2.1228128691981443E-002   1.3620319116426652E-002   0.0000000000000000     
  -2.5433052524685505E-002   1.6613553208485014E-002   0.0000000000000000     
  -2.9537888819345187E-002   1.9810966670832257E-002   0.0000000000000000     
  -3.3542637575960495E-002   2.3212559503468389E-002   0.0000000000000000     
  -3.7447298794531424E-002   2.6818331706393403E-002   0.0000000000000000     
  -2.4627039001196376E-002   2.2825932149983349E-002   0.0000000000000000     
  -2.7531894542861944E-002   2.6674845280732936E-002   0.0000000000000000     
  -3.0362413844872604E-002   3.0739797688849185E-002   0.0000000000000000     
  -3.3118596907228369E-002   3.5020789374332104E-002   0.0000000000000000     
  -3.5800443729929222E-002   3.9517820337181674E-002   0.0000000000000000     
  -2.7486910763454372E-002   2.3731341374931429E-002   0.0000000000000000     
  -3.0623604624966140E-002   2.7549698410124203E-002   0.0000000000000000     
  -3.3682876544501777E-002   3.1589392858326272E-002   0.0000000000000000     
  -3.6664726522061285E-002   3.5850424719537616E-002   0.0000000000000000     
  -3.9569154557644676E-002   4.0332793993758255E-002   0.0000000000000000     
  -3.0576911316429548E-002   2.4698544375982467E-002   0.0000000000000000     
  -3.3941458108810378E-002   2.8499480273378459E-002   0.0000000000000000     
  -3.7224503444263438E-002   3.2520058618441199E-002   0.0000000000000000     
  -4.0426047322788691E-002   3.6760279411170681E-002   0.0000000000000000     
  -4.3546089744386195E-002   4.1220142651566913E-002   0.0000000000000000     
  -3.3897040660121898E-002   2.5727541153136458E-002   0.0000000000000000     
  -3.7485454994394658E-002   2.9524190870495706E-002   0.0000000000000000     
  -4.0987294544157560E-002   3.3531794969193979E-002   0.0000000000000000     
  -4.4402559309410609E-002   3.7750353449231305E-002   0.0000000000000000     
  -4.7731249290153779E-002   4.2179866310607654E-002   0.0000000000000000     
  -3.7447298794531424E-002   2.6818331706393403E-002   0.0000000000000000     
  -4.1255595281718987E-002   3.0623830201475934E-002   0.0000000000000000     
  -4.4971249844184172E-002   3.4624601910584620E-002   0.0000000000000000     
  -4.8594262481926984E-002   3.8820646833719455E-002   0.0000000000000000     
  -5.2124633194947437E-002   4.3211964970880451E-002   0.0000000000000000     
  -3.5800443729929222E-002   3.9517820337181674E-002   0.0000000000000000     
  -3.8408485807716448E-002   4.4221002355784488E-002   0.0000000000000000     
  -4.0943254635331300E-002   4.9120447208527124E-002   0.0000000000000000     
  -4.3404750212773770E-002   5.4216154895409589E-002   0.0000000000000000     
  -4.5792972540043886E-002   5.9508125416431877E-002   0.0000000000000000     
  -3.9569154557644676E-002   4.0332793993758255E-002   0.0000000000000000     
  -4.2394495633580546E-002   4.5021953996496604E-002   0.0000000000000000     
  -4.5139084732197535E-002   4.9903358043261042E-002   0.0000000000000000     
  -4.7802921853495620E-002   5.4977006134051605E-002   0.0000000000000000     
  -5.0386006997474794E-002   6.0242898268868285E-002   0.0000000000000000     
  -4.3546089744386195E-002   4.1220142651566913E-002   0.0000000000000000     
  -4.6581571020503018E-002   4.5885735811934579E-002   0.0000000000000000     
  -4.9529431462586294E-002   5.0743146364578363E-002   0.0000000000000000     
  -5.2389671070635989E-002   5.5792374309498252E-002   0.0000000000000000     
  -5.5162289844652136E-002   6.1033419646694273E-002   0.0000000000000000     
  -4.7731249290153779E-002   4.2179866310607654E-002   0.0000000000000000     
  -5.0969711968483856E-002   4.6812347802098427E-002   0.0000000000000000     
  -5.4114294826497558E-002   5.1639812172479059E-002   0.0000000000000000     
  -5.7164997864194891E-002   5.6662259421749517E-002   0.0000000000000000     
  -6.0121821081575877E-002   6.1879689549909828E-002   0.0000000000000000     
  -5.2124633194947437E-002   4.3211964970880451E-002   0.0000000000000000     
  -5.5558918477523041E-002   4.7801789966988167E-002   0.0000000000000000     
  -5.8893674823931347E-002   5.2593355466963143E-002   0.0000000000000000     
  -6.2128902234172341E-002   5.7586661470805413E-002   0.0000000000000000     
  -6.5264600708246037E-002   6.2781707978514956E-002   0.0000000000000000     
  -4.5792972540043886E-002   5.9508125416431877E-002   0.0000000000000000     
  -4.8106969818751240E-002   6.4990013822743720E-002   0.0000000000000000     
  -5.0345790250505472E-002   7.0655475165494849E-002   0.0000000000000000     
  -5.2509433835306554E-002   7.6504509444685301E-002   0.0000000000000000     
  -5.4597900573154515E-002   8.2537116660315032E-002   0.0000000000000000     
  -5.0386006997474794E-002   6.0242898268868285E-002   0.0000000000000000     
  -5.2888627024062045E-002   6.5697905562238187E-002   0.0000000000000000     
  -5.5311068793184294E-002   7.1338899128688377E-002   0.0000000000000000     
  -5.7653332304841549E-002   7.7165878968218915E-002   0.0000000000000000     
  -5.9915417559033832E-002   8.3178845080829733E-002   0.0000000000000000     
  -5.5162289844652136E-002   6.1033419646694273E-002   0.0000000000000000     
  -5.7848879585464287E-002   6.6463691011436246E-002   0.0000000000000000     
  -6.0451032093902020E-002   7.2080597038994054E-002   0.0000000000000000     
  -6.2968747369965355E-002   7.7884137729367656E-002   0.0000000000000000     
  -6.5402025413654266E-002   8.3874313082557092E-002   0.0000000000000000     
  -6.0121821081575877E-002   6.1879689549909828E-002   0.0000000000000000     
  -6.2987727502957974E-002   6.7287370170337951E-002   0.0000000000000000     
  -6.5765680152658657E-002   7.2880568896411854E-002   0.0000000000000000     
  -6.8455679030677952E-002   7.8659285728131578E-002   0.0000000000000000     
  -7.1057724137015832E-002   8.4623520665497096E-002   0.0000000000000000     
  -6.5264600708246037E-002   6.2781707978514956E-002   0.0000000000000000     
  -6.8305170776543106E-002   6.8168943038943261E-002   0.0000000000000000     
  -7.1255012969454190E-002   7.3738814700941832E-002   0.0000000000000000     
  -7.4114127286979359E-002   7.9491322964510655E-002   0.0000000000000000     
  -7.6882513729118543E-002   8.5426467829649730E-002   0.0000000000000000     
  -5.4597900573154515E-002   8.2537116660315032E-002   0.0000000000000000     
  -5.6613143194445159E-002   8.8739096344880614E-002   0.0000000000000000     
  -5.8557114429574279E-002   9.5096248030878558E-002   0.0000000000000000     
  -6.0429814278541889E-002  0.10160857171830889        0.0000000000000000     
  -6.2231242741347975E-002  0.10827606740717159        0.0000000000000000     
  -5.9915417559033832E-002   8.3178845080829733E-002   0.0000000000000000     
  -6.2098804812002015E-002   8.9361187777615619E-002   0.0000000000000000     
  -6.4204974319987021E-002   9.5696297369671252E-002   0.0000000000000000     
  -6.6233926082988864E-002  0.10218417385699669        0.0000000000000000     
  -6.8185660101007531E-002  0.10882481723959182        0.0000000000000000     
  -6.5402025413654266E-002   8.3874313082557092E-002   0.0000000000000000     
  -6.7751296572437114E-002   9.0033579819786616E-002   0.0000000000000000     
  -7.0016991193782241E-002   9.6344394662280536E-002   0.0000000000000000     
  -7.2199109277689619E-002  0.10280675761003884        0.0000000000000000     
  -7.4297650824159303E-002  0.10942066866306153        0.0000000000000000     
  -7.1057724137015832E-002   8.4623520665497096E-002   0.0000000000000000     
  -7.3570618475750429E-002   9.0756272471393618E-002   0.0000000000000000     
  -7.5993165050959904E-002   9.7040539908706383E-002   0.0000000000000000     
  -7.8325363862644160E-002  0.10347632297743542        0.0000000000000000     
  -8.0567214910803278E-002  0.11006362167758070        0.0000000000000000     
  -7.6882513729118543E-002   8.5426467829649730E-002   0.0000000000000000     
  -7.9556770521942016E-002   9.1529265732436596E-002   0.0000000000000000     
  -8.2133495891519984E-002   9.7784733108948821E-002   0.0000000000000000     
  -8.4612689837852487E-002  0.10419286995918639        0.0000000000000000     
  -8.6994352360939498E-002  0.11075367628314929        0.0000000000000000     
  -6.2231242741347975E-002  0.10827606740717159        0.0000000000000000     
  -6.3960000106416282E-002  0.11508907980787916        0.0000000000000000     
  -6.5614686662170491E-002  0.12203795363084406        0.0000000000000000     
  -6.7195302408610616E-002  0.12912268887606629        0.0000000000000000     
  -6.8701847345736672E-002  0.13634328554354586        0.0000000000000000     
  -6.8185660101007531E-002  0.10882481723959182        0.0000000000000000     
  -7.0059198955113824E-002  0.11561114354686754        0.0000000000000000     
  -7.1853565226378563E-002  0.12253606880823452        0.0000000000000000     
  -7.3568758914801760E-002  0.12959959302369278        0.0000000000000000     
  -7.5204780020383388E-002  0.13680171619324233        0.0000000000000000     
  -7.4297650824159303E-002  0.10942066866306153        0.0000000000000000     
  -7.6311537453482500E-002  0.11618057334132881        0.0000000000000000     
  -7.8239690785950500E-002  0.12308091716482092        0.0000000000000000     
  -8.0082110821563274E-002  0.13012170013353785        0.0000000000000000     
  -8.1838797560320850E-002  0.13730292224747956        0.0000000000000000     
  -8.0567214910803278E-002  0.11006362167758070        0.0000000000000000     
  -8.2717015601522309E-002  0.11679736919126305        0.0000000000000000     
  -8.4773063340886273E-002  0.12367249870060326        0.0000000000000000     
  -8.6735358128895212E-002  0.13068901020560145        0.0000000000000000     
  -8.8603899965549085E-002  0.13784690370625749        0.0000000000000000     
  -8.6994352360939498E-002  0.11075367628314929        0.0000000000000000     
  -8.9275633399233223E-002  0.11746153109667015        0.0000000000000000     
  -9.1453682891185897E-002  0.12431081341558159        0.0000000000000000     
  -9.3528500836797521E-002  0.13130152323988356        0.0000000000000000     
  -9.5500087236068079E-002  0.13843366056957612        0.0000000000000000     
  -6.8701847345736672E-002  0.13634328554354586        0.0000000000000000     
  -7.0144162224690748E-002  0.14368447291755970        0.0000000000000000     
  -7.1532087796614963E-002  0.15113098028238470        0.0000000000000000     
  -7.2865624061509315E-002  0.15868280763802087        0.0000000000000000     
  -7.4144771019373806E-002  0.16633995498446824        0.0000000000000000     
  -7.5204780020383388E-002  0.13680171619324233        0.0000000000000000     
  -7.6774096984701168E-002  0.14412301995235369        0.0000000000000000     
  -7.8289178249332833E-002  0.15154408593649735        0.0000000000000000     
  -7.9750023814278384E-002  0.15906491414567323        0.0000000000000000     
  -8.1156633679537793E-002  0.16668550457988141        0.0000000000000000     
  -8.1838797560320850E-002  0.13730292224747956        0.0000000000000000     
  -8.3518356623391174E-002  0.14460186224133970        0.0000000000000000     
  -8.5129393631942246E-002  0.15199579884981176        0.0000000000000000     
  -8.6671908585974011E-002  0.15948473207289587        0.0000000000000000     
  -8.8145901485486511E-002  0.16706866191059194        0.0000000000000000     
  -8.8603899965549085E-002  0.13784690370625749        0.0000000000000000     
  -9.0376941140760808E-002  0.14512099978451765        0.0000000000000000     
  -9.2052733944443160E-002  0.15248611902232811        0.0000000000000000     
  -9.3631278376596225E-002  0.15994226141968890        0.0000000000000000     
  -9.5112574437219988E-002  0.16748942697659994        0.0000000000000000     
  -9.5500087236068079E-002  0.13843366056957612        0.0000000000000000     
  -9.7349850536809973E-002  0.14568043258188762        0.0000000000000000     
  -9.9059199186835645E-002  0.15301504645404629        0.0000000000000000     
 -0.10062813318614504       0.16043750218605218        0.0000000000000000     
 -0.10205665253473820       0.16794779977790530        0.0000000000000000     
 </DataArray>
 <DataArray  type="Float64" Name="stress" NumberOfComponents="3" format="ascii">
   13416995328.651819        4025098598.5955458        2894041957.8034430     
   11766658012.274487        1890580838.7790127        1715813727.9022384     
   10313587284.542849        413618374.44814157        810720760.59942353     
   9057783145.4569130       -405788794.39706898        178763055.89499909     
   7999245595.0166721       -567640667.75662041       -180059386.21103659     
   10540008154.067392        3162002446.2202177        2225838626.9247599     
   9667556619.9750919        1589635058.2694259        1446750290.0976882     
   8943734427.7487736        512698809.87191010        863173360.46092629     
   8368541577.3884373       -68806298.972329617        475107838.01447552     
   7941978068.8940868       -154880268.26329279        282553722.75833625     
   8337818678.4725609        2501345603.5417681        1712462653.0189490     
   8021470482.6422081        1424593854.2497916        1275770754.6896746     
   7805114381.8981256        681149088.57870722        956966408.14263260     
   7688750376.2403107        271011306.52851439        756049613.37782216     
   7672378465.6687603        194180508.09921122        673020370.39524317     
   6810426901.8673220        2043128070.5601964        1353914036.0860090     
   6828399600.2758389        1395457226.7201116        1202875121.6781981     
   6897727146.9909067        918969210.56853294        1092099903.6445398     
   7018409542.0125265        613664022.10546064        1021588381.9850348     
   7190446785.3406982        479541661.33089519        991340556.69968307     
   5957832824.2516785        1787349847.2755034        1150192776.1259410     
   6088343972.8759794        1502225175.6803846        1228063391.0632584     
   6221572723.0271168        1226159175.8413877        1268573846.9666498     
   6357519074.7050905        959151847.75851202        1271724143.8361149     
   6496183027.9098997        701203191.43175840        1237514281.6716542     
   7999245595.0166721       -567640667.75662041       -180059386.21103659     
   7917313765.0195017       -200186524.66941738       -78128904.256106272     
   7793933566.3637791        29106389.555933952       -8906565.9626733921     
   7629104999.0494995        120238074.91943312        27607628.669269104     
   7422828063.0766621        73208531.421077251        31413679.639718015     
   7941978068.8940868       -154880268.26329279        282553722.75833625     
   7739421923.6746769        16244942.716742516        281332586.03093386     
   7513509164.9113922        109514775.21717215        265338334.81880492     
   7264239792.6042194        124929229.23798656        234570969.12194914     
   6991613806.7531662        62488304.779192448        189030488.94036412     
   7672378465.6687603        194180508.09921122        673020370.39524317     
   7400440945.7321644        184349669.12359810        589754662.61929512     
   7123238567.3663578        156969302.05061436        509650869.53538460     
   6840771330.5713406        112039406.88026237        432708991.14351338     
   6553039235.3471127        49559983.612543344        358929027.44368207     
   7190446785.3406982        479541661.33089519        991340556.69968307     
   6900370831.1919603        304127654.55114484        847137325.50897253     
   6623121773.7286825        171469970.05626607        724031038.18706620     
   6358699612.9508638        81568607.846259594        622021694.73396814     
   6107104348.8585110        34423567.921126127        541109295.14967227     
   6496183027.9098997        701203191.43175840        1237514281.6716542     
   6239211580.0540638        375578898.99938416        1053480574.6999673     
   6013158783.9983597        153016779.23412228        908478840.77385068     
   5818024639.7427921        33516832.135977030        802509079.89330614     
   5653809147.2873573        17079057.704945087        735571292.05833292     
   7422828063.0766621        73208531.421077251        31413679.639718015     
   7217605800.6847572       -17957360.020337105        14712453.340259301     
   7024522401.4454746       -68660374.286357880        2858522.7636691323     
   6843577865.3588095       -78900511.376982212       -4148112.0900494475     
   6674772192.4247627       -48677771.292207241       -6307451.2208933961     
   6991613806.7531662        62488304.779192448        189030488.94036412     
   6807506538.3224010        2876030.4609918594        180966145.12440974     
   6631111730.6318989       -31028041.389676571        177015204.68110734     
   6462429383.6816559       -39223910.772810221        177177667.61044794     
   6301459497.4716759       -21711577.688404322        181453533.91244438     
   6553039235.3471127        49559983.612543344        358929027.44368207     
   6387950125.5911360        20872275.831646442        354337429.96348721     
   6226147074.1630640        3138095.8104281425        353125343.50571811     
   6067630081.0628929       -3642556.4511151314        355292768.07037187     
   5912399146.2906265        530319.04701852798        360839703.65745002     
   6107104348.8585110        34423567.921126127        541109295.14967227     
   5958936562.4909697        36031376.091630459        534826307.85748190     
   5809628432.0389729        33838037.313953638        531188939.23749536     
   5659179957.5025215        27843551.588091135        530197189.28971100     
   5507591138.8816156        18047918.914051771        531851058.01412523     
   5653809147.2873573        17079057.704945087        735571292.05833292     
   5520465849.0218964        48353331.240944624        722432778.80640161     
   5381555804.2596245        61071783.120901108        711205991.87644613     
   5237079013.0005398        55234413.344818830        701890931.26846981     
   5087035475.2446461        30841221.912695408        694487596.98247182     
   6674772192.4247627       -48677771.292207241       -6307451.2208933961     
   6494798006.9797497       -11606522.209099531        705938.06840221980     
   6309409615.1414356        7417372.2296745777        11665800.138691220     
   6118607016.9098186        8393912.0240986347        26572134.989964318     
   5922390212.2849026       -8676902.8257966042        45424942.622226320     
   6301459497.4716759       -21711577.688404322        181453533.91244438     
   6127362767.3588915       -1203159.2393059731        178190180.19176051     
   5950125535.9798174        8836921.6554977894        179323664.86119616     
   5769747803.3344574        8408664.9960129261        184853987.92074007     
   5586229569.4228134       -2487929.2177507877        194781149.37039903     
   5912399146.2906265        530319.04701852798        360839703.65745002     
   5745466630.3932867        4861934.5270566940        349952262.90830505     
   5577667318.3566780        6304229.5428652763        343912026.15840191     
   5409001210.1807995        4857204.0944347382        342718993.40773731     
   5239468305.8656454        520858.18176937103        346373164.65631992     
   5507591138.8816156        18047918.914051771        531851058.01412523     
   5349109596.0829458        6588759.0900070667        515992186.21803427     
   5192034962.2720203       -180704.10822677612        505430884.03031379     
   5036367237.4488420       -2260470.6806344986        500167151.45095980     
   4882106421.6134090        349459.37277388573        500200988.47997963     
   5087035475.2446461        30841221.912695408        694487596.98247182     
   4938291664.4278641        3977314.4495294094        676309950.12095284     
   4793228467.7258463       -10617879.297767878        663880238.47693241     
   4651845885.1385880       -12944359.329190731        657198462.05040729     
   4514143916.6660900       -3002125.6447489262        656264620.84137678     
   5922390212.2849026       -8676902.8257966042        45424942.622226320     
   5743226818.5181952       -25229822.527715206        53030704.515991338     
   5566445898.3253603       -33841163.650053024        62410904.419021860     
   5392047451.7064066       -34510926.192795753        73565542.331306681     
   5220031478.6613283       -27239110.155944586        86494618.252849981     
   5586229569.4228134       -2487929.2177507877        194781149.37039903     
   5414277058.4367828       -12758830.427238226        201078704.16565382     
   5243589868.1411629       -18811996.002010345        209698957.28467688     
   5074167998.5359602       -20647425.942063332        220641908.72747928     
   4906011449.6211786       -18265120.247382164        233907558.49405342     
   5239468305.8656454        520858.18176937103        346373164.65631992     
   5076293135.7017632       -2998087.1228559017        350059167.32235360     
   4913266133.3448391       -6023139.7376146317        356616128.62667835     
   4750387298.7948723       -8554299.6625168324        366044048.56929773     
   4587656632.0518665       -10591566.897555113        378342927.15020609     
   4882106421.6134090        349459.37277388573        500200988.47997963     
   4729275050.3131504        4052407.3854579926        499972093.98609120     
   4575474693.9363918        4525405.1431388855        503162418.44501573     
   4420705352.4831352        1768452.6458251476        509771961.85675216     
   4264967025.9533720       -4218450.1064960957        519800724.22129411     
   4514143916.6660900       -3002125.6447489262        656264620.84137678     
   4373222802.2709341        8392653.0976824760        650817484.15687406     
   4230215549.9158177        12833638.640262127        649337826.73969758     
   4085122159.6007404        10320830.982965708        651825648.58984518     
   3937942631.3257127        854230.12582349777        658280949.70731664     
   5220031478.6613283       -27239110.155944586        86494618.252849981     
   5034299106.8778305       -22145915.543657303        80909922.157323092     
   4847460941.6503525       -20738699.077977180        80782364.193252236     
   4659516982.9788866       -23017460.758929968        86111944.360639304     
   4470467230.8634243       -28982200.586518049        96898662.659483656     
   4906011449.6211786       -18265120.247382164        233907558.49405342     
   4733259052.0743885       -15880756.439982414        225801335.36262810     
   4560151759.7947674       -14679375.075375795        222847684.46756890     
   4386689572.7822981       -14660976.153577566        225046605.80887678     
   4212872491.0369921       -15825559.674573183        232398099.38655657     
   4587656632.0518665       -10591566.897555113        378342927.15020609     
   4427014020.4700975       -11177090.376575470        368591225.47921461     
   4266767412.8666472       -10442600.594548225        363687530.14950550     
   4106916809.2414989       -8388097.5515027046        363631841.16107494     
   3947462209.5946703       -5013581.2474012375        368424158.51393497     
   4264967025.9533720       -4218450.1064960957        519800724.22129411     
   4115564012.0649538       -8034917.3534212112        509279592.50708115     
   3967307900.8660011       -8028375.6354713440        503301901.23906147     
   3820198692.3565016       -4198824.9526734352        501867650.41724133     
   3674236386.5364618        3453734.6950044632        504976840.04160768     
   3937942631.3257127        854230.12582349777        658280949.70731664     
   3798909026.8589644       -6454237.3705170155        647866436.44622588     
   3661773223.7928233       -7436700.1981637478        641690797.73623872     
   3526535222.1272955       -2093158.3571059704        639754033.57735956     
   3393195021.8623734        9576388.1526494026        642056143.96959162     
   4470467230.8634243       -28982200.586518049        96898662.659483656     
   4268965526.3791971       -39972611.769715548        105881314.89686240     
   4067719009.4191809       -50112397.872206926        122402233.45574541     
   3866727679.9833908       -59401558.893950462        146461418.33613911     
   3665991538.0717993       -67840094.835020065        178058869.53802934     
   4212872491.0369921       -15825559.674573183        232398099.38655657     
   4031536984.6038470       -20258340.751881361        238073018.92631581     
   3849888678.2991710       -25733788.067639589        250208832.92865366     
   3667927572.1229620       -32251901.621837616        268805541.39359826     
   3485653666.0752220       -39812681.414467812        293863144.32111764     
   3947462209.5946703       -5013581.2474012375        368424158.51393497     
   3783214695.9014206       -3812193.8121733665        370128693.39436001     
   3618086394.9408898       -5546763.9345555305        377216750.87846130     
   3452077306.7130780       -10217291.614548922        389688330.96622741     
   3285187431.2179823       -17823776.852127790        407543433.65766913     
   3674236386.5364618        3453734.6950044632        504976840.04160768     
   3523998660.2719150        9365829.0494124889        502048338.30100328     
   3372312159.3443384        10448674.527041435        503425987.30515397     
   3219176883.7537327        6702271.1279149055        509109787.05405438     
   3064592833.5000935       -1873381.1479889154        519099737.54770112     
   3393195021.8623734        9576388.1526494026        642056143.96959162     
   3253888877.7153344        19275727.832869053        633831953.64624107     
   3112565971.5095167        22252527.317167997        628836542.20873570     
   2969226303.2449160        18506786.605516553        627069909.65705824     
   2823869872.9215469        8038505.6979624033        628532055.99121940     
   3665991538.0717993       -67840094.835020065        178058869.53802934     
   3387812216.2606897       -96450739.497951508        192458655.31021854     
   3111395846.6492805       -119184876.82854569        244066756.55512714     
   2836742429.2375889       -136042506.82676446        332883173.27272570     
   2563851964.0256104       -147023629.49257612        458907905.46305394     
   3485653666.0752220       -39812681.414467812        293863144.32111764     
   3296980596.1341319       -46333342.274109602        298235591.00581020     
   3110571887.4498549       -45306132.277695656        329152996.62475973     
   2926427540.0224018       -36731051.425228596        386615361.17793477     
   2744547553.8517628       -20608099.716672063        470622684.66535264     
   3285187431.2179823       -17823776.852127790        407543433.65766913     
   3155553880.1798587       -11394473.798569322        402473518.48817223     
   3028686099.4556599        4254063.6347306967        413285205.71443647     
   2904584089.0453806        29121835.447747231        439978495.33646536     
   2783247848.9490118        63208841.640507698        482553387.35427266     
   3064592833.5000935       -1873381.1479889154        519099737.54770112     
   2963532068.3978782        8365865.9286656380        505172437.75728989     
   2865738482.6666775        29495710.908703804        496463383.82417560     
   2771212076.3065095        61516153.792173147        492972575.74834782     
   2679952849.3173575        104427194.57905662        494700013.52982050     
   2823869872.9215469        8038505.6979624033        628532055.99121940     
   2720915160.7881699        12947676.907562256        606332348.81317663     
   2621729037.0829277        30418809.544259429        578687530.95395529     
   2526311501.8058124        60451903.608059406        545597602.41355574     
   2434662554.9568233        103046959.09892797        507062563.19199216     
   5957832824.2516785        1787349847.2755034        1150192776.1259410     
   6088343972.8759794        1502225175.6803846        1228063391.0632584     
   6221572723.0271168        1226159175.8413877        1268573846.9666498     
   6357519074.7050905        959151847.75851202        1271724143.8361149     
   6496183027.9098997        701203191.43175840        1237514281.6716542     
   5434595764.9283981        1630378729.4785192        1033612256.8508122     
   5489878309.0596590        1372470327.0402250        1114003761.7228522     
   5547353703.3369980        1121871425.0888584        1167606590.8287513     
   5607021947.7604160        878582023.62442052        1194420744.1685095     
   5668883042.3299112        642602122.64691091        1194446221.7421265     
   4895275043.2002497        1468582512.9600749        936485861.97269058     
   4905533220.7464275        1246951651.0509915        1018786046.8352358     
   4917459497.0579262        1030881118.3596432        1084869039.1994245     
   4931053872.1347456        820370914.88603008        1134734839.0652580     
   4946316345.9768867        615421040.63015234        1168383446.4327354     
   4339870659.0672321        1301961197.7201698        858813591.49157655     
   4335308707.9362869        1125669147.7126853        942410246.40040886     
   4331890104.1899023        953188255.65374231        1020361192.0786703     
   4329614847.8280821        784518521.54334128        1092666428.5263615     
   4328482938.8508224        619659945.38148224        1159325955.7434814     
   3768382612.5293484        1130514783.7588046        800595445.40746975     
   3779204770.6292343        1008622817.0253057        884876360.41837168     
   3790645524.7329259        888792836.97115564        974083049.46648777     
   3802704874.8404212        771024843.59635401        1068215512.5518185     
   3815382820.9517217        655318836.90090108        1167273749.6743643     
   6496183027.9098997        701203191.43175840        1237514281.6716542     
   6239211580.0540638        375578898.99938416        1053480574.6999673     
   6013158783.9983597        153016779.23412228        908478840.77385068     
   5818024639.7427921        33516832.135977030        802509079.89330614     
   5653809147.2873573        17079057.704945087        735571292.05833292     
   5668883042.3299112        642602122.64691091        1194446221.7421265     
   5518929528.6277885        383017702.46912885        1073696155.1083567     
   5393117140.5693970        203903701.10378671        980995632.71927369     
   5291445878.1547375        105260118.55088496        916344654.57487774     
   5213915741.3838100        87086954.810425758        879743220.67516959     
   4946316345.9768867        615421040.63015234        1168383446.4327354     
   4872002398.4259510        412462982.30620551        1103009906.2877462     
   4815052050.3623447        267383588.94002414        1054703481.5865611     
   4775465301.7860708        180182860.53161120        1023464172.3291792     
   4753242152.6971245        150860797.08096337        1009291978.5156001     
   4328482938.8508224        619659945.38148224        1159325955.7434814     
   4298430189.4485493        463914738.51061285        1141421828.2381372     
   4278963513.3772035        343456442.74283504        1129602387.3757136     
   4270082910.6367855        258285058.07815075        1123867633.1562080     
   4271788381.2272959        208400584.51655889        1124217565.5796220     
   3815382820.9517217        655318836.90090108        1167273749.6743643     
   3798212901.6955848        537372971.08235109        1188931920.9595296     
   3784851529.6139736        432122262.51221967        1205692350.0867302     
   3775298704.7068882        339566711.19050682        1217555037.0559666     
   3769554426.9743280        259706317.11721337        1224519981.8672380     
   5653809147.2873573        17079057.704945087        735571292.05833292     
   5520465849.0218964        48353331.240944624        722432778.80640161     
   5381555804.2596245        61071783.120901108        711205991.87644613     
   5237079013.0005398        55234413.344818830        701890931.26846981     
   5087035475.2446461        30841221.912695408        694487596.98247182     
   5213915741.3838100        87086954.810425758        879743220.67516959     
   5078157597.4867840        84691726.001668215        855833533.56109548     
   4940178989.7501144        74894951.060761213        835924431.71878099     
   4799979918.1737986        57696629.987703562        820015915.14822531     
   4657560382.7578382        33096762.782496214        808107983.84943581     
   4753242152.6971245        150860797.08096337        1009291978.5156001     
   4621037331.5964794        116586516.45583320        978515113.97274554     
   4489958329.3133593        86064965.222445726        953827693.65143454     
   4360005145.8477612        59296143.380798578        935229717.55166495     
   4231177781.1996841        36280050.930895090        922721185.67344117     
   4271788381.2272959        208400584.51655889        1124217565.5796220     
   4149105051.3509846        144037702.60343981        1090477520.0413506     
   4030893822.9493628        94581825.605957031        1064915777.6744041     
   3917154696.0224314        60032953.524106264        1047532338.4787842     
   3807887670.5701914        40391086.357890606        1038327202.4544871     
   3769554426.9743280        259706317.11721337        1224519981.8672380     
   3662360756.7502980        167045284.44449210        1191720751.7669120     
   3562985470.6581254        100445532.21129704        1169188683.7876925     
   3471428568.6978106        59907060.417628527        1156923777.9295814     
   3387690050.8693533        45429869.063484073        1154926034.1925752     
   5087035475.2446461        30841221.912695408        694487596.98247182     
   4938291664.4278641        3977314.4495294094        676309950.12095284     
   4793228467.7258463       -10617879.297767878        663880238.47693241     
   4651845885.1385880       -12944359.329190731        657198462.05040729     
   4514143916.6660900       -3002125.6447489262        656264620.84137678     
   4657560382.7578382        33096762.782496214        808107983.84943581     
   4524939546.5800571        12108054.851882219        794488593.79284167     
   4394981954.1341009       -3173.9726550579071        786167741.42585611     
   4267687605.4199715       -3236923.6911053658        783145426.74847877     
   4143056500.4376631        2406805.6965200901        785421649.76070547     
   4231177781.1996841        36280050.930895090        922721185.67344117     
   4113395926.7240791        20781344.651787758        912473120.30834711     
   3997259945.5973554        10768882.868962526        907074195.10497046     
   3882769837.8195186        6242665.5824296474        906524410.06331027     
   3769925603.3905725        7202692.7921855450        910823765.18336475     
   3807887670.5701914        40391086.357890606        1038327202.4544871     
   3703660804.8599248        29997183.849233866        1030263529.6674662     
   3600062442.1156082        21698291.227077007        1026599599.5142703     
   3497092582.3372407        15494408.491416931        1027335411.9949025     
   3394751225.5248232        11385535.642252207        1032470967.1093599     
   3387690050.8693533        45429869.063484073        1154926034.1925752     
   3295734180.9876013        39755572.444236994        1147859821.8701980     
   3203389443.6888599        32785051.101691246        1144743954.6537607     
   3110655838.9731312        24518305.035853624        1145578432.5432558     
   3017533366.8404155        14955334.246727943        1150363255.5386889     
   4514143916.6660900       -3002125.6447489262        656264620.84137678     
   4373222802.2709341        8392653.0976824760        650817484.15687406     
   4230215549.9158177        12833638.640262127        649337826.73969758     
   4085122159.6007404        10320830.982965708        651825648.58984518     
   3937942631.3257127        854230.12582349777        658280949.70731664     
   4143056500.4376631        2406805.6965200901        785421649.76070547     
   4011153898.4208016        8021645.3974542618        777484824.98974025     
   3878007322.6217957        9489905.8245799541        773851670.25202024     
   3743616773.0406446        6811586.9778854847        774522185.54754865     
   3607982249.6773510       -13311.142619371414        779496370.87632644     
   3769925603.3905725        7202692.7921855450        910823765.18336475     
   3648002058.7974987        7325756.9652771950        901379777.20005238     
   3525676704.6000962        6109455.7905998230        896575650.01590610     
   3402949540.7983618        3553789.2681508064        896411383.63093328     
   3279820567.3922939       -341242.60207533836        900886978.04512644     
   3394751225.5248232        11385535.642252207        1032470967.1093599     
   3283767283.4010324        6304987.8011505604        1022502340.7878141     
   3173223695.8507185        2692288.5383105278        1017509766.0313610     
   3063120462.8738909        547437.85375392437        1017493242.8399963     
   2953457584.4705429       -129564.25253915787        1022452771.2137247     
   3017533366.8404155        14955334.246727943        1150363255.5386889     
   2918449572.2313948        4959337.9050701857        1140852515.7530274     
   2820648296.3736658       -761595.93227243423        1136654018.2983754     
   2724129539.2672343       -2207467.2652913332        1137767763.1747375     
   2628893300.9120955        621723.90599179268        1144193750.3821144     
   3937942631.3257127        854230.12582349777        658280949.70731664     
   3798909026.8589644       -6454237.3705170155        647866436.44622588     
   3661773223.7928233       -7436700.1981637478        641690797.73623872     
   3526535222.1272955       -2093158.3571059704        639754033.57735956     
   3393195021.8623734        9576388.1526494026        642056143.96959162     
   3607982249.6773510       -13311.142619371414        779496370.87632644     
   3480779598.1466055       -4271379.5636219978        771517961.32473648     
   3354845492.8044300       -4300960.6893949509        767697472.00158215     
   3230179933.6508245       -102054.51993346214        768034902.90686226     
   3106782920.6857839        8325338.9447447062        772530254.04056966     
   3279820567.3922939       -341242.60207533836        900886978.04512644     
   3164217570.7327714       -1618301.3671715260        894610541.12232971     
   3049253865.0497723       -764390.21050608158        892411070.10529327     
   2934929450.3433056        2220490.8679211140        894288564.99401450     
   2821244326.6133671        7336341.8681068420        900243025.78849471     
   2953457584.4705429       -129564.25253915787        1022452771.2137247     
   2849222944.6174512        1504997.2188323736        1017144175.8390045     
   2744998340.5288477        3173011.2385013103        1015831592.0473728     
   2640783772.2047291        4874477.8064517975        1018515019.8388182     
   2536579239.6451073        6609396.9227117300        1025194459.2133496     
   2628893300.9120955        621723.90599179268        1144193750.3821144     
   2535795719.8006535        5098516.1943964958        1139118865.4747629     
   2442078919.2416568        7511243.6576286554        1137959037.8278160     
   2347742899.2351079        7859906.2956800461        1140714267.4412818     
   2252787659.7810068        6144504.1085611582        1147384554.3151476     
   3393195021.8623734        9576388.1526494026        642056143.96959162     
   3253888877.7153344        19275727.832869053        633831953.64624107     
   3112565971.5095167        22252527.317167997        628836542.20873570     
   2969226303.2449160        18506786.605516553        627069909.65705824     
   2823869872.9215469        8038505.6979624033        628532055.99121940     
   3106782920.6857839        8325338.9447447062        772530254.04056966     
   2975281241.5341578        14387843.544059873        762913515.78008246     
   2842554869.5943556        16368038.849467397        756910702.87966764     
   2708603804.8663831        14265924.860967636        754521815.33932602     
   2573428047.3502388        8081501.5785629749        755746853.15906715     
   2821244326.6133671        7336341.8681068420        900243025.78849471     
   2698647530.9549737        10092136.935854912        890157820.40656698     
   2575618111.7790170        11405853.611717224        884071686.85895646     
   2452156069.0854931        11277491.895698547        881984625.14566135     
   2328261402.8744121        9707051.7878096104        883896635.26668322     
   2536579239.6451073        6609396.9227117300        1025194459.2133496     
   2423987745.9777803        6388608.0082406998        1015564867.5257038     
   2311755698.0634990        7365971.6039098501        1010319494.1466041     
   2199883095.9022636        9541487.7097356319        1009458339.0760639     
   2088369939.4940696        12915156.325700760        1012981402.3140799     
   2252787659.7810068        6144504.1085611582        1147384554.3151476     
   2151301886.6025829        3277256.7612317801        1139134657.1374838     
   2050967628.4478037        4248392.8260542154        1135654124.7426062     
   1951784885.3166771        9057912.3030527830        1136942957.1305306     
   1853753657.2092085        17705815.192239523        1143001154.3012474     
   2823869872.9215469        8038505.6979624033        628532055.99121940     
   2720915160.7881699        12947676.907562256        606332348.81317663     
   2621729037.0829277        30418809.544259429        578687530.95395529     
   2526311501.8058124        60451903.608059406        545597602.41355574     
   2434662554.9568233        103046959.09892797        507062563.19199216     
   2573428047.3502388        8081501.5785629749        755746853.15906715     
   2459057401.8909802        10032465.015728235        740430310.54038656     
   2347160143.5731993        20228052.257822633        722460054.76122606     
   2237736272.3968987        38668263.304832339        701836085.82159269     
   2130785788.3620720        65353098.156778097        678558403.72146654     
   2328261402.8744121        9707051.7878096104        883896635.26668322     
   2210450245.5769687        11092433.898847818        873952189.03961551     
   2093817274.1343536        16405102.192647815        864145427.17276263     
   1978362488.5465591        25645056.669190884        854476349.66612399     
   1864085888.8136003        38812297.328498602        844944956.51969981     
   2088369939.4940696        12915156.325700760        1012981402.3140799     
   1975093691.8461432        16127583.556926250        1006897984.3108644     
   1861700428.7663832        18949959.348726749        1003743648.1885531     
   1748190150.2548110        21382283.701140285        1003518393.9471493     
   1634562856.3114057        23424556.614105582        1006222221.5866538     
   1853753657.2092085        17705815.192239523        1143001154.3012474     
   1752987740.6984913        25137913.989953756        1139267696.3541257     
   1650809607.4692955        27862623.726086497        1141254717.8085988     
   1547219257.5216241        25879944.400623620        1148962218.6646760     
   1442216690.8554828        19189876.013600767        1162390198.9223559     
   3768382612.5293484        1130514783.7588046        800595445.40746975     
   3779204770.6292343        1008622817.0253057        884876360.41837168     
   3790645524.7329259        888792836.97115564        974083049.46648777     
   3802704874.8404212        771024843.59635401        1068215512.5518185     
   3815382820.9517217        655318836.90090108        1167273749.6743643     
   3207966922.8137140        962390076.84411418        756688835.57293260     
   3235983149.5272241        868147878.84395409        853049996.22372127     
   3263729367.6843467        773005652.32249975        951330873.60161996     
   3291205577.2850804        676963397.27975130        1051531467.7066286     
   3318411778.3294249        580021113.71570873        1153651778.5387473     
   2685779609.1474500        805733882.74423504        721951173.84052777     
   2722401169.3028574        736564832.92589498        829355874.81097782     
   2757864116.3416829        663533739.38561845        935674235.19843400     
   2792168450.2639289        586640602.12340522        1040906255.0028956     
   2825314171.0695925        505885421.13925517        1145051934.2243638     
   2201820671.5305548        660546201.45916641        696382460.21025503     
   2238458829.9561324        613873679.27112889        813793996.18014205     
   2273049770.7049365        560377098.16051233        927113134.25693059     
   2305593493.7769656        500056458.12731582        1036339874.4406207     
   2336089999.1722221        432911759.17154086        1141474216.7312121     
   1756090109.9630289        526827032.98890871        679982694.68211460     
   1784156131.4870503        500074417.87965554        806364360.33121336     
   1809286330.7741048        463535728.64718056        925647570.77710938     
   1831480707.8241928        417210965.29148358        1037832326.0198028     
   1850739262.6373143        361100127.81256485        1142918626.0592933     
   3815382820.9517217        655318836.90090108        1167273749.6743643     
   3798212901.6955848        537372971.08235109        1188931920.9595296     
   3784851529.6139736        432122262.51221967        1205692350.0867302     
   3775298704.7068882        339566711.19050682        1217555037.0559666     
   3769554426.9743280        259706317.11721337        1224519981.8672380     
   3318411778.3294249        580021113.71570873        1153651778.5387473     
   3294056066.3570104        472825418.42638373        1181944212.7548630     
   3273408931.4111466        377991646.55889452        1207126047.6866007     
   3256470373.4918323        295519798.11323786        1229197283.3339598     
   3243240392.5990677        225409873.08941531        1248157919.6969407     
   2825314171.0695925        505885421.13925517        1145051934.2243638     
   2798878788.8768611        410971733.12794441        1179861999.5321240     
   2776052013.5627065        328086734.71188414        1213348608.4290936     
   2756833845.1271257        257230425.89107323        1245511760.9152718     
   2741224283.5701194        198402806.66551244        1276351456.9906585     
   2336089999.1722221        432911759.17154086        1141474216.7312121     
   2312681069.2551379        351811915.18703252        1182685281.2913132     
   2292780776.0686526        282407526.97118992        1224360032.3142095     
   2276389119.6127667        224698594.52401292        1266498469.7999017     
   2263506099.8874822        178685117.84550202        1309100593.7483892     
   1850739262.6373143        361100127.81256485        1142918626.0592933     
   1835462907.4918382        295345964.60364753        1190414058.0324306     
   1823595218.9289870        240954023.33681285        1240160319.3419499     
   1815136196.9487598        197924304.01205826        1292157409.9878519     
   1810085841.5511572        166256806.62938571        1346405329.9701357     
   3769554426.9743280        259706317.11721337        1224519981.8672380     
   3662360756.7502980        167045284.44449210        1191720751.7669120     
   3562985470.6581254        100445532.21129704        1169188683.7876925     
   3471428568.6978106        59907060.417628527        1156923777.9295814     
   3387690050.8693533        45429869.063484073        1154926034.1925752     
   3243240392.5990677        225409873.08941531        1248157919.6969407     
   3165128512.2358561        150817499.78296745        1230856001.7515223     
   3093186376.7528048        96790942.743714213        1221487838.6472547     
   3027413986.1499090        63330201.971654058        1220053430.3841381     
   2967811340.4271722        50435277.466786265        1226552776.9621763     
   2741224283.5701194        198402806.66551244        1276351456.9906585     
   2685527315.1249981        139879029.34251702        1272623438.7398303     
   2634351452.3083358        96425604.114386678        1274495768.0501997     
   2587696695.1201310        68042530.981117725        1281968444.9217665     
   2545563043.5603876        54729809.942712307        1295041469.3545291     
   2263506099.8874822        178685117.84550202        1309100593.7483892     
   2223557165.4177222        134229873.12314248        1317023062.7318380     
   2186480697.3247213        99349516.323313951        1328212471.9965270     
   2152276695.6084790        74044047.446018457        1342668821.5424583     
   2120945160.2689981        58313466.491254807        1360392111.3696311     
   1810085841.5511572        166256806.62938571        1346405329.9701357     
   1779218063.1140285        133870031.12484127        1364054873.7275431     
   1749574111.8019607        105562679.37049896        1382637950.4862373     
   1721153987.6149528        81334751.366357625        1402154560.2462182     
   1693957690.5530062        61186247.112416983        1422604703.0074852     
   3387690050.8693533        45429869.063484073        1154926034.1925752     
   3295734180.9876013        39755572.444236994        1147859821.8701980     
   3203389443.6888599        32785051.101691246        1144743954.6537607     
   3110655838.9731312        24518305.035853624        1145578432.5432558     
   3017533366.8404155        14955334.246727943        1150363255.5386889     
   2967811340.4271722        50435277.466786265        1226552776.9621763     
   2885208059.5557628        40258253.072393537        1218696967.8803644     
   2802776632.0383110        30654073.191185713        1215124203.9563751     
   2720517057.8748136        21622737.823161960        1215834485.1902077     
   2638429337.0652714        13164246.968323946        1220827811.5818658     
   2545563043.5603876        54729809.942712307        1295041469.3545291     
   2473262923.2761402        40335229.246215105        1287050237.7460482     
   2401695377.1167955        28382562.299387336        1283674751.3472755     
   2330860405.0823503        18871809.102223396        1284915010.1582134     
   2260758007.1728029        11802969.654727817        1290771014.1788614     
   2120945160.2689981        58313466.491254807        1360392111.3696311     
   2059898772.1487341        39986500.965703011        1352919631.4672492     
   2000145678.9243143        25970518.426298141        1350395596.8264635     
   1941685880.5957389        16265518.873041153        1352820007.4472754     
   1884519377.1630061        10871502.305929780        1360192863.3296826     
   1693957690.5530062        61186247.112416983        1422604703.0074852     
   1645115606.1735430        39212068.230855048        1416305149.0439696     
   1598127537.4608707        23417941.571925998        1415286740.3939381     
   1552993484.4149837        13803867.135615885        1419549477.0573893     
   1509713447.0358868        10369844.921938360        1429093359.0343256     
   3017533366.8404155        14955334.246727943        1150363255.5386889     
   2918449572.2313948        4959337.9050701857        1140852515.7530274     
   2820648296.3736658       -761595.93227243423        1136654018.2983754     
   2724129539.2672343       -2207467.2652913332        1137767763.1747375     
   2628893300.9120955        621723.90599179268        1144193750.3821144     
   2638429337.0652714        13164246.968323946        1220827811.5818658     
   2553473795.5901041        5566299.5801781416        1212973288.7703319     
   2469481053.2882614        1177682.7697833776        1210121014.7414789     
   2386451110.1597476       -1603.4628549814224        1212270989.4953039     
   2304383966.2045588        2028440.8822587729        1219423213.0318129     
   2260758007.1728029        11802969.654727817        1290771014.1788614     
   2189045022.9791079        6337362.4643765688        1284199702.1671631     
   2117975118.3807685        3015353.9252128601        1282320645.3898118     
   2047548293.3777864        1836944.0372428894        1285133843.8468060     
   1977764547.9701612        2802132.8004610538        1292639297.5381470     
   1884519377.1630061        10871502.305929780        1360192863.3296826     
   1825163254.3984036        7272526.5576614141        1354531755.9435208     
   1766130491.6511855        4751417.5340136290        1353252910.2433736     
   1707421088.9213581        3308175.2350002527        1356356326.2292373     
   1649035046.2089195        2942799.6606116295        1363842003.9011128     
   1509713447.0358868        10369844.921938360        1429093359.0343256     
   1461828489.8479910        8371791.8600329161        1423969450.0994060     
   1413947173.0995152        6385873.5961918235        1422917809.3021631     
   1366069496.7904575        4412090.1304144859        1425938436.6426017     
   1318195460.9208226        2450441.4627088904        1433031332.1207201     
   2628893300.9120955        621723.90599179268        1144193750.3821144     
   2535795719.8006535        5098516.1943964958        1139118865.4747629     
   2442078919.2416568        7511243.6576286554        1137959037.8278160     
   2347742899.2351079        7859906.2956800461        1140714267.4412818     
   2252787659.7810068        6144504.1085611582        1147384554.3151476     
   2304383966.2045588        2028440.8822587729        1219423213.0318129     
   2221250126.5391927        4679475.5524668694        1213176692.7301741     
   2137773926.6267514        6189309.3990819454        1211100860.3462341     
   2053955366.4672406        6557942.4221332073        1213195715.8799934     
   1969794446.0606458        5785374.6215761900        1219461259.3314545     
   1977764547.9701612        2802132.8004610538        1292639297.5381470     
   1905324823.0574222        3846521.8444325924        1285544144.2427809     
   1832819597.0980852        4672574.0664103031        1282875309.5224035     
   1760248870.0921509        5280289.4663996696        1284632793.3770151     
   1687612642.0396190        5669668.0443962812        1290816595.8066211     
   1649035046.2089195        2942799.6606116295        1363842003.9011128     
   1588019809.3553467        2599655.0703058839        1356221220.0125790     
   1527215930.6556585        2961037.6596103907        1353282385.3563197     
   1466623410.1098464        4026947.4285017848        1355025499.9323430     
   1406242247.7179174        5797384.3770080805        1361450563.7406476     
   1318195460.9208226        2450441.4627088904        1433031332.1207201     
   1269335085.4329691        938875.23010206223        1425207920.0395708     
   1220962927.2994711        1054700.1786823273        1422322087.8479903     
   1173078986.5203304        2797916.3084528446        1424373835.5459800     
   1125683263.0955508        6168523.6194271445        1431363163.1335413     
   2252787659.7810068        6144504.1085611582        1147384554.3151476     
   2151301886.6025829        3277256.7612317801        1139134657.1374838     
   2050967628.4478037        4248392.8260542154        1135654124.7426062     
   1951784885.3166771        9057912.3030527830        1136942957.1305306     
   1853753657.2092085        17705815.192239523        1143001154.3012474     
   1969794446.0606458        5785374.6215761900        1219461259.3314545     
   1881101922.5081899        4366567.5351961851        1212625094.6245484     
   1793222028.4278045        5656525.3557127714        1210526270.9407594     
   1706154763.8194995        9655248.0831722021        1213164788.2800815     
   1619900128.6832650        16362735.717532516        1220540646.6425192     
   1687612642.0396190        5669668.0443962812        1290816595.8066211     
   1611621871.6568949        5671852.2820864320        1284998797.0936415     
   1536104845.1946690        7253182.9214397073        1283886315.6440945     
   1461061562.6529455        10413659.962468565        1287479151.4579794     
   1386492024.0317202        15153283.405156791        1295777304.5352972     
   1406242247.7179174        5797384.3770080805        1361450563.7406476     
   1342861734.0486908        7193111.0018990636        1356255764.5447588     
   1279616078.7483921        9038365.5232213736        1355734258.8526199     
   1216505281.8170159        11333147.940954030        1359886046.6642303     
   1153529343.2545650        14077458.255095363        1368711127.9795938     
   1125683263.0955508        6168523.6194271445        1431363163.1335413     
   1074821509.6835876        8930343.6946569085        1426395996.9779058     
   1023755729.0889745        11012073.161052406        1426070100.5663338     
   972485921.31171787        12413712.018634319        1430385473.8988321     
   921012086.35180092        13135260.267351389        1439342116.9753966     
   1853753657.2092085        17705815.192239523        1143001154.3012474     
   1752987740.6984913        25137913.989953756        1139267696.3541257     
   1650809607.4692955        27862623.726086497        1141254717.8085988     
   1547219257.5216241        25879944.400623620        1148962218.6646760     
   1442216690.8554828        19189876.013600767        1162390198.9223559     
   1619900128.6832650        16362735.717532516        1220540646.6425192     
   1533366880.8221443        22895228.567970157        1215487526.6543074     
   1445960732.5220451        26518053.288491428        1215869735.2904735     
   1357681683.7829673        27231209.879064918        1221687272.5510304     
   1268529734.6049199        25034698.339759469        1232940138.4359655     
   1386492024.0317202        15153283.405156791        1295777304.5352972     
   1313376728.3138506        20541755.356404543        1290033724.8320835     
   1239927848.4365063        24818280.109403372        1289440322.9760265     
   1166145384.3996844        27982857.664138377        1293997098.9671431     
   1092029336.2033870        30035488.020627081        1303704052.8054130     
   1153529343.2545650        14077458.255095363        1368711127.9795938     
   1093017283.1736066        18077494.355256200        1362906290.8874555     
   1032710955.2126728        22763304.188833535        1361966480.8652625     
   972610359.37175918        28134887.755809188        1365891697.9130158     
   912715495.65086925        34192245.056199253        1374681942.0307074     
   921012086.35180092        13135260.267351389        1439342116.9753966     
   872288545.40141106        15502445.564518988        1434105224.8204217     
   824310052.85054731        20353125.526774406        1433448208.9581742     
   777076608.69920373        27687300.154085487        1437371069.3886454     
   730588212.94738019        37504969.446480036        1445873806.1118441     
   1756090109.9630289        526827032.98890871        679982694.68211460     
   1784156131.4870503        500074417.87965554        806364360.33121336     
   1809286330.7741048        463535728.64718056        925647570.77710938     
   1831480707.8241928        417210965.29148358        1037832326.0198028     
   1850739262.6373143        361100127.81256485        1142918626.0592933     
   1326372197.9349418        397911659.38048255        669644314.63876307     
   1339647237.1426797        375514854.96332693        791764940.45738447     
   1350720409.6727633        345778494.95398974        908601155.69158411     
   1359591715.5251927        308702579.35247147        1020152960.3413609     
   1366261154.6999669        264287108.15877053        1126420354.4067156     
   890451208.93636286        267135362.68090886        662259757.46285737     
   894118250.45290518        250649264.34337708        780975624.93686545     
   896317380.85110533        229270128.94470406        896221126.44523215     
   897048600.13096285        202997956.48488998        1007996261.9879571     
   896311908.29247797        171832746.96393436        1116301031.5650408     
   448327142.96729231        134498142.89018771        657829023.15439749     
   447569171.41772658        125477646.01980598        773996413.76965642     
   446077244.30913049        114010630.61932348        888507483.03805470     
   443851361.64150417        100097096.68873999        1001362230.9595917     
   440891523.41484743        83737044.228055432        1112560657.5342679     
   2.7730050398768111E-002   8.3190151196304331E-003   656352111.71338344     
   3.7143496840523711E-002  -7.3863477147848716E-003   770827306.95575726     
   4.6838789143031953E-002  -2.2152527923299654E-002   885460225.47005105     
   5.6815971627524518E-002  -3.5978835667388770E-002   1000250867.2562644     
   6.7074905611437780E-002  -4.8866145219089788E-002   1115199232.3143973     
   1850739262.6373143        361100127.81256485        1142918626.0592933     
   1835462907.4918382        295345964.60364753        1190414058.0324306     
   1823595218.9289870        240954023.33681285        1240160319.3419499     
   1815136196.9487598        197924304.01205826        1292157409.9878519     
   1810085841.5511572        166256806.62938571        1346405329.9701357     
   1366261154.6999669        264287108.15877053        1126420354.4067156     
   1360543967.7879002        216693509.58192715        1181810892.4499927     
   1357383280.8125491        177621577.46080065        1238112907.9597998     
   1356779093.7739124        147071311.79539078        1295326400.9361386     
   1358731406.6719909        125042712.58569783        1353451371.3790085     
   896311908.29247797        171832746.96393436        1116301031.5650408     
   896327169.98567390        141251697.13071963        1178592481.2582295     
   898046764.96967578        116351758.26685774        1240456056.5480976     
   901470693.24448347        97132930.372348636        1301891757.4346457     
   906598954.81009710        83595213.447193146        1362899583.9178731     
   440891523.41484743        83737044.228055432        1112560657.5342679     
   442812514.08515912        69020527.250025257        1180758824.4571412     
   445585671.40036768        57144565.754984662        1247189765.1068428     
   449210995.36047250        48109159.742931783        1311853479.4833729     
   453688485.96547413        41914309.213868648        1374749967.5867310     
   6.7074905611437780E-002  -4.8866145219089788E-002   1115199232.3143973     
   8.6356162605387532E-002  -6.0154465543364836E-002   1188309922.0467277     
  0.10462456078923561       -7.4818938533225188E-002   1258314033.6360350     
  0.12188043078507309       -9.2858700639511904E-002   1325211567.0823195     
  0.13812387588996411      -0.11427286543759166        1389002522.3855805     
   1810085841.5511572        166256806.62938571        1346405329.9701357     
   1779218063.1140285        133870031.12484127        1364054873.7275431     
   1749574111.8019607        105562679.37049896        1382637950.4862373     
   1721153987.6149528        81334751.366357625        1402154560.2462182     
   1693957690.5530062        61186247.112416983        1422604703.0074852     
   1358731406.6719909        125042712.58569783        1353451371.3790085     
   1333222811.3290155        100045302.49665403        1372353004.8955801     
   1308632086.3304009        78107460.222143650        1392738315.7720230     
   1284959231.6761453        59229185.762164950        1414607304.0083346     
   1262204247.3662508        43410479.116722465        1437959969.6045148     
   906598954.81009710        83595213.447193146        1362899583.9178731     
   888021383.58579671        66458721.081002414        1382696357.6161277     
   870055725.92515719        51361940.593680769        1404526953.0328343     
   852701981.82817745        38304871.985225797        1428391370.1679933     
   835960151.29485774        27287515.255638093        1454289609.0216048     
   453688485.96547413        41914309.213868648        1374749967.5867310     
   443613779.88437212        33110286.877890766        1395084931.8891828     
   433845030.58622968        25326120.485111400        1418003862.2686715     
   424382238.07104814        18561810.035535738        1443506758.7251945     
   415225402.33882755        12817355.529162630        1471593621.2587538     
  0.13812387588996411      -0.11427286543759166        1389002522.3855805     
  0.22474159666973828      -0.11268428383616302        1409518727.7147484     
  0.31362060384573998      -0.10355790744162809        1433169043.4795344     
  0.40475892726773588       -8.6900390157605506E-002   1459953469.6799395     
  0.49815865718220009       -6.2705198176717297E-002   1489872006.3159616     
   1693957690.5530062        61186247.112416983        1422604703.0074852     
   1645115606.1735430        39212068.230855048        1416305149.0439696     
   1598127537.4608707        23417941.571925998        1415286740.3939381     
   1552993484.4149837        13803867.135615885        1419549477.0573893     
   1509713447.0358868        10369844.921938360        1429093359.0343256     
   1262204247.3662508        43410479.116722465        1437959969.6045148     
   1228184101.7757387        27713270.260901928        1435176662.7258615     
   1195554467.9334836        16651100.565937519        1437065170.3654370     
   1164315345.8394918        10223970.031852067        1443625492.5232430     
   1134466735.4937565        8431878.6586199999        1454857629.1992779     
   835960151.29485774        27287515.255638093        1454289609.0216048     
   815020999.36399877        17344992.886765122        1454481794.6561935     
   795008855.26286983        10492496.616992891        1458736464.0137596     
   775923718.99147117        6730026.4463220835        1467053617.0943027     
   757765590.54980361        6057582.3747538328        1479433253.8978205     
   415225402.33882755        12817355.529162630        1471593621.2587538     
   405626298.93832552        8107236.1084481776        1474220544.8349698     
   396490699.44902498        4942129.7250722647        1480300621.3389091     
   387818603.87092578        3322036.3790359348        1489833850.7705727     
   379610012.20403028        3246956.0703429282        1502820233.1299584     
  0.49815865718220009       -6.2705198176717297E-002   1489872006.3159616     
  0.49871896905236146       -7.4044982599542869E-002   1494392913.2621880     
  0.49195064231080210      -0.10981495017355208        1501757642.3408844     
  0.47785673655222394      -0.17000299405391425        1511966193.5520511     
  0.45643571340097305      -0.25461441563182363        1525018566.8956869     
   1509713447.0358868        10369844.921938360        1429093359.0343256     
   1461828489.8479910        8371791.8600329161        1423969450.0994060     
   1413947173.0995152        6385873.5961918235        1422917809.3021631     
   1366069496.7904575        4412090.1304144859        1425938436.6426017     
   1318195460.9208226        2450441.4627088904        1433031332.1207201     
   1134466735.4937565        8431878.6586199999        1454857629.1992779     
   1097536406.5583477        6628355.4300158024        1449346989.4894826     
   1060608807.8888738        4833933.0878596902        1448145827.2593150     
   1023683939.4853344        3048611.6321532726        1451254142.5087700     
   986761801.34773111        1272391.0629007220        1458671935.2378545     
   757765590.54980361        6057582.3747538328        1479433253.8978205     
   732467630.84387231        4651911.2725462019        1473534821.5440872     
   707171491.23039043        3252307.1451714039        1472183076.0119252     
   681877171.70935869        1858769.9926294982        1475378017.3013358     
   656584672.28077757        471299.81492403150        1483119645.4123180     
   379610012.20403028        3246956.0703429282        1502820233.1299584     
   366622162.70456487        2442459.3876259327        1496532946.2632194     
   353635223.12406671        1640995.7681327462        1495029555.5599978     
   340649193.46253216        842565.21185219288        1498310061.0202944     
   327664073.71996415        47167.718792721629        1506374462.6441135     
  0.45643571340097305      -0.25461441563182363        1525018566.8956869     
   2.1404279905267058      -0.22473984669594604        1518341363.6468747     
   3.5699027296547343       -1.0432567241410522        1516685265.9035301     
   4.7448566138412707       -2.7101769718081776        1520050273.6656494     
   5.6652915417506886       -5.2254930465096354        1528436386.9332356     
   1318195460.9208226        2450441.4627088904        1433031332.1207201     
   1269335085.4329691        938875.23010206223        1425207920.0395708     
   1220962927.2994711        1054700.1786823273        1422322087.8479903     
   1173078986.5203304        2797916.3084528446        1424373835.5459800     
   1125683263.0955508        6168523.6194271445        1431363163.1335413     
   986761801.34773111        1272391.0629007220        1458671935.2378545     
   950723097.40050364        320689.04012095928        1451715929.9639564     
   915050556.56494474        589530.72290617228        1449555969.6294687     
   879744178.84106135        2078916.1112776995        1452192054.2343895     
   844803964.22884822        4788845.2052142024        1459624183.7787261     
   656584672.28077757        471299.81492403150        1483119645.4123180     
   632963254.30229175       -41853.669582217932        1476888650.3292031     
   609585945.19278967        258689.07585808635        1475312165.2353401     
   586452744.95227242        1372928.0512466133        1478390190.1307249     
   563563653.58073699        3300863.2565753460        1486122725.0153635     
   327664073.71996415        47167.718792721629        1506374462.6441135     
   316055556.13833439       -148752.89900666475        1500726081.1353137     
   304569093.18300033        62175.237514689565        1499590674.6656060     
   293204684.85396159        679952.12835226953        1502968243.2349846     
   281962331.15122056        1704577.7735166252        1510858786.8434598     
   5.6652915417506886       -5.2254930465096354        1528436386.9332356     
   2.9086281917799144       -8.6481590661607193        1523228222.3822830     
  0.53557531578150464       -10.792125240627398        1522391497.9202619     
  -1.4538669375539572       -11.657388819133871        1525926213.5471704     
  -3.0597018508570470       -11.243960570309715        1533832369.2630072     
   1125683263.0955508        6168523.6194271445        1431363163.1335413     
   1074821509.6835876        8930343.6946569085        1426395996.9779058     
   1023755729.0889745        11012073.161052406        1426070100.5663338     
   972485921.31171787        12413712.018634319        1430385473.8988321     
   921012086.35180092        13135260.267351389        1439342116.9753966     
   844803964.22884822        4788845.2052142024        1459624183.7787261     
   805952752.93812680        6648741.9815939963        1454404623.4416211     
   766948521.40562606        7998571.2853778601        1453990808.0611348     
   727791269.63134694        8838333.1165634394        1458382737.6372714     
   688480997.61528325        9168027.4751398265        1467580412.1700301     
   563563653.58073699        3300863.2565753460        1486122725.0153635     
   537192913.58997977        4399815.4877178669        1480710278.5944750     
   510720160.29831541        5158723.3825004995        1480268052.3427591     
   484145393.70574188        5577586.9409221411        1484796046.2602184     
   457468613.81226039        5656406.1629799902        1494294260.3468530     
   281962331.15122056        1704577.7735166252        1510858786.8434598     
   268541991.63915300        2183564.2130414397        1505312962.4364686     
   255070645.76704770        2492529.4524397701        1504901833.4112039     
   241548293.53490663        2631473.4917185456        1509625399.7676682     
   227974934.94272336        2600396.3308576494        1519483661.5058601     
  -3.0597018508570470       -11.243960570309715        1533832369.2630072     
  -12.914356534715072       -11.842439780638649        1528212674.9675987     
  -22.188176204787545       -10.504803666127854        1527892151.2664711     
  -30.881165207414600       -7.2310649798543141        1532870798.1596243     
  -38.993317274716254       -2.0212024819400423        1543148615.6470642     
   921012086.35180092        13135260.267351389        1439342116.9753966     
   872288545.40141106        15502445.564518988        1434105224.8204217     
   824310052.85054731        20353125.526774406        1433448208.9581742     
   777076608.69920373        27687300.154085487        1437371069.3886454     
   730588212.94738019        37504969.446480036        1445873806.1118441     
   688480997.61528325        9168027.4751398265        1467580412.1700301     
   651566848.13199949        10831969.957025290        1463678977.5443637     
   615211484.62465680        14358532.358713865        1464444100.7118933     
   579414907.09324193        19747714.680167615        1469875781.6726103     
   544177115.53777826        26999516.921445817        1479974020.4265187     
   457468613.81226039        5656406.1629799902        1494294260.3468530     
   432611517.22599179        6691404.2585577369        1491510977.0896494     
   408126944.19207495        8968147.5286401957        1493480933.1261017     
   384014894.71051472        12486635.973240316        1500204128.4562144     
   360275368.78130227        17246869.592342734        1511680563.0799901     
   227974934.94272336        2600396.3308576494        1519483661.5058601     
   215422552.68338251        3080748.4691005647        1517601223.4562676     
   203056431.55280861        4181971.0365673825        1520558706.2008030     
   190876571.55100518        5904064.0332715511        1528356109.7394645     
   178882972.67796528        8247027.4591846690        1540993434.0722570     
  -38.993317274716254       -2.0212024819400423        1543148615.6470642     
  -45.495820663934651        2.5886785389276810        1541949716.6442308     
  -53.293145674870253        2.8824881812940681        1545677419.9359899     
  -62.385282173687912       -1.1397422040032019        1554331725.5223527     
  -72.772237686418720       -9.4780331934533635        1567912633.4033182     
   2.7730050398768111E-002   8.3190151196304331E-003   656352111.71338344     
   3.7143496840523711E-002  -7.3863477147848716E-003   770827306.95575726     
   4.6838789143031953E-002  -2.2152527923299654E-002   885460225.47005105     
   5.6815971627524518E-002  -3.5978835667388770E-002   1000250867.2562644     
   6.7074905611437780E-002  -4.8866145219089788E-002   1115199232.3143973     
  -448327142.91455537       -134498142.87436661        657829023.14132452     
  -447569171.34523088       -125477646.02723978        773996413.75476301     
  -446077244.21629387       -114010630.64807105        888507483.02017534     
  -443851361.52774400       -100097096.73686010        1001362230.9375613     
  -440891523.27958167       -83737044.293607071        1112560657.5069211     
  -890451208.89179528       -267135362.66753858        662259757.43972981     
  -894118250.39097703       -250649264.34610477        780975624.91011894     
  -896317380.77121532       -229270128.96152627        896221126.41253591     
  -897048600.03251028       -202997956.51380318        1007996261.9469804     
  -896311908.17486191       -171832747.00293547        1116301031.5134523     
  -1326372197.9039898       -397911659.37119693        669644314.60859954     
  -1339647237.1000948       -375514854.96398109        791764940.42182541     
  -1350720409.6179259       -345778494.96251833        908601155.64713264     
  -1359591715.4574826       -308702579.36680806        1020152960.2845212     
  -1366261154.6187654       -264287108.17685100        1126420354.3339918     
  -1756090109.9511383       -526827032.98534149        679982694.64793348     
  -1784156131.4725842       -500074417.88086909        806364360.28988159     
  -1809286330.7564254       -463535728.65104699        925647570.72396541     
  -1831480707.8026614       -417210965.29587471        1037832325.9501843     
  -1850739262.6112926       -361100127.81535316        1142918625.9685390     
   6.7074905611437780E-002  -4.8866145219089788E-002   1115199232.3143973     
   8.6356162605387532E-002  -6.0154465543364836E-002   1188309922.0467277     
  0.10462456078923561       -7.4818938533225188E-002   1258314033.6360350     
  0.12188043078507309       -9.2858700639511904E-002   1325211567.0823195     
  0.13812387588996411      -0.11427286543759166        1389002522.3855805     
  -440891523.27958167       -83737044.293607071        1112560657.5069211     
  -442812513.91207337       -69020527.330339372        1180758824.4196622     
  -445585671.19151115       -57144565.856892675        1247189765.0568573     
  -449210995.11789513       -48109159.873264879        1311853479.4185064     
  -453688485.69122493       -41914309.379458398        1374749967.5046093     
  -896311908.17486191       -171832747.00293547        1116301031.5134523     
  -896327169.83776355       -141251697.17870227        1178592481.1863489     
  -898046764.79354537       -116351758.33073509        1240456056.4511764     
  -901470693.04220581       -97132930.459030956        1301891757.3079340     
  -906598954.58374631       -83595213.563593417        1362899583.7566237     
  -1366261154.6187654       -264287108.17685100        1126420354.3339918     
  -1360543967.6907153       -216693509.60524419        1181810892.3467877     
  -1357383280.7014775       -177621577.49634627        1238112907.8189919     
  -1356779093.6510527       -147071311.85015851        1295326400.7506032     
  -1358731406.5394413       -125042712.66668087        1353451371.1416228     
  -1850739262.6112926       -361100127.81535316        1142918625.9685390     
  -1835462907.4709272       -295345964.60996294        1190414057.9009793     
  -1823595218.9153085       -240954023.35372919        1240160319.1603041     
  -1815136196.9444354       -197924304.04664558        1292157409.7465138     
  -1810085841.5583100       -166256806.68872160        1346405329.6596079     
  0.13812387588996411      -0.11427286543759166        1389002522.3855805     
  0.22474159666973828      -0.11268428383616302        1409518727.7147484     
  0.31362060384573998      -0.10355790744162809        1433169043.4795344     
  0.40475892726773588       -8.6900390157605506E-002   1459953469.6799395     
  0.49815865718220009       -6.2705198176717297E-002   1489872006.3159616     
  -453688485.69122493       -41914309.379458398        1374749967.5046093     
  -443613779.44000787       -33110287.027133137        1395084931.7959821     
  -433845029.96306276       -25326120.589048654        1418003862.1589508     
  -424382237.26038921       -18561810.065202370        1443506758.5935144     
  -415225401.33198875       -12817355.455598861        1471593621.0996757     
  -906598954.58374631       -83595213.563593417        1362899583.7566237     
  -888021383.20799482       -66458721.172554076        1382696357.4375799     
  -870055725.38304687       -51361940.617527902        1404526952.8261099     
  -852701981.10890412       -38304871.898517668        1428391369.9222131     
  -835960150.38556457       -27287515.015519828        1454289608.7258897     
  -1358731406.5394413       -125042712.66668087        1353451371.1416228     
  -1333222811.0792189       -100045302.54894578        1372353004.6395423     
  -1308632085.9463327       -78107460.188999355        1392738315.4810121     
  -1284959231.1407828       -59229185.586840510        1414607303.6660335     
  -1262204246.6625705       -43410478.742470384        1437959969.1946068     
  -1810085841.5583100       -166256806.68872160        1346405329.6596079     
  -1779218063.0536804       -133870031.15630907        1364054873.4018688     
  -1749574111.6529193       -105562679.30345875        1382637950.1236584     
  -1721153987.3560276       -81334751.130173385        1402154559.8249769     
  -1693957690.1630044       -61186246.636448681        1422604702.5058243     
  0.49815865718220009       -6.2705198176717297E-002   1489872006.3159616     
  0.49871896905236146       -7.4044982599542869E-002   1494392913.2621880     
  0.49195064231080210      -0.10981495017355208        1501757642.3408844     
  0.47785673655222394      -0.17000299405391425        1511966193.5520511     
  0.45643571340097305      -0.25461441563182363        1525018566.8956869     
  -415225401.33198875       -12817355.455598861        1471593621.0996757     
  -405626297.94411981       -8107235.9674974233        1474220544.6190777     
  -396490698.45847005       -4942129.4867905974        1480300621.0348377     
  -387818602.87503988       -3322036.0134832561        1489833850.3469560     
  -379610011.19382870       -3246955.5475735962        1502820232.5554323     
  -835960150.38556457       -27287515.015519828        1454289608.7258897     
  -815020998.57070589       -17344992.516070068        1454481794.2744279     
  -795008854.55295873       -10492496.006991565        1458736463.4832108     
  -775923718.33232224       -6730025.4882816672        1467053616.3522408     
  -757765589.90879631       -6057580.9599412680        1479433252.8815179     
  -1262204246.6625705       -43410478.742470384        1437959969.1946068     
  -1228184101.3810408       -27713269.719769359        1435176662.2282381     
  -1195554467.7915132       -16651099.670408130        1437065169.6860046     
  -1164315345.8939905       -10223968.594394684        1443625491.5679066     
  -1134466735.6884699       -8431876.4917227626        1454857627.8739414     
  -1693957690.1630044       -61186246.636448681        1422604702.5058243     
  -1645115606.3751230       -39212067.578590393        1416305148.4805090     
  -1598127538.1741357       -23417940.477046967        1415286739.6432190     
  -1552993485.5600436       -13803865.331820190        1419549475.9939508     
  -1509713448.5328467       -10369842.142911911        1429093357.5327063     
  0.45643571340097305      -0.25461441563182363        1525018566.8956869     
   2.1404279905267058      -0.22473984669594604        1518341363.6468747     
   3.5699027296547343       -1.0432567241410522        1516685265.9035301     
   4.7448566138412707       -2.7101769718081776        1520050273.6656494     
   5.6652915417506886       -5.2254930465096354        1528436386.9332356     
  -379610011.19382870       -3246955.5475735962        1502820232.5554323     
  -366622158.27903104       -2442458.4006517828        1496532944.9204206     
  -353635215.76249874       -1640995.9146134853        1495029553.3920121     
  -340649183.64422983       -842568.08945350349        1498310057.9702079     
  -327664061.92422664       -47174.925179585814        1506374458.6550102     
  -757765589.90879631       -6057580.9599412680        1479433252.8815179     
  -732467626.90279913       -4651909.0378589928        1473534819.0259349     
  -707171484.43881142       -3252305.5891417265        1472183071.8780949     
  -681877162.51683140       -1858770.6137844920        1475378011.4379985     
  -656584661.13686264       -471304.11179816723        1483119637.7056434     
  -1134466735.6884699       -8431876.4917227626        1454857627.8739414     
  -1097536403.7308741       -6628352.1363536119        1449346985.9634206     
  -1060608802.4590340       -4833930.0668389201        1448145821.3617802     
  -1023683931.8729477       -3048610.2831681967        1451254134.0690217     
  -986761791.97261631       -1272392.7853487134        1458671924.0851476     
  -1509713448.5328467       -10369842.142911911        1429093357.5327063     
  -1461828488.7632589       -8371787.6961461902        1423969445.7328751     
  -1413947169.8231723       -6385869.3477228880        1422917801.8430645     
  -1366069491.7125790       -4412087.0976070762        1425938425.8632758     
  -1318195454.4314907       -2450440.9458421469        1433031317.7935078     
   5.6652915417506886       -5.2254930465096354        1528436386.9332356     
   2.9086281917799144       -8.6481590661607193        1523228222.3822830     
  0.53557531578150464       -10.792125240627398        1522391497.9202619     
  -1.4538669375539572       -11.657388819133871        1525926213.5471704     
  -3.0597018508570470       -11.243960570309715        1533832369.2630072     
  -327664061.92422664       -47174.925179585814        1506374458.6550102     
  -316055549.49176240        148739.38709418476        1500726077.6221933     
  -304569091.09998667       -62193.102926522493        1499590671.7840207     
  -293204686.74889660       -679972.39523278177        1502968241.1404905     
  -281962336.43849730       -1704598.4898421019        1510858785.6916037     
  -656584661.13686264       -471304.11179816723        1483119637.7056434     
  -632963247.49895191        41843.740301102400        1476888643.3626208     
  -609585942.32602334       -258703.29087397456        1475312159.3199508     
  -586452745.61807990       -1372945.2053329349        1478390185.5776379     
  -563563657.37511754       -3300882.0030627847        1486122722.1356802     
  -986761791.97261631       -1272392.7853487134        1458671924.0851476     
  -950723091.11293530       -320695.58852350712        1451715919.6035652     
  -915050553.14253139       -589541.35595762730        1449555960.5280530     
  -879744178.06141126       -2078930.0876707435        1452192046.8586123     
  -844803965.86956739       -4788861.7836347818        1459624178.5952382     
  -1318195454.4314907       -2450440.9458421469        1433031317.7935078     
  -1269335080.3337169       -938878.59939587116        1425207906.3450265     
  -1220962923.5495155       -1054707.2981916070        1422322075.4083288     
  -1173078984.0788944       -2797927.0422577262        1424373824.9834116     
  -1125683261.9218452       -6168537.8315585852        1431363155.0702772     
  -3.0597018508570470       -11.243960570309715        1533832369.2630072     
  -12.914356534715072       -11.842439780638649        1528212674.9675987     
  -22.188176204787545       -10.504803666127854        1527892151.2664711     
  -30.881165207414600       -7.2310649798543141        1532870798.1596243     
  -38.993317274716254       -2.0212024819400423        1543148615.6470642     
  -281962336.43849730       -1704598.4898421019        1510858785.6916037     
  -268542016.35434800       -2183587.6749296635        1505312963.1059577     
  -255070688.83782980       -2492552.0854503661        1504901836.4758651     
  -241548353.88894302       -2631491.7214110047        1509625405.8013272     
  -227975011.50769001       -2600406.5828189403        1519483671.0823369     
  -563563657.37511754       -3300882.0030627847        1486122722.1356802     
  -537192934.89139462       -4399838.0365360677        1480710279.2532551     
  -510720198.12376660       -5158746.4569890797        1480268057.6876574     
  -484145447.07223195       -5577607.2644237876        1484796057.4388814     
  -457468681.73679322       -5656420.4588412344        1494294278.5069292     
  -844803965.86956739       -4788861.7836347818        1459624178.5952382     
  -805952768.52549779       -6648762.9272661209        1454404623.4094965     
  -766948550.04598141       -7998593.6194044054        1453990814.9018474     
  -727791310.43102574       -8838353.8600813448        1458382753.0722950     
  -688481049.68063307       -9168043.6492978334        1467580437.9208357     
  -1125683261.9218452       -6168537.8315585852        1431363155.0702772     
  -1074821517.2566493       -8930362.3470906615        1426395995.5746756     
  -1023755744.6044788       -11012093.572709382        1426070108.1184363     
  -972485943.96532619       -12413731.508387089        1430385492.7015626     
  -921012115.33920038       -13135276.154152691        1439342149.3240564     
  -38.993317274716254       -2.0212024819400423        1543148615.6470642     
  -45.495820663934651        2.5886785389276810        1541949716.6442308     
  -53.293145674870253        2.8824881812940681        1545677419.9359899     
  -62.385282173687912       -1.1397422040032019        1554331725.5223527     
  -72.772237686418720       -9.4780331934533635        1567912633.4033182     
  -227975011.50769001       -2600406.5828189403        1519483671.0823369     
  -215422642.23173609       -3080750.9456125200        1517601233.1479080     
  -203056535.92868534       -4181971.8847499639        1520558716.3575478     
  -190876692.59853446       -5904069.4002182409        1528356120.7112448     
  -178883112.24128658       -8247043.4920311719        1540993446.2090116     
  -457468681.73679322       -5656420.4588412344        1494294278.5069292     
  -432611597.11248243       -6691411.9233428240        1491510996.3498089     
  -408127037.13915670       -8968152.2244609445        1493480954.1862183     
  -384015001.81681931       -12486641.362202346        1500204152.0161545     
  -360275491.14546651       -17246879.336568475        1511680589.8396232     
  -688481049.68063307       -9168043.6492978334        1467580437.9208357     
  -651566910.13806129       -10831980.344517946        1463679006.2499247     
  -615211556.92456400       -14358538.136656016        1464444133.4220049     
  -579414990.04014206       -19747717.025705367        1469875819.4370797     
  -544177209.48478556       -26999517.011647493        1479974064.2951479     
  -921012115.33920038       -13135276.154152691        1439342149.3240564     
  -872288581.30847883       -15502456.209157944        1434105262.8482552     
  -824310095.28490627       -20353129.621331632        1433448254.0649092     
  -777076657.26849210       -27687296.390699923        1437371122.9740231     
  -730588267.25923944       -37504956.517266929        1445873869.5755911     
  -1756090109.9511383       -526827032.98534149        679982694.64793348     
  -1784156131.4725842       -500074417.88086909        806364360.28988159     
  -1809286330.7564254       -463535728.65104699        925647570.72396541     
  -1831480707.8026614       -417210965.29587471        1037832325.9501843     
  -1850739262.6112926       -361100127.81535316        1142918625.9685390     
  -2201820671.5393543       -660546201.46180618        696382460.17515922     
  -2238458829.9709544       -613873679.27260208        813793996.14016795     
  -2273049770.7249837       -560377098.15816116        927113134.20875359     
  -2305593493.8014421       -500056458.11848330        1036339874.3809156     
  -2336089999.2003288       -432911759.15356857        1141474216.6566548     
  -2685779609.1747479       -805733882.75242448        721951173.80770385     
  -2722401169.3409562       -736564832.92582440        829355874.77573359     
  -2757864116.3896289       -663533739.37410104        935674235.15878165     
  -2792168450.3207626       -586640602.09725332        1040906254.9568479     
  -2825314171.1343594       -505885421.09528238        1145051934.1699312     
  -3207966922.8573222       -962390076.85719657        756688835.54556787     
  -3235983149.5825915       -868147878.84053683        853049996.19657910     
  -3263729367.7503591       -773005652.29886663        951330873.57404971     
  -3291205577.3606224       -676963397.23218560        1051531467.6779794     
  -3318411778.4133825       -580021113.64049363        1153651778.5083692     
  -3768382612.5870738       -1130514783.7761221        800595445.38875067     
  -3779204770.6958594       -1008622817.0167389        884876360.40270400     
  -3790645524.8071756       -888792836.93245816        974083049.45455790     
  -3802704874.9210219       -771024843.52327943        1068215512.5443122     
  -3815382821.0373983       -655318836.78920352        1167273749.6719670     
  -1850739262.6112926       -361100127.81535316        1142918625.9685390     
  -1835462907.4709272       -295345964.60996294        1190414057.9009793     
  -1823595218.9153085       -240954023.35372919        1240160319.1603041     
  -1815136196.9444354       -197924304.04664558        1292157409.7465138     
  -1810085841.5583100       -166256806.68872160        1346405329.6596079     
  -2336089999.2003288       -432911759.15356857        1141474216.6566548     
  -2312681069.3097987       -351811915.16920197        1182685281.1804056     
  -2292780776.1522503       -282407526.96144164        1224360032.1591735     
  -2276389119.7276840       -224698594.53028697        1266498469.5929582     
  -2263506100.0360985       -178685117.87573850        1309100593.4817600     
  -2825314171.1343594       -505885421.09528238        1145051934.1699312     
  -2798878788.9847136       -410971733.07925361        1179861999.4453845     
  -2776052013.7162857       -328086734.66728294        1213348608.3039875     
  -2756833845.3290744       -257230425.85936975        1245511760.7457392     
  -2741224283.8230810       -198402806.65551496        1276351456.7706409     
  -3318411778.4133825       -580021113.64049363        1153651778.5083692     
  -3294056066.4956727       -472825418.34011865        1181944212.6959164     
  -3273408931.6074142       -377991646.47125113        1207126047.5947454     
  -3256470373.7486100       -295519798.03389657        1229197283.2048566     
  -3243240392.9192581       -225409873.02805030        1248157919.5262489     
  -3815382821.0373983       -655318836.78920352        1167273749.6719670     
  -3798212901.8426738       -537372970.95179665        1188931920.9320004     
  -3784851529.8256369       -432122262.37335002        1205692350.0314479     
  -3775298704.9862900       -339566711.05386603        1217555036.9703107     
  -3769554427.3246284       -259706316.99334204        1224519981.7485864     
  -1810085841.5583100       -166256806.68872160        1346405329.6596079     
  -1779218063.0536804       -133870031.15630907        1364054873.4018688     
  -1749574111.6529193       -105562679.30345875        1382637950.1236584     
  -1721153987.3560276       -81334751.130173385        1402154559.8249769     
  -1693957690.1630044       -61186246.636448681        1422604702.5058243     
  -2263506100.0360985       -178685117.87573850        1309100593.4817600     
  -2223557165.5538273       -134229873.15176761        1317023062.4849458     
  -2186480697.4382124       -99349516.316654921        1328212471.7548900     
  -2152276695.6892533       -74044047.370390892        1342668821.2915936     
  -2120945160.3069530       -58313466.312989354        1360392111.0950568     
  -2741224283.8230810       -198402806.65551496        1276351456.7706409     
  -2685527315.3996520       -139879029.35093260        1272623438.5614982     
  -2634351452.6056685       -96425604.144497871        1274495767.9063451     
  -2587696695.4411278       -68042531.036207318        1281968444.8051822     
  -2545563043.9060316       -54729810.026066542        1295041469.2580078     
  -3243240392.9192581       -225409873.02805030        1248157919.5262489     
  -3165128512.5911570       -150817499.75380015        1230856001.6315272     
  -3093186377.1552887       -96790942.786991239        1221487838.5780244     
  -3027413986.6116500       -63330202.127619505        1220053430.3657417     
  -2967811340.9602442       -50435277.775685191        1226552776.9946795     
  -3769554427.3246284       -259706316.99334204        1224519981.7485864     
  -3662360757.1283398       -167045284.36037099        1191720751.6950314     
  -3562985471.0870700       -100445532.24413264        1169188683.7699270     
  -3471428569.2008181       -59907060.644618511        1156923777.9732733     
  -3387690051.4695873       -45429869.561842918        1154926034.3050692     
  -1693957690.1630044       -61186246.636448681        1422604702.5058243     
  -1645115606.3751230       -39212067.578590393        1416305148.4805090     
  -1598127538.1741357       -23417940.477046967        1415286739.6432190     
  -1552993485.5600436       -13803865.331820190        1419549475.9939508     
  -1509713448.5328467       -10369842.142911911        1429093357.5327063     
  -2120945160.3069530       -58313466.312989354        1360392111.0950568     
  -2059898773.0416036       -39986500.819713831        1352919631.3136170     
  -2000145680.5935822       -25970518.050865889        1350395596.7648020     
  -1941685882.9628904       -16265518.006449699        1352820007.4486113     
  -1884519380.1495268       -10871500.686458230        1360192863.3650458     
  -2545563043.9060316       -54729810.026066542        1295041469.2580078     
  -2473262924.4643540       -40335229.487715244        1287050237.9516027     
  -2401695379.0704350       -28382562.441901565        1283674751.9224246     
  -2330860407.7242827       -18871808.888636947        1284915011.1704733     
  -2260758010.4258890       -11802968.827906728        1290771015.6957488     
  -2967811340.9602442       -50435277.775685191        1226552776.9946795     
  -2885208060.6433721       -40258253.582595825        1218696968.3944690     
  -2802776633.6046958       -30654073.650162101        1215124205.1160874     
  -2720517059.8442159       -21622737.978384376        1215834487.1595345     
  -2638429339.3619351       -13164246.567262292        1220827814.5248091     
  -3387690051.4695873       -45429869.561842918        1154926034.3050692     
  -3295734181.5786614       -39755573.104364157        1147859822.6422138     
  -3203389444.1963634       -32785051.675643682        1144743956.3457909     
  -3110655839.3226995       -24518305.275704265        1145578435.4157965     
  -3017533366.9576626       -14955333.904522181        1150363259.8522327     
  -1509713448.5328467       -10369842.142911911        1429093357.5327063     
  -1461828488.7632589       -8371787.6961461902        1423969445.7328751     
  -1413947169.8231723       -6385869.3477228880        1422917801.8430645     
  -1366069491.7125790       -4412087.0976070762        1425938425.8632758     
  -1318195454.4314907       -2450440.9458421469        1433031317.7935078     
  -1884519380.1495268       -10871500.686458230        1360192863.3650458     
  -1825163255.4335604       -7272523.5756874084        1354531753.1943264     
  -1766130490.9200470       -4751413.8064278364        1353252904.4575653     
  -1707421086.6089838       -3308171.3786672354        1356356317.1547685     
  -1649035042.5003731       -2942796.2924169302        1363841991.2859287     
  -2260758010.4258890       -11802968.827906728        1290771015.6957488     
  -2189045024.9808588       -6337360.3183284998        1284199701.2190254     
  -2117975119.1112325       -3015350.3934289217        1282320641.7002048     
  -2047548292.8170111       -1836939.0532122850        1285133837.1392853     
  -1977764546.0981951       -2802126.2976818085        1292639287.5362682     
  -2638429339.3619351       -13164246.567262292        1220827814.5248091     
  -2553473797.4051523       -5566297.9240651131        1212973289.8069737     
  -2469481054.3967271       -1177679.1087263823        1210121013.5709779     
  -2386451110.3366585        1609.8787589073181        1212270985.8168280     
  -2304383965.2249479       -2028430.9616204500        1219423206.5445170     
  -3017533366.9576626       -14955333.904522181        1150363259.8522327     
  -2918449572.7064447       -4959336.3929064274        1140852518.9581711     
  -2820648296.7765293        761600.04769098759        1136654020.0698919     
  -2724129539.1679296        2207475.4172389507        1137767763.1873960     
  -2628893299.8806410       -621710.28424739838        1144193748.3106816     
  -1318195454.4314907       -2450440.9458421469        1433031317.7935078     
  -1269335080.3337169       -938878.59939587116        1425207906.3450265     
  -1220962923.5495155       -1054707.2981916070        1422322075.4083288     
  -1173078984.0788944       -2797927.0422577262        1424373824.9834116     
  -1125683261.9218452       -6168537.8315585852        1431363155.0702772     
  -1649035042.5003731       -2942796.2924169302        1363841991.2859287     
  -1588019804.9584763       -2599653.0210455060        1356221208.1353805     
  -1527215925.7931511       -2961037.6715850830        1353282374.6012373     
  -1466623405.0044062       -4026950.2440572977        1355025490.6835032     
  -1406242242.5922337       -5797390.7384400964        1361450556.3821766     
  -1977764546.0981951       -2802126.2976818085        1292639287.5362682     
  -1905324819.0989523       -3846514.2974094152        1285544134.7768128     
  -1832819591.5392869       -4672567.0957281590        1282875300.7383912     
  -1760248863.4192019       -5280284.6926453114        1284632785.4210021     
  -1687612634.7386923       -5669667.0881527662        1290816588.8246503     
  -2304383965.2249479       -2028430.9616204500        1219423206.5445170     
  -2221250122.7551470       -4679462.4284877777        1213176686.2693212     
  -2137773920.7879250       -6189295.5706238747        1211100853.8197901     
  -2053955359.3232813       -6557930.3880184889        1213195709.1959150     
  -1969794438.3612180       -5785366.8806805611        1219461252.3977034     
  -2628893299.8806410       -621710.28424739838        1144193748.3106816     
  -2535795715.9270582       -5098497.4142808914        1139118862.6129136     
  -2442078913.5390639       -7511223.0962690115        1137959033.8454330     
  -2347742892.7166443       -7859887.3301724195        1140714262.0082364     
  -2252787653.4598083       -6144490.1160277128        1147384547.1013269     
  -1125683261.9218452       -6168537.8315585852        1431363155.0702772     
  -1074821517.2566493       -8930362.3470906615        1426395995.5746756     
  -1023755744.6044788       -11012093.572709382        1426070108.1184363     
  -972485943.96532619       -12413731.508387089        1430385492.7015626     
  -921012115.33920038       -13135276.154152691        1439342149.3240564     
  -1406242242.5922337       -5797390.7384400964        1361450556.3821766     
  -1342861732.0494490       -7193121.4028701186        1356255763.8169050     
  -1279616079.3559425       -9038378.2315546274        1355734266.6909282     
  -1216505284.5117180       -11333161.224518418        1359886065.0042419     
  -1153529347.5167732       -14077470.381746173        1368711158.7568548     
  -1687612634.7386923       -5669667.0881527662        1290816588.8246503     
  -1611621862.8899434       -5671855.2729480267        1284998796.3807423     
  -1536104834.7267365       -7253189.0762097836        1283886322.7760544     
  -1461061550.2490664       -10413668.497923434        1287479168.0105925     
  -1386492009.4569354       -15153293.538113177        1295777332.0843508     
  -1969794438.3612180       -5785366.8806805611        1219461252.3977034     
  -1881101909.7781405       -4366563.9573349953        1212625093.2661867     
  -1793222010.7168627       -5656526.1066589355        1210526276.3738248     
  -1706154741.1773791       -9655253.3286310434        1213164801.7206147     
  -1619900101.1596954       -16362745.623264551        1220540669.3065579     
  -2252787653.4598083       -6144490.1160277128        1147384547.1013269     
  -2151301872.7140346       -3277247.4560445547        1139134654.4732382     
  -2050967607.3263164       -4248389.3229081631        1135654127.4842331     
  -1951784857.2966509       -9057915.7166168690        1136942966.1343071     
  -1853753622.6250401       -17705826.637177944        1143001170.4234676     
  -921012115.33920038       -13135276.154152691        1439342149.3240564     
  -872288581.30847883       -15502456.209157944        1434105262.8482552     
  -824310095.28490627       -20353129.621331632        1433448254.0649092     
  -777076657.26849210       -27687296.390699923        1437371122.9740231     
  -730588267.25923944       -37504956.517266929        1445873869.5755911     
  -1153529347.5167732       -14077470.381746173        1368711158.7568548     
  -1093017291.4708416       -18077503.411036432        1362906326.1899009     
  -1032710966.3145430       -22763306.072439730        1361966522.0131791     
  -972610372.04787171       -28134878.365931332        1365891746.2266915     
  -912715508.67083859       -34192220.291550875        1374681998.8304310     
  -1386492009.4569354       -15153293.538113177        1295777332.0843508     
  -1313376715.1164484       -20541764.657891333        1290033756.7300320     
  -1239927834.5480678       -24818281.684700966        1289440360.4637139     
  -1166145367.7517917       -27982844.618526459        1293997143.2853963     
  -1092029314.7276309       -30035453.459392786        1303704105.1950862     
  -1619900101.1596954       -16362745.623264551        1220540669.3065579     
  -1533366852.2452972       -22895239.949727297        1215487554.4686444     
  -1445960699.9854839       -26518056.458136201        1215869769.4165046     
  -1357681644.3802512       -27231195.148475945        1221687314.1501451     
  -1268529685.4296086       -25034656.020790279        1232940188.6695504     
  -1853753622.6250401       -17705826.637177944        1143001170.4234676     
  -1752987702.8573842       -25137929.286514640        1139267719.4057376     
  -1650809562.6267920       -27862630.392738998        1141254748.8715580     
  -1547219201.9332509       -25879929.955795884        1148962258.8209276     
  -1442216620.7767787       -19189827.975745380        1162390249.2538486     
  -3768382612.5870738       -1130514783.7761221        800595445.38875067     
  -3779204770.6958594       -1008622817.0167389        884876360.40270400     
  -3790645524.8071756       -888792836.93245816        974083049.45455790     
  -3802704874.9210219       -771024843.52327943        1068215512.5443122     
  -3815382821.0373983       -655318836.78920352        1167273749.6719670     
  -4339870659.1334696       -1301961197.7400410        858813591.48478281     
  -4335308708.0070114       -1125669147.7012146        942410246.39991021     
  -4331890104.2668953       -953188255.61686563        1020361192.0859152     
  -4329614847.9131212       -784518521.48699379        1092666428.5427978     
  -4328482938.9456930       -619659945.31159949        1159325955.7705572     
  -4895275043.2659721       -1468582512.9797916        936485861.98119402     
  -4905533220.8100519       -1246951651.0332565        1018786046.8497146     
  -4917459497.1242828       -1030881118.3205733        1084869039.2220893     
  -4931053872.2086716       -820370914.84174299        1134734839.0983183     
  -4946316346.0632162       -615421040.59676552        1168383446.4784012     
  -5434595764.9845839       -1630378729.4953752        1033612256.8779840     
  -5489878309.1049786       -1372470327.0128648        1114003761.7521162     
  -5547353703.3793411       -1121871425.0435824        1167606590.8630798     
  -5607021947.8076706       -878582023.58752668        1194420744.2108741     
  -5668883042.3899708       -642602122.64470005        1194446221.7954988     
  -5957832824.2893000       -1787349847.2867901        1150192776.1751533     
  -6088343972.8917933       -1502225175.6400390        1228063391.1071162     
  -6221572723.0320663       -1226159175.7858911        1268573847.0088868     
  -6357519074.7101202       -959151847.72434616        1271724143.8804650     
  -6496183027.9259529       -701203191.45540309        1237514281.7218509     
  -3815382821.0373983       -655318836.78920352        1167273749.6719670     
  -3798212901.8426738       -537372970.95179665        1188931920.9320004     
  -3784851529.8256369       -432122262.37335002        1205692350.0314479     
  -3775298704.9862900       -339566711.05386603        1217555036.9703107     
  -3769554427.3246284       -259706316.99334204        1224519981.7485864     
  -4328482938.9456930       -619659945.31159949        1159325955.7705572     
  -4298430189.6127596       -463914738.44098079        1141421828.2488220     
  -4278963513.6062913       -343456442.65857792        1129602387.3709373     
  -4270082910.9262881       -258285057.96438956        1123867633.1369033     
  -4271788381.5727491       -208400584.35842037        1124217565.5467203     
  -4946316346.0632162       -615421040.59676552        1168383446.4784012     
  -4872002398.5794020       -412462982.28913260        1103009906.3346586     
  -4815052050.5708265       -267383588.89897013        1054703481.6392026     
  -4775465302.0374937       -180182860.42627859        1023464172.3920333     
  -4753242152.9794025       -150860796.87105823        1009291978.5931507     
  -5668883042.3899708       -642602122.64470005        1194446221.7954988     
  -5518929528.7425976       -383017702.49624991        1073696155.1895092     
  -5393117140.7192411       -203903701.09452486        980995632.83624327     
  -5291445878.3199024       -105260118.43952489        916344654.73569942     
  -5213915741.5445833       -87086954.531253338        879743220.88787878     
  -6496183027.9259529       -701203191.45540309        1237514281.7218509     
  -6239211580.1023483       -375578899.06233430        1053480574.8133755     
  -6013158784.0515356       -153016779.24524736        908478840.96205914     
  -5818024639.7735186       -33516832.004136562        802509080.16790283     
  -5653809147.2682953       -17079057.339009523        735571292.43090427     
  -3769554427.3246284       -259706316.99334204        1224519981.7485864     
  -3662360757.1283398       -167045284.36037099        1191720751.6950314     
  -3562985471.0870700       -100445532.24413264        1169188683.7699270     
  -3471428569.2008181       -59907060.644618511        1156923777.9732733     
  -3387690051.4695873       -45429869.561842918        1154926034.3050692     
  -4271788381.5727491       -208400584.35842037        1124217565.5467203     
  -4149105051.7097507       -144037702.44863510        1090477520.0302553     
  -4030893823.3657932       -94581825.602329969        1064915777.6804692     
  -3917154696.5408816       -60032953.819507360        1047532338.4973608     
  -3807887671.2350159       -40391087.100166559        1038327202.4809296     
  -4753242152.9794025       -150860796.87105823        1009291978.5931507     
  -4621037331.9118986       -116586516.22311950        978515114.02241445     
  -4489958329.7274637       -86064965.185414791        953827693.65658343     
  -4360005146.4260969       -59296143.757939100        935229717.49565756     
  -4231177782.0078011       -36280051.940697193        922721185.53963685     
  -5213915741.5445833       -87086954.531253338        879743220.88787878     
  -5078157597.7347822       -84691725.683824539        855833533.67150795     
  -4940178990.1720781       -74894950.993381977        835924431.69826949     
  -4799979918.8564663       -57696630.459916115        820015914.96816421     
  -4657560383.7879505       -33096764.083437204        808107983.48119092     
  -5653809147.2682953       -17079057.339009523        735571292.43090427     
  -5520465849.1784048       -48353330.830751896        722432778.97753549     
  -5381555804.6996365       -61071783.026231289        711205991.80552816     
  -5237079013.8319874       -55234413.925440550        701890930.91487896     
  -5087035476.5754585       -30841223.528383732        694487596.30558991     
  -3387690051.4695873       -45429869.561842918        1154926034.3050692     
  -3295734181.5786614       -39755573.104364157        1147859822.6422138     
  -3203389444.1963634       -32785051.675643682        1144743956.3457909     
  -3110655839.3226995       -24518305.275704265        1145578435.4157965     
  -3017533366.9576626       -14955333.904522181        1150363259.8522327     
  -3807887671.2350159       -40391087.100166559        1038327202.4809296     
  -3703660804.9289069       -29997184.844142675        1030263530.3598472     
  -3600062441.5631313       -21698292.389223576        1026599601.0843492     
  -3497092581.1376863       -15494409.735413313        1027335414.6544354     
  -3394751223.6525764       -11385536.882711172        1032470971.0701033     
  -4231177782.0078011       -36280051.940697193        922721185.53963685     
  -4113395926.4889326       -20781346.046857834        912473120.79001009     
  -3997259944.3420954       -10768884.726463556        907074196.36511803     
  -3882769835.5672913       -6242667.9795124531        906524412.26496434     
  -3769925600.1645212       -7202695.8060085773        910823768.48954952     
  -4657560383.7879505       -33096764.083437204        808107983.48119092     
  -4524939546.2587347       -12108056.712507725        794488593.93269825     
  -4394981952.5332527        3171.3126404285431        786167742.18809545     
  -4267687602.6115103        3236919.9920039177        783145428.24738753     
  -4143056496.4934969       -2406810.6744139194        785421652.11056781     
  -5087035476.5754585       -30841223.528383732        694487596.30558991     
  -4938291664.2383165       -3977316.8410866261        676309949.78791547     
  -4793228466.1366110        10617875.728082418        663880238.55328465     
  -4651845882.2703400        12944354.179141521        657198462.60169971     
  -4514143912.6395082        3002118.5120685101        656264621.93315864     
  -3017533366.9576626       -14955333.904522181        1150363259.8522327     
  -2918449572.7064447       -4959336.3929064274        1140852518.9581711     
  -2820648296.7765293        761600.04769098759        1136654020.0698919     
  -2724129539.1679296        2207475.4172389507        1137767763.1873960     
  -2628893299.8806410       -621710.28424739838        1144193748.3106816     
  -3394751223.6525764       -11385536.882711172        1032470971.0701033     
  -3283767282.8284745       -6304988.6558043957        1022502344.0816014     
  -3173223695.9612842       -2692286.9519307613        1017509768.4398515     
  -3063120463.0510082       -547431.77110207081        1017493244.1448513     
  -2953457584.0976439        129576.88668608665        1022452771.1966032     
  -3769925600.1645212       -7202695.8060085773        910823768.48954952     
  -3648002057.5076308       -7325760.2858352661        901379780.49840450     
  -3525676704.4432540       -6109456.7407035828        896575653.19497848     
  -3402949540.9713888       -3553785.1706254482        896411386.57927072     
  -3279820567.0920415        341254.42440319061        900886980.65128362     
  -4143056496.4934969       -2406810.6744139194        785421652.11056781     
  -4011153896.7439094       -8021651.2830085754        777484828.20857763     
  -3878007322.2224345       -9489909.3186485767        773851674.33527553     
  -3743616772.9290791       -6811584.7813472748        774522190.49065995     
  -3607982248.8638349        13322.328905582428        779496376.67473114     
  -4514143912.6395082        3002118.5120685101        656264621.93315864     
  -4373222800.5373096       -8392661.6473138332        650817487.21212184     
  -4230215549.2988300       -12833644.685752869        649337831.86073899     
  -4085122158.9240685       -10320830.603253126        651825655.87901056     
  -3937942629.4130278       -854219.39982533455        658280959.26693892     
  -2628893299.8806410       -621710.28424739838        1144193748.3106816     
  -2535795715.9270582       -5098497.4142808914        1139118862.6129136     
  -2442078913.5390639       -7511223.0962690115        1137959033.8454330     
  -2347742892.7166443       -7859887.3301724195        1140714262.0082364     
  -2252787653.4598083       -6144490.1160277128        1147384547.1013269     
  -2953457584.0976439        129576.88668608665        1022452771.1966032     
  -2849222941.9034033       -1504978.0999910831        1017144174.0379133     
  -2744998336.4885535       -3172989.0179654360        1015831588.1009798     
  -2640783767.8530941       -4874455.8672488928        1018515013.3858005     
  -2536579235.9970255       -6609378.6478242874        1025194449.8923749     
  -3279820567.0920415        341254.42440319061        900886980.65128362     
  -3164217568.6815119        1618320.9737912416        894610540.94889665     
  -3049253862.2641878        764414.21249771118        892411066.75973225     
  -2934929447.8400593       -2220465.8594568968        894288558.08378959     
  -2821244325.4091353       -7336319.2420890331        900243014.92107308     
  -3607982248.8638349        13322.328905582428        779496376.67473114     
  -3480779596.2613988        4271399.8070244789        771517963.34586513     
  -3354845490.8659668        4300986.5951159000        767697469.82169080     
  -3230179932.6775498        102082.69317078590        768034896.10220885     
  -3106782921.6961493       -8325311.8988262415        772530242.18741608     
  -3937942629.4130278       -854219.39982533455        658280959.26693892     
  -3798909024.6430488        6454258.3997402191        647866441.22881496     
  -3661773222.2938933        7436728.1298959255        641690797.28685391     
  -3526535222.3655615        2093189.7906358242        639754027.44105017     
  -3393195024.8580513       -9576356.6180267334        642056131.69140935     
  -2252787653.4598083       -6144490.1160277128        1147384547.1013269     
  -2151301872.7140346       -3277247.4560445547        1139134654.4732382     
  -2050967607.3263164       -4248389.3229081631        1135654127.4842331     
  -1951784857.2966509       -9057915.7166168690        1136942966.1343071     
  -1853753622.6250401       -17705826.637177944        1143001170.4234676     
  -2536579235.9970255       -6609378.6478242874        1025194449.8923749     
  -2423987732.6229372       -6388592.6173293591        1015564862.0889374     
  -2311755675.5316544       -7365960.8628571033        1010319492.9673133     
  -2199883064.7231708       -9541483.3843884468        1009458342.5275004     
  -2088369900.1975031       -12915160.181956768        1012981410.7695009     
  -2821244325.4091353       -7336319.2420890331        900243014.92107308     
  -2698647519.2846460       -10092115.804466128        890157812.53007710     
  -2575618090.3677077       -11405836.392026424        884071681.86362433     
  -2452156038.6583285       -11277481.004771352        881984622.92171693     
  -2328261364.1565008       -9707049.6426992416        883896635.70435262     
  -3106782921.6961493       -8325311.8988262415        772530242.18741608     
  -2975281232.6991601       -14387817.017439365        762913505.79665279     
  -2842554851.8344836       -16368015.910416245        756910694.17316318     
  -2708603779.1021118       -14265908.577742100        754521807.31694937     
  -2573428014.5020432       -8081495.0194101334        755746845.22801232     
  -3393195024.8580513       -9576356.6180267334        642056131.69140935     
  -3253888872.8664818       -19275696.256258607        633831941.88866794     
  -3112565959.9319730       -22252499.418010116        628836529.89593363     
  -2969226286.0545149       -18506766.103276134        627069895.71320856     
  -2823869851.2341137       -8038496.3120659590        628532039.34048605     
  -1853753622.6250401       -17705826.637177944        1143001170.4234676     
  -1752987702.8573842       -25137929.286514640        1139267719.4057376     
  -1650809562.6267920       -27862630.392738998        1141254748.8715580     
  -1547219201.9332509       -25879929.955795884        1148962258.8209276     
  -1442216620.7767787       -19189827.975745380        1162390249.2538486     
  -2088369900.1975031       -12915160.181956768        1012981410.7695009     
  -1975093647.4089961       -16127592.349633336        1006898001.6964369     
  -1861700375.9304028       -18949962.217030764        1003743675.1216363     
  -1748190085.7617316       -21382269.784143090        1003518431.0450850     
  -1634562776.9029722       -23424515.050989926        1006222269.4667995     
  -2328261364.1565008       -9707049.6426992416        883896635.70435262     
  -2210450201.1622615       -11092438.173248053        873952199.84095132     
  -2093817221.2507944       -16405103.646366715        864145448.49051774     
  -1978362424.4221010       -25645046.062063456        854476381.65305603     
  -1864085810.6761794       -38812265.420338511        844944999.32856262     
  -2573428014.5020432       -8081495.0194101334        755746845.22801232     
  -2459057364.1171751       -10032466.757350445        740430313.83927584     
  -2347160098.5879436       -20228054.680728316        722460068.97822142     
  -2237736217.9143462       -38668258.789543390        701836110.64483476     
  -2130785722.0963676       -65353079.083781362        678558438.83914363     
  -2823869851.2341137       -8038496.3120659590        628532039.34048605     
  -2720915136.2737479       -12947678.101950526        606332343.69141471     
  -2621729007.9418688       -30418815.320126057        578687536.58473134     
  -2526311466.2384710       -60451907.966581225        545597618.02043843     
  -2434662511.1635628       -103046956.04132652        507062587.99852848     
  -5957832824.2893000       -1787349847.2867901        1150192776.1751533     
  -6088343972.8917933       -1502225175.6400390        1228063391.1071162     
  -6221572723.0320663       -1226159175.7858911        1268573847.0088868     
  -6357519074.7101202       -959151847.72434616        1271724143.8804650     
  -6496183027.9259529       -701203191.45540309        1237514281.7218509     
  -6810426901.8794231       -2043128070.5638268        1353914036.1548903     
  -6828399600.2649078       -1395457226.6880627        1202875121.7310841     
  -6897727146.9647360       -918969210.52678084        1092099903.6823194     
  -7018409541.9789085       -613664022.07998157        1021588382.0085963     
  -7190446785.3074284       -479541661.34766507        991340556.70991504     
  -8337818678.4542494       -2501345603.5362749        1712462653.0993836     
  -8021470482.6077719       -1424593854.2270105        1275770754.7471504     
  -7805114381.8522024       -681149088.55410981        956966408.17519283     
  -7688750376.1875401       -271011306.51756907        756049613.38351047     
  -7672378465.6137905       -194180508.11739445        673020370.37210369     
  -10540008154.013779       -3162002446.2041335        2225838627.0086331     
  -9667556619.9203854       -1589635058.2568846        1446750290.1553147     
  -8943734427.6944618       -512698809.86787558        863173360.48750639     
  -8368541577.3360119        68806298.962889194        475107838.00520688     
  -7941978068.8450375        154880268.23541212        282553722.70841718     
  -13416995328.558010       -4025098598.5674028        2894041957.8826389     
  -11766658012.202745       -1890580838.7776814        1715813727.9555779     
  -10313587284.491516       -413618374.46808195        810720760.61926019     
  -9057783145.4243259        405788794.36139774        178763055.87368554     
  -7999245595.0011730        567640667.71075249       -180059386.28114557     
  -6496183027.9259529       -701203191.45540309        1237514281.7218509     
  -6239211580.1023483       -375578899.06233430        1053480574.8133755     
  -6013158784.0515356       -153016779.24524736        908478840.96205914     
  -5818024639.7735186       -33516832.004136562        802509080.16790283     
  -5653809147.2682953       -17079057.339009523        735571292.43090427     
  -7190446785.3074284       -479541661.34766507        991340556.70991504     
  -6900370831.1547461       -304127654.59161091        847137325.60040665     
  -6623121773.6683521       -171469970.05651402        724031038.37233925     
  -6358699612.8482418       -81568607.742366314        622021695.02571237     
  -6107104348.6944189       -34423567.649174929        541109295.56052732     
  -7672378465.6137905       -194180508.11739445        673020370.37210369     
  -7400440945.6340837       -184349669.14897203        589754662.68582213     
  -7123238567.2141562       -156969302.04647589        509650869.70526272     
  -6840771330.3540077       -112039406.80990648        432708991.43042570     
  -6553039235.0536366       -49559983.439265013        358929027.86131293     
  -7941978068.8450375        154880268.23541212        282553722.70841718     
  -7739421923.5403595       -16244942.734412670        281332586.06962073     
  -7513509164.6889544       -109514775.21513796        265338334.96082926     
  -7264239792.2908144       -124929229.20676041        234570969.38204268     
  -6991613806.3459473       -62488304.709282398        189030489.33326197     
  -7999245595.0011730        567640667.71075249       -180059386.28114557     
  -7917313764.8735752        200186524.65206480       -78128904.248195216     
  -7793933566.0927391       -29106389.562495708       -8906565.8609593231     
  -7629104998.6586676       -120238074.93292713        27607628.880565371     
  -7422828062.5713539       -73208531.459231377        31413679.976373717     
  -5653809147.2682953       -17079057.339009523        735571292.43090427     
  -5520465849.1784048       -48353330.830751896        722432778.97753549     
  -5381555804.6996365       -61071783.026231289        711205991.80552816     
  -5237079013.8319874       -55234413.925440550        701890930.91487896     
  -5087035476.5754585       -30841223.528383732        694487596.30558991     
  -6107104348.6944189       -34423567.649174929        541109295.56052732     
  -5958936562.5534000       -36031375.826316595        534826307.98021138     
  -5809628432.4053240       -33838037.313263416        531188939.08526576     
  -5659179958.2501907       -27843552.110014439        530197188.87568766     
  -5507591140.0879965       -18047920.216568232        531851057.35148013     
  -6553039235.0536366       -49559983.439265013        358929027.86131293     
  -6387950125.4214630       -20872275.669801474        354337430.04192597     
  -6226147074.1640549       -3138095.8162100315        353125343.31191826     
  -6067630081.2814045        3642556.1215085983        355292767.67128789     
  -5912399146.7735205       -530319.85664248466        360839703.12003928     
  -6991613806.3459473       -62488304.709282398        189030489.33326197     
  -6807506537.7825947       -2876030.3612079620        180966145.16268036     
  -6631111729.9758224        31028041.464933395        177015204.48548320     
  -6462429382.9256382        39223910.769127846        177177667.30167857     
  -6301459496.6320267        21711577.551384211        181453533.61126000     
  -7422828062.5713539       -73208531.459231377        31413679.976373717     
  -7217605799.6367931        17957360.099471569        14712453.342471313     
  -7024522399.8406343        68660374.530165195        2858522.6059632325     
  -6843577863.1828794        78900511.832839489       -4148112.2331415559     
  -6674772189.6635275        48677772.007514954       -6307451.1748533007     
  -5087035476.5754585       -30841223.528383732        694487596.30558991     
  -4938291664.2383165       -3977316.8410866261        676309949.78791547     
  -4793228466.1366110        10617875.728082418        663880238.55328465     
  -4651845882.2703400        12944354.179141521        657198462.60169971     
  -4514143912.6395082        3002118.5120685101        656264621.93315864     
  -5507591140.0879965       -18047920.216568232        531851057.35148013     
  -5349109595.8236437       -6588760.8430078030        515992185.86444837     
  -5192034960.6326437        180701.61938548088        505430883.80308652     
  -5036367234.5149899        2260467.1706197262        500167151.16739523     
  -4882106417.4706898       -349464.18931007385        500200987.95737082     
  -5912399146.7735205       -530319.85664248466        360839703.12003928     
  -5745466630.1744576       -4861935.6745729446        349952262.68608212     
  -5577667317.4866619       -6304231.1967115402        343912025.82042515     
  -5409001208.7101183       -4857206.4230403900        342718992.52306324     
  -5239468303.8448400       -520861.35357022285        346373162.79399472     
  -6301459496.6320267        21711577.551384211        181453533.61126000     
  -6127362767.2907629        1203158.6642098427        178190180.25282332     
  -5950125536.6986675       -8836922.7202045918        179323664.60530594     
  -5769747804.8557434       -8408666.6018555164        184853986.66870585     
  -5586229571.7619915        2487927.0192615986        194781146.44303221     
  -6674772189.6635275        48677772.007514954       -6307451.1748533007     
  -6494798007.1725464        11606522.173356056        705938.56465717999     
  -6309409618.2686567       -7417372.9510910511        11665800.157719269     
  -6118607022.9518433       -8393913.3658034801        26572133.604321677     
  -5922390221.2221165        8676900.9292049408        45424938.904475853     
  -4514143912.6395082        3002118.5120685101        656264621.93315864     
  -4373222800.5373096       -8392661.6473138332        650817487.21212184     
  -4230215549.2988300       -12833644.685752869        649337831.86073899     
  -4085122158.9240685       -10320830.603253126        651825655.87901056     
  -3937942629.4130278       -854219.39982533455        658280959.26693892     
  -4882106417.4706898       -349464.18931007385        500200987.95737082     
  -4729275047.8435879       -4052413.2082500458        499972095.91644853     
  -4575474692.2863379       -4525409.1266796589        503162423.10800123     
  -4420705350.7989388       -1768451.9446206093        509771969.53202355     
  -4264967023.3813848        4218458.3379552364        519800735.18852222     
  -5239468303.8448400       -520861.35357022285        346373162.79399472     
  -5076293134.2276516        2998083.5074884892        350059168.02603769     
  -4913266131.8864412        6023137.4486150742        356616132.35336983     
  -4750387296.8212109        8554300.4698114395        366044055.77599061     
  -4587656629.0319633        10591572.571064234        378342938.29390770     
  -5586229571.7619915        2487927.0192615986        194781146.44303221     
  -5414277059.6895113        12758828.499879837        201078703.54088548     
  -5243589868.0991440        18811995.040127993        209698959.59684640     
  -5074167996.9908915        20647426.640000820        220641914.61091584     
  -4906011446.3647442        18265123.299508333        233907568.58309513     
  -5922390221.2221165        8676900.9292049408        45424938.904475853     
  -5743226824.2291594        25229821.768935919        53030702.460987091     
  -5566445900.9244442        33841163.647861004        62410904.838422596     
  -5392047451.3079672        34510926.565988541        73565546.036787719     
  -5220031475.3797398        27239110.523294449        86494626.056077272     
  -3937942629.4130278       -854219.39982533455        658280959.26693892     
  -3798909024.6430488        6454258.3997402191        647866441.22881496     
  -3661773222.2938933        7436728.1298959255        641690797.28685391     
  -3526535222.3655615        2093189.7906358242        639754027.44105017     
  -3393195024.8580513       -9576356.6180267334        642056131.69140935     
  -4264967023.3813848        4218458.3379552364        519800735.18852222     
  -4115564010.7056594        8034932.6980602741        509279597.85214621     
  -3967307901.4325390        8028395.7161297798        503301900.98698878     
  -3820198695.5620360        4198847.3921360970        501867644.59304529     
  -3674236393.0941520       -3453712.2739067078        504976828.67031819     
  -4587656629.0319633        10591572.571064234        378342938.29390770     
  -4427014018.8074598        11177100.384631157        368591230.51385719     
  -4266767412.9673634        10442613.583513737        363687529.58007497     
  -4106916811.5116763        8388112.1676907539        363631835.49256766     
  -3947462214.4403982        5013596.1371760368        368424148.25133044     
  -4906011446.3647442        18265123.299508333        233907568.58309513     
  -4733259048.9484529        15880761.459443569        225801339.21393782     
  -4560151756.8983583        14679381.732050657        222847683.06611091     
  -4386689570.2144728        14660984.117298126        225046600.13960886     
  -4212872488.8967905        15825568.615202188        232398090.43443564     
  -5220031475.3797398        27239110.523294449        86494626.056077272     
  -5034299101.1286421        22145915.922490358        80909923.952391043     
  -4847460933.2255402        20738700.161717653        80782361.445088997     
  -4659516971.6704292        23017463.240963936        86111938.534173712     
  -4470467216.4633217        28982205.160199404        96898655.219640046     
  -3393195024.8580513       -9576356.6180267334        642056131.69140935     
  -3253888872.8664818       -19275696.256258607        633831941.88866794     
  -3112565959.9319730       -22252499.418010116        628836529.89593363     
  -2969226286.0545149       -18506766.103276134        627069895.71320856     
  -2823869851.2341137       -8038496.3120659590        628532039.34048605     
  -3674236393.0941520       -3453712.2739067078        504976828.67031819     
  -3523998662.3326263       -9365806.5881025791        502048327.96668971     
  -3372312157.7088642       -10448654.694855928        503425976.50901431     
  -3219176879.2228746       -6702256.5941807032        509109774.29729390     
  -3064592826.8746500        1873387.7139496803        519099721.33152848     
  -3947462214.4403982        5013596.1371760368        368424148.25133044     
  -3783214700.8062024        3812208.3778154850        370128685.05264580     
  -3618086400.3904819        5546776.5568733215        377216742.53586769     
  -3452077313.1932492        10217300.674310684        389688320.70098919     
  -3285187439.2144876        17823780.730175018        407543419.54801464     
  -4212872488.8967905        15825568.615202188        232398090.43443564     
  -4031536988.2872119        20258348.641513109        238073013.14653748     
  -3849888687.9768324        25733794.337173223        250208827.97649109     
  -3667927587.9656363        32251905.702211380        268805534.92429513     
  -3485653688.2536292        39812682.736629248        293863133.98995399     
  -4470467216.4633217        28982205.160199404        96898655.219640046     
  -4268965524.7756667        39972614.202966213        105881312.24836175     
  -4067719020.4678974        50112398.646085024        122402232.83088756     
  -3866727703.5400419        59401558.489493132        146461416.96720561     
  -3665991573.9920845        67840093.733262539        178058864.65733606     
  -2823869851.2341137       -8038496.3120659590        628532039.34048605     
  -2720915136.2737479       -12947678.101950526        606332343.69141471     
  -2621729007.9418688       -30418815.320126057        578687536.58473134     
  -2526311466.2384710       -60451907.966581225        545597618.02043843     
  -2434662511.1635628       -103046956.04132652        507062587.99852848     
  -3064592826.8746500        1873387.7139496803        519099721.33152848     
  -2963532059.9371834       -8365867.1523579359        505172434.91244054     
  -2865738471.4012241       -29495716.690358877        496463393.72021198     
  -2771212061.2667661       -61516160.900035977        492972597.75484556     
  -2679952829.5338154       -104427199.78137815        494700047.01634300     
  -3285187439.2144876        17823780.730175018        407543419.54801464     
  -3155553886.9157209        11394472.802677512        402473518.62372953     
  -3028686104.7914753       -4254069.0398770571        413285219.61077893     
  -2904584092.8417525       -29121844.797497869        439978522.50915897     
  -2783247851.0665379       -63208854.470171094        482553427.31887865     
  -3485653688.2536292        39812682.736629248        293863133.98995399     
  -3296980617.2093649        46333341.763194323        298235594.82528979     
  -3110571908.1126347        45306127.631320715        329153014.25642300     
  -2926427560.9634366        36731040.341007471        386615392.28336811     
  -2744547575.7617569        20608079.892287254        470622728.90611660     
  -3665991573.9920845        67840093.733262539        178058864.65733606     
  -3387812250.8180923        96450739.729212761        192458663.51710755     
  -3111395881.3646703        119184873.32328534        244066777.65715176     
  -2836742465.6317911        136042494.51554918        332883207.07747686     
  -2563852003.6194477        147023603.30600393        458907951.77807754     
 </DataArray>
 <DataArray  type="Float64" Name="VM" NumberOfComponents="1" format="ascii">
   12935953379.760670     
   11340845151.834291     
   10210145840.447340     
   9272513987.5195312     
   8303499700.4803572     
   10130428054.662769     
   9322014958.8852100     
   8826268086.6521244     
   8443353195.6339331     
   8035456991.1659184     
   7982341076.5809784     
   7734913823.5285263     
   7669073096.9812994     
   7669512647.1655016     
   7666298996.1448317     
   6491607056.3472834     
   6586829895.9797039     
   6757395351.1646881     
   6961223963.4797554     
   7171654946.9901037     
   5657781377.5829287     
   5890922533.3267088     
   6116423285.3469353     
   6331827680.7475872     
   6536915202.7930880     
   8303499700.4803572     
   8020422919.1984549     
   7779436504.8505335     
   7569853230.1637573     
   7386696288.5574074     
   8035456991.1659184     
   7746653033.2071714     
   7473498945.3189964     
   7214037830.3102255     
   6968276106.3126631     
   7666298996.1448317     
   7381034740.3534355     
   7101145632.1918068     
   6826710809.4916010     
   6557934204.8455458     
   7171654946.9901037     
   6911001561.7575684     
   6658238529.8834505     
   6409506759.2245855     
   6161661950.8386488     
   6536915202.7930880     
   6328899461.8340969     
   6143075770.2110767     
   5965533907.4898434     
   5787269063.4343338     
   7386696288.5574074     
   7226646142.9597330     
   7059104763.7876692     
   6883371027.6035051     
   6699252624.8991394     
   6968276106.3126631     
   6813282702.3197422     
   6653747747.0053644     
   6489390540.3719635     
   6320162495.7922831     
   6557934204.8455458     
   6407002141.7771864     
   6254556060.6156654     
   6100569531.3684330     
   5945077321.9212513     
   6161661950.8386488     
   6012789042.5487967     
   5865392243.9139652     
   5719514714.0524426     
   5575220351.3323460     
   5787269063.4343338     
   5637080421.7022562     
   5491234225.2690449     
   5349647939.8270187     
   5212382352.1000719     
   6699252624.8991394     
   6500609154.1626472     
   6305736574.1096115     
   6114587596.1671314     
   5927255637.7986431     
   6320162495.7922831     
   6135731687.7846451     
   5953819120.7190180     
   5774431360.2198696     
   5597649884.0404959     
   5945077321.9212513     
   5774935161.1710501     
   5606253294.9996805     
   5439063704.9653416     
   5273445030.2540112     
   5575220351.3323460     
   5420010765.3853016     
   5265410377.1455202     
   5111446581.8224735     
   4958211393.5230589     
   5212382352.1000719     
   5073389861.7288275     
   4934395273.7509537     
   4795391779.1734991     
   4656512224.6218138     
   5927255637.7986431     
   5756616036.6245918     
   5584489728.9641438     
   5410885966.6573668     
   5235847932.9295015     
   5597649884.0404959     
   5431844680.3963594     
   5265562832.7996178     
   5098864996.9569244     
   4931838306.8847723     
   5273445030.2540112     
   5113863942.1733236     
   4954930761.7125092     
   4796754490.0213804     
   4639474769.6904192     
   4958211393.5230589     
   4805914091.8947802     
   4655512918.6200418     
   4507152481.5682278     
   4361024129.3873434     
   4656512224.6218138     
   4512109857.4927197     
   4370985939.4646187     
   4233296322.1983304     
   4099271937.1047883     
   5235847932.9295015     
   5047354391.0091276     
   4859878093.0513334     
   4673448872.9806871     
   4488167695.2460747     
   4931838306.8847723     
   4757322767.6706171     
   4583789153.7364855     
   4411293622.9361019     
   4239957873.4792833     
   4639474769.6904192     
   4478352116.0237141     
   4318191196.5647221     
   4159082784.0716653     
   4001185203.9631848     
   4361024129.3873434     
   4212967721.6937284     
   4065880702.2035742     
   3919896610.9341345     
   3775227137.7602243     
   4099271937.1047883     
   3964273359.7166958     
   3830296489.3534083     
   3697525161.6890521     
   3566241422.9861040     
   4488167695.2460747     
   4293010451.3363147     
   4098492316.1704087     
   3905016515.9114590     
   3713207822.4026079     
   4239957873.4792833     
   4062684998.3242221     
   3887054239.7427850     
   3713461963.7155199     
   3542485905.5646996     
   4001185203.9631848     
   3839028010.4189687     
   3679337716.2750340     
   3522468451.3794785     
   3368917265.8137174     
   3775227137.7602243     
   3625162990.7222056     
   3478171280.5419722     
   3334538537.6198163     
   3194662346.4309769     
   3566241422.9861040     
   3425006882.0641570     
   3287188134.7307453     
   3152990091.6822157     
   3022707994.3206015     
   3713207822.4026079     
   3453180034.8873878     
   3200707144.5424042     
   2963775690.8950067     
   2757478750.4873590     
   3542485905.5646996     
   3360330543.7933931     
   3184911800.9088697     
   3020137809.7863965     
   2872974593.1280742     
   3368917265.8137174     
   3237214975.8722758     
   3110062273.7308512     
   2988915057.4791727     
   2876301685.9765568     
   3194662346.4309769     
   3086000222.2593493     
   2977956972.2560616     
   2870887002.6679039     
   2765389062.3260822     
   3022707994.3206015     
   2910538468.3596525     
   2792718451.0879254     
   2669496980.4615517     
   2541388043.6762495     
   5657781377.5829287     
   5890922533.3267088     
   6116423285.3469353     
   6331827680.7475872     
   6536915202.7930880     
   5151463819.5174246     
   5311379925.4093552     
   5467927070.8892231     
   5618211062.9481764     
   5760767439.2835712     
   4643528220.0501127     
   4755623710.7963943     
   4868842792.3091478     
   4980549870.8893471     
   5088819208.0772057     
   4134237469.1548352     
   4224490570.7609072     
   4320664745.1866436     
   4421100629.2543736     
   4524341445.2648764     
   3625109396.6952548     
   3719803091.9909034     
   3825749726.9324088     
   3942881799.7728500     
   4071103122.7284646     
   6536915202.7930880     
   6328899461.8340969     
   6143075770.2110767     
   5965533907.4898434     
   5787269063.4343338     
   5760767439.2835712     
   5652424992.3996191     
   5560096218.5938606     
   5474720406.6930943     
   5390758931.2048206     
   5088819208.0772057     
   5054394622.8099461     
   5030502224.9658737     
   5011937195.2839918     
   4995498267.0486212     
   4524341445.2648764     
   4539399214.7377157     
   4559151033.9797649     
   4581119513.0595341     
   4603581104.5652132     
   4071103122.7284646     
   4112762009.0273576     
   4151794103.0238094     
   4187307118.0619426     
   4218573030.0240598     
   5787269063.4343338     
   5637080421.7022562     
   5491234225.2690449     
   5349647939.8270187     
   5212382352.1000719     
   5390758931.2048206     
   5249964995.4098988     
   5112464396.6904278     
   4978300086.7751579     
   4847569440.8943052     
   4995498267.0486212     
   4868398430.2585297     
   4744477492.5460243     
   4623699091.4142418     
   4506097809.8889112     
   4603581104.5652132     
   4495065705.0378265     
   4390664901.5436831     
   4290048776.2661691     
   4193114042.0772471     
   4218573030.0240598     
   4133957594.8315849     
   4055622681.1788507     
   3982695063.1796198     
   3914864987.6708436     
   5212382352.1000719     
   5073389861.7288275     
   4934395273.7509537     
   4795391779.1734991     
   4656512224.6218138     
   4847569440.8943052     
   4723777372.6082573     
   4601093291.7843466     
   4479612977.9879007     
   4359542743.2569885     
   4506097809.8889112     
   4396907731.7688875     
   4289930978.8900185     
   4185338847.5540938     
   4083385496.3229980     
   4193114042.0772471     
   4097710655.4885697     
   4005561809.8885288     
   3916882098.2186613     
   3831945112.6445651     
   3914864987.6708436     
   3832123042.1625080     
   3753541216.7780976     
   3679342702.4976559     
   3609793611.9668450     
   4656512224.6218138     
   4512109857.4927197     
   4370985939.4646187     
   4233296322.1983304     
   4099271937.1047883     
   4359542743.2569885     
   4227374107.9624724     
   4098630033.4377141     
   3973520708.0828238     
   3852327571.3727160     
   4083385496.3229980     
   3964682183.9146161     
   3849732104.1152310     
   3738802608.7491121     
   3632235444.8568749     
   3831945112.6445651     
   3728135770.3941240     
   3628607310.0361547     
   3533681918.2473302     
   3443765873.3813024     
   3609793611.9668450     
   3522432726.2848473     
   3440080327.2706361     
   3363100726.2886615     
   3291957463.8123889     
   4099271937.1047883     
   3964273359.7166958     
   3830296489.3534083     
   3697525161.6890521     
   3566241422.9861040     
   3852327571.3727160     
   3730473492.7805142     
   3610749792.3546925     
   3493425955.2604599     
   3378862735.7314982     
   3632235444.8568749     
   3523972215.0317283     
   3418987144.1344409     
   3317612837.1868281     
   3220262143.9766507     
   3443765873.3813024     
   3349258485.6760921     
   3259149815.0785861     
   3173800369.7611918     
   3093636000.1963329     
   3291957463.8123889     
   3210939504.4013438     
   3135333336.6827564     
   3065484069.3883586     
   3001786414.5211921     
   3566241422.9861040     
   3425006882.0641570     
   3287188134.7307453     
   3152990091.6822157     
   3022707994.3206015     
   3378862735.7314982     
   3248970405.0581775     
   3122915382.6535993     
   3001000976.2509723     
   2883619250.3361373     
   3220262143.9766507     
   3103660429.6904345     
   2991539715.6974206     
   2884308068.8026676     
   2782465564.6500225     
   3093636000.1963329     
   2992388260.2186489     
   2896459352.2087550     
   2806350821.4570131     
   2722660123.0255532     
   3001786414.5211921     
   2917866254.7028422     
   2840229536.2801104     
   2769437677.8159223     
   2706150183.2018867     
   3022707994.3206015     
   2910538468.3596525     
   2792718451.0879254     
   2669496980.4615517     
   2541388043.6762495     
   2883619250.3361373     
   2768953716.3148413     
   2651025655.8192363     
   2529852003.1978321     
   2405533240.7451048     
   2782465564.6500225     
   2674522638.3799286     
   2567144829.6497121     
   2460534511.7077618     
   2354945663.5301895     
   2722660123.0255532     
   2628865221.8022995     
   2540376423.6467438     
   2457721140.9593902     
   2381492181.0837069     
   2706150183.2018867     
   2631221034.1542869     
   2566581343.2927971     
   2512938079.9701920     
   2471059327.2711110     
   3625109396.6952548     
   3719803091.9909034     
   3825749726.9324088     
   3942881799.7728500     
   4071103122.7284646     
   3138098928.6759272     
   3255616479.9466820     
   3382554828.5784998     
   3518443287.4775400     
   3662822628.2273555     
   2694853624.6463943     
   2830594357.8249326     
   2973653382.7796855     
   3122948921.2807555     
   3277570254.2430000     
   2298864255.5908079     
   2449528500.4108171     
   2604923992.9214129     
   2763130816.5826716     
   2922721062.0795112     
   1955344688.2599294     
   2119374230.9742773     
   2284772158.5857153     
   2448583376.0488167     
   2608853367.6056390     
   4071103122.7284646     
   4112762009.0273576     
   4151794103.0238094     
   4187307118.0619426     
   4218573030.0240598     
   3662822628.2273555     
   3702408968.8893671     
   3740617912.8957152     
   3776553675.1432037     
   3809468995.4486704     
   3277570254.2430000     
   3320931072.3643532     
   3364515475.3262434     
   3407500174.2163305     
   3449206688.5377898     
   2922721062.0795112     
   2975713363.0974183     
   3030886275.6178560     
   3087554140.1766849     
   3145181469.3308315     
   2608853367.6056390     
   2676810349.9057188     
   2749208724.6942754     
   2825534673.5942965     
   2905431968.8316870     
   4218573030.0240598     
   4133957594.8315849     
   4055622681.1788507     
   3982695063.1796198     
   3914864987.6708436     
   3809468995.4486704     
   3756121289.2617273     
   3708621798.2328515     
   3666484765.7939992     
   3629608880.4688916     
   3449206688.5377898     
   3422672260.0199037     
   3401191692.5546885     
   3384532437.5363746     
   3372679291.2029676     
   3145181469.3308315     
   3141242679.8682284     
   3140985112.7853470     
   3144311198.1293435     
   3151210760.7616067     
   2905431968.8316870     
   2920152602.0873013     
   2936413871.9429131     
   2954168070.9930162     
   2973382236.3470635     
   3914864987.6708436     
   3832123042.1625080     
   3753541216.7780976     
   3679342702.4976559     
   3609793611.9668450     
   3629608880.4688916     
   3558870570.3074179     
   3492872813.9467125     
   3431853153.0393524     
   3376094098.9964476     
   3372679291.2029676     
   3314874316.5949373     
   3262551545.5516047     
   3215944429.0193272     
   3175334919.6685143     
   3151210760.7616067     
   3107022419.4791384     
   3069204650.7722573     
   3037958527.5842147     
   3013539080.8930678     
   2973382236.3470635     
   2942990890.9473619     
   2919973431.6062126     
   2904462798.3679996     
   2896655005.0067048     
   3609793611.9668450     
   3522432726.2848473     
   3440080327.2706361     
   3363100726.2886615     
   3291957463.8123889     
   3376094098.9964476     
   3304536065.1914368     
   3238612110.9445143     
   3178671984.2863216     
   3125139067.1568661     
   3175334919.6685143     
   3118588162.6418457     
   3067976525.7627773     
   3023806069.5505252     
   2986430571.9142599     
   3013539080.8930678     
   2970230475.9374037     
   2933381697.5241618     
   2903232116.4283290     
   2880046440.3783116     
   2896655005.0067048     
   2864933067.4951806     
   2839778754.7388954     
   2821354176.6571321     
   2809831225.1025476     
   3291957463.8123889     
   3210939504.4013438     
   3135333336.6827564     
   3065484069.3883586     
   3001786414.5211921     
   3125139067.1568661     
   3055973298.2848430     
   2992854858.9019446     
   2936126269.1012073     
   2886171325.5667424     
   2986430571.9142599     
   2929303644.8834009     
   2878887407.0522442     
   2835498824.5473585     
   2799486171.2945051     
   2880046440.3783116     
   2834729857.0057015     
   2796782931.5580597     
   2766473702.1013937     
   2744092063.8025846     
   2809831225.1025476     
   2775549232.0184069     
   2749266119.7409339     
   2731183338.8272648     
   2721517696.0710106     
   3001786414.5211921     
   2917866254.7028422     
   2840229536.2801104     
   2769437677.8159223     
   2706150183.2018867     
   2886171325.5667424     
   2818107239.1820745     
   2757109970.8859687     
   2703680891.8536448     
   2658382323.6422176     
   2799486171.2945051     
   2746248727.1761971     
   2700670522.1405344     
   2663156404.0053782     
   2634140527.1869364     
   2744092063.8025846     
   2704063446.1283617     
   2672074008.1580100     
   2648414032.2724037     
   2633381820.9614143     
   2721517696.0710106     
   2692496819.6469440     
   2671694440.0132751     
   2659289119.1159720     
   2655457635.4938202     
   2706150183.2018867     
   2631221034.1542869     
   2566581343.2927971     
   2512938079.9701920     
   2471059327.2711110     
   2658382323.6422176     
   2597857036.0655050     
   2547190456.7530460     
   2506916263.8849149     
   2477591838.7330136     
   2634140527.1869364     
   2586689460.3639836     
   2548574734.8758645     
   2520184813.4568501     
   2501911936.8050337     
   2633381820.9614143     
   2597651869.7803621     
   2570673113.4904609     
   2552719841.8663840     
   2544064114.5547538     
   2655457635.4938202     
   2630128972.9093227     
   2612938064.7590413     
   2604074934.1015282     
   2603731603.0319505     
   1955344688.2599294     
   2119374230.9742773     
   2284772158.5857153     
   2448583376.0488167     
   2608853367.6056390     
   1653810284.8493001     
   1820242800.0508463     
   1988372827.8899724     
   2155507743.7704682     
   2319892336.5710201     
   1393613149.3015950     
   1570965053.0910656     
   1749310652.8628004     
   1926648572.3101728     
   2101730185.2895424     
   1207064571.8181634     
   1398968985.4955893     
   1590428378.1735933     
   1780666779.6395781     
   1969226224.9620790     
   1136835205.1427038     
   1335112059.5088623     
   1533662098.5955222     
   1732485322.4026828     
   1931581730.9303441     
   2608853367.6056390     
   2676810349.9057188     
   2749208724.6942754     
   2825534673.5942965     
   2905431968.8316870     
   2319892336.5710201     
   2406916258.3269987     
   2496339110.5421305     
   2587768856.3323803     
   2680928775.3957853     
   2101730185.2895424     
   2205444947.0089417     
   2309053937.9353561     
   2412320080.5636449     
   2515076205.3993959     
   1969226224.9620790     
   2086350355.8169355     
   2200635413.4239526     
   2312006163.6958790     
   2420410385.0930209     
   1931581730.9303441     
   2058213160.1231441     
   2179463838.1345458     
   2295333764.9645491     
   2405822940.6131525     
   2905431968.8316870     
   2920152602.0873013     
   2936413871.9429131     
   2954168070.9930162     
   2973382236.3470635     
   2680928775.3957853     
   2702622385.3662248     
   2726823212.5947976     
   2753518241.8402877     
   2782703319.2922792     
   2515076205.3993959     
   2543527005.1568909     
   2575467947.7787399     
   2610902336.7194762     
   2649837260.7359910     
   2420410385.0930209     
   2453973756.7541785     
   2492003244.7116332     
   2534502477.7562180     
   2581475873.6296649     
   2405822940.6131525     
   2441358050.6217866     
   2482321599.1414428     
   2528713586.1721234     
   2580534011.7138247     
   2973382236.3470635     
   2942990890.9473619     
   2919973431.6062126     
   2904462798.3679996     
   2896655005.0067048     
   2782703319.2922792     
   2766652015.5161185     
   2757750778.9683394     
   2756083183.9597998     
   2761766164.6818838     
   2649837260.7359910     
   2645179656.9807701     
   2647176563.6310344     
   2655865182.9655838     
   2671296205.0764961     
   2581475873.6296649     
   2584818863.6596913     
   2594058515.0557833     
   2609203071.1750264     
   2630263805.4708743     
   2580534011.7138247     
   2588364452.2409801     
   2601120537.1892619     
   2618802266.5586715     
   2641409640.3492064     
   2896655005.0067048     
   2864933067.4951806     
   2839778754.7388954     
   2821354176.6571321     
   2809831225.1025476     
   2761766164.6818838     
   2738462219.0644417     
   2722345773.2801914     
   2713527786.0516062     
   2712123958.9355850     
   2671296205.0764961     
   2654625718.8147483     
   2645708068.6471806     
   2644600794.3179002     
   2651363018.0695596     
   2630263805.4708743     
   2617700306.3385310     
   2613392501.3266349     
   2617356429.8021903     
   2629608403.8091478     
   2641409640.3492064     
   2629844385.0697999     
   2626975939.6360269     
   2632804304.0478806     
   2647329478.3053679     
   2809831225.1025476     
   2775549232.0184069     
   2749266119.7409339     
   2731183338.8272648     
   2721517696.0710106     
   2712123958.9355850     
   2688123332.0344672     
   2672155673.8830671     
   2664340540.3390579     
   2664803803.1376476     
   2651363018.0695596     
   2635198138.9066792     
   2626989789.2732601     
   2626792000.2149954     
   2634660680.6569858     
   2629608403.8091478     
   2618487056.0445452     
   2615159646.0569110     
   2619639422.6924181     
   2631939941.6394820     
   2647329478.3053679     
   2638308672.6889386     
   2636859423.4087825     
   2642981730.4648957     
   2656675593.8572760     
   2721517696.0710106     
   2692496819.6469440     
   2671694440.0132751     
   2659289119.1159720     
   2655457635.4938202     
   2664803803.1376476     
   2643884244.7996721     
   2631426861.7970405     
   2627539993.0198412     
   2632328802.1556764     
   2634660680.6569858     
   2619874199.7455711     
   2613772666.2602286     
   2616406964.8407259     
   2627825699.8484697     
   2631939941.6394820     
   2620960613.0541768     
   2618896725.8277426     
   2625761492.9201078     
   2641567394.6709423     
   2656675593.8572760     
   2646941997.8146234     
   2646386834.4792409     
   2655010103.8511271     
   2672811805.9302926     
   2655457635.4938202     
   2630128972.9093227     
   2612938064.7590413     
   2604074934.1015282     
   2603731603.0319505     
   2632328802.1556764     
   2616231523.4989810     
   2608380220.8623137     
   2608883655.3540001     
   2617849210.9290948     
   2627825699.8484697     
   2618800814.4025807     
   2618099268.6361918     
   2625769521.9402089     
   2641858540.4862318     
   2641567394.6709423     
   2637251054.5687995     
   2641343704.2858224     
   2653857375.7027969     
   2674803575.9939055     
   2672811805.9302926     
   2670735251.9442420     
   2677191823.4411106     
   2692181520.4209185     
   2715704342.8836632     
   1136835205.1427038     
   1335112059.5088623     
   1533662098.5955222     
   1732485322.4026828     
   1931581730.9303441     
   1207064571.7813158     
   1398968985.4504049     
   1590428378.1189463     
   1780666779.5739605     
   1969226224.8837686     
   1393613149.2461274     
   1570965053.0205288     
   1749310652.7747428     
   1926648572.2015200     
   2101730185.1568627     
   1653810284.7930489     
   1820242799.9773898     
   1988372827.7951381     
   2155507743.6494374     
   2319892336.4186263     
   1955344688.2158329     
   2119374230.9164045     
   2284772158.5081701     
   2448583375.9451284     
   2608853367.4691005     
   1931581730.9303441     
   2058213160.1231441     
   2179463838.1345458     
   2295333764.9645491     
   2405822940.6131525     
   1969226224.8837686     
   2086350355.7135632     
   2200635413.2917175     
   2312006163.5309043     
   2420410384.8914065     
   2101730185.1568627     
   2205444946.8316493     
   2309053937.7058868     
   2412320080.2742682     
   2515076205.0423164     
   2319892336.4186263     
   2406916258.1199245     
   2496339110.2690420     
   2587768855.9815974     
   2680928774.9554257     
   2608853367.4691005     
   2676810349.7156906     
   2749208724.4358540     
   2825534673.2518811     
   2905431968.3891459     
   2405822940.6131525     
   2441358050.6217866     
   2482321599.1414428     
   2528713586.1721234     
   2580534011.7138247     
   2420410384.8914065     
   2453973756.5064173     
   2492003244.4110179     
   2534502477.3961897     
   2581475873.2037158     
   2515076205.0423164     
   2543527004.7251515     
   2575467947.2592444     
   2610902336.0993404     
   2649837260.0023308     
   2680928774.9554257     
   2702622384.8466229     
   2726823211.9770780     
   2753518241.1057835     
   2782703318.4221668     
   2905431968.3891459     
   2920152601.5873866     
   2936413871.3621812     
   2954168070.3082175     
   2973382235.5346227     
   2580534011.7138247     
   2588364452.2409801     
   2601120537.1892619     
   2618802266.5586715     
   2641409640.3492064     
   2581475873.2037158     
   2584818863.1464562     
   2594058514.4025259     
   2609203070.3286934     
   2630263804.3780017     
   2649837260.0023308     
   2645179656.1638684     
   2647176562.6313367     
   2655865181.6816597     
   2671296203.4042854     
   2782703318.4221668     
   2766652014.6831565     
   2757750778.0337729     
   2756083182.7798142     
   2761766163.1055059     
   2973382235.5346227     
   2942990890.4188256     
   2919973431.1929650     
   2904462797.8919387     
   2896655004.2759671     
   2641409640.3492064     
   2629844385.0697999     
   2626975939.6360269     
   2632804304.0478806     
   2647329478.3053679     
   2630263804.3780017     
   2617700303.4859476     
   2613392496.6023011     
   2617356423.1015024     
   2629608395.0351005     
   2671296203.4042854     
   2654625713.8418159     
   2645708060.1413655     
   2644600782.0581412     
   2651363001.8467097     
   2761766163.1055059     
   2738462212.9881406     
   2722345762.3411603     
   2713527769.8957443     
   2712123937.2193604     
   2896655004.2759671     
   2864933061.4824796     
   2839778742.9468708     
   2821354158.5880194     
   2809831200.2608814     
   2647329478.3053679     
   2638308672.6889386     
   2636859423.4087825     
   2642981730.4648957     
   2656675593.8572760     
   2629608395.0351005     
   2618487048.3854876     
   2615159639.8173428     
   2619639418.1703048     
   2631939939.1242771     
   2651363001.8467097     
   2635198124.3666506     
   2626989776.9940858     
   2626791990.7699428     
   2634660674.6117611     
   2712123937.2193604     
   2688123311.8685317     
   2672155656.0815864     
   2664340525.7249403     
   2664803792.5406046     
   2809831200.2608814     
   2775549207.8220415     
   2749266097.1912746     
   2731183318.9598732     
   2721517679.9573951     
   2656675593.8572760     
   2646941997.8146234     
   2646386834.4792409     
   2655010103.8511271     
   2672811805.9302926     
   2631939939.1242771     
   2620960615.5473218     
   2618896734.2046914     
   2625761508.0284853     
   2641567417.3344979     
   2634660674.6117611     
   2619874202.9385386     
   2613772680.4860387     
   2616406991.8533463     
   2627825741.3663073     
   2664803792.5406046     
   2643884246.3388286     
   2631426878.2536077     
   2627540027.1501408     
   2632328856.6936789     
   2721517679.9573951     
   2692496816.7662506     
   2671694454.1932797     
   2659289154.2157097     
   2655457695.4015508     
   2672811805.9302926     
   2670735251.9442420     
   2677191823.4411106     
   2692181520.4209185     
   2715704342.8836632     
   2641567417.3344979     
   2637251078.4640665     
   2641343729.7369447     
   2653857403.0492725     
   2674803605.6021423     
   2627825741.3663073     
   2618800859.7921004     
   2618099318.6571927     
   2625769577.3633709     
   2641858602.1089134     
   2632328856.6936789     
   2616231585.7415209     
   2608380292.1604695     
   2608883737.0501313     
   2617849304.3671498     
   2655457695.4015508     
   2630129045.2149644     
   2612938151.6028461     
   2604075037.5908384     
   2603731725.2338262     
   1955344688.2158329     
   2119374230.9164045     
   2284772158.5081701     
   2448583375.9451284     
   2608853367.4691005     
   2298864255.5655723     
   2449528500.3823600     
   2604923992.8858304     
   2763130816.5357881     
   2922721062.0170598     
   2694853624.6415062     
   2830594357.8256545     
   2973653382.7841430     
   3122948921.2869654     
   3277570254.2489476     
   3138098928.6913500     
   3255616479.9737849     
   3382554828.6173887     
   3518443287.5283442     
   3662822628.2902279     
   3625109396.7302580     
   3719803092.0404077     
   3825749726.9984207     
   3942881799.8575525     
   4071103122.8341627     
   2608853367.4691005     
   2676810349.7156906     
   2749208724.4358540     
   2825534673.2518811     
   2905431968.3891459     
   2922721062.0170598     
   2975713363.0092506     
   3030886275.4920940     
   3087554140.0007119     
   3145181469.0914702     
   3277570254.2489476     
   3320931072.3706193     
   3364515475.3241725     
   3407500174.1966228     
   3449206688.4907036     
   3662822628.2902279     
   3702408968.9747863     
   3740617912.9981174     
   3776553675.2565098     
   3809468995.5665073     
   4071103122.8341627     
   4112762009.1729393     
   4151794103.2064319     
   4187307118.2783227     
   4218573030.2706866     
   2905431968.3891459     
   2920152601.5873866     
   2936413871.3621812     
   2954168070.3082175     
   2973382235.5346227     
   3145181469.0914702     
   3141242679.6422129     
   3140985112.5581222     
   3144311197.8864160     
   3151210760.4878893     
   3449206688.4907036     
   3422672260.0279121     
   3401191692.6082458     
   3384532437.6261420     
   3372679291.3197503     
   3809468995.5665073     
   3756121289.4471450     
   3708621798.4779677     
   3666484766.0912094     
   3629608880.8120184     
   4218573030.2706866     
   4133957595.1305604     
   4055622681.5214047     
   3982695063.5568366     
   3914864988.0764866     
   2973382235.5346227     
   2942990890.4188256     
   2919973431.1929650     
   2904462797.8919387     
   2896655004.2759671     
   3151210760.4878893     
   3107022419.9111714     
   3069204651.8907914     
   3037958529.3649049     
   3013539083.3037157     
   3372679291.3197503     
   3314874317.6265216     
   3262551547.6089344     
   3215944432.2158813     
   3175334924.1196880     
   3629608880.8120184     
   3558870571.5101085     
   3492872816.2269750     
   3431853156.6268721     
   3376094104.1345615     
   3914864988.0764866     
   3832123043.0844946     
   3753541218.5171905     
   3679342705.3753700     
   3609793616.3301249     
   2896655004.2759671     
   2864933061.4824796     
   2839778742.9468708     
   2821354158.5880194     
   2809831200.2608814     
   3013539083.3037157     
   2970230473.7199197     
   2933381690.1931882     
   2903232103.4808364     
   2880046421.2959123     
   3175334924.1196880     
   3118588163.6224442     
   3067976522.8558750     
   3023806062.3031955     
   2986430559.8349943     
   3376094104.1345615     
   3304536068.3710318     
   3238612111.8719120     
   3178671982.6189246     
   3125139062.4920087     
   3609793616.3301249     
   3522432730.4166813     
   3440080331.0451126     
   3363100729.5279508     
   3291957466.2653251     
   2809831200.2608814     
   2775549207.8220415     
   2749266097.1912746     
   2731183318.9598732     
   2721517679.9573951     
   2880046421.2959123     
   2834729838.0694623     
   2796782913.2899280     
   2766473685.0659666     
   2744092048.6122575     
   2986430559.8349943     
   2929303632.2931795     
   2878887393.9825301     
   2835498811.0704322     
   2799486157.5290117     
   3125139062.4920087     
   3055973292.5922146     
   2992854851.7244840     
   2936126260.0084829     
   2886171314.1567693     
   3291957466.2653251     
   3210939505.6853251     
   3135333335.8699746     
   3065484065.5531683     
   3001786406.7335458     
   2721517679.9573951     
   2692496816.7662506     
   2671694454.1932797     
   2659289154.2157097     
   2655457695.4015508     
   2744092048.6122575     
   2704063441.4880490     
   2672074017.3788037     
   2648414058.7616944     
   2633381868.2157121     
   2799486157.5290117     
   2746248720.1682820     
   2700670524.6382303     
   2663156418.9232626     
   2634140557.6043863     
   2886171314.1567693     
   2818107230.1296368     
   2757109966.2985516     
   2703680894.0620995     
   2658382335.2153554     
   3001786406.7335458     
   2917866244.7702870     
   2840229525.5920787     
   2769437668.0117040     
   2706150176.2079606     
   2655457695.4015508     
   2630129045.2149644     
   2612938151.6028461     
   2604075037.5908384     
   2603731725.2338262     
   2633381868.2157121     
   2597651926.9667950     
   2570673182.9412131     
   2552719925.8656158     
   2544064215.3228035     
   2634140557.6043863     
   2586689499.1523924     
   2548574784.7188444     
   2520184876.9853759     
   2501912016.5860705     
   2658382335.2153554     
   2597857055.1068416     
   2547190486.4546742     
   2506916307.4053431     
   2477591899.2039123     
   2706150176.2079606     
   2631221034.1176801     
   2566581354.0594893     
   2512938105.4092541     
   2471059371.3157392     
   3625109396.7302580     
   3719803092.0404077     
   3825749726.9984207     
   3942881799.8575525     
   4071103122.8341627     
   4134237469.2055321     
   4224490570.8265595     
   4320664745.2708273     
   4421100629.3598852     
   4524341445.3938141     
   4643528220.1099939     
   4755623710.8674850     
   4868842792.3957510     
   4980549870.9936762     
   5088819208.1995401     
   5151463819.5806065     
   5311379925.4758263     
   5467927070.9635057     
   5618211063.0313025     
   5760767439.3733625     
   5657781377.6442394     
   5890922533.3790255     
   6116423285.3948536     
   6331827680.7909546     
   6536915202.8274755     
   4071103122.8341627     
   4112762009.1729393     
   4151794103.2064319     
   4187307118.2783227     
   4218573030.2706866     
   4524341445.3938141     
   4539399214.9187298     
   4559151034.2157869     
   4581119513.3536167     
   4603581104.9200563     
   5088819208.1995401     
   5054394622.9891472     
   5030502225.2104616     
   5011937195.6039333     
   4995498267.4534769     
   5760767439.3733625     
   5652424992.5426702     
   5560096218.8025217     
   5474720406.9835711     
   5390758931.5936575     
   6536915202.8274755     
   6328899461.9096041     
   6143075770.3407984     
   5965533907.6940937     
   5787269063.7354717     
   4218573030.2706866     
   4133957595.1305604     
   4055622681.5214047     
   3982695063.5568366     
   3914864988.0764866     
   4603581104.9200563     
   4495065705.4216413     
   4390664901.9275055     
   4290048776.6188073     
   4193114042.3675437     
   4995498267.4534769     
   4868398430.6889658     
   4744477492.9541149     
   4623699091.7489214     
   4506097810.0963058     
   5390758931.5936575     
   5249964995.8503714     
   5112464397.1165857     
   4978300087.1182623     
   4847569441.0802689     
   5787269063.7354717     
   5637080422.1179857     
   5491234225.7156029     
   5349647940.2192945     
   5212382352.3455286     
   3914864988.0764866     
   3832123043.0844946     
   3753541218.5171905     
   3679342705.3753700     
   3609793616.3301249     
   4193114042.3675437     
   4097710655.6305757     
   4005561810.0847273     
   3916882098.6922846     
   3831945113.6444492     
   4506097810.0963058     
   4396907731.2033672     
   4289930977.6605926     
   4185338845.7886486     
   4083385494.1739144     
   4847569441.0802689     
   4723777371.4850550     
   4601093289.3755007     
   4479612974.3327036     
   4359542738.4172316     
   5212382352.3455286     
   5073389860.2491531     
   4934395270.4948301     
   4795391774.1020536     
   4656512217.7167521     
   3609793616.3301249     
   3522432730.4166813     
   3440080331.0451126     
   3363100729.5279508     
   3291957466.2653251     
   3831945113.6444492     
   3728135772.2254734     
   3628607312.8513908     
   3533681922.1633997     
   3443765878.4643893     
   4083385494.1739144     
   3964682183.4571042     
   3849732105.7593107     
   3738802612.8880148     
   3632235451.8636689     
   4359542738.4172316     
   4227374105.3678417     
   4098630033.7282548     
   3973520711.8993149     
   3852327579.3690400     
   4656512217.7167521     
   4512109853.0087881     
   4370985938.2430515     
   4233296325.0955205     
   4099271945.0226688     
   3291957466.2653251     
   3210939505.6853251     
   3135333335.8699746     
   3065484065.5531683     
   3001786406.7335458     
   3443765878.4643893     
   3349258489.8505545     
   3259149817.3234534     
   3173800369.0247865     
   3093635995.3955212     
   3632235451.8636689     
   3523972221.8688359     
   3418987149.7386055     
   3317612840.4301934     
   3220262143.6685376     
   3852327579.3690400     
   3730473501.7418094     
   3610749801.2277417     
   3493425962.8984213     
   3378862740.8964767     
   4099271945.0226688     
   3964273370.0464592     
   3830296501.0987501     
   3697525173.7389598     
   3566241434.1183577     
   3001786406.7335458     
   2917866244.7702870     
   2840229525.5920787     
   2769437668.0117040     
   2706150176.2079606     
   3093635995.3955212     
   2992388250.0802188     
   2896459337.2790480     
   2806350802.4739952     
   2722660100.9540157     
   3220262143.6685376     
   3103660421.9030671     
   2991539700.2222204     
   2884308045.5406809     
   2782465533.6269717     
   3378862740.8964767     
   3248970401.9827085     
   3122915370.5236154     
   3001000954.2781386     
   2883619217.7400861     
   3566241434.1183577     
   3425006885.7654214     
   3287188129.7608089     
   3152990076.7579813     
   3022707968.0610175     
   2706150176.2079606     
   2631221034.1176801     
   2566581354.0594893     
   2512938105.4092541     
   2471059371.3157392     
   2722660100.9540157     
   2628865205.2803011     
   2540376416.0187330     
   2457721145.6368637     
   2381492201.5168405     
   2782465533.6269717     
   2674522610.6039915     
   2567144807.6299696     
   2460534497.9617243     
   2354945660.5051656     
   2883619217.7400861     
   2768953684.7164145     
   2651025626.7310805     
   2529851978.0100923     
   2405533220.5954170     
   3022707968.0610175     
   2910538441.7429695     
   2792718424.7418947     
   2669496954.8103132     
   2541388018.7989020     
   5657781377.6442394     
   5890922533.3790255     
   6116423285.3948536     
   6331827680.7909546     
   6536915202.8274755     
   6491607056.4004116     
   6586829896.0083265     
   6757395351.1737022     
   6961223963.4683132     
   7171654946.9548159     
   7982341076.6176357     
   7734913823.5320415     
   7669073096.9591217     
   7669512647.1203136     
   7666298996.0757809     
   10130428054.673988     
   9322014958.8643341     
   8826268086.6082745     
   8443353195.5754385     
   8035456991.0973864     
   12935953379.736959     
   11340845151.790516     
   10210145840.391991     
   9272513987.4667702     
   8303499700.4442272     
   6536915202.8274755     
   6328899461.9096041     
   6143075770.3407984     
   5965533907.6940937     
   5787269063.7354717     
   7171654946.9548159     
   6911001561.7364330     
   6658238529.8845387     
   6409506759.2585802     
   6161661950.9179621     
   7666298996.0757809     
   7381034740.2601814     
   7101145632.0793753     
   6826710809.3642569     
   6557934204.7072363     
   8035456991.0973864     
   7746653033.0685453     
   7473498945.1131182     
   7214037830.0379057     
   6968276105.9723263     
   8303499700.4442272     
   8020422919.0433550     
   7779436504.5758839     
   7569853229.7686968     
   7386696288.0376348     
   5787269063.7354717     
   5637080422.1179857     
   5491234225.7156029     
   5349647940.2192945     
   5212382352.3455286     
   6161661950.9179621     
   6012789042.7731085     
   5865392244.2347546     
   5719514714.4195976     
   5575220351.6933584     
   6557934204.7072363     
   6407002141.7014627     
   6254556060.5809517     
   6100569531.3519926     
   5945077321.9010992     
   6968276105.9723263     
   6813282701.8333645     
   6653747746.3722277     
   6489390539.5896568     
   6320162494.8589573     
   7386696288.0376348     
   7226646141.9515066     
   7059104762.3063726     
   6883371025.6597776     
   6699252622.4993763     
   5212382352.3455286     
   5073389860.2491531     
   4934395270.4948301     
   4795391774.1020536     
   4656512217.7167521     
   5575220351.6933584     
   5420010764.1656599     
   5265410374.2363605     
   5111446577.1170425     
   4958211386.9149427     
   5945077321.9010992     
   5774935160.3431664     
   5606253293.2515450     
   5439063702.1804256     
   5273445026.3039904     
   6320162494.8589573     
   6135731687.4346542     
   5953819120.8833237     
   5774431360.8186398     
   5597649884.9718513     
   6699252622.4993763     
   6500609154.3376865     
   6305736576.8768511     
   6114587601.5214643     
   5927255645.6992931     
   4656512217.7167521     
   4512109853.0087881     
   4370985938.2430515     
   4233296325.0955205     
   4099271945.0226688     
   4958211386.9149427     
   4805914087.2080421     
   4655512916.5574131     
   4507152482.8645535     
   4361024134.8254309     
   5273445026.3039904     
   5113863939.0575943     
   4954930759.9324818     
   4796754490.1160669     
   4639474772.2450829     
   5597649884.9718513     
   5431844680.6120338     
   5265562832.5515718     
   5098864996.5300932     
   4931838306.6042471     
   5927255645.6992931     
   5756616041.8961630     
   5584489731.5756598     
   5410885966.5985079     
   5235847930.2210426     
   4099271945.0226688     
   3964273370.0464592     
   3830296501.0987501     
   3697525173.7389598     
   3566241434.1183577     
   4361024134.8254309     
   4212967729.8271613     
   4065880712.4998894     
   3919896622.7812338     
   3775227150.4665418     
   4639474772.2450829     
   4478352120.5928326     
   4318191202.9690371     
   4159082792.0747609     
   4001185213.2755666     
   4931838306.6042471     
   4757322767.6174622     
   4583789153.9784651     
   4411293623.4967794     
   4239957874.3518524     
   5235847930.2210426     
   5047354385.5391121     
   4859878085.0381384     
   4673448862.6055632     
   4488167682.6817513     
   3566241434.1183577     
   3425006885.7654214     
   3287188129.7608089     
   3152990076.7579813     
   3022707968.0610175     
   3775227150.4665418     
   3625162999.2883759     
   3478171283.8255892     
   3334538534.3934922     
   3194662335.3216252     
   4001185213.2755666     
   3839028020.0335565     
   3679337725.2972126     
   3522468458.7982793     
   3368917270.4233785     
   4239957874.3518524     
   4062685004.9263597     
   3887054251.5499415     
   3713461980.0784621     
   3542485925.6062279     
   4488167682.6817513     
   4293010450.7708025     
   4098492327.5412245     
   3905016539.0558758     
   3713207856.9281373     
   3022707968.0610175     
   2910538441.7429695     
   2792718424.7418947     
   2669496954.8103132     
   2541388018.7989020     
   3194662335.3216252     
   3086000212.1645484     
   2977956963.6956744     
   2870886996.3697200     
   2765389059.1741338     
   3368917270.4233785     
   3237214982.0117459     
   3110062281.8388453     
   2988915068.6977983     
   2876301702.1913815     
   3542485925.6062279     
   3360330565.3758769     
   3184911824.3678336     
   3020137836.6457038     
   2872974626.2672048     
   3713207856.9281373     
   3453180070.7653413     
   3200707181.9285498     
   2963775731.4982595     
   2757478797.9100471     
 </DataArray>
 <DataArray  type="Float64" Name="strain" NumberOfComponents="3" format="ascii">
  0.20349109581788594        0.0000000000000000       0.12540848483814920     
  0.18665806267734636       -2.7323609415055548E-002   7.4351928209097001E-002
  0.16982502953680678       -4.4674296848578557E-002   3.5131232959308353E-002
  0.15299199639626723       -5.2052062300569052E-002   7.7463990887832943E-003
  0.13615896325572766       -4.9456905771027043E-002  -7.8025734024782523E-003
  0.15985679033668879        0.0000000000000000        9.6453007166739602E-002
  0.15317776837490441       -2.1843865462051696E-002   6.2692512570899819E-002
  0.14649874641312002       -3.6173691974212038E-002   3.7404178953306805E-002
  0.13981972445133561       -4.2989479536481016E-002   2.0588006313960606E-002
  0.13314070248955123       -4.2291228148858641E-002   1.2243994652861238E-002
  0.12645691662350050        0.0000000000000000        7.4206714964154458E-002
  0.12656820543945452       -1.6364121509047848E-002   5.5283399369885897E-002
  0.12667949425540856       -2.7673087099845506E-002   4.1468544352847414E-002
  0.12679078307136260       -3.3926896772392981E-002   3.2762149913038961E-002
  0.12690207188731661       -3.5125550526690280E-002   2.9164216050460538E-002
  0.10329147467832105        0.0000000000000000        5.8669608230393730E-002
  0.10682937387099675       -1.0884377556044000E-002   5.2124588606055247E-002
  0.11036727306367244       -1.9172482225478984E-002   4.7324329157930063E-002
  0.11390517225634814       -2.4864314008304952E-002   4.4268829886018178E-002
  0.11744307144902383       -2.7959872904521905E-002   4.2958090790319599E-002
   9.0360464501150456E-002   0.0000000000000000        4.9841686965457446E-002
   9.3961273669531054E-002  -5.4046336030401498E-003   5.3216080279407864E-002
   9.7562082837911679E-002  -1.0671877351112455E-002   5.4971533368554822E-002
  0.10116289200629228       -1.5801731244216917E-002   5.5108046232898313E-002
  0.10476370117467287       -2.0794195282353524E-002   5.3625618872438351E-002
  0.13615896325572766       -4.9456905771027043E-002  -7.8025734024782523E-003
  0.13295616204033880       -4.2923010902921145E-002  -3.3855858510979386E-003
  0.12975336082494998       -3.8484561339219993E-002  -3.8595119171584702E-004
  0.12655055960956116       -3.6141557079923607E-002   1.1963305756683279E-003
  0.12334775839417231       -3.5893998125032023E-002   1.3612594510544473E-003
  0.13314070248955123       -4.2291228148858641E-002   1.2243994652861238E-002
  0.12890914068099424       -3.8426360573094342E-002   1.2191078728007135E-002
  0.12467757887243734       -3.5742299570937427E-002   1.1497994508814880E-002
  0.12044601706388039       -3.4239045142387986E-002   1.0164741995284462E-002
  0.11621445525532348       -3.3916597287445963E-002   8.1913211874157787E-003
  0.12690207188731661       -3.5125550526690280E-002   2.9164216050460538E-002
  0.12241893408325141       -3.3929710243267519E-002   2.5556035380169456E-002
  0.11793579627918623       -3.3000037802654883E-002   2.2084871013199999E-002
  0.11345265847512104       -3.2336533204852330E-002   1.8750722949552247E-002
  0.10896952067105584       -3.1939196449859847E-002   1.5553591189226224E-002
  0.11744307144902383       -2.7959872904521905E-002   4.2958090790319599E-002
  0.11348554224711029       -2.9433059913440723E-002   3.6709284105388811E-002
  0.10952801304519670       -3.0257776034372304E-002   3.1374678321439538E-002
  0.10557048384328310       -3.0434021267316660E-002   2.6954273438471954E-002
  0.10161295464136956       -2.9961795612273787E-002   2.3448069456485799E-002
  0.10476370117467287       -2.0794195282353524E-002   5.3625618872438351E-002
  0.10210896517257081       -2.4936409583613917E-002   4.5650824903665246E-002
   9.9454229170468728E-002  -2.7515514266089766E-002   3.9367416433533531E-002
   9.6799493168366640E-002  -2.8531509329781005E-002   3.4775393462043266E-002
   9.4144757166264553E-002  -2.7984394774687699E-002   3.1874755989194425E-002
  0.12334775839417231       -3.5893998125032023E-002   1.3612594510544473E-003
  0.12038321681151432       -3.6387318337096075E-002   6.3753964474456970E-004
  0.11741867522885636       -3.6266951578666676E-002   1.2386931975899573E-004
  0.11445413364619841       -3.5532897849743755E-002  -1.7975152390214272E-004
  0.11148959206354042       -3.4185157150327272E-002  -2.7332288623871381E-004
  0.11621445525532348       -3.3916597287445963E-002   8.1913211874157787E-003
  0.11344406215306840       -3.3989598850595479E-002   7.8418662887244223E-003
  0.11067366905081336       -3.3672692676320767E-002   7.6706588695146516E-003
  0.10790327594855831       -3.2965878764621780E-002   7.6776989297860782E-003
  0.10513288284630329       -3.1869157115498453E-002   7.8629864695392571E-003
  0.10896952067105584       -3.1939196449859847E-002   1.5553591189226224E-002
  0.10636147404736071       -3.1591879364094910E-002   1.5354621965084445E-002
  0.10375342742366560       -3.1078433773974852E-002   1.5302098218581119E-002
  0.10114538079997047       -3.0398859679499721E-002   1.5396019949716115E-002
   9.8537334176275360E-002  -2.9553157080669495E-002   1.5636387158489501E-002
  0.10161295464136956       -2.9961795612273787E-002   2.3448069456485799E-002
   9.9135452494391346E-002  -2.9194159877594342E-002   2.3175806673824215E-002
   9.6657950347413105E-002  -2.8484174871628968E-002   2.3018187366958133E-002
   9.4180448200434905E-002  -2.7831840594377759E-002   2.2975211535887476E-002
   9.1702946053456677E-002  -2.7237157045840552E-002   2.3046879180612094E-002
   9.4144757166264553E-002  -2.7984394774687699E-002   3.1874755989194425E-002
   9.1765997494160215E-002  -2.6796440391093738E-002   3.1305420414944073E-002
   8.9387237822055904E-002  -2.5889915969283105E-002   3.0818926314646000E-002
   8.7008478149951579E-002  -2.5264821509255721E-002   3.0415273688300361E-002
   8.4629718477847282E-002  -2.4921157011011635E-002   3.0094462535907113E-002
  0.11148959206354042       -3.4185157150327272E-002  -2.7332288623871381E-004
  0.10830466606070799       -3.2667432071717073E-002   3.0590649630762856E-005
  0.10511974005787555       -3.1423425205212602E-002   5.0551800600995289E-004
  0.10193481405504315       -3.0453136550814115E-002   1.1514591828984538E-003
   9.8749888052210688E-002  -2.9756566108521121E-002   1.9684141802964739E-003
  0.10513288284630329       -3.1869157115498453E-002   7.8629864695392571E-003
  0.10212872858551139       -3.0656866490782891E-002   7.7215744749762893E-003
   9.9124574324719467E-002  -2.9603345652307454E-002   7.7706921439851667E-003
   9.6120420063927570E-002  -2.8708594600072072E-002   8.0103394765654035E-003
   9.3116265803135645E-002  -2.7972613334076579E-002   8.4405164727172910E-003
   9.8537334176275360E-002  -2.9553157080669495E-002   1.5636387158489501E-002
   9.5733467500586159E-002  -2.8646300909848821E-002   1.5164598059359886E-002
   9.2929600824896985E-002  -2.7783266099402307E-002   1.4902854466864082E-002
   9.0125734149207812E-002  -2.6964052649330082E-002   1.4851156381001950E-002
   8.7321867473518569E-002  -2.6188660559632065E-002   1.5009503801773863E-002
   9.1702946053456677E-002  -2.7237157045840552E-002   2.3046879180612094E-002
   8.9118882805932401E-002  -2.6635735328914611E-002   2.2359661402781485E-002
   8.6534819558408138E-002  -2.5963186546497215E-002   2.1902004974646932E-002
   8.3950756310883876E-002  -2.5219510698588118E-002   2.1673909896208259E-002
   8.1366693063359613E-002  -2.4404707785187482E-002   2.1675376167465784E-002
   8.4629718477847282E-002  -2.4921157011011635E-002   3.0094462535907113E-002
   8.2284974501550090E-002  -2.4625169747980499E-002   2.9306764505241292E-002
   7.9940230525252939E-002  -2.4143106993592026E-002   2.8768143667333740E-002
   7.7595486548955761E-002  -2.3474968747846121E-002   2.8478600022184317E-002
   7.5250742572658569E-002  -2.2620755010742927E-002   2.8438133569792995E-002
   9.8749888052210688E-002  -2.9756566108521121E-002   1.9684141802964739E-003
   9.5846596087941827E-002  -2.9136631134719565E-002   2.2979971956929579E-003
   9.2943304123672937E-002  -2.8396248885794353E-002   2.7044725248242807E-003
   9.0040012159404090E-002  -2.7535419361745295E-002   3.1878401676899565E-003
   8.7136720195135187E-002  -2.6554142562572380E-002   3.7481001242901657E-003
   9.3116265803135645E-002  -2.7972613334076579E-002   8.4405164727172910E-003
   9.0301745126082578E-002  -2.7284032465971220E-002   8.7134105138449991E-003
   8.7487224449029427E-002  -2.6531482607405982E-002   9.0869548156693319E-003
   8.4672703771976318E-002  -2.5714963758380859E-002   9.5611493781907683E-003
   8.1858183094923209E-002  -2.4834475918895593E-002   1.0135994201408982E-002
   8.7321867473518569E-002  -2.6188660559632065E-002   1.5009503801773863E-002
   8.4619876030643679E-002  -2.5431433797223083E-002   1.5169230583968657E-002
   8.1917884587768719E-002  -2.4666716329017770E-002   1.5453365573822729E-002
   7.9215893144893787E-002  -2.3894508155016307E-002   1.5861908771336235E-002
   7.6513901702018883E-002  -2.3114809275218584E-002   1.6394860176508930E-002
   8.1366693063359613E-002  -2.4404707785187482E-002   2.1675376167465784E-002
   7.8800988801625213E-002  -2.3578835128474786E-002   2.1665457406063952E-002
   7.6235284539890841E-002  -2.2801950050629644E-002   2.1803704799284014E-002
   7.3669580278156468E-002  -2.2074052551651926E-002   2.2090118347125928E-002
   7.1103876016422013E-002  -2.1395142631541797E-002   2.2524698049589412E-002
   7.5250742572658569E-002  -2.2620755010742927E-002   2.8438133569792995E-002
   7.2845083439027153E-002  -2.1726236459726628E-002   2.8202090980131211E-002
   7.0439424305395654E-002  -2.0937183772241387E-002   2.8137972492053562E-002
   6.8033765171764182E-002  -2.0253596948287607E-002   2.8245778105559956E-002
   6.5628106038132766E-002  -1.9675475987864843E-002   2.8525507820650386E-002
   8.7136720195135187E-002  -2.6554142562572380E-002   3.7481001242901657E-003
   8.4015714692348809E-002  -2.5540594126783445E-002   3.5060966268173344E-003
   8.0894709189562430E-002  -2.4582949692884715E-002   3.5005691150409302E-003
   7.7773703686776080E-002  -2.3681209260876593E-002   3.7315175889610364E-003
   7.4652698183989674E-002  -2.2835372830759093E-002   4.1989420485776252E-003
   8.1858183094923209E-002  -2.4834475918895593E-002   1.0135994201408982E-002
   7.8967054650106394E-002  -2.3930974534371652E-002   9.7847245323805510E-003
   7.6075926205289662E-002  -2.3045415050230098E-002   9.6567329935946522E-003
   7.3184797760472861E-002  -2.2177797466471121E-002   9.7520195850513275E-003
   7.0293669315656060E-002  -2.1328121783094511E-002   1.0070584306750785E-002
   7.6513901702018883E-002  -2.3114809275218584E-002   1.6394860176508930E-002
   7.3839452459717847E-002  -2.2321354941960081E-002   1.5972286437432634E-002
   7.1165003217416853E-002  -2.1507880407575702E-002   1.5759792973145240E-002
   6.8490553975115831E-002  -2.0674385672065872E-002   1.5757379783646580E-002
   6.5816104732814851E-002  -1.9820870735430041E-002   1.5965046868937183E-002
   7.1103876016422013E-002  -2.1395142631541797E-002   2.2524698049589412E-002
   6.8632908121183001E-002  -2.0711735349548455E-002   2.2068782341973518E-002
   6.6161940225944044E-002  -1.9970345764921196E-002   2.1809749053692665E-002
   6.3690972330705059E-002  -1.9170973877660400E-002   2.1747598184747124E-002
   6.1220004435466012E-002  -1.8313619687765570E-002   2.1882329735136333E-002
   6.5628106038132766E-002  -1.9675475987864843E-002   2.8525507820650386E-002
   6.3347421634501994E-002  -1.9102115757136773E-002   2.8074212246003122E-002
   6.1066737230871207E-002  -1.8432811122266843E-002   2.7806601235237011E-002
   5.8786052827240455E-002  -1.7667562083254911E-002   2.7722674788352247E-002
   5.6505368423609648E-002  -1.6806368640101044E-002   2.7822432905348971E-002
   7.4652698183989674E-002  -2.2835372830759093E-002   4.1989420485776252E-003
   7.1349288498501862E-002  -2.2011037828057911E-002   4.5881903121973711E-003
   6.8045878813014049E-002  -2.1173801678299353E-002   5.3040967830823016E-003
   6.4742469127526264E-002  -2.0323664381482795E-002   6.3466614612326944E-003
   6.1439059442038424E-002  -1.9460625937609333E-002   7.7158843466479388E-003
   7.0293669315656060E-002  -2.1328121783094511E-002   1.0070584306750785E-002
   6.7293574780490195E-002  -2.0495323935550591E-002   1.0316497486807019E-002
   6.4293480245324386E-002  -1.9678339859289851E-002   1.0842382760241659E-002
   6.1293385710158563E-002  -1.8877169554312109E-002   1.1648240127055925E-002
   5.8293291174992712E-002  -1.8091813020617242E-002   1.2734069587248431E-002
   6.5816104732814851E-002  -1.9820870735430041E-002   1.5965046868937183E-002
   6.3072639234084543E-002  -1.8979610043043327E-002   1.6038910047088933E-002
   6.0329173735354277E-002  -1.8182878040280376E-002   1.6346059204733324E-002
   5.7585708236624046E-002  -1.7430674727141209E-002   1.6886494341869854E-002
   5.4842242737893676E-002  -1.6723000103625374E-002   1.7660215458498996E-002
   6.1220004435466012E-002  -1.8313619687765570E-002   2.1882329735136333E-002
   5.8686481859284857E-002  -1.7463896150536035E-002   2.1755427993043475E-002
   5.6152959283103765E-002  -1.6687416221270998E-002   2.1815126116556671E-002
   5.3619436706922638E-002  -1.5984179899970082E-002   2.2061424105675690E-002
   5.1085914130741504E-002  -1.5354187186633617E-002   2.2494321960400382E-002
   5.6505368423609648E-002  -1.6806368640101044E-002   2.7822432905348971E-002
   5.4135102656091227E-002  -1.5948182258028853E-002   2.7466051324670449E-002
   5.1764836888572779E-002  -1.5191954402261454E-002   2.7249583495711882E-002
   4.9394571121054345E-002  -1.4537685072799303E-002   2.7173029418472522E-002
   4.7024305353535967E-002  -1.3985374269641693E-002   2.7236389092952840E-002
   6.1439059442038424E-002  -1.9460625937609333E-002   7.7158843466479388E-003
   5.6945790635167914E-002  -1.8546573406269307E-002   8.3398750634428032E-003
   5.2452521828297405E-002  -1.7543393847055500E-002   1.0576226117388843E-002
   4.7959253021426979E-002  -1.6451087259967356E-002   1.4424937508484781E-002
   4.3465984214556386E-002  -1.5269653645004322E-002   1.9886009236732338E-002
   5.8293291174992712E-002  -1.8091813020617242E-002   1.2734069587248431E-002
   5.5181343313606079E-002  -1.7257125351905822E-002   1.2923542276918443E-002
   5.2069395452219391E-002  -1.6307961641877533E-002   1.4263296520406255E-002
   4.8957447590832842E-002  -1.5244321890532486E-002   1.6753332317710506E-002
   4.5845499729446071E-002  -1.4066206097870015E-002   2.0393649668831948E-002
   5.4842242737893676E-002  -1.6723000103625374E-002   1.7660215458498996E-002
   5.2649537038657157E-002  -1.5967677297542116E-002   1.7440519134487464E-002
   5.0456831339420680E-002  -1.5072529436699456E-002   1.7909025580958915E-002
   4.8264125640184279E-002  -1.4037556521097783E-002   1.9065734797913500E-002
   4.6071419940947655E-002  -1.2862758550736597E-002   2.0910646785351816E-002
   5.1085914130741504E-002  -1.5354187186633617E-002   2.2494321960400382E-002
   4.9350371810321314E-002  -1.4678229243178298E-002   2.1890805636149230E-002
   4.7614829489901103E-002  -1.3837097231521656E-002   2.1513413299047608E-002
   4.5879287169480962E-002  -1.2830791151662996E-002   2.1362144949095073E-002
   4.4143744849060682E-002  -1.1659311003602513E-002   2.1437000586292221E-002
   4.7024305353535967E-002  -1.3985374269641693E-002   2.7236389092952840E-002
   4.5283847628598356E-002  -1.3388781188814813E-002   2.6274401781904322E-002
   4.3543389903660829E-002  -1.2601665026343647E-002   2.5076459674671397E-002
   4.1802932178723246E-002  -1.1624025782228074E-002   2.3642562771254080E-002
   4.0062474453785746E-002  -1.0455863456468650E-002   2.1972711071652995E-002
   9.0360464501150456E-002   0.0000000000000000        4.9841686965457446E-002
   9.3961273669531054E-002  -5.4046336030401498E-003   5.3216080279407864E-002
   9.7562082837911679E-002  -1.0671877351112455E-002   5.4971533368554822E-002
  0.10116289200629228       -1.5801731244216917E-002   5.5108046232898313E-002
  0.10476370117467287       -2.0794195282353524E-002   5.3625618872438351E-002
   8.2424702434747366E-002   0.0000000000000000        4.4789864463535195E-002
   8.4635620182459861E-002  -4.5748860946278821E-003   4.8273496341323593E-002
   8.6846537930172343E-002  -9.0389114318706852E-003   5.0596285602579220E-002
   8.9057455677884825E-002  -1.3392076011728404E-002   5.1758232247302076E-002
   9.1268373425597307E-002  -1.7634379834201044E-002   5.1759336275492146E-002
   7.4245004821870450E-002   0.0000000000000000        4.0581054018816592E-002
   7.5524128757185505E-002  -3.7451385862156137E-003   4.4147395362860220E-002
   7.6803252692500559E-002  -7.4059455126289121E-003   4.7010991698641730E-002
   7.8082376627815614E-002  -1.0982420779239895E-002   4.9171843026161177E-002
   7.9361500563130682E-002  -1.4474564386048560E-002   5.0629949345418535E-002
   6.5821371662519695E-002   0.0000000000000000        3.7215255631301652E-002
   6.6626799393708025E-002  -2.9153910778033456E-003   4.0837777344017716E-002
   6.7432227124896327E-002  -5.7729795933871390E-003   4.4215651656742377E-002
   6.8237654856084656E-002  -8.5727655467513868E-003   4.7348878569475665E-002
   6.9043082587272958E-002  -1.1314748937896071E-002   5.0237458082217530E-002
   5.7153802956695116E-002   0.0000000000000000        3.4692469300990354E-002
   5.7943632092027381E-002  -2.0856435693910776E-003   3.8344642284796109E-002
   5.8733461227359653E-002  -4.1400136741453677E-003   4.2210265476881136E-002
   5.9523290362691918E-002  -6.1631103142628721E-003   4.6289338877245470E-002
   6.0313119498024190E-002  -8.1549334897435891E-003   5.0581862485889126E-002
  0.10476370117467287       -2.0794195282353524E-002   5.3625618872438351E-002
  0.10210896517257081       -2.4936409583613917E-002   4.5650824903665246E-002
   9.9454229170468728E-002  -2.7515514266089766E-002   3.9367416433533531E-002
   9.6799493168366640E-002  -2.8531509329781005E-002   3.4775393462043266E-002
   9.4144757166264553E-002  -2.7984394774687699E-002   3.1874755989194425E-002
   9.1268373425597307E-002  -1.7634379834201044E-002   5.1759336275492146E-002
   9.0067070298117502E-002  -2.1211019268653462E-002   4.6526833388028793E-002
   8.8865767170637683E-002  -2.3567190684450540E-002   4.2509810751168525E-002
   8.7664464043157864E-002  -2.4702894081592271E-002   3.9708268364911370E-002
   8.6463160915678045E-002  -2.4618129460078624E-002   3.8122206229257348E-002
   7.9361500563130682E-002  -1.4474564386048560E-002   5.0629949345418535E-002
   7.9137725062234821E-002  -1.7485628953692996E-002   4.7797095939135670E-002
   7.8913949561338959E-002  -1.9618867102811320E-002   4.5703817535417648E-002
   7.8690174060443124E-002  -2.0874278833403502E-002   4.4350114134264429E-002
   7.8466398559547249E-002  -2.1251864145469562E-002   4.3735985735676004E-002
   6.9043082587272958E-002  -1.1314748937896071E-002   5.0237458082217530E-002
   6.9320929464922756E-002  -1.3760238638732533E-002   4.9461612556985952E-002
   6.9598776342572555E-002  -1.5670543521172101E-002   4.8949436786280921E-002
   6.9876623220222339E-002  -1.7045663585214747E-002   4.8700930770102353E-002
   7.0154470097872138E-002  -1.7885598830860501E-002   4.8716094508450290E-002
   6.0313119498024190E-002  -8.1549334897435891E-003   5.0581862485889126E-002
   6.0616683506181324E-002  -1.0034848323772071E-002   5.1520383241579620E-002
   6.0920247514338464E-002  -1.1722219939532874E-002   5.2246668503758316E-002
   6.1223811522495598E-002  -1.3217048337025993E-002   5.2760718272425219E-002
   6.1527375530652739E-002  -1.4519333516251419E-002   5.3062532547580317E-002
   9.4144757166264553E-002  -2.7984394774687699E-002   3.1874755989194425E-002
   9.1765997494160215E-002  -2.6796440391093738E-002   3.1305420414944073E-002
   8.9387237822055904E-002  -2.5889915969283105E-002   3.0818926314646000E-002
   8.7008478149951579E-002  -2.5264821509255721E-002   3.0415273688300361E-002
   8.4629718477847282E-002  -2.4921157011011635E-002   3.0094462535907113E-002
   8.6463160915678045E-002  -2.4618129460078624E-002   3.8122206229257348E-002
   8.4212501328104733E-002  -2.3979259220739450E-002   3.7086119787647469E-002
   8.1961841740531421E-002  -2.3452645764404548E-002   3.6223392041147176E-002
   7.9711182152958124E-002  -2.3038289091073933E-002   3.5534022989756428E-002
   7.7460522565384826E-002  -2.2736189200747589E-002   3.5018012633475551E-002
   7.8466398559547249E-002  -2.1251864145469562E-002   4.3735985735676004E-002
   7.6434356277662166E-002  -2.1162078050385180E-002   4.2402321605485641E-002
   7.4402313995777097E-002  -2.1015375559526036E-002   4.1332533391562162E-002
   7.2370271713892015E-002  -2.0811756672892163E-002   4.0526621093905479E-002
   7.0338229432006932E-002  -2.0551221390483501E-002   3.9984584712515786E-002
   7.0154470097872138E-002  -1.7885598830860501E-002   4.8716094508450290E-002
   6.8431562342832541E-002  -1.8344896880030923E-002   4.7254025868458525E-002
   6.6708654587792932E-002  -1.8578105354647531E-002   4.6146350365890848E-002
   6.4985746832753322E-002  -1.8585224254710382E-002   4.5393068000747314E-002
   6.3262839077713739E-002  -1.8366253580219448E-002   4.4994178773027776E-002
   6.1527375530652739E-002  -1.4519333516251419E-002   5.3062532547580317E-002
   6.0204119523615839E-002  -1.5527715709676621E-002   5.1641232576566186E-002
   5.8880863516578938E-002  -1.6140835149769009E-002   5.0664842964133344E-002
   5.7557607509542037E-002  -1.6358691836528581E-002   5.0133363710281861E-002
   5.6234351502505137E-002  -1.6181285769955367E-002   5.0046794815011592E-002
   8.4629718477847282E-002  -2.4921157011011635E-002   3.0094462535907113E-002
   8.2284974501550090E-002  -2.4625169747980499E-002   2.9306764505241292E-002
   7.9940230525252939E-002  -2.4143106993592026E-002   2.8768143667333740E-002
   7.7595486548955761E-002  -2.3474968747846121E-002   2.8478600022184317E-002
   7.5250742572658569E-002  -2.2620755010742927E-002   2.8438133569792995E-002
   7.7460522565384826E-002  -2.2736189200747589E-002   3.5018012633475551E-002
   7.5355118835408214E-002  -2.2422896818702250E-002   3.4427839064356473E-002
   7.3249715105431629E-002  -2.1974962670214756E-002   3.4067268795120433E-002
   7.1144311375455044E-002  -2.1392386755284945E-002   3.3936301825767415E-002
   6.9038907645478445E-002  -2.0675169073912980E-002   3.4034938156297240E-002
   7.0338229432006932E-002  -2.0551221390483501E-002   3.9984584712515786E-002
   6.8452692055475717E-002  -2.0220623889423937E-002   3.9540501880028375E-002
   6.6567154678944446E-002  -1.9806818346837403E-002   3.9306548454548722E-002
   6.4681617302413161E-002  -1.9309804762723766E-002   3.9282724436076777E-002
   6.2796079925881945E-002  -1.8729583137083103E-002   3.9469029824612471E-002
   6.3262839077713739E-002  -1.8366253580219448E-002   4.4994178773027776E-002
   6.1577694161752579E-002  -1.8018350960145726E-002   4.4644752952256866E-002
   5.9892549245791425E-002  -1.7638674023460092E-002   4.4485982645618379E-002
   5.8207404329830258E-002  -1.7227222770162590E-002   4.4517867853112444E-002
   5.6522259413869125E-002  -1.6783997200253246E-002   4.4740408574738925E-002
   5.6234351502505137E-002  -1.6181285769955367E-002   5.0046794815011592E-002
   5.4730125154238835E-002  -1.5816078030867389E-002   4.9740592281041912E-002
   5.3225898805972546E-002  -1.5470529700082780E-002   4.9605571368329632E-002
   5.1721672457706251E-002  -1.5144640777601429E-002   4.9641732076874417E-002
   5.0217446109439956E-002  -1.4838411263423279E-002   4.9849074406676519E-002
   7.5250742572658569E-002  -2.2620755010742927E-002   2.8438133569792995E-002
   7.2845083439027153E-002  -2.1726236459726628E-002   2.8202090980131211E-002
   7.0439424305395654E-002  -2.0937183772241387E-002   2.8137972492053562E-002
   6.8033765171764182E-002  -2.0253596948287607E-002   2.8245778105559956E-002
   6.5628106038132766E-002  -1.9675475987864843E-002   2.8525507820650386E-002
   6.9038907645478445E-002  -2.0675169073912980E-002   3.4034938156297240E-002
   6.6812456746692755E-002  -1.9922075402146439E-002   3.3691009082888745E-002
   6.4586005847907024E-002  -1.9231871516032645E-002   3.3533572377587542E-002
   6.2359554949121321E-002  -1.8604557415571800E-002   3.3562628040393776E-002
   6.0133104050335617E-002  -1.8040133100763744E-002   3.3778176071307481E-002
   6.2796079925881945E-002  -1.8729583137083103E-002   3.9469029824612471E-002
   6.0763405528465264E-002  -1.8117914344566208E-002   3.9059790345335604E-002
   5.8730731131048604E-002  -1.7526559259823816E-002   3.8851611500689262E-002
   5.6698056733631944E-002  -1.6955517882855962E-002   3.8844493290673777E-002
   5.4665382336215283E-002  -1.6404790213662729E-002   3.9038435715288811E-002
   5.6522259413869125E-002  -1.6783997200253246E-002   4.4740408574738925E-002
   5.4697929784344790E-002  -1.6313753286985984E-002   4.4308434767471948E-002
   5.2873600154820420E-002  -1.5821247003615084E-002   4.4092089861358978E-002
   5.1049270525296078E-002  -1.5306478350140222E-002   4.4091373856399843E-002
   4.9224940895771743E-002  -1.4769447326561699E-002   4.4306286752594737E-002
   5.0217446109439956E-002  -1.4838411263423279E-002   4.9849074406676519E-002
   4.8616029514331222E-002  -1.4509592229405802E-002   4.9436942349297852E-002
   4.7014612919222459E-002  -1.4115934747406203E-002   4.9255007459596267E-002
   4.5413196324113697E-002  -1.3657438817424362E-002   4.9303269737571959E-002
   4.3811779729004963E-002  -1.3134104439460614E-002   4.9581729183224954E-002
   6.5628106038132766E-002  -1.9675475987864843E-002   2.8525507820650386E-002
   6.3347421634501994E-002  -1.9102115757136773E-002   2.8074212246003122E-002
   6.1066737230871207E-002  -1.8432811122266843E-002   2.7806601235237011E-002
   5.8786052827240455E-002  -1.7667562083254911E-002   2.7722674788352247E-002
   5.6505368423609648E-002  -1.6806368640101044E-002   2.7822432905348971E-002
   6.0133104050335617E-002  -1.8040133100763744E-002   3.3778176071307481E-002
   5.8034350200261542E-002  -1.7475087650126730E-002   3.3432444990738580E-002
   5.5935596350187480E-002  -1.6845910142178733E-002   3.3266890453401893E-002
   5.3836842500113412E-002  -1.6152600576919682E-002   3.3281512459297363E-002
   5.1738088650039343E-002  -1.5395158954349841E-002   3.3476311008424686E-002
   5.4665382336215283E-002  -1.6404790213662729E-002   3.9038435715288811E-002
   5.2745051019048715E-002  -1.5848059543116716E-002   3.8766456781967620E-002
   5.0824719701882071E-002  -1.5259009162090630E-002   3.8671146371229377E-002
   4.8904388384715489E-002  -1.4637639070584510E-002   3.8752504483073963E-002
   4.6984057067548921E-002  -1.3983949268598389E-002   3.9010531117501440E-002
   4.9224940895771743E-002  -1.4769447326561699E-002   4.4306286752594737E-002
   4.7479524090863354E-002  -1.4221031436106715E-002   4.4076247619690194E-002
   4.5734107285954957E-002  -1.3672108182002551E-002   4.4019368988719491E-002
   4.3988690481046561E-002  -1.3122677564249449E-002   4.4135650859682123E-002
   4.2243273676138227E-002  -1.2572739582847006E-002   4.4425093232578483E-002
   4.3811779729004963E-002  -1.3134104439460614E-002   4.9581729183224954E-002
   4.2237769415705576E-002  -1.2594003329096659E-002   4.9361817503906391E-002
   4.0663759102406133E-002  -1.2085207201914472E-002   4.9311558305872027E-002
   3.9089748789106732E-002  -1.1607716057914205E-002   4.9430951589122210E-002
   3.7515738475807303E-002  -1.1161529897095679E-002   4.9719997353656398E-002
   5.6505368423609648E-002  -1.6806368640101044E-002   2.7822432905348971E-002
   5.4135102656091227E-002  -1.5948182258028853E-002   2.7466051324670449E-002
   5.1764836888572779E-002  -1.5191954402261454E-002   2.7249583495711882E-002
   4.9394571121054345E-002  -1.4537685072799303E-002   2.7173029418472522E-002
   4.7024305353535967E-002  -1.3985374269641693E-002   2.7236389092952840E-002
   5.1738088650039343E-002  -1.5395158954349841E-002   3.3476311008424686E-002
   4.9516081474515666E-002  -1.4636608815269792E-002   3.3059585683803572E-002
   4.7294074298991920E-002  -1.3939973700480654E-002   3.2799463791452266E-002
   4.5072067123468208E-002  -1.3305253609982453E-002   3.2695945331370796E-002
   4.2850059947944497E-002  -1.2732448543775143E-002   3.2749030303559579E-002
   4.6984057067548921E-002  -1.3983949268598389E-002   3.9010531117501440E-002
   4.4926998164570284E-002  -1.3325035372510619E-002   3.8573505550951237E-002
   4.2869939261591695E-002  -1.2687992998699799E-002   3.8309773097221445E-002
   4.0812880358613066E-002  -1.2072822147165825E-002   3.8219333756311993E-002
   3.8755821455634484E-002  -1.1479522817908566E-002   3.8302187528222939E-002
   4.2243273676138227E-002  -1.2572739582847006E-002   4.4425093232578483E-002
   4.0367852726255135E-002  -1.2013461929751557E-002   4.4007810926113833E-002
   3.8492431776372106E-002  -1.1436012296918999E-002   4.3780511413019509E-002
   3.6617010826489049E-002  -1.0840390684349058E-002   4.3743194693296100E-002
   3.4741589876605992E-002  -1.0226597092042003E-002   4.3895860766943462E-002
   3.7515738475807303E-002  -1.1161529897095679E-002   4.9719997353656398E-002
   3.5838645159570220E-002  -1.0701888486992384E-002   4.9362501809290971E-002
   3.4161551843333124E-002  -1.0184031595138116E-002   4.9211678738846271E-002
   3.2484458527096020E-002  -9.6079592215325069E-003   4.9267528142322992E-002
   3.0807365210858945E-002  -8.9736713661753842E-003   4.9530050019720717E-002
   4.7024305353535967E-002  -1.3985374269641693E-002   2.7236389092952840E-002
   4.5283847628598356E-002  -1.3388781188814813E-002   2.6274401781904322E-002
   4.3543389903660829E-002  -1.2601665026343647E-002   2.5076459674671397E-002
   4.1802932178723246E-002  -1.1624025782228074E-002   2.3642562771254080E-002
   4.0062474453785746E-002  -1.0455863456468650E-002   2.1972711071652995E-002
   4.2850059947944497E-002  -1.2732448543775143E-002   3.2749030303559579E-002
   4.0934127706437701E-002  -1.2128079259192764E-002   3.2085313456750086E-002
   3.9018195464930877E-002  -1.1398666513568953E-002   3.1306602372986464E-002
   3.7102263223424151E-002  -1.0544210306903955E-002   3.0412897052269017E-002
   3.5186330981917313E-002  -9.5647106391973935E-003   2.9404197494596884E-002
   3.8755821455634484E-002  -1.1479522817908566E-002   3.8302187528222939E-002
   3.6785375256788579E-002  -1.0867377329570715E-002   3.7871261525050007E-002
   3.4814929057942659E-002  -1.0195668000794307E-002   3.7446301844153047E-002
   3.2844482859096698E-002  -9.4643948315796134E-003   3.7027308485532040E-002
   3.0874036660250848E-002  -8.6735578219263587E-003   3.6614281449186992E-002
   3.4741589876605992E-002  -1.0226597092042003E-002   4.3895860766943462E-002
   3.2837590279651087E-002  -9.6066753999486110E-003   4.3632245986804125E-002
   3.0933590682696088E-002  -8.9926694880198034E-003   4.3495558088170634E-002
   2.9029591085741151E-002  -8.3845793562550494E-003   4.3485797071043136E-002
   2.7125591488786231E-002  -7.7824050046552684E-003   4.3602962935421666E-002
   3.0807365210858945E-002  -8.9736713661753842E-003   4.9530050019720717E-002
   2.9090772775025087E-002  -8.3459734703265620E-003   4.9368266842012121E-002
   2.7374180339191159E-002  -7.7896709752450360E-003   4.9454371105039280E-002
   2.5657587903357280E-002  -7.3047638809310596E-003   4.9788362808802625E-002
   2.3940995467523374E-002  -6.8912521873840671E-003   5.0370241953302086E-002
   5.7153802956695116E-002   0.0000000000000000        3.4692469300990354E-002
   5.7943632092027381E-002  -2.0856435693910776E-003   3.8344642284796109E-002
   5.8733461227359653E-002  -4.1400136741453677E-003   4.2210265476881136E-002
   5.9523290362691918E-002  -6.1631103142628721E-003   4.6289338877245470E-002
   6.0313119498024190E-002  -8.1549334897435891E-003   5.0581862485889126E-002
   4.8654164996007998E-002   0.0000000000000000        3.2789849541493749E-002
   4.9592313097900638E-002  -1.7107844335702213E-003   3.6965499836361257E-002
   5.0530461199793278E-002  -3.4352192997134049E-003   4.1224337856070201E-002
   5.1468609301685918E-002  -5.1733045984295473E-003   4.5566363600620573E-002
   5.2406757403578544E-002  -6.9250403297186486E-003   4.9991577070012387E-002
   4.0734324072069658E-002   0.0000000000000000        3.1284550866422872E-002
   4.1690528657084808E-002  -1.3359252977493677E-003   3.5938754575142375E-002
   4.2646733242099957E-002  -2.7304249252814413E-003   4.0545883525265475E-002
   4.3602937827115121E-002  -4.1834988825962226E-003   4.5105937716792145E-002
   4.4559142412130263E-002  -5.6951471696937081E-003   4.9618917149722434E-002
   3.3394280184880082E-002   0.0000000000000000        3.0176573275777718E-002
   3.4238278769579897E-002  -9.6106616192851314E-004   3.5264406501139489E-002
   3.5082277354279712E-002  -2.0256305508494763E-003   4.0174902484466993E-002
   3.5926275938979513E-002  -3.1936931667628969E-003   4.4908061225760229E-002
   3.6770274523679335E-002  -4.4652540096687642E-003   4.9463882725019191E-002
   2.6634033334439273E-002   0.0000000000000000        2.9465916769558297E-002
   2.7235563435385891E-002  -5.8620702610765775E-004   3.4942455614352580E-002
   2.7837093536332510E-002  -1.3208361764175149E-003   4.0111394733674741E-002
   2.8438623637279128E-002  -2.2038874509295713E-003   4.4972734127524790E-002
   2.9040153738225750E-002  -3.2353608496438245E-003   4.9526473795902706E-002
   6.0313119498024190E-002  -8.1549334897435891E-003   5.0581862485889126E-002
   6.0616683506181324E-002  -1.0034848323772071E-002   5.1520383241579620E-002
   6.0920247514338464E-002  -1.1722219939532874E-002   5.2246668503758316E-002
   6.1223811522495598E-002  -1.3217048337025993E-002   5.2760718272425219E-002
   6.1527375530652739E-002  -1.4519333516251419E-002   5.3062532547580317E-002
   5.2406757403578544E-002  -6.9250403297186486E-003   4.9991577070012387E-002
   5.2536807347151590E-002  -8.5898566913453229E-003   5.1217582552710729E-002
   5.2666857290724636E-002  -1.0067183881074158E-002   5.2308795399752694E-002
   5.2796907234297683E-002  -1.1357021898905197E-002   5.3265215611138263E-002
   5.2926957177870722E-002  -1.2459370744838417E-002   5.4086843186867434E-002
   4.4559142412130263E-002  -5.6951471696937081E-003   4.9618917149722434E-002
   4.4593121148974638E-002  -7.1448650589185682E-003   5.1127353313058704E-002
   4.4627099885819019E-002  -8.4121478226154636E-003   5.2578439698594055E-002
   4.4661078622663400E-002  -9.4969954607844083E-003   5.3972176306328438E-002
   4.4695057359507767E-002  -1.0399407973425392E-002   5.5308563136261868E-002
   3.6770274523679335E-002  -4.4652540096687642E-003   4.9463882725019191E-002
   3.6785624911650466E-002  -5.6998734264918135E-003   5.1249695522623574E-002
   3.6800975299621598E-002  -6.7571117641567653E-003   5.3055601400282412E-002
   3.6816325687592716E-002  -7.6369690226636196E-003   5.4881600357995747E-002
   3.6831676075563861E-002  -8.3394452020123782E-003   5.6727692395763536E-002
   2.9040153738225750E-002  -3.2353608496438245E-003   4.9526473795902706E-002
   2.9114318635179066E-002  -4.2548817940650649E-003   5.1584609181405325E-002
   2.9188483532132384E-002  -5.1020757056980540E-003   5.3740280504817835E-002
   2.9262648429085707E-002  -5.7769425845428275E-003   5.5993487766140250E-002
   2.9336813326039025E-002  -6.2794824305993577E-003   5.8344230965372550E-002
   6.1527375530652739E-002  -1.4519333516251419E-002   5.3062532547580317E-002
   6.0204119523615839E-002  -1.5527715709676621E-002   5.1641232576566186E-002
   5.8880863516578938E-002  -1.6140835149769009E-002   5.0664842964133344E-002
   5.7557607509542037E-002  -1.6358691836528581E-002   5.0133363710281861E-002
   5.6234351502505137E-002  -1.6181285769955367E-002   5.0046794815011592E-002
   5.2926957177870722E-002  -1.2459370744838417E-002   5.4086843186867434E-002
   5.1998054371682763E-002  -1.3312017564796490E-002   5.3337093409232629E-002
   5.1069151565494839E-002  -1.3852749504702120E-002   5.2931139674714370E-002
   5.0140248759306880E-002  -1.4081566564555311E-002   5.2868981983312649E-002
   4.9211345953118941E-002  -1.3998468744356091E-002   5.3150620335027640E-002
   4.4695057359507767E-002  -1.0399407973425392E-002   5.5308563136261868E-002
   4.4059393438704048E-002  -1.1096319419916373E-002   5.5147015678725979E-002
   4.3423729517900328E-002  -1.1564663859635234E-002   5.5228149948841988E-002
   4.2788065597096601E-002  -1.1804441292582029E-002   5.5551965946609883E-002
   4.2152401676292896E-002  -1.1815651718756731E-002   5.6118463672029592E-002
   3.6831676075563861E-002  -8.3394452020123782E-003   5.6727692395763536E-002
   3.6388136724679658E-002  -8.8806212750362351E-003   5.7070999385046312E-002
   3.5944597373795455E-002  -9.2765782145683741E-003   5.7555873786516172E-002
   3.5501058022911230E-002  -9.5273160206087552E-003   5.8182315600173194E-002
   3.5057518672027034E-002  -9.6328346931574133E-003   5.8950324826017350E-002
   2.9336813326039025E-002  -6.2794824305993577E-003   5.8344230965372550E-002
   2.8984284229609601E-002  -6.6649231301561217E-003   5.9109044528193537E-002
   2.8631755133180184E-002  -6.9884925695014883E-003   5.9914311187736949E-002
   2.8279226036750760E-002  -7.2501907486354697E-003   6.0760030944002785E-002
   2.7926696940321349E-002  -7.4500176675580815E-003   6.1646203796991025E-002
   5.6234351502505137E-002  -1.6181285769955367E-002   5.0046794815011592E-002
   5.4730125154238835E-002  -1.5816078030867389E-002   4.9740592281041912E-002
   5.3225898805972546E-002  -1.5470529700082780E-002   4.9605571368329632E-002
   5.1721672457706251E-002  -1.5144640777601429E-002   4.9641732076874417E-002
   5.0217446109439956E-002  -1.4838411263423279E-002   4.9849074406676519E-002
   4.9211345953118941E-002  -1.3998468744356091E-002   5.3150620335027640E-002
   4.7885509727234085E-002  -1.3755069413238924E-002   5.2810201941482462E-002
   4.6559673501349250E-002  -1.3502981940338457E-002   5.2655382171442923E-002
   4.5233837275464414E-002  -1.3242206325654701E-002   5.2686161024909001E-002
   4.3908001049579565E-002  -1.2972742569187623E-002   5.2902538501880855E-002
   4.2152401676292896E-002  -1.1815651718756731E-002   5.6118463672029592E-002
   4.1019372575037932E-002  -1.1694060795610452E-002   5.5772176968995418E-002
   3.9886343473782990E-002  -1.1535434180594190E-002   5.5625905891715274E-002
   3.8753314372528054E-002  -1.1339771873708028E-002   5.5679650440189243E-002
   3.7620285271273077E-002  -1.1107073874951884E-002   5.5933410614417325E-002
   3.5057518672027034E-002  -9.6328346931574133E-003   5.8950324826017350E-002
   3.4131713697650390E-002  -9.6330521779819551E-003   5.8626517363580793E-002
   3.3205908723273746E-002  -9.5678864208499359E-003   5.8517142529146748E-002
   3.2280103748897108E-002  -9.4373374217613416E-003   5.8622200322715270E-002
   3.1354298774520450E-002  -9.2414051807162001E-003   5.8941690744286249E-002
   2.7926696940321349E-002  -7.4500176675580815E-003   6.1646203796991025E-002
   2.7222533095071444E-002  -7.5720435603534655E-003   6.1373223125238685E-002
   2.6518369249821552E-002  -7.6003386611055886E-003   6.1329092083737317E-002
   2.5814205404571647E-002  -7.5349029698146526E-003   6.1513810672486874E-002
   2.5110041559321755E-002  -7.3757364864804609E-003   6.1927378891487445E-002
   5.0217446109439956E-002  -1.4838411263423279E-002   4.9849074406676519E-002
   4.8616029514331222E-002  -1.4509592229405802E-002   4.9436942349297852E-002
   4.7014612919222459E-002  -1.4115934747406203E-002   4.9255007459596267E-002
   4.5413196324113697E-002  -1.3657438817424362E-002   4.9303269737571959E-002
   4.3811779729004963E-002  -1.3134104439460614E-002   4.9581729183224954E-002
   4.3908001049579565E-002  -1.2972742569187623E-002   5.2902538501880855E-002
   4.2530065095267508E-002  -1.2674597318280884E-002   5.2562175846714382E-002
   4.1152129140955444E-002  -1.2327777220278252E-002   5.2438577305464092E-002
   3.9774193186643395E-002  -1.1932282275179652E-002   5.2531742878129839E-002
   3.8396257232331352E-002  -1.1488112482985147E-002   5.2841672564711895E-002
   3.7620285271273077E-002  -1.1107073874951884E-002   5.5933410614417325E-002
   3.6452396903996584E-002  -1.0839602407155931E-002   5.5648653760577066E-002
   3.5284508536720077E-002  -1.0539619693150294E-002   5.5567227966891848E-002
   3.4116620169443564E-002  -1.0207125732934886E-002   5.5689133233361596E-002
   3.2948731802167050E-002  -9.8421205265097900E-003   5.6014369559986371E-002
   3.1354298774520450E-002  -9.2414051807162001E-003   5.8941690744286249E-002
   3.0383024940518418E-002  -9.0046074960309953E-003   5.8696376090885898E-002
   2.9411751106516358E-002  -8.7514621660223675E-003   5.8640959443879530E-002
   2.8440477272514298E-002  -8.4819691906901189E-003   5.8775440803266951E-002
   2.7469203438512269E-002  -8.1961285700344055E-003   5.9099820169048217E-002
   2.5110041559321755E-002  -7.3757364864804609E-003   6.1927378891487445E-002
   2.4321949204833021E-002  -7.1696125849060738E-003   6.1705342837640925E-002
   2.3533856850344294E-002  -6.9633046388943784E-003   6.1659771736427074E-002
   2.2745764495855553E-002  -6.7568126484453799E-003   6.1790665587846079E-002
   2.1957672141366832E-002  -6.5501366135589656E-003   6.2098024391897877E-002
   4.3811779729004963E-002  -1.3134104439460614E-002   4.9581729183224954E-002
   4.2237769415705576E-002  -1.2594003329096659E-002   4.9361817503906391E-002
   4.0663759102406133E-002  -1.2085207201914472E-002   4.9311558305872027E-002
   3.9089748789106732E-002  -1.1607716057914205E-002   4.9430951589122210E-002
   3.7515738475807303E-002  -1.1161529897095679E-002   4.9719997353656398E-002
   3.8396257232331352E-002  -1.1488112482985147E-002   5.2841672564711895E-002
   3.6997438064557547E-002  -1.1028259373488183E-002   5.2570990018307548E-002
   3.5598618896783778E-002  -1.0585714476482391E-002   5.2481037281670140E-002
   3.4199799729010008E-002  -1.0160477791967316E-002   5.2571814354799712E-002
   3.2800980561236218E-002  -9.7525493199436264E-003   5.2843321237696361E-002
   3.2948731802167050E-002  -9.8421205265097900E-003   5.6014369559986371E-002
   3.1736181108401540E-002  -9.4625154178799020E-003   5.5706912917187171E-002
   3.0523630414636037E-002  -9.0862217510502552E-003   5.5591263412637482E-002
   2.9311079720870516E-002  -8.7132395260207593E-003   5.5667421046337318E-002
   2.8098529027105003E-002  -8.3435687427914906E-003   5.5935385818286915E-002
   2.7469203438512269E-002  -8.1961285700344055E-003   5.9099820169048217E-002
   2.6453998547237581E-002  -7.8967714622716345E-003   5.8769586200545093E-002
   2.5438793655962924E-002  -7.5867290256181191E-003   5.8642236698773852E-002
   2.4423588764688267E-002  -7.2660012600742029E-003   5.8717771663734861E-002
   2.3408383873413582E-002  -6.9345881656394520E-003   5.8996191095428065E-002
   2.1957672141366832E-002  -6.5501366135589656E-003   6.2098024391897877E-002
   2.1150890381065643E-002  -6.3310275066631450E-003   6.1759009868381398E-002
   2.0344108620764439E-002  -6.0872363001859831E-003   6.1633957140079576E-002
   1.9537326860463243E-002  -5.8187629941274382E-003   6.1722866206992466E-002
   1.8730545100162047E-002  -5.5256075884873024E-003   6.2025737069120124E-002
   3.7515738475807303E-002  -1.1161529897095679E-002   4.9719997353656398E-002
   3.5838645159570220E-002  -1.0701888486992384E-002   4.9362501809290971E-002
   3.4161551843333124E-002  -1.0184031595138116E-002   4.9211678738846271E-002
   3.2484458527096020E-002  -9.6079592215325069E-003   4.9267528142322992E-002
   3.0807365210858945E-002  -8.9736713661753842E-003   4.9530050019720717E-002
   3.2800980561236218E-002  -9.7525493199436264E-003   5.2843321237696361E-002
   3.1329865870793852E-002  -9.3327334869543477E-003   5.2547087433730433E-002
   2.9858751180351507E-002  -8.8718347195438085E-003   5.2456138407432906E-002
   2.8387636489909131E-002  -8.3698530177112943E-003   5.2570474158803532E-002
   2.6916521799466755E-002  -7.8267883814574501E-003   5.2890094687842504E-002
   2.8098529027105003E-002  -8.3435687427914906E-003   5.5935385818286915E-002
   2.6832005266204481E-002  -7.9635784869163673E-003   5.5683281207391133E-002
   2.5565481505303949E-002  -7.5596378439493489E-003   5.5635073677910762E-002
   2.4298957744403417E-002  -7.1317468138902516E-003   5.5790763229845781E-002
   2.3032433983502888E-002  -6.6799053967393218E-003   5.6150349863196211E-002
   2.3408383873413582E-002  -6.9345881656394520E-003   5.8996191095428065E-002
   2.2345063345802021E-002  -6.5944234868784701E-003   5.8771083130272884E-002
   2.1281742818190428E-002  -6.2474409683549378E-003   5.8748484550280200E-002
   2.0218422290578828E-002  -5.8936406100691795E-003   5.8928395355449983E-002
   1.9155101762967273E-002  -5.5330224120212351E-003   5.9310815545782394E-002
   1.8730545100162047E-002  -5.5256075884873024E-003   6.2025737069120124E-002
   1.7869040109586509E-002  -5.2252684868403232E-003   6.1810493202375916E-002
   1.7007535119010979E-002  -4.9352440927606656E-003   6.1796371024541136E-002
   1.6146030128435459E-002  -4.6555344062480172E-003   6.1983370535616061E-002
   1.5284525137859925E-002  -4.3861394273031484E-003   6.2371491735600526E-002
   3.0807365210858945E-002  -8.9736713661753842E-003   4.9530050019720717E-002
   2.9090772775025087E-002  -8.3459734703265620E-003   4.9368266842012121E-002
   2.7374180339191159E-002  -7.7896709752450360E-003   4.9454371105039280E-002
   2.5657587903357280E-002  -7.3047638809310596E-003   4.9788362808802625E-002
   2.3940995467523374E-002  -6.8912521873840671E-003   5.0370241953302086E-002
   2.6916521799466755E-002  -7.8267883814574501E-003   5.2890094687842504E-002
   2.5441638537529218E-002  -7.2852472613112174E-003   5.2671126155019982E-002
   2.3966755275591632E-002  -6.7878361078020366E-003   5.2687688529253845E-002
   2.2491872013654133E-002  -6.3345549209304214E-003   5.2939781810544650E-002
   2.1016988751716537E-002  -5.9254037006952753E-003   5.3427405998891841E-002
   2.3032433983502888E-002  -6.6799053967393218E-003   5.6150349863196211E-002
   2.1786903361782156E-002  -6.2245210522958450E-003   5.5901461409390285E-002
   2.0541372740061421E-002  -5.7860012403591413E-003   5.5875747328961146E-002
   1.9295842118340713E-002  -5.3643459609294484E-003   5.6073207621909538E-002
   1.8050311496619981E-002  -4.9595552140064836E-003   5.6493842288234564E-002
   1.9155101762967273E-002  -5.5330224120212351E-003   5.9310815545782394E-002
   1.8126567247783831E-002  -5.1637948432804309E-003   5.9059272605123073E-002
   1.7098032732600379E-002  -4.7841663729161384E-003   5.9018547504161377E-002
   1.6069498217416940E-002  -4.3941370009286428E-003   5.9188640242897349E-002
   1.5040963702233491E-002  -3.9937067273176918E-003   5.9569550821330655E-002
   1.5284525137859925E-002  -4.3861394273031484E-003   6.2371491735600526E-002
   1.4460630195534258E-002  -4.1030686342650724E-003   6.2144559742218275E-002
   1.3636735253208583E-002  -3.7823315054731632E-003   6.2116089054854218E-002
   1.2812840310882968E-002  -3.4239280409279274E-003   6.2286079673507966E-002
   1.1988945368557269E-002  -3.0278582406289001E-003   6.2654531598179908E-002
   2.6634033334439273E-002   0.0000000000000000        2.9465916769558297E-002
   2.7235563435385891E-002  -5.8620702610765775E-004   3.4942455614352580E-002
   2.7837093536332510E-002  -1.3208361764175149E-003   4.0111394733674741E-002
   2.8438623637279128E-002  -2.2038874509295713E-003   4.4972734127524790E-002
   2.9040153738225750E-002  -3.2353608496438245E-003   4.9526473795902706E-002
   2.0116645002013284E-002   0.0000000000000000        2.9017920301013064E-002
   2.0449879677561362E-002  -4.3965526965794935E-004   3.4309814086486659E-002
   2.0783114353109439E-002  -9.9062713246398770E-004   3.9372716746635311E-002
   2.1116349028657520E-002  -1.6529155884181055E-003   4.4206628281458972E-002
   2.1449583704205598E-002  -2.4265206375203262E-003   4.8811548690957676E-002
   1.3505176668868170E-002   0.0000000000000000        2.8697922823390485E-002
   1.3648724519164868E-002  -2.9310351320824095E-004   3.3842277080597505E-002
   1.3792272369461568E-002  -6.6041808851045880E-004   3.8836248812626727E-002
   1.3935820219758265E-002  -1.1019437259066475E-003   4.3679838019478140E-002
   1.4079368070054962E-002  -1.6176804253968170E-003   4.8373044701151766E-002
   6.7996283350039337E-003   0.0000000000000000        2.8505924336690559E-002
   6.8320979601964125E-003  -1.4655175675853298E-004   3.3539844596685110E-002
   6.8645675853888912E-003  -3.3020904455692817E-004   3.8501990931649036E-002
   6.8970372105813691E-003  -5.5097186339518730E-004   4.3392363341582307E-002
   6.9295068357738470E-003  -8.0884021327331320E-004   4.8210961826484947E-002
   4.2057243104798303E-013   0.0000000000000000        2.8441924840913284E-002
   6.5599001924931954E-013  -3.0882327944903309E-013   3.3402516634749482E-002
   8.9140912533369754E-013  -6.0340274443682063E-013   3.8369943103702210E-002
   1.1268270387956858E-012  -8.8372711926076875E-013   4.3344204247771460E-002
   1.3622458196194120E-012  -1.1498102817086853E-012   4.8325300066957219E-002
   2.9040153738225750E-002  -3.2353608496438245E-003   4.9526473795902706E-002
   2.9114318635179066E-002  -4.2548817940650649E-003   5.1584609181405325E-002
   2.9188483532132384E-002  -5.1020757056980540E-003   5.3740280504817835E-002
   2.9262648429085707E-002  -5.7769425845428275E-003   5.5993487766140250E-002
   2.9336813326039025E-002  -6.2794824305993577E-003   5.8344230965372550E-002
   2.1449583704205598E-002  -2.4265206375203262E-003   4.8811548690957676E-002
   2.1592265248555370E-002  -3.1911613459073831E-003   5.1211805339499684E-002
   2.1734946792905149E-002  -3.8265567797160687E-003   5.3651559344924653E-002
   2.1877628337254918E-002  -4.3327069389463820E-003   5.6130810707232671E-002
   2.2020309881604690E-002  -4.7096118235983239E-003   5.8649559426423706E-002
   1.4079368070054962E-002  -1.6176804253968170E-003   4.8373044701151766E-002
   1.4232527680774300E-002  -2.1274408977497087E-003   5.1072340854523279E-002
   1.4385687291493639E-002  -2.5510378537340829E-003   5.3753095783750898E-002
   1.4538846902212981E-002  -2.8884712933499399E-003   5.6415309488834650E-002
   1.4692006512932319E-002  -3.1397412165972659E-003   5.9058981969774507E-002
   6.9295068357738470E-003  -8.0884021327331320E-004   4.8210961826484947E-002
   7.0351059318358592E-003  -1.0637204495920411E-003   5.1166215726476116E-002
   7.1407050278978713E-003  -1.2755189277520939E-003   5.4044889821296516E-002
   7.2463041239598834E-003  -1.4442356477534996E-003   5.6846984110946158E-002
   7.3519032200218930E-003  -1.5698706095962269E-003   5.9572498595425009E-002
   1.3622458196194120E-012  -1.1498102817086853E-012   4.8325300066957219E-002
   1.7400417044732830E-012  -1.4343552387496850E-012   5.1493429955358196E-002
   2.1178373724867194E-012  -1.7701051128332645E-012   5.4526941457561519E-002
   2.4956340162821111E-012  -2.1570471645838973E-012   5.7425834573567175E-002
   2.8734289253540268E-012  -2.5951671367430151E-012   6.0190109303375157E-002
   2.9336813326039025E-002  -6.2794824305993577E-003   5.8344230965372550E-002
   2.8984284229609601E-002  -6.6649231301561217E-003   5.9109044528193537E-002
   2.8631755133180184E-002  -6.9884925695014883E-003   5.9914311187736949E-002
   2.8279226036750760E-002  -7.2501907486354697E-003   6.0760030944002785E-002
   2.7926696940321349E-002  -7.4500176675580815E-003   6.1646203796991025E-002
   2.2020309881604690E-002  -4.7096118235983239E-003   5.8649559426423706E-002
   2.1720153676333658E-002  -4.9986923483675109E-003   5.9468630212141799E-002
   2.1419997471062630E-002  -5.2413694279496107E-003   6.0351993683454327E-002
   2.1119841265791597E-002  -5.4376430623446440E-003   6.1299649840361167E-002
   2.0819685060520565E-002  -5.5875132515525450E-003   6.2311598682862311E-002
   1.4692006512932319E-002  -3.1397412165972659E-003   5.9058981969774507E-002
   1.4468062787691600E-002  -3.3324615665789436E-003   5.9916842163365534E-002
   1.4244119062450884E-002  -3.4942462863977739E-003   6.0862834631422821E-002
   1.4020175337210162E-002  -3.6250953760537906E-003   6.1896959373946382E-002
   1.3796231611969439E-002  -3.7250088355469876E-003   6.3019216390936203E-002
   7.3519032200218930E-003  -1.5698706095962269E-003   5.9572498595425009E-002
   7.2280115636834145E-003  -1.6662307847903476E-003   6.0453680381864584E-002
   7.1041199073449378E-003  -1.7471231448459583E-003   6.1446834031642431E-002
   6.9802282510064576E-003  -1.8125476897629788E-003   6.2551959544758423E-002
   6.8563365946679791E-003  -1.8625044195414268E-003   6.3769056921212666E-002
   2.8734289253540268E-012  -2.5951671367430151E-012   6.0190109303375157E-002
   4.3091146970097860E-012  -3.0017793806180748E-012   6.1079144867639101E-002
   5.7447996013038072E-012  -3.2940681432558350E-012   6.2103991884113155E-002
   7.1804840719169594E-012  -3.4721344722987713E-012   6.3264650352797380E-002
   8.6161702772535875E-012  -3.5358799221896220E-012   6.4561120273691666E-002
   2.7926696940321349E-002  -7.4500176675580815E-003   6.1646203796991025E-002
   2.7222533095071444E-002  -7.5720435603534655E-003   6.1373223125238685E-002
   2.6518369249821552E-002  -7.6003386611055886E-003   6.1329092083737317E-002
   2.5814205404571647E-002  -7.5349029698146526E-003   6.1513810672486874E-002
   2.5110041559321755E-002  -7.3757364864804609E-003   6.1927378891487445E-002
   2.0819685060520565E-002  -5.5875132515525450E-003   6.2311598682862311E-002
   2.0331168678291135E-002  -5.6790326711969943E-003   6.2190988718120670E-002
   1.9842652296061705E-002  -5.7002539969017926E-003   6.2272824049168937E-002
   1.9354135913832268E-002  -5.6511772286665912E-003   6.2557104676007197E-002
   1.8865619531602845E-002  -5.5318023664917837E-003   6.3043830598635373E-002
   1.3796231611969439E-002  -3.7250088355469876E-003   6.3019216390936203E-002
   1.3496958358299487E-002  -3.7860217820405752E-003   6.3027544435101723E-002
   1.3197685104629531E-002  -3.8001693326978007E-003   6.3211913440596249E-002
   1.2898411850959576E-002  -3.7674514875186541E-003   6.3572323407419778E-002
   1.2599138597289623E-002  -3.6878682465031204E-003   6.4108774335572216E-002
   6.8563365946679791E-003  -1.8625044195414268E-003   6.3769056921212666E-002
   6.7199021350965171E-003  -1.8930108928841578E-003   6.3882890276182019E-002
   6.5834676755250551E-003  -1.9000846684939206E-003   6.4146360258019397E-002
   6.4470332159535827E-003  -1.8837257463706965E-003   6.4559466866724813E-002
   6.3105987563821242E-003  -1.8439341265144363E-003   6.5122210102298198E-002
   8.6161702772535875E-012  -3.5358799221896220E-012   6.4561120273691666E-002
   8.6822077305370726E-012  -3.7276778885875217E-012   6.4757026241361482E-002
   8.7482521227144616E-012  -4.2900023811132115E-012   6.5076164501438327E-002
   8.8142939128066367E-012  -5.2226669169930240E-012   6.5518535053922217E-002
   8.8803339681753357E-012  -6.5257521608685920E-012   6.6084137898813095E-002
   2.5110041559321755E-002  -7.3757364864804609E-003   6.1927378891487445E-002
   2.4321949204833021E-002  -7.1696125849060738E-003   6.1705342837640925E-002
   2.3533856850344294E-002  -6.9633046388943784E-003   6.1659771736427074E-002
   2.2745764495855553E-002  -6.7568126484453799E-003   6.1790665587846079E-002
   2.1957672141366832E-002  -6.5501366135589656E-003   6.2098024391897877E-002
   1.8865619531602845E-002  -5.5318023664917837E-003   6.3043830598635373E-002
   1.8259131665489051E-002  -5.3772094422914751E-003   6.2805036211210918E-002
   1.7652643799375263E-002  -5.2224784879800409E-003   6.2752985847903647E-002
   1.7046155933261475E-002  -5.0676095035574516E-003   6.2887679508713365E-002
   1.6439668067147681E-002  -4.9126024890236430E-003   6.3209117193640363E-002
   1.2599138597289623E-002  -3.6878682465031204E-003   6.4108774335572216E-002
   1.2184534291035141E-002  -3.5848062996769250E-003   6.3853175600243783E-002
   1.1769929984780651E-002  -3.4816523370657625E-003   6.3794599960516757E-002
   1.1355325678526165E-002  -3.3784063586696353E-003   6.3933047416391220E-002
   1.0940721372271672E-002  -3.2750683644884870E-003   6.4268517967867117E-002
   6.3105987563821242E-003  -1.8439341265144363E-003   6.5122210102298198E-002
   6.0981570814712853E-003  -1.7924031570623923E-003   6.4849761004739506E-002
   5.8857154065604482E-003  -1.7408261861514545E-003   6.4784614074266569E-002
   5.6732737316496076E-003  -1.6892032137817907E-003   6.4926769310879429E-002
   5.4608320567387722E-003  -1.6375342399532755E-003   6.5276226714578250E-002
   8.8803339681753357E-012  -6.5257521608685920E-012   6.6084137898813095E-002
   3.6797499075591489E-011  -1.4447804064232628E-011   6.5794792424697907E-002
   6.4714662448284166E-011  -3.5237125717291207E-011   6.5723028189152974E-002
   9.2631828423062057E-011  -6.8893899266009306E-011   6.5868845192178144E-002
   1.2054899092839300E-010  -1.1541800848391404E-010   6.6232243433773541E-002
   2.1957672141366832E-002  -6.5501366135589656E-003   6.2098024391897877E-002
   2.1150890381065643E-002  -6.3310275066631450E-003   6.1759009868381398E-002
   2.0344108620764439E-002  -6.0872363001859831E-003   6.1633957140079576E-002
   1.9537326860463243E-002  -5.8187629941274382E-003   6.1722866206992466E-002
   1.8730545100162047E-002  -5.5256075884873024E-003   6.2025737069120124E-002
   1.6439668067147681E-002  -4.9126024890236430E-003   6.3209117193640363E-002
   1.5843781511474454E-002  -4.7482706696671678E-003   6.2907690298438110E-002
   1.5247894955801214E-002  -4.5654272707762872E-003   6.2814092017276973E-002
   1.4652008400127967E-002  -4.3640722923506785E-003   6.2928322350156884E-002
   1.4056121844454733E-002  -4.1442057343906713E-003   6.3250381297078134E-002
   1.0940721372271672E-002  -3.2750683644884870E-003   6.4268517967867117E-002
   1.0549596840052775E-002  -3.1655138326711629E-003   6.3998508180932140E-002
   1.0158472307833871E-002  -3.0436182413663138E-003   6.3930193826864740E-002
   9.7673477756149742E-003  -2.9093815905739187E-003   6.4063574905664750E-002
   9.3762232433960736E-003  -2.7628038802940957E-003   6.4398651417332420E-002
   5.4608320567387722E-003  -1.6375342399532755E-003   6.5276226714578250E-002
   5.2683363668006066E-003  -1.5827569956751164E-003   6.5031463515863600E-002
   5.0758406768624323E-003  -1.5218092119564236E-003   6.4982262568842930E-002
   4.8833449869242649E-003  -1.4546908887972700E-003   6.5128623873516006E-002
   4.6908492969860932E-003  -1.3814020261974924E-003   6.5470547429883258E-002
   1.2054899092839300E-010  -1.1541800848391404E-010   6.6232243433773541E-002
   9.1717931860468838E-011  -1.5867912539491158E-010   6.6006556303232267E-002
   6.2886881466162059E-011  -1.8254663058936416E-010   6.5970298243211350E-002
   3.4055828469770066E-011  -1.8702047896446139E-010   6.6123469253710723E-002
   5.2247720039311218E-012  -1.7210083358421002E-010   6.6466069334730316E-002
   1.8730545100162047E-002  -5.5256075884873024E-003   6.2025737069120124E-002
   1.7869040109586509E-002  -5.2252684868403232E-003   6.1810493202375916E-002
   1.7007535119010979E-002  -4.9352440927606656E-003   6.1796371024541136E-002
   1.6146030128435459E-002  -4.6555344062480172E-003   6.1983370535616061E-002
   1.5284525137859925E-002  -4.3861394273031484E-003   6.2371491735600526E-002
   1.4056121844454733E-002  -4.1442057343906713E-003   6.3250381297078134E-002
   1.3399302172394142E-002  -3.9189513983307334E-003   6.3024200349136916E-002
   1.2742482500333545E-002  -3.7014330856051658E-003   6.3006268349315844E-002
   1.2085662828272965E-002  -3.4916507962140103E-003   6.3196585297615099E-002
   1.1428843156212357E-002  -3.2896045301574195E-003   6.3595151194034638E-002
   9.3762232433960736E-003  -2.7628038802940957E-003   6.4398651417332420E-002
   8.9312161490610747E-003  -2.6126343098212684E-003   6.4164112072427254E-002
   8.4862090547260880E-003  -2.4676220784499020E-003   6.4144948934852897E-002
   8.0412019603910874E-003  -2.3277671861800069E-003   6.4341162004609459E-002
   7.5961948660561059E-003  -2.1930696330116350E-003   6.4752751281696969E-002
   4.6908492969860932E-003  -1.3814020261974924E-003   6.5470547429883258E-002
   4.4647820395873426E-003  -1.3063172213117411E-003   6.5230228372246971E-002
   4.2387147821885962E-003  -1.2338110712945757E-003   6.5212412781152168E-002
   4.0126475247898507E-003  -1.1638835761458906E-003   6.5417100656598962E-002
   3.7865802673911009E-003  -1.0965347358659894E-003   6.5844291998587268E-002
   5.2247720039311218E-012  -1.7210083358421002E-010   6.6466069334730316E-002
  -1.5602707667539129E-010  -1.3280221367040212E-010   6.6222549248595941E-002
  -3.1727891841581979E-010  -6.4139180078193192E-011   6.6208659888213756E-002
  -4.7853076189097177E-010   3.3888076372834419E-011   6.6424401253583717E-002
  -6.3978260883557070E-010   1.6127987834124724E-010   6.6869773344706118E-002
   1.5284525137859925E-002  -4.3861394273031484E-003   6.2371491735600526E-002
   1.4460630195534258E-002  -4.1030686342650724E-003   6.2144559742218275E-002
   1.3636735253208583E-002  -3.7823315054731632E-003   6.2116089054854218E-002
   1.2812840310882968E-002  -3.4239280409279274E-003   6.2286079673507966E-002
   1.1988945368557269E-002  -3.0278582406289001E-003   6.2654531598179908E-002
   1.1428843156212357E-002  -3.2896045301574195E-003   6.3595151194034638E-002
   1.0805287619081533E-002  -3.0773014080429095E-003   6.3426089026922428E-002
   1.0181732081950709E-002  -2.8367485504780521E-003   6.3459244364182044E-002
   9.5581765448198609E-003  -2.5679459574634161E-003   6.3694617205813112E-002
   8.9346210076890753E-003  -2.2708936289981274E-003   6.4132207551815812E-002
   7.5961948660561059E-003  -2.1930696330116350E-003   6.4752751281696969E-002
   7.1767349324737412E-003  -2.0515341818206634E-003   6.4632142340551479E-002
   6.7572749988913817E-003  -1.8911655954830381E-003   6.4717507102131075E-002
   6.3378150653090439E-003  -1.7119638739985683E-003   6.5008845566435963E-002
   5.9183551317266575E-003  -1.5139290173674658E-003   6.5506157733466241E-002
   3.7865802673911009E-003  -1.0965347358659894E-003   6.5844291998587268E-002
   3.5749721357108723E-003  -1.0257669555985699E-003   6.5762719683104931E-002
   3.3633640040306397E-003  -9.4558264048792001E-004   6.5890877268701464E-002
   3.1517558723503951E-003  -8.5598179053383329E-004   6.6228764755376798E-002
   2.9401477406701647E-003  -7.5696440573674861E-004   6.6776382143131141E-002
  -6.3978260883557070E-010   1.6127987834124724E-010   6.6869773344706118E-002
  -7.7120707042688252E-010   2.7062374563513458E-010   6.6817821054583337E-002
  -9.0263153548764130E-010   3.1450719806258576E-010   6.6979354863892893E-002
  -1.0340559918747827E-009   2.9293070746838623E-010   6.7354374772635284E-002
  -1.1654804621397119E-009   2.0589396854120423E-010   6.7942880780810455E-002
   4.2057243104798303E-013   0.0000000000000000        2.8441924840913284E-002
   6.5599001924931954E-013  -3.0882327944903309E-013   3.3402516634749482E-002
   8.9140912533369754E-013  -6.0340274443682063E-013   3.8369943103702210E-002
   1.1268270387956858E-012  -8.8372711926076875E-013   4.3344204247771460E-002
   1.3622458196194120E-012  -1.1498102817086853E-012   4.8325300066957219E-002
  -6.7996283342040900E-003   0.0000000000000000        2.8505924336124061E-002
  -6.8320979589509816E-003   1.4655175627215772E-004   3.3539844596039731E-002
  -6.8645675836978759E-003   3.3020904361361850E-004   3.8501990930874266E-002
  -6.8970372084447666E-003   5.5097186202438496E-004   4.3392363340627654E-002
  -6.9295068331916591E-003   8.0884021150445708E-004   4.8210961825299915E-002
  -1.3505176668192228E-002   0.0000000000000000        2.8697922822388294E-002
  -1.3648724518119094E-002   2.9310351285313915E-004   3.3842277079438488E-002
  -1.3792272368045956E-002   6.6041808783063802E-004   3.8836248811209888E-002
  -1.3935820217972824E-002   1.1019437249324988E-003   4.3679838017702484E-002
  -1.4079368067899688E-002   1.6176804241587179E-003   4.8373044698916269E-002
  -2.0116645001543844E-002   0.0000000000000000        2.9017920299705981E-002
  -2.0449879676848338E-002   4.3965526943412080E-004   3.4309814084945767E-002
  -2.0783114352152840E-002   9.9062713204765753E-004   3.9372716744709081E-002
  -2.1116349027457338E-002   1.6529155878406117E-003   4.4206628278995921E-002
  -2.1449583702761836E-002   2.4265206368129771E-003   4.8811548687806308E-002
  -2.6634033334258931E-002   0.0000000000000000        2.9465916768077118E-002
  -2.7235563435138724E-002   5.8620702601510245E-004   3.4942455612561533E-002
  -2.7837093536018521E-002   1.3208361762646770E-003   4.0111394731371833E-002
  -2.8438623636898318E-002   2.2038874507487281E-003   4.4972734124507988E-002
  -2.9040153737778112E-002   3.2353608494672444E-003   4.9526473791970026E-002
   1.3622458196194120E-012  -1.1498102817086853E-012   4.8325300066957219E-002
   1.7400417044732830E-012  -1.4343552387496850E-012   5.1493429955358196E-002
   2.1178373724867194E-012  -1.7701051128332645E-012   5.4526941457561519E-002
   2.4956340162821111E-012  -2.1570471645838973E-012   5.7425834573567175E-002
   2.8734289253540268E-012  -2.5951671367430151E-012   6.0190109303375157E-002
  -6.9295068331916591E-003   8.0884021150445708E-004   4.8210961825299915E-002
  -7.0351059285495262E-003   1.0637204473880439E-003   5.1166215724852027E-002
  -7.1407050239073898E-003   1.2755189250093447E-003   5.4044889819130484E-002
  -7.2463041192652611E-003   1.4442356443683945E-003   5.6846984108135282E-002
  -7.3519032146231230E-003   1.5698706054651512E-003   5.9572498591866405E-002
  -1.4079368067899688E-002   1.6176804241587179E-003   4.8373044698916269E-002
  -1.4232527678069214E-002   2.1274408962104461E-003   5.1072340851408458E-002
  -1.4385687288238747E-002   2.5510378517888087E-003   5.3753095779550980E-002
  -1.4538846898408276E-002   2.8884712908938464E-003   5.6415309483343813E-002
  -1.4692006508577805E-002   3.1397412135255078E-003   5.9058981962787034E-002
  -2.1449583702761836E-002   2.4265206368129771E-003   4.8811548687806308E-002
  -2.1592265246819033E-002   3.1911613450328396E-003   5.1211805335027470E-002
  -2.1734946790876227E-002   3.8265567785682828E-003   5.3651559338822985E-002
  -2.1877628334933421E-002   4.3327069374192893E-003   5.6130810699192811E-002
  -2.2020309878990618E-002   4.7096118215858591E-003   5.8649559416136990E-002
  -2.9040153737778112E-002   3.2353608494672444E-003   4.9526473791970026E-002
  -2.9114318634798974E-002   4.2548817938552535E-003   5.1584609175709104E-002
  -2.9188483531819832E-002   5.1020757053477240E-003   5.3740280496946513E-002
  -2.9262648428840694E-002   5.7769425839447504E-003   5.5993487755682268E-002
  -2.9336813325861556E-002   6.2794824296461896E-003   5.8344230951916341E-002
   2.8734289253540268E-012  -2.5951671367430151E-012   6.0190109303375157E-002
   4.3091146970097860E-012  -3.0017793806180748E-012   6.1079144867639101E-002
   5.7447996013038072E-012  -3.2940681432558350E-012   6.2103991884113155E-002
   7.1804840719169594E-012  -3.4721344722987713E-012   6.3264650352797380E-002
   8.6161702772535875E-012  -3.5358799221896220E-012   6.4561120273691666E-002
  -7.3519032146231230E-003   1.5698706054651512E-003   5.9572498591866405E-002
  -7.2280115555311318E-003   1.6662307800811536E-003   6.0453680377825891E-002
  -7.1041198964391355E-003   1.7471231399978360E-003   6.1446834026887866E-002
  -6.9802282373471417E-003   1.8125476852152399E-003   6.2551959539052293E-002
  -6.8563365782551514E-003   1.8625044157332959E-003   6.3769056914319278E-002
  -1.4692006508577805E-002   3.1397412135255078E-003   5.9058981962787034E-002
  -1.4468062780937143E-002   3.3324615631640728E-003   5.9916842155628466E-002
  -1.4244119053296474E-002   3.4942462832897687E-003   6.0862834622464758E-002
  -1.4020175325655812E-002   3.6250953739025591E-003   6.1896959363295902E-002
  -1.3796231598015143E-002   3.7250088350024926E-003   6.3019216378121884E-002
  -2.2020309878990618E-002   4.7096118215858591E-003   5.8649559416136990E-002
  -2.1720153671908920E-002   4.9986923462469988E-003   5.9468630201046840E-002
  -2.1419997464827215E-002   5.2413694265816737E-003   6.0351993670843859E-002
  -2.1119841257745509E-002   5.4376430625899053E-003   6.1299649825528116E-002
  -2.0819685050663821E-002   5.5875132542716789E-003   6.2311598665099624E-002
  -2.9336813325861556E-002   6.2794824296461896E-003   5.8344230951916341E-002
  -2.8984284228446462E-002   6.6649231293299180E-003   5.9109044514080979E-002
  -2.8631755131031361E-002   6.9884925698736177E-003   5.9914311172025198E-002
  -2.8279226033616260E-002   7.2501907512772489E-003   6.0760030925748998E-002
  -2.7926696936201166E-002   7.4500176735408791E-003   6.1646203775252387E-002
   8.6161702772535875E-012  -3.5358799221896220E-012   6.4561120273691666E-002
   8.6822077305370726E-012  -3.7276778885875217E-012   6.4757026241361482E-002
   8.7482521227144616E-012  -4.2900023811132115E-012   6.5076164501438327E-002
   8.8142939128066367E-012  -5.2226669169930240E-012   6.5518535053922217E-002
   8.8803339681753357E-012  -6.5257521608685920E-012   6.6084137898813095E-002
  -6.8563365782551514E-003   1.8625044157332959E-003   6.3769056914319278E-002
  -6.7199021192311768E-003   1.8930108902623088E-003   6.3882890266826697E-002
  -6.5834676602072144E-003   1.9000846675125069E-003   6.4146360244842965E-002
  -6.4470332011832485E-003   1.8837257474838120E-003   6.4559466848368094E-002
  -6.3105987421592773E-003   1.8439341301762502E-003   6.5122210077402071E-002
  -1.3796231598015143E-002   3.7250088350024926E-003   6.3019216378121884E-002
  -1.3496958346931414E-002   3.7860217842523615E-003   6.3027544418558540E-002
  -1.3197685095847688E-002   3.8001693393149346E-003   6.3211913417605806E-002
  -1.2898411844763962E-002   3.7674515001902497E-003   6.3572323375263765E-002
  -1.2599138593680233E-002   3.6878682668782942E-003   6.4108774291532444E-002
  -2.0819685050663821E-002   5.5875132542716789E-003   6.2311598665099624E-002
  -2.0331168674418500E-002   5.6790326782423812E-003   6.2190988696556981E-002
  -1.9842652298173183E-002   5.7002540111174308E-003   6.2272824019726870E-002
  -1.9354135921927869E-002   5.6511772528967082E-003   6.2557104634609284E-002
  -1.8865619545682551E-002   5.5318024035803035E-003   6.3043830541204132E-002
  -2.7926696936201166E-002   7.4500176735408791E-003   6.1646203775252387E-002
  -2.7222533101692432E-002   7.5720435722324425E-003   6.1373223100822064E-002
  -2.6518369267183692E-002   7.6003386829198959E-003   6.1329092051206159E-002
  -2.5814205432674958E-002   7.5349030056032140E-003   6.1513810626404541E-002
  -2.5110041598166218E-002   7.3757365402823682E-003   6.1927378826417273E-002
   8.8803339681753357E-012  -6.5257521608685920E-012   6.6084137898813095E-002
   3.6797499075591489E-011  -1.4447804064232628E-011   6.5794792424697907E-002
   6.4714662448284166E-011  -3.5237125717291207E-011   6.5723028189152974E-002
   9.2631828423062057E-011  -6.8893899266009306E-011   6.5868845192178144E-002
   1.2054899092839300E-010  -1.1541800848391404E-010   6.6232243433773541E-002
  -6.3105987421592773E-003   1.8439341301762502E-003   6.5122210077402071E-002
  -6.0981570126472581E-003   1.7924031513842920E-003   6.4849760946551566E-002
  -5.8857152831352450E-003   1.7408261469022690E-003   6.4784613980320524E-002
  -5.6732735536232301E-003   1.6892031167302576E-003   6.4926769178709015E-002
  -5.4608318241112126E-003   1.6375340608681399E-003   6.5276226541717108E-002
  -1.2599138593680233E-002   3.6878682668782942E-003   6.4108774291532444E-002
  -1.2184534236524025E-002   3.5848063172163463E-003   6.3853175491123848E-002
  -1.1769929879367815E-002   3.4816523290416949E-003   6.3794599781384118E-002
  -1.1355325522211600E-002   3.3784063023544154E-003   6.3933047162313267E-002
  -1.0940721165055386E-002   3.2750682371543438E-003   6.4268517633911212E-002
  -1.8865619545682551E-002   5.5318024035803035E-003   6.3043830541204132E-002
  -1.8259131634832799E-002   5.3772094830484771E-003   6.2805036058414893E-002
  -1.7652643723983039E-002   5.2224785111811885E-003   6.2752985592343810E-002
  -1.7046155813133287E-002   5.0676094879786009E-003   6.2887679142990940E-002
  -1.6439667902283527E-002   4.9126024134406032E-003   6.3209116710356394E-002
  -2.5110041598166218E-002   7.3757365402823682E-003   6.1927378826417273E-002
  -2.4321949207573582E-002   7.1696126488805245E-003   6.1705342648424588E-002
  -2.3533856816980926E-002   6.9633046933204809E-003   6.1659771413199463E-002
  -2.2745764426388280E-002   6.7568126736027769E-003   6.1790665120741946E-002
  -2.1957672035795635E-002   6.5501365897267516E-003   6.2098023771052002E-002
   1.2054899092839300E-010  -1.1541800848391404E-010   6.6232243433773541E-002
   9.1717931860468838E-011  -1.5867912539491158E-010   6.6006556303232267E-002
   6.2886881466162059E-011  -1.8254663058936416E-010   6.5970298243211350E-002
   3.4055828469770066E-011  -1.8702047896446139E-010   6.6123469253710723E-002
   5.2247720039311218E-012  -1.7210083358421002E-010   6.6466069334730316E-002
  -5.4608318241112126E-003   1.6375340608681399E-003   6.5276226541717108E-002
  -5.2683361884648446E-003   1.5827567372437151E-003   6.5031463363628375E-002
  -5.0758405528184784E-003   1.5218089037844912E-003   6.4982262443974231E-002
  -4.8833449171721130E-003   1.4546905604906034E-003   6.5128623782754594E-002
  -4.6908492815257441E-003   1.3814017073617846E-003   6.5470547379969490E-002
  -1.0940721165055386E-002   3.2750682371543438E-003   6.4268517633911212E-002
  -1.0549596677017371E-002   3.1655136331664446E-003   6.3998507879046901E-002
  -1.0158472188979353E-002   3.0436179901155505E-003   6.3930193570531202E-002
  -9.7673477009413336E-003   2.9093813080015175E-003   6.4063574708364310E-002
  -9.3762232129033125E-003   2.7628035868245415E-003   6.4398651292546141E-002
  -1.6439667902283527E-002   4.9126024134406032E-003   6.3209116710356394E-002
  -1.5843781373939637E-002   4.7482705290892852E-003   6.2907689849487830E-002
  -1.5247894845595735E-002   4.5654270764466966E-003   6.2814091622882304E-002
  -1.4652008317251834E-002   4.3640720555125434E-003   6.2928322030539871E-002
  -1.4056121788907949E-002   4.1442054662872568E-003   6.3250381072460324E-002
  -2.1957672035795635E-002   6.5501365897267516E-003   6.2098023771052002E-002
  -2.1150890279231636E-002   6.3310274250119869E-003   6.1759009274951149E-002
  -2.0344108522667635E-002   6.0872361627777177E-003   6.1633956601027579E-002
  -1.9537326766103619E-002   5.8187628030235104E-003   6.1722865749281167E-002
  -1.8730545009539627E-002   5.5256073457499166E-003   6.2025736719712010E-002
   5.2247720039311218E-012  -1.7210083358421002E-010   6.6466069334730316E-002
  -1.5602707667539129E-010  -1.3280221367040212E-010   6.6222549248595941E-002
  -3.1727891841581979E-010  -6.4139180078193192E-011   6.6208659888213756E-002
  -4.7853076189097177E-010   3.3888076372834419E-011   6.6424401253583717E-002
  -6.3978260883557070E-010   1.6127987834124724E-010   6.6869773344706118E-002
  -4.6908492815257441E-003   1.3814017073617846E-003   6.5470547379969490E-002
  -4.4647823341978192E-003   1.3063169538562458E-003   6.5230228401258167E-002
  -4.2387153868699116E-003   1.2338109094316430E-003   6.5212412913954160E-002
  -4.0126484395419954E-003   1.1638835740878650E-003   6.5417100918057511E-002
  -3.7865814922140723E-003   1.0965349478248010E-003   6.5844292413567929E-002
  -9.3762232129033125E-003   2.7628035868245415E-003   6.4398651292546141E-002
  -8.9312163913405629E-003   2.6126340405147053E-003   6.4164112100974391E-002
  -8.4862095697778306E-003   2.4676218830023480E-003   6.4144949166465154E-002
  -8.0412027482150809E-003   2.3277671142874299E-003   6.4341162489018194E-002
  -7.5961959266523469E-003   2.1930697343699457E-003   6.4752752068633596E-002
  -1.4056121788907949E-002   4.1442054662872568E-003   6.3250381072460324E-002
  -1.3399302327455299E-002   3.9189511271730537E-003   6.3024200347744849E-002
  -1.2742482866002670E-002   3.7014328565731676E-003   6.3006268645746724E-002
  -1.2085663404550024E-002   3.4916506544871067E-003   6.3196585966466115E-002
  -1.1428843943097396E-002   3.2896045209148683E-003   6.3595152309902883E-002
  -1.8730545009539627E-002   5.5256073457499166E-003   6.2025736719712010E-002
  -1.7869040142542033E-002   5.2252682138317352E-003   6.1810493141569278E-002
  -1.7007535275544432E-002   4.9352438301439039E-003   6.1796371351798912E-002
  -1.6146030408546834E-002   4.6555341946868459E-003   6.1983371350401051E-002
  -1.5284525541549243E-002   4.3861393074601240E-003   6.2371493137375777E-002
  -6.3978260883557070E-010   1.6127987834124724E-010   6.6869773344706118E-002
  -7.7120707042688252E-010   2.7062374563513458E-010   6.6817821054583337E-002
  -9.0263153548764130E-010   3.1450719806258576E-010   6.6979354863892893E-002
  -1.0340559918747827E-009   2.9293070746838623E-010   6.7354374772635284E-002
  -1.1654804621397119E-009   2.0589396854120423E-010   6.7942880780810455E-002
  -3.7865814922140723E-003   1.0965349478248010E-003   6.5844292413567929E-002
  -3.5749736158008725E-003   1.0257673620651386E-003   6.5762720103076017E-002
  -3.3633657393876727E-003   9.4558314823092737E-004   6.5890877708827067E-002
  -3.1517578629744834E-003   8.5598230632236844E-004   6.6228765230820608E-002
  -2.9401499865612871E-003   7.5696483633924672E-004   6.6776382669057166E-002
  -7.5961959266523469E-003   2.1930697343699457E-003   6.4752752068633596E-002
  -7.1767362255913264E-003   2.0515344535066982E-003   6.4632143175158391E-002
  -6.7572765245303068E-003   1.8911659819547677E-003   6.4717508014736122E-002
  -6.3378168234693097E-003   1.7119643197140572E-003   6.5008846587366692E-002
  -5.9183571224082666E-003   1.5139294667845249E-003   6.5506158893050337E-002
  -1.1428843943097396E-002   3.2896045209148683E-003   6.3595152309902883E-002
  -1.0805288600578432E-002   3.0773015449483410E-003   6.3426090270830071E-002
  -1.0181733258059452E-002   2.8367488156785525E-003   6.3459245781620210E-002
  -9.5581779155405073E-003   2.5679463331056210E-003   6.3694618842273454E-002
  -8.9346225730215223E-003   2.2708940972298031E-003   6.4132209452789746E-002
  -1.5284525541549243E-002   4.3861393074601240E-003   6.2371493137375777E-002
  -1.4460630740762190E-002   4.1030686363897617E-003   6.2144561390091058E-002
  -1.3636735939975112E-002   3.7823316494023373E-003   6.2116091009479402E-002
  -1.2812841139188036E-002   3.4239283464974624E-003   6.2286081995541004E-002
  -1.1988946338400988E-002   3.0278587276750812E-003   6.2654534348275615E-002
  -2.6634033334258931E-002   0.0000000000000000        2.9465916768077118E-002
  -2.7235563435138724E-002   5.8620702601510245E-004   3.4942455612561533E-002
  -2.7837093536018521E-002   1.3208361762646770E-003   4.0111394731371833E-002
  -2.8438623636898318E-002   2.2038874507487281E-003   4.4972734124507988E-002
  -2.9040153737778112E-002   3.2353608494672444E-003   4.9526473791970026E-002
  -3.3394280185013538E-002   0.0000000000000000        3.0176573274256900E-002
  -3.4238278769819566E-002   9.6106616197807072E-004   3.5264406499407278E-002
  -3.5082277354625595E-002   2.0256305509889008E-003   4.0174902482379322E-002
  -3.5926275939431623E-002   3.1936931670324903E-003   4.4908061223173014E-002
  -3.6770274524237638E-002   4.4652540101088357E-003   4.9463882721788380E-002
  -4.0734324072483681E-002   0.0000000000000000        3.1284550865000503E-002
  -4.1690528657720154E-002   1.3359252979410420E-003   3.5938754573615124E-002
  -4.2646733242956640E-002   2.7304249257131255E-003   4.0545883523547203E-002
  -4.3602937828193106E-002   4.1834988833162560E-003   4.5105937714796741E-002
  -4.4559142413429578E-002   5.6951471707504244E-003   4.9618917147363682E-002
  -4.8654164996669386E-002   0.0000000000000000        3.2789849540307940E-002
  -4.9592313098840511E-002   1.7107844339040105E-003   3.6965499835185094E-002
  -5.0530461201011651E-002   3.4352193004373519E-003   4.1224337854875490E-002
  -5.1468609303182783E-002   5.1733045996000199E-003   4.5566363599379107E-002
  -5.2406757405353901E-002   6.9250403313920149E-003   4.9991577068696003E-002
  -5.7153802957570624E-002   0.0000000000000000        3.4692469300179198E-002
  -5.7943632093180625E-002   2.0856435698669807E-003   3.8344642284117172E-002
  -5.8733461228790633E-002   4.1400136751615739E-003   4.2210265476364174E-002
  -5.9523290364400634E-002   6.1631103158837856E-003   4.6289338876920195E-002
  -6.0313119500010628E-002   8.1549334920336027E-003   5.0581862485785244E-002
  -2.9040153737778112E-002   3.2353608494672444E-003   4.9526473791970026E-002
  -2.9114318634798974E-002   4.2548817938552535E-003   5.1584609175709104E-002
  -2.9188483531819832E-002   5.1020757053477240E-003   5.3740280496946513E-002
  -2.9262648428840694E-002   5.7769425839447504E-003   5.5993487755682268E-002
  -2.9336813325861556E-002   6.2794824296461896E-003   5.8344230951916341E-002
  -3.6770274524237638E-002   4.4652540101088357E-003   4.9463882721788380E-002
  -3.6785624912650638E-002   5.6998734270622946E-003   5.1249695517817578E-002
  -3.6800975301063632E-002   6.7571117647372255E-003   5.3055601393564189E-002
  -3.6816325689476632E-002   7.6369690231336369E-003   5.4881600349028191E-002
  -3.6831676077889612E-002   8.3394452022515150E-003   5.6727692384209598E-002
  -4.4559142413429578E-002   5.6951471707504244E-003   4.9618917147363682E-002
  -4.4593121151015630E-002   7.1448650602693418E-003   5.1127353309299996E-002
  -4.4627099888601682E-002   8.4121478241267131E-003   5.2578439693172795E-002
  -4.4661078626187727E-002   9.4969954623225442E-003   5.3972176298982030E-002
  -4.4695057363773778E-002   1.0399407974856823E-002   5.5308563126727772E-002
  -5.2406757405353901E-002   6.9250403313920149E-003   4.9991577068696003E-002
  -5.2536807349893952E-002   8.5898566934763856E-003   5.1217582550156376E-002
  -5.2666857294433982E-002   1.0067183883516219E-002   5.2308795395772302E-002
  -5.2796907238974018E-002   1.1357021901511442E-002   5.3265215605543786E-002
  -5.2926957183514055E-002   1.2459370747462119E-002   5.4086843179470788E-002
  -6.0313119500010628E-002   8.1549334920336027E-003   5.0581862485785244E-002
  -6.0616683509285584E-002   1.0034848326683426E-002   5.1520383240386686E-002
  -6.0920247518560532E-002   1.1722219942905685E-002   5.2246668501362746E-002
  -6.1223811527835501E-002   1.3217048340700347E-002   5.2760718268713459E-002
  -6.1527375537110435E-002   1.4519333520067443E-002   5.3062532542438742E-002
  -2.9336813325861556E-002   6.2794824296461896E-003   5.8344230951916341E-002
  -2.8984284228446462E-002   6.6649231293299180E-003   5.9109044514080979E-002
  -2.8631755131031361E-002   6.9884925698736177E-003   5.9914311172025198E-002
  -2.8279226033616260E-002   7.2501907512772489E-003   6.0760030925748998E-002
  -2.7926696936201166E-002   7.4500176735408791E-003   6.1646203775252387E-002
  -3.6831676077889612E-002   8.3394452022515150E-003   5.6727692384209598E-002
  -3.6388136726804951E-002   8.8806212752396765E-003   5.7070999374347654E-002
  -3.5944597375720269E-002   9.2765782152468158E-003   5.7555873776045235E-002
  -3.5501058024635601E-002   9.5273160222730836E-003   5.8182315589302383E-002
  -3.5057518673550933E-002   9.6328346963182737E-003   5.8950324814119132E-002
  -4.4695057363773778E-002   1.0399407974856823E-002   5.5308563126727772E-002
  -4.4059393443239538E-002   1.1096319421149383E-002   5.5147015670998251E-002
  -4.3423729522705318E-002   1.1564663860620043E-002   5.5228149942608294E-002
  -4.2788065602171091E-002   1.1804441293268851E-002   5.5551965941557896E-002
  -4.2152401681636864E-002   1.1815651719095717E-002   5.6118463667847007E-002
  -5.2926957183514055E-002   1.2459370747462119E-002   5.4086843179470788E-002
  -5.1998054377750277E-002   1.3312017567059116E-002   5.3337093404032844E-002
  -5.1069151571986521E-002   1.3852749505993255E-002   5.2931139671714394E-002
  -5.0140248766222743E-002   1.4081566564264595E-002   5.2868981982515474E-002
  -4.9211345960458980E-002   1.3998468741873136E-002   5.3150620336436111E-002
  -6.1527375537110435E-002   1.4519333520067443E-002   5.3062532542438742E-002
  -6.0204119530337136E-002   1.5527715712968848E-002   5.1641232573451365E-002
  -5.8880863523563837E-002   1.6140835151366471E-002   5.0664842963363509E-002
  -5.7557607516790538E-002   1.6358691835260446E-002   5.0133363712175180E-002
  -5.6234351510017246E-002   1.6181285764650555E-002   5.0046794819886331E-002
  -2.7926696936201166E-002   7.4500176735408791E-003   6.1646203775252387E-002
  -2.7222533101692432E-002   7.5720435722324425E-003   6.1373223100822064E-002
  -2.6518369267183692E-002   7.6003386829198959E-003   6.1329092051206159E-002
  -2.5814205432674958E-002   7.5349030056032140E-003   6.1513810626404541E-002
  -2.5110041598166218E-002   7.3757365402823682E-003   6.1927378826417273E-002
  -3.5057518673550933E-002   9.6328346963182737E-003   5.8950324814119132E-002
  -3.4131713713261493E-002   9.6330521848794551E-003   5.8626517356923404E-002
  -3.3205908752972045E-002   9.5678864354534800E-003   5.8517142526474754E-002
  -3.2280103792682591E-002   9.4373374480402894E-003   5.8622200322773155E-002
  -3.1354298832393157E-002   9.2414052226399979E-003   5.8941690745818648E-002
  -4.2152401681636864E-002   1.1815651719095717E-002   5.6118463667847007E-002
  -4.1019372593633988E-002   1.1694060797526516E-002   5.5772176977902779E-002
  -3.9886343505631076E-002   1.1535434187987149E-002   5.5625905916638393E-002
  -3.8753314417628193E-002   1.1339771890477465E-002   5.5679650484053850E-002
  -3.7620285329625289E-002   1.1107073904997669E-002   5.5933410680149113E-002
  -4.9211345960458980E-002   1.3998468741873136E-002   5.3150620336436111E-002
  -4.7885509742809883E-002   1.3755069410173595E-002   5.2810201963760330E-002
  -4.6559673525160786E-002   1.3502981940520777E-002   5.2655382221697127E-002
  -4.5233837307511675E-002   1.3242206332914673E-002   5.2686161110246495E-002
  -4.3908001089862612E-002   1.2972742587355306E-002   5.2902538629408392E-002
  -5.6234351510017246E-002   1.6181285764650555E-002   5.0046794819886331E-002
  -5.4730125160789199E-002   1.5816078022820569E-002   4.9740592314495929E-002
  -5.3225898811561173E-002   1.5470529693054423E-002   4.9605571441650939E-002
  -5.1721672462333140E-002   1.5144640775351761E-002   4.9641732201351187E-002
  -5.0217446113105094E-002   1.4838411269712942E-002   4.9849074593596748E-002
  -2.5110041598166218E-002   7.3757365402823682E-003   6.1927378826417273E-002
  -2.4321949207573582E-002   7.1696126488805245E-003   6.1705342648424588E-002
  -2.3533856816980926E-002   6.9633046933204809E-003   6.1659771413199463E-002
  -2.2745764426388280E-002   6.7568126736027769E-003   6.1790665120741946E-002
  -2.1957672035795635E-002   6.5501365897267516E-003   6.2098023771052002E-002
  -3.1354298832393157E-002   9.2414052226399979E-003   5.8941690745818648E-002
  -3.0383024972680903E-002   9.0046075509063461E-003   5.8696375971754144E-002
  -2.9411751112968648E-002   8.7514622244931062E-003   5.8640959193161160E-002
  -2.8440477253256394E-002   8.4819692434004654E-003   5.8775440410039965E-002
  -2.7469203393544132E-002   8.1961286076282502E-003   5.9099819622390248E-002
  -3.7620285329625289E-002   1.1107073904997669E-002   5.5933410680149113E-002
  -3.6452396948089341E-002   1.0839602452932154E-002   5.5648653719491098E-002
  -3.5284508566553394E-002   1.0539619755665679E-002   5.5567227807008873E-002
  -3.4116620185017453E-002   1.0207125813198183E-002   5.5689132942702370E-002
  -3.2948731803481505E-002   9.8421206255296101E-003   5.6014369126571623E-002
  -4.3908001089862612E-002   1.2972742587355306E-002   5.2902538629408392E-002
  -4.2530065133798881E-002   1.2674597354958010E-002   5.2562175891635525E-002
  -4.1152129177735156E-002   1.2327777286838195E-002   5.2438577254742380E-002
  -3.9774193221671438E-002   1.1932282382995941E-002   5.2531742718729214E-002
  -3.8396257265607699E-002   1.1488112643431067E-002   5.2841672283595736E-002
  -5.0217446113105094E-002   1.4838411269712942E-002   4.9849074593596748E-002
  -4.8616029529809549E-002   1.4509592256983783E-002   4.9436942488187419E-002
  -4.7014612946513941E-002   1.4115934818010829E-002   4.9255007536361986E-002
  -4.5413196363218361E-002   1.3657438952793631E-002   4.9303269738120499E-002
  -4.3811779779922774E-002   1.3134104661332413E-002   4.9581729093462867E-002
  -2.1957672035795635E-002   6.5501365897267516E-003   6.2098023771052002E-002
  -2.1150890279231636E-002   6.3310274250119869E-003   6.1759009274951149E-002
  -2.0344108522667635E-002   6.0872361627777177E-003   6.1633956601027579E-002
  -1.9537326766103619E-002   5.8187628030235104E-003   6.1722865749281167E-002
  -1.8730545009539627E-002   5.5256073457499166E-003   6.2025736719712010E-002
  -2.7469203393544132E-002   8.1961286076282502E-003   5.9099819622390248E-002
  -2.6453998484202709E-002   7.8967714744416218E-003   5.8769585685866488E-002
  -2.5438793574861260E-002   7.5867290011060046E-003   5.8642236232720288E-002
  -2.4423588665519816E-002   7.2660011876210760E-003   5.8717771262951808E-002
  -2.3408383756178357E-002   6.9345880339871657E-003   5.8996190776560986E-002
  -3.2948731803481505E-002   9.8421206255296101E-003   5.6014369126571623E-002
  -3.1736181080162157E-002   9.4625155238712705E-003   5.5706912506995221E-002
  -3.0523630356842805E-002   9.0862218394342983E-003   5.5591263031996956E-002
  -2.9311079633523470E-002   8.7132395722185878E-003   5.5667420701576764E-002
  -2.8098528910204108E-002   8.3435687222242483E-003   5.5935385515734848E-002
  -3.8396257265607699E-002   1.1488112643431067E-002   5.2841672283595736E-002
  -3.6997438067110013E-002   1.1028259573300940E-002   5.2570989738337251E-002
  -3.5598618868612299E-002   1.0585714677762561E-002   5.2481036998857575E-002
  -3.4199799670114599E-002   1.0160477956816100E-002   5.2571814065156312E-002
  -3.2800980471616899E-002   9.7525494104614141E-003   5.2843320937233811E-002
  -4.3811779779922774E-002   1.3134104661332413E-002   4.9581729093462867E-002
  -4.2237769445046230E-002   1.2594003622730610E-002   4.9361817379892925E-002
  -4.0663759110169721E-002   1.2085207516090837E-002   4.9311558133302097E-002
  -3.9089748775293212E-002   1.1607716341413683E-002   4.9430951353690245E-002
  -3.7515738440416668E-002   1.1161530098698580E-002   4.9719997041057507E-002
  -1.8730545009539627E-002   5.5256073457499166E-003   6.2025736719712010E-002
  -1.7869040142542033E-002   5.2252682138317352E-003   6.1810493141569278E-002
  -1.7007535275544432E-002   4.9352438301439039E-003   6.1796371351798912E-002
  -1.6146030408546834E-002   4.6555341946868459E-003   6.1983371350401051E-002
  -1.5284525541549243E-002   4.3861393074601240E-003   6.2371493137375777E-002
  -2.3408383756178357E-002   6.9345880339871657E-003   5.8996190776560986E-002
  -2.2345063260476465E-002   6.5944233035327426E-003   5.8771083098732552E-002
  -2.1281742764774604E-002   6.2474407595871362E-003   5.8748484889940222E-002
  -2.0218422269072712E-002   5.8936404021499508E-003   5.8928396150183818E-002
  -1.9155101773370823E-002   5.5330222312214294E-003   5.9310816879463713E-002
  -2.8098528910204108E-002   8.3435687222242483E-003   5.5935385515734848E-002
  -2.6832005105134317E-002   7.9635783932339166E-003   5.5683281176498831E-002
  -2.5565481300064564E-002   7.5596376890301881E-003   5.5635073986962352E-002
  -2.4298957494994822E-002   7.1317466096132744E-003   5.5790763947125670E-002
  -2.3032433689925025E-002   6.6799051549827904E-003   5.6150351056988540E-002
  -3.2800980471616899E-002   9.7525494104614141E-003   5.2843320937233811E-002
  -3.1329865676515668E-002   9.3327334829351183E-003   5.2547087374868094E-002
  -2.9858750881414417E-002   8.8718346184733302E-003   5.2456138642865746E-002
  -2.8387636086313162E-002   8.3698528170763776E-003   5.2570474741226635E-002
  -2.6916521291211935E-002   7.8267880787440680E-003   5.2890095669950843E-002
  -3.7515738440416668E-002   1.1161530098698580E-002   4.9719997041057507E-002
  -3.5838644974620359E-002   1.0701888572636098E-002   4.9362501693840322E-002
  -3.4161551508824065E-002   1.0184031547916444E-002   4.9211678857650099E-002
  -3.2484458043027763E-002   9.6079590245396404E-003   4.9267528532486643E-002
  -3.0807364577231447E-002   8.9736710025055677E-003   4.9530050718350260E-002
  -1.5284525541549243E-002   4.3861393074601240E-003   6.2371493137375777E-002
  -1.4460630740762190E-002   4.1030686363897617E-003   6.2144561390091058E-002
  -1.3636735939975112E-002   3.7823316494023373E-003   6.2116091009479402E-002
  -1.2812841139188036E-002   3.4239283464974624E-003   6.2286081995541004E-002
  -1.1988946338400988E-002   3.0278587276750812E-003   6.2654534348275615E-002
  -1.9155101773370823E-002   5.5330222312214294E-003   5.9310816879463713E-002
  -1.8126567340792179E-002   5.1637947338369350E-003   5.9059274134895701E-002
  -1.7098032908213517E-002   4.7841663970320525E-003   5.9018549287237765E-002
  -1.6069498475634873E-002   4.3941372208071705E-003   5.9188642336489961E-002
  -1.5040964043056222E-002   3.9937072051616784E-003   5.9569553282652010E-002
  -2.3032433689925025E-002   6.6799051549827904E-003   5.6150351056988540E-002
  -2.1786903095318014E-002   6.2245208312840528E-003   5.5901462791634715E-002
  -2.0541372500710958E-002   5.7860011446619897E-003   5.5875748953427604E-002
  -1.9295841906103894E-002   5.3643460951168509E-003   5.6073209542367178E-002
  -1.8050311311496887E-002   4.9595556826482756E-003   5.6493844558453743E-002
  -2.6916521291211935E-002   7.8267880787440680E-003   5.2890095669950843E-002
  -2.5441638004339653E-002   7.2852469287310317E-003   5.2671127360307921E-002
  -2.3966754717467384E-002   6.7878358922918158E-003   5.2687690008048529E-002
  -2.2491871430595139E-002   6.3345549694266562E-003   5.2939783613172954E-002
  -2.1016988143722860E-002   5.9254041601348728E-003   5.3427408175680521E-002
  -3.0807364577231447E-002   8.9736710025055677E-003   4.9530050718350260E-002
  -2.9090772067857165E-002   8.3459730261783438E-003   4.9368267840915303E-002
  -2.7374179558482835E-002   7.7896706399216420E-003   4.9454372451100848E-002
  -2.5657587049108536E-002   7.3047638437363227E-003   4.9788364548906866E-002
  -2.3940994539734251E-002   6.8912526376214700E-003   5.0370244134333442E-002
  -5.7153802957570624E-002   0.0000000000000000        3.4692469300179198E-002
  -5.7943632093180625E-002   2.0856435698669807E-003   3.8344642284117172E-002
  -5.8733461228790633E-002   4.1400136751615739E-003   4.2210265476364174E-002
  -5.9523290364400634E-002   6.1631103158837856E-003   4.6289338876920195E-002
  -6.0313119500010628E-002   8.1549334920336027E-003   5.0581862485785244E-002
  -6.5821371663524295E-002   0.0000000000000000        3.7215255631007256E-002
  -6.6626799394944120E-002   2.9153910783481472E-003   4.0837777343996108E-002
  -6.7432227126363931E-002   5.7729795943867179E-003   4.4215651657056328E-002
  -6.8237654857783728E-002   8.5727655481157121E-003   4.7348878570187901E-002
  -6.9043082589203553E-002   1.1314748939535140E-002   5.0237458083390807E-002
  -7.4245004822867250E-002   0.0000000000000000        4.0581054019185075E-002
  -7.5524128758334572E-002   3.7451385868293124E-003   4.4147395363487635E-002
  -7.6803252693801852E-002   7.4059455136118602E-003   4.7010991699623868E-002
  -7.8082376629269146E-002   1.0982420780347640E-002   4.9171843027593795E-002
  -7.9361500564736454E-002   1.4474564387036658E-002   5.0629949347397382E-002
  -8.2424702435599517E-002   0.0000000000000000        4.4789864464712642E-002
  -8.4635620183351981E-002   4.5748860953104776E-003   4.8273496342591704E-002
  -8.6846537931104445E-002   9.0389114328370025E-003   5.0596285604066787E-002
  -8.9057455678856881E-002   1.3392076012579577E-002   5.1758232249137878E-002
  -9.1268373426609359E-002   1.7634379834538191E-002   5.1759336277804949E-002
  -9.0360464501721055E-002   0.0000000000000000        4.9841686967589977E-002
  -9.3961273669996348E-002   5.4046336037916441E-003   5.3216080281308371E-002
  -9.7562082838271641E-002   1.0671877352062147E-002   5.4971533370385101E-002
 -0.10116289200654693        1.5801731244811497E-002   5.5108046234820150E-002
 -0.10476370117482220        2.0794195282039712E-002   5.3625618874613541E-002
  -6.0313119500010628E-002   8.1549334920336027E-003   5.0581862485785244E-002
  -6.0616683509285584E-002   1.0034848326683426E-002   5.1520383240386686E-002
  -6.0920247518560532E-002   1.1722219942905685E-002   5.2246668501362746E-002
  -6.1223811527835501E-002   1.3217048340700347E-002   5.2760718268713459E-002
  -6.1527375537110435E-002   1.4519333520067443E-002   5.3062532542438742E-002
  -6.9043082589203553E-002   1.1314748939535140E-002   5.0237458083390807E-002
  -6.9320929468007761E-002   1.3760238640714120E-002   4.9461612557448957E-002
  -6.9598776346811969E-002   1.5670543523721825E-002   4.8949436786073955E-002
  -6.9876623225616191E-002   1.7045663588558281E-002   4.8700930769265807E-002
  -7.0154470104420386E-002   1.7885598835223407E-002   4.8716094507024549E-002
  -7.9361500564736454E-002   1.4474564387036658E-002   5.0629949347397382E-002
  -7.9137725064877706E-002   1.7485628954744800E-002   4.7797095941168544E-002
  -7.8913949565018932E-002   1.9618867104537963E-002   4.5703817537698782E-002
  -7.8690174065160171E-002   2.0874278836416158E-002   4.4350114136988111E-002
  -7.8466398565301423E-002   2.1251864150379378E-002   4.3735985739036531E-002
  -9.1268373426609359E-002   1.7634379834538191E-002   5.1759336277804949E-002
  -9.0067070299895385E-002   2.1211019268775493E-002   4.6526833391545397E-002
  -8.8865767173181398E-002   2.3567190685354126E-002   4.2509810756237207E-002
  -8.7664464046467411E-002   2.4702894084274094E-002   3.9708268371880309E-002
  -8.6463160919753451E-002   2.4618129465535359E-002   3.8122206238474746E-002
 -0.10476370117482220        2.0794195282039712E-002   5.3625618874613541E-002
 -0.10210896517306080        2.4936409582806168E-002   4.5650824908579607E-002
  -9.9454229171299369E-002   2.7515514266170223E-002   3.9367416441689229E-002
  -9.6799493169537953E-002   2.8531509332131982E-002   3.4775393473942456E-002
  -9.4144757167776538E-002   2.7984394780691320E-002   3.1874756005339185E-002
  -6.1527375537110435E-002   1.4519333520067443E-002   5.3062532542438742E-002
  -6.0204119530337136E-002   1.5527715712968848E-002   5.1641232573451365E-002
  -5.8880863523563837E-002   1.6140835151366471E-002   5.0664842963363509E-002
  -5.7557607516790538E-002   1.6358691835260446E-002   5.0133363712175180E-002
  -5.6234351510017246E-002   1.6181285764650555E-002   5.0046794819886331E-002
  -7.0154470104420386E-002   1.7885598835223407E-002   4.8716094507024549E-002
  -6.8431562349586000E-002   1.8344896884404834E-002   4.7254025867977729E-002
  -6.6708654594751574E-002   1.8578105356790133E-002   4.6146350366153666E-002
  -6.4985746839917161E-002   1.8585224252379285E-002   4.5393068001552302E-002
  -6.3262839085082762E-002   1.8366253571172303E-002   4.4994178774173617E-002
  -7.8466398565301423E-002   2.1251864150379378E-002   4.3735985739036531E-002
  -7.6434356284082711E-002   2.1162078055840833E-002   4.2402321607637961E-002
  -7.4402314002863984E-002   2.1015375562213737E-002   4.1332533391785282E-002
  -7.2370271721645243E-002   2.0811756669498162E-002   4.0526621091478497E-002
  -7.0338229440426531E-002   2.0551221377694051E-002   3.9984584706717598E-002
  -8.6463160919753451E-002   2.4618129465535359E-002   3.8122206238474746E-002
  -8.4212501333827253E-002   2.3979259227276839E-002   3.7086119792432010E-002
  -8.1961841747901054E-002   2.3452645767637358E-002   3.6223392040258345E-002
  -7.9711182161974856E-002   2.3038289086617064E-002   3.5534022981953781E-002
  -7.7460522576048657E-002   2.2736189184215799E-002   3.5018012617518274E-002
  -9.4144757167776538E-002   2.7984394780691320E-002   3.1874756005339185E-002
  -9.1765997498819654E-002   2.6796440398712824E-002   3.1305420422359870E-002
  -8.9387237829862798E-002   2.5889915973060999E-002   3.0818926311572886E-002
  -8.7008478160905928E-002   2.5264821503735931E-002   3.0415273672978090E-002
  -8.4629718491949057E-002   2.4921156990737561E-002   3.0094462506575562E-002
  -5.6234351510017246E-002   1.6181285764650555E-002   5.0046794819886331E-002
  -5.4730125160789199E-002   1.5816078022820569E-002   4.9740592314495929E-002
  -5.3225898811561173E-002   1.5470529693054423E-002   4.9605571441650939E-002
  -5.1721672462333140E-002   1.5144640775351761E-002   4.9641732201351187E-002
  -5.0217446113105094E-002   1.4838411269712942E-002   4.9849074593596748E-002
  -6.3262839085082762E-002   1.8366253571172303E-002   4.4994178774173617E-002
  -6.1577694157927743E-002   1.8018350943908829E-002   4.4644752982260047E-002
  -5.9892549230772738E-002   1.7638674001328597E-002   4.4485982713655128E-002
  -5.8207404303617705E-002   1.7227222743431546E-002   4.4517867968358868E-002
  -5.6522259376462720E-002   1.6783997170217696E-002   4.4740408746371141E-002
  -7.0338229440426531E-002   2.0551221377694051E-002   3.9984584706717598E-002
  -6.8452692044581251E-002   2.0220623864997029E-002   3.9540501900900436E-002
  -6.6567154648735929E-002   1.9806818309602747E-002   3.9306548509155118E-002
  -6.4681617252890622E-002   1.9309804711511249E-002   3.9282724531481787E-002
  -6.2796079857045314E-002   1.8729583070722464E-002   3.9469029967880480E-002
  -7.7460522576048657E-002   2.2736189184215799E-002   3.5018012617518274E-002
  -7.5355118820749717E-002   2.2422896786085215E-002   3.4427839070416924E-002
  -7.3249715065450749E-002   2.1974962617876938E-002   3.4067268828150803E-002
  -7.1144311310151850E-002   2.1392386679590949E-002   3.3936301890720125E-002
  -6.9038907554852882E-002   2.0675168971227252E-002   3.4034938258124606E-002
  -8.4629718491949057E-002   2.4921156990737561E-002   3.0094462506575562E-002
  -8.2284974486433182E-002   2.4625169707173475E-002   2.9306764490809670E-002
  -7.9940230480917265E-002   2.4143106926151094E-002   2.8768143670642336E-002
  -7.7595486475401376E-002   2.3474968647670728E-002   2.8478600046073655E-002
  -7.5250742469885473E-002   2.2620754871732013E-002   2.8438133617103539E-002
  -5.0217446113105094E-002   1.4838411269712942E-002   4.9849074593596748E-002
  -4.8616029529809549E-002   1.4509592256983783E-002   4.9436942488187419E-002
  -4.7014612946513941E-002   1.4115934818010829E-002   4.9255007536361986E-002
  -4.5413196363218361E-002   1.3657438952793631E-002   4.9303269738120499E-002
  -4.3811779779922774E-002   1.3134104661332413E-002   4.9581729093462867E-002
  -5.6522259376462720E-002   1.6783997170217696E-002   4.4740408746371141E-002
  -5.4697929770528890E-002   1.6313753269878967E-002   4.4308434910202726E-002
  -5.2873600164595080E-002   1.5821247030607576E-002   4.4092089965726902E-002
  -5.1049270558661292E-002   1.5306478452403341E-002   4.4091373912943557E-002
  -4.9224940952727496E-002   1.4769447535266322E-002   4.4306286751852803E-002
  -6.2796079857045314E-002   1.8729583070722464E-002   3.9469029967880480E-002
  -6.0763405490364672E-002   1.8117914282774233E-002   3.9059790488264197E-002
  -5.8730731123684043E-002   1.7526559243204540E-002   3.8851611638449066E-002
  -5.6698056757003353E-002   1.6955517952013187E-002   3.8844493418435065E-002
  -5.4665382390322703E-002   1.6404790409200259E-002   3.9038435828222293E-002
  -6.9038907554852882E-002   2.0675168971227252E-002   3.4034938258124606E-002
  -6.6812456689316777E-002   1.9922075295669403E-002   3.3691009222371698E-002
  -6.4586005823780671E-002   1.9231871455801366E-002   3.3533572554528608E-002
  -6.2359554958244579E-002   1.8604557451622938E-002   3.3562628254595266E-002
  -6.0133104092708445E-002   1.8040133283134266E-002   3.3778176322571685E-002
  -7.5250742469885473E-002   2.2620754871732013E-002   2.8438133617103539E-002
  -7.2845083367385266E-002   2.1726236308564656E-002   2.8202091112525279E-002
  -7.0439424264885073E-002   2.0937183668398272E-002   2.8137972713965356E-002
  -6.8033765162384879E-002   2.0253596951232793E-002   2.8245778421423791E-002
  -6.5628106059884672E-002   1.9675476157068050E-002   2.8525508234900687E-002
  -4.3811779779922774E-002   1.3134104661332413E-002   4.9581729093462867E-002
  -4.2237769445046230E-002   1.2594003622730610E-002   4.9361817379892925E-002
  -4.0663759110169721E-002   1.2085207516090837E-002   4.9311558133302097E-002
  -3.9089748775293212E-002   1.1607716341413683E-002   4.9430951353690245E-002
  -3.7515738440416668E-002   1.1161530098698580E-002   4.9719997041057507E-002
  -4.9224940952727496E-002   1.4769447535266322E-002   4.4306286751852803E-002
  -4.7479524141223431E-002   1.4221031741183832E-002   4.4076247541642910E-002
  -4.5734107329719401E-002   1.3672108532143346E-002   4.4019368817709126E-002
  -4.3988690518215329E-002   1.3122677908144656E-002   4.4135650580051353E-002
  -4.2243273706711298E-002   1.2572739869188054E-002   4.4425092828669577E-002
  -5.4665382390322703E-002   1.6404790409200259E-002   3.9038435828222293E-002
  -5.2745051082894158E-002   1.5848059859637414E-002   3.8766456774452188E-002
  -5.0824719775465620E-002   1.5259009548195902E-002   3.8671146226255067E-002
  -4.8904388468037040E-002   1.4637639474876016E-002   3.8752504183630881E-002
  -4.6984057160608481E-002   1.3983949639677529E-002   3.9010530646579833E-002
  -6.0133104092708445E-002   1.8040133283134266E-002   3.3778176322571685E-002
  -5.8034350270058432E-002   1.7475087978090734E-002   3.3432445078320820E-002
  -5.5935596447408364E-002   1.6845910564248435E-002   3.3266890358939934E-002
  -5.3836842624758359E-002   1.6152601041607265E-002   3.3281512164429053E-002
  -5.1738088802108353E-002   1.5395159410166975E-002   3.3476310494788032E-002
  -6.5628106059884672E-002   1.9675476157068050E-002   2.8525508234900687E-002
  -6.3347421702716178E-002   1.9102116096544247E-002   2.8074212453248648E-002
  -6.1066737345547698E-002   1.8432811580301064E-002   2.7806601215763671E-002
  -5.8786052988379196E-002   1.7667562608338402E-002   2.7722674522445506E-002
  -5.6505368631210723E-002   1.6806369180656477E-002   2.7822432373294403E-002
  -3.7515738440416668E-002   1.1161530098698580E-002   4.9719997041057507E-002
  -3.5838644974620359E-002   1.0701888572636098E-002   4.9362501693840322E-002
  -3.4161551508824065E-002   1.0184031547916444E-002   4.9211678857650099E-002
  -3.2484458043027763E-002   9.6079590245396404E-003   4.9267528532486643E-002
  -3.0807364577231447E-002   8.9736710025055677E-003   4.9530050718350260E-002
  -4.2243273706711298E-002   1.2572739869188054E-002   4.4425092828669577E-002
  -4.0367852580628971E-002   1.2013462119492530E-002   4.4007810690520621E-002
  -3.8492431454546623E-002   1.1436012363277320E-002   4.3780511361916907E-002
  -3.6617010328464233E-002   1.0840390600542711E-002   4.3743194842858352E-002
  -3.4741589202381934E-002   1.0226596831288237E-002   4.3895861133345038E-002
  -4.6984057160608481E-002   1.3983949639677529E-002   3.9010530646579833E-002
  -4.4926998075721772E-002   1.3325035666348795E-002   3.8573505209636677E-002
  -4.2869938990835001E-002   1.2687993178638099E-002   3.8309772880757056E-002
  -4.0812879905948285E-002   1.2072822176545452E-002   3.8219333659941068E-002
  -3.8755820821061521E-002   1.1479522660070851E-002   3.8302187547188615E-002
  -5.1738088802108353E-002   1.5395159410166975E-002   3.3476310494788032E-002
  -4.9516081459898803E-002   1.4636609213205143E-002   3.3059585251188288E-002
  -4.7294074117689315E-002   1.3939973993998815E-002   3.2799463414170407E-002
  -4.5072066775479820E-002   1.3305253752548192E-002   3.2695944983734473E-002
  -4.2850059433270339E-002   1.2732448488853382E-002   3.2749029959880535E-002
  -5.6505368631210723E-002   1.6806369180656477E-002   2.7822432373294403E-002
  -5.4135102733160079E-002   1.5948182760061436E-002   2.7466050815175613E-002
  -5.1764836835109504E-002   1.5191954809359698E-002   2.7249582962157126E-002
  -4.9394570937058867E-002   1.4537685328551306E-002   2.7173028814239039E-002
  -4.7024305039008230E-002   1.3985374317636134E-002   2.7236388371421061E-002
  -3.0807364577231447E-002   8.9736710025055677E-003   4.9530050718350260E-002
  -2.9090772067857165E-002   8.3459730261783438E-003   4.9368267840915303E-002
  -2.7374179558482835E-002   7.7896706399216420E-003   4.9454372451100848E-002
  -2.5657587049108536E-002   7.3047638437363227E-003   4.9788364548906866E-002
  -2.3940994539734251E-002   6.8912526376214700E-003   5.0370244134333442E-002
  -3.4741589202381934E-002   1.0226596831288237E-002   4.3895861133345038E-002
  -3.2837589495068438E-002   9.6066750312177596E-003   4.3632246740178932E-002
  -3.0933589787754893E-002   8.9926691760348343E-003   4.3495559255270905E-002
  -2.9029590080441477E-002   8.3845792657396070E-003   4.3485798678620347E-002
  -2.7125590373127922E-002   7.7824053003316962E-003   4.3602965010227979E-002
  -3.8755820821061521E-002   1.1479522660070851E-002   3.8302187547188615E-002
  -3.6785374495171455E-002   1.0867377036257175E-002   3.7871261993107891E-002
  -3.4814928169281403E-002   1.0195667712147860E-002   3.7446302767922435E-002
  -3.2844481843391365E-002   9.4643946877427804E-003   3.7027309871632427E-002
  -3.0874035517501300E-002   8.6735579630419224E-003   3.6614283304237716E-002
  -4.2850059433270339E-002   1.2732448488853382E-002   3.2749029959880535E-002
  -4.0934127068166168E-002   1.2128079041296702E-002   3.2085313599701952E-002
  -3.9018194703062087E-002   1.1398666248260914E-002   3.1306602989056263E-002
  -3.7102262337958054E-002   1.0544210109746009E-002   3.0412898127942838E-002
  -3.5186329972853883E-002   9.5647106257521486E-003   2.9404199016362889E-002
  -4.7024305039008230E-002   1.3985374317636134E-002   2.7236388371421061E-002
  -4.5283847214052708E-002   1.3388781046336229E-002   2.6274401559961302E-002
  -4.3543389389097187E-002   1.2601664784373912E-002   2.5076459918671690E-002
  -4.1802931564141610E-002   1.1624025531749335E-002   2.3642563447552334E-002
  -4.0062473739186089E-002   1.0455863288462375E-002   2.1972712146602902E-002
  -9.0360464501721055E-002   0.0000000000000000        4.9841686967589977E-002
  -9.3961273669996348E-002   5.4046336037916441E-003   5.3216080281308371E-002
  -9.7562082838271641E-002   1.0671877352062147E-002   5.4971533370385101E-002
 -0.10116289200654693        1.5801731244811497E-002   5.5108046234820150E-002
 -0.10476370117482220        2.0794195282039712E-002   5.3625618874613541E-002
 -0.10329147467850458        0.0000000000000000        5.8669608233378585E-002
 -0.10682937387097481        1.0884377556523491E-002   5.2124588608346983E-002
 -0.11036727306344503        1.9172482226043997E-002   4.7324329159567177E-002
 -0.11390517225591525        2.4864314008561521E-002   4.4268829887039174E-002
 -0.11744307144838548        2.7959872904076057E-002   4.2958090790762987E-002
 -0.12645691662322278        0.0000000000000000        7.4206714967639961E-002
 -0.12656820543899447        1.6364121509255345E-002   5.5283399372376515E-002
 -0.12667949425476616        2.7673087100025848E-002   4.1468544354258355E-002
 -0.12679078307053782        3.3926896772311546E-002   3.2762149913285452E-002
 -0.12690207188630953        3.5125550526112381E-002   2.9164216049457826E-002
 -0.15985679033587563        0.0000000000000000        9.6453007170374111E-002
 -0.15317776837405533        2.1843865461987189E-002   6.2692512573396975E-002
 -0.14649874641223498        3.6173691974007716E-002   3.7404178954458613E-002
 -0.13981972445041466        4.2989479536061553E-002   2.0588006313558966E-002
 -0.13314070248859436        4.2291228148148723E-002   1.2243994650698078E-002
 -0.20349109581646316        0.0000000000000000       0.12540848484158101     
 -0.18665806267615737        2.7323609414719039E-002   7.4351928211408375E-002
 -0.16982502953585155        4.4674296847989556E-002   3.5131232960167944E-002
 -0.15299199639554575        5.2052062299811588E-002   7.7463990878597067E-003
 -0.13615896325523996        4.9456905770185064E-002  -7.8025734055163082E-003
 -0.10476370117482220        2.0794195282039712E-002   5.3625618874613541E-002
 -0.10210896517306080        2.4936409582806168E-002   4.5650824908579607E-002
  -9.9454229171299369E-002   2.7515514266170223E-002   3.9367416441689229E-002
  -9.6799493169537953E-002   2.8531509332131982E-002   3.4775393473942456E-002
  -9.4144757167776538E-002   2.7984394780691320E-002   3.1874756005339185E-002
 -0.11744307144838548        2.7959872904076057E-002   4.2958090790762987E-002
 -0.11348554224628771        2.9433059912580210E-002   3.6709284109350954E-002
 -0.10952801304418996        3.0257776034066527E-002   3.1374678329468032E-002
 -0.10557048384209221        3.0434021268535109E-002   2.6954273451114202E-002
 -0.10161295463999444        2.9961795615985845E-002   2.3448069474289519E-002
 -0.12690207188630953        3.5125550526112381E-002   2.9164216049457826E-002
 -0.12241893408148986        3.3929710242354215E-002   2.5556035383052293E-002
 -0.11793579627667022        3.3000037801962846E-002   2.2084871020561385E-002
 -0.11345265847185060        3.2336533204938261E-002   1.8750722961985114E-002
 -0.10896952066703096        3.1939196451280433E-002   1.5553591207323561E-002
 -0.13314070248859436        4.2291228148148723E-002   1.2243994650698078E-002
 -0.12890914067866727        3.8426360572128254E-002   1.2191078729683566E-002
 -0.12467757886874022        3.5742299569859137E-002   1.1497994514969268E-002
 -0.12044601705881311        3.4239045141341400E-002   1.0164742006555183E-002
 -0.11621445524888604        3.3916597286575027E-002   8.1913212044413524E-003
 -0.13615896325523996        4.9456905770185064E-002  -7.8025734055163082E-003
 -0.13295616203781990        4.2923010901902287E-002  -3.3855858507551261E-003
 -0.12975336082039984        3.8484561337755435E-002  -3.8595118730823733E-004
 -0.12655055960297981        3.6141557077744545E-002   1.1963305848244994E-003
 -0.12334775838555975        3.5893998121869580E-002   1.3612594656428612E-003
  -9.4144757167776538E-002   2.7984394780691320E-002   3.1874756005339185E-002
  -9.1765997498819654E-002   2.6796440398712824E-002   3.1305420422359870E-002
  -8.9387237829862798E-002   2.5889915973060999E-002   3.0818926311572886E-002
  -8.7008478160905928E-002   2.5264821503735931E-002   3.0415273672978090E-002
  -8.4629718491949057E-002   2.4921156990737561E-002   3.0094462506575562E-002
 -0.10161295463999444        2.9961795615985845E-002   2.3448069474289519E-002
  -9.9135452496758425E-002   2.9194159882328395E-002   2.3175806679142492E-002
  -9.6657950353522426E-002   2.8484174873472233E-002   2.3018187360361517E-002
  -9.4180448210286441E-002   2.7831840589417380E-002   2.2975211517946466E-002
  -9.1702946067050428E-002   2.7237157030163842E-002   2.3046879151897473E-002
 -0.10896952066703096        3.1939196451280433E-002   1.5553591207323561E-002
 -0.10636147404534205        3.1591879365943959E-002   1.5354621968483459E-002
 -0.10375342742365321        3.1078433773883442E-002   1.5302098210183124E-002
 -0.10114538080196429        3.0398859675098838E-002   1.5396019932422475E-002
  -9.8537334180275465E-002   2.9553157069590226E-002   1.5636387135201702E-002
 -0.11621445524888604        3.3916597286575027E-002   8.1913212044413524E-003
 -0.11344406214457053        3.3989598849559502E-002   7.8418662903828162E-003
 -0.11067366904025505        3.3672692674294673E-002   7.6706588610376053E-003
 -0.10790327593593961        3.2965878760780325E-002   7.6776989164060718E-003
 -0.10513288283162404        3.1869157109016541E-002   7.8629864564879332E-003
 -0.12334775838555975        3.5893998121869580E-002   1.3612594656428612E-003
 -0.12038321679444391        3.6387318333175156E-002   6.3753964484042358E-004
 -0.11741867520332806        3.6266951574705920E-002   1.2386931292507342E-004
 -0.11445413361221218        3.5532897846461721E-002  -1.7975153010280076E-004
 -0.11148959202109637        3.4185157148442891E-002  -2.7332288424364304E-004
  -8.4629718491949057E-002   2.4921156990737561E-002   3.0094462506575562E-002
  -8.2284974486433182E-002   2.4625169707173475E-002   2.9306764490809670E-002
  -7.9940230480917265E-002   2.4143106926151094E-002   2.8768143670642336E-002
  -7.7595486475401376E-002   2.3474968647670728E-002   2.8478600046073655E-002
  -7.5250742469885473E-002   2.2620754871732013E-002   2.8438133617103539E-002
  -9.1702946067050428E-002   2.7237157030163842E-002   2.3046879151897473E-002
  -8.9118882792845688E-002   2.6635735298401422E-002   2.2359661387459429E-002
  -8.6534819518640990E-002   2.5963186496819644E-002   2.1902004964800416E-002
  -8.3950756244436264E-002   2.5219510625418613E-002   2.1673909883920459E-002
  -8.1366692970231608E-002   2.4404707684198279E-002   2.1675376144819403E-002
  -9.8537334180275465E-002   2.9553157069590226E-002   1.5636387135201702E-002
  -9.5733467491201429E-002   2.8646300889629404E-002   1.5164598049730225E-002
  -9.2929600802127463E-002   2.7783266067488113E-002   1.4902854452218424E-002
  -9.0125734113053441E-002   2.6964052603166585E-002   1.4851156342666073E-002
  -8.7321867423979488E-002   2.6188660496664698E-002   1.5009503721073104E-002
 -0.10513288283162404        3.1869157109016541E-002   7.8629864564879332E-003
 -0.10212872858150043        3.0656866480857314E-002   7.7215744776223437E-003
  -9.9124574331376766E-002   2.9603345638156593E-002   7.7706921328965905E-003
  -9.6120420081253100E-002   2.8708594580914456E-002   8.0103394223105875E-003
  -9.3116265831129502E-002   2.7972613309130985E-002   8.4405163458647296E-003
 -0.11148959202109637        3.4185157148442891E-002  -2.7332288424364304E-004
 -0.10830466606374256        3.2667432072085334E-002   3.0590671135144465E-005
 -0.10511974010638883        3.1423425208825101E-002   5.0551800683450165E-004
 -0.10193481414903503        3.0453136558662490E-002   1.1514591228539393E-003
  -9.8749888191681290E-002   2.9756566121597328E-002   1.9684140191939536E-003
  -7.5250742469885473E-002   2.2620754871732013E-002   2.8438133617103539E-002
  -7.2845083367385266E-002   2.1726236308564656E-002   2.8202091112525279E-002
  -7.0439424264885073E-002   2.0937183668398272E-002   2.8137972713965356E-002
  -6.8033765162384879E-002   2.0253596951232793E-002   2.8245778421423791E-002
  -6.5628106059884672E-002   1.9675476157068050E-002   2.8525508234900687E-002
  -8.1366692970231608E-002   2.4404707684198279E-002   2.1675376144819403E-002
  -7.8800988731351884E-002   2.3578835019080438E-002   2.1665457489712769E-002
  -7.6235284492472230E-002   2.2801949975987029E-002   2.1803705001346721E-002
  -7.3669580253592548E-002   2.2074052554917685E-002   2.2090118679721021E-002
  -7.1103876014712852E-002   2.1395142755872842E-002   2.2524698524835962E-002
  -8.7321867423979488E-002   2.6188660496664698E-002   1.5009503721073104E-002
  -8.4619875987998305E-002   2.5431433729596400E-002   1.5169230614461633E-002
  -8.1917884552017095E-002   2.4666716283575790E-002   1.5453365735312693E-002
  -7.9215893116035913E-002   2.3894508158602914E-002   1.5861909083626259E-002
  -7.6513901680054702E-002   2.3114809354677551E-002   1.6394860659402669E-002
  -9.3116265831129502E-002   2.7972613309130985E-002   8.4405163458647296E-003
  -9.0301745137324585E-002   2.7284032440112217E-002   8.7134104867717041E-003
  -8.7487224443519709E-002   2.6531482591164522E-002   9.0869549158633448E-003
  -8.4672703749714862E-002   2.5714963762287806E-002   9.5611496331396862E-003
  -8.1858183055909944E-002   2.4834475953482191E-002   1.0135994638600789E-002
  -9.8749888191681290E-002   2.9756566121597328E-002   1.9684140191939536E-003
  -9.5846596179330668E-002   2.9136631150628062E-002   2.2979971066427740E-003
  -9.2943304166980045E-002   2.8396248898753237E-002   2.7044725429983124E-003
  -9.0040012154629395E-002   2.7535419365972976E-002   3.1878403282608013E-003
  -8.7136720142278801E-002   2.6554142552286941E-002   3.7481004624300152E-003
  -6.5628106059884672E-002   1.9675476157068050E-002   2.8525508234900687E-002
  -6.3347421702716178E-002   1.9102116096544247E-002   2.8074212453248648E-002
  -6.1066737345547698E-002   1.8432811580301064E-002   2.7806601215763671E-002
  -5.8786052988379196E-002   1.7667562608338402E-002   2.7722674522445506E-002
  -5.6505368631210723E-002   1.6806369180656477E-002   2.7822432373294403E-002
  -7.1103876014712852E-002   2.1395142755872842E-002   2.2524698524835962E-002
  -6.8632908175251292E-002   2.0711735598495970E-002   2.2068782573593002E-002
  -6.6161940335789621E-002   1.9970346102431522E-002   2.1809749042769513E-002
  -6.3690972496327949E-002   1.9170974267679119E-002   2.1747597932365297E-002
  -6.1220004656866334E-002   1.8313620094238980E-002   2.1882329242380455E-002
  -7.6513901680054702E-002   2.3114809354677551E-002   1.6394860659402669E-002
  -7.3839452482047485E-002   2.2321355100447818E-002   1.5972286655600479E-002
  -7.1165003284040282E-002   2.1507880624562041E-002   1.5759792948469915E-002
  -6.8490554086033065E-002   2.0674385927019895E-002   1.5757379538011266E-002
  -6.5816104888025861E-002   1.9820871007821594E-002   1.5965046424224319E-002
  -8.1858183055909944E-002   2.4834475953482191E-002   1.0135994638600789E-002
  -7.8967054623104771E-002   2.3930974602399659E-002   9.7847246992706395E-003
  -7.6075926190299570E-002   2.3045415146692640E-002   9.6567329328648057E-003
  -7.3184797757494383E-002   2.2177797586360667E-002   9.7520193393830501E-003
  -7.0293669324689181E-002   2.1328121921403986E-002   1.0070583918825544E-002
  -8.7136720142278801E-002   2.6554142552286941E-002   3.7481004624300152E-003
  -8.4015714598423163E-002   2.5540594104351388E-002   3.5060967046036118E-003
  -8.0894709054567582E-002   2.4582949668822990E-002   3.5005689959538566E-003
  -7.7773703510711972E-002   2.3681209245701544E-002   3.7315173364808607E-003
  -7.4652697966856363E-002   2.2835372834986600E-002   4.1989417261844020E-003
  -5.6505368631210723E-002   1.6806369180656477E-002   2.7822432373294403E-002
  -5.4135102733160079E-002   1.5948182760061436E-002   2.7466050815175613E-002
  -5.1764836835109504E-002   1.5191954809359698E-002   2.7249582962157126E-002
  -4.9394570937058867E-002   1.4537685328551306E-002   2.7173028814239039E-002
  -4.7024305039008230E-002   1.3985374317636134E-002   2.7236388371421061E-002
  -6.1220004656866334E-002   1.8313620094238980E-002   2.1882329242380455E-002
  -5.8686482005936597E-002   1.7463896535194756E-002   2.1755427545223222E-002
  -5.6152959355006790E-002   1.6687416543630054E-002   2.1815125648723954E-002
  -5.3619436704077011E-002   1.5984180119544698E-002   2.2061423552882736E-002
  -5.1085914053147247E-002   1.5354187262939079E-002   2.2494321257699568E-002
  -6.5816104888025861E-002   1.9820871007821594E-002   1.5965046424224319E-002
  -6.3072639388659119E-002   1.8979610310327938E-002   1.6038909685614652E-002
  -6.0329173889292403E-002   1.8182878277900300E-002   1.6346058843220934E-002
  -5.7585708389925702E-002   1.7430674910538090E-002   1.6886493897042866E-002
  -5.4842242890559001E-002   1.6723000208242023E-002   1.7660214847080635E-002
  -7.0293669324689181E-002   2.1328121921403986E-002   1.0070583918825544E-002
  -6.7293574881327756E-002   2.0495324085461272E-002   1.0316497236349958E-002
  -6.4293480437966399E-002   1.9678340012170378E-002   1.0842382545647948E-002
  -6.1293385994605001E-002   1.8877169701531703E-002   1.1648239846719456E-002
  -5.8293291551243631E-002   1.8091813153545300E-002   1.2734069139564673E-002
  -7.4652697966856363E-002   2.2835372834986600E-002   4.1989417261844020E-003
  -7.1349288483942619E-002   2.2011037860594440E-002   4.5881901974290096E-003
  -6.8045879001028708E-002   2.1173801746440901E-002   5.3040967560051278E-003
  -6.4742469518114826E-002   2.0323664492525095E-002   6.3466614019122430E-003
  -6.1439060035201054E-002   1.9460626098848133E-002   7.7158841351512297E-003
  -4.7024305039008230E-002   1.3985374317636134E-002   2.7236388371421061E-002
  -4.5283847214052708E-002   1.3388781046336229E-002   2.6274401559961302E-002
  -4.3543389389097187E-002   1.2601664784373912E-002   2.5076459918671690E-002
  -4.1802931564141610E-002   1.1624025531749335E-002   2.3642563447552334E-002
  -4.0062473739186089E-002   1.0455863288462375E-002   2.1972712146602902E-002
  -5.1085914053147247E-002   1.5354187262939079E-002   2.2494321257699568E-002
  -4.9350371663191270E-002   1.4678229180479951E-002   2.1890805512872424E-002
  -4.7614829273235279E-002   1.3837097078833474E-002   2.1513413727875852E-002
  -4.5879286883279261E-002   1.2830790957999900E-002   2.1362145902709975E-002
  -4.4143744493323367E-002   1.1659310817979440E-002   2.1437002037374864E-002
  -5.4842242890559001E-002   1.6723000208242023E-002   1.7660214847080635E-002
  -5.2649537145942074E-002   1.5967677314623230E-002   1.7440519140361613E-002
  -5.0456831401325203E-002   1.5072529373292759E-002   1.7909026183133753E-002
  -4.8264125656708387E-002   1.4037556384250464E-002   1.9065735975396889E-002
  -4.6071419912091446E-002   1.2862758347496506E-002   2.0910648517151409E-002
  -5.8293291551243631E-002   1.8091813153545300E-002   1.2734069139564673E-002
  -5.5181343662305385E-002   1.7257125448766730E-002   1.2923542442429225E-002
  -5.2069395773367180E-002   1.6307961667751850E-002   1.4263297284444997E-002
  -4.8957447884428976E-002   1.5244321810500640E-002   1.6753333665612619E-002
  -4.5845499995490716E-002   1.4066205877013571E-002   2.0393651585931719E-002
  -6.1439060035201054E-002   1.9460626098848133E-002   7.7158841351512297E-003
  -5.6945791212280938E-002   1.8546573582910675E-002   8.3398754190746605E-003
  -5.2452522389360934E-002   1.7543393962211440E-002   1.0576227031809909E-002
  -4.7959253566440929E-002   1.6451087236751441E-002   1.4424938973357330E-002
  -4.3465984743520814E-002   1.5269653406530637E-002   1.9886011243716695E-002
 </DataArray>
 </PointData>
 </Piece>
 <Piece  NumberOfPoints="          1600 "  NumberOfCells="         1024 ">
 <Points>
 <DataArray  type="Float64" NumberOfComponents="3"  format="ascii" >
  0.50000000000000000        0.0000000000000000        0.0000000000000000     
  0.53125000000000000        0.0000000000000000        0.0000000000000000     
  0.56250000000000000        0.0000000000000000        0.0000000000000000     
  0.59375000000000000        0.0000000000000000        0.0000000000000000     
  0.62500000000000000        0.0000000000000000        0.0000000000000000     
  0.50000000000000000        3.1250000000000000E-002   0.0000000000000000     
  0.53125000000000000        3.1250000000000000E-002   0.0000000000000000     
  0.56250000000000000        3.1250000000000000E-002   0.0000000000000000     
  0.59375000000000000        3.1250000000000000E-002   0.0000000000000000     
  0.62500000000000000        3.1250000000000000E-002   0.0000000000000000     
  0.50000000000000000        6.2500000000000000E-002   0.0000000000000000     
  0.53125000000000000        6.2500000000000000E-002   0.0000000000000000     
  0.56250000000000000        6.2500000000000000E-002   0.0000000000000000     
  0.59375000000000000        6.2500000000000000E-002   0.0000000000000000     
  0.62500000000000000        6.2500000000000000E-002   0.0000000000000000     
  0.50000000000000000        9.3750000000000000E-002   0.0000000000000000     
  0.53125000000000000        9.3750000000000000E-002   0.0000000000000000     
  0.56250000000000000        9.3750000000000000E-002   0.0000000000000000     
  0.59375000000000000        9.3750000000000000E-002   0.0000000000000000     
  0.62500000000000000        9.3750000000000000E-002   0.0000000000000000     
  0.50000000000000000       0.12500000000000000        0.0000000000000000     
  0.53125000000000000       0.12500000000000000        0.0000000000000000     
  0.56250000000000000       0.12500000000000000        0.0000000000000000     
  0.59375000000000000       0.12500000000000000        0.0000000000000000     
  0.62500000000000000       0.12500000000000000        0.0000000000000000     
  0.62500000000000000        0.0000000000000000        0.0000000000000000     
  0.65625000000000000        0.0000000000000000        0.0000000000000000     
  0.68750000000000000        0.0000000000000000        0.0000000000000000     
  0.71875000000000000        0.0000000000000000        0.0000000000000000     
  0.75000000000000000        0.0000000000000000        0.0000000000000000     
  0.62500000000000000        3.1250000000000000E-002   0.0000000000000000     
  0.65625000000000000        3.1250000000000000E-002   0.0000000000000000     
  0.68750000000000000        3.1250000000000000E-002   0.0000000000000000     
  0.71875000000000000        3.1250000000000000E-002   0.0000000000000000     
  0.75000000000000000        3.1250000000000000E-002   0.0000000000000000     
  0.62500000000000000        6.2500000000000000E-002   0.0000000000000000     
  0.65625000000000000        6.2500000000000000E-002   0.0000000000000000     
  0.68750000000000000        6.2500000000000000E-002   0.0000000000000000     
  0.71875000000000000        6.2500000000000000E-002   0.0000000000000000     
  0.75000000000000000        6.2500000000000000E-002   0.0000000000000000     
  0.62500000000000000        9.3750000000000000E-002   0.0000000000000000     
  0.65625000000000000        9.3750000000000000E-002   0.0000000000000000     
  0.68750000000000000        9.3750000000000000E-002   0.0000000000000000     
  0.71875000000000000        9.3750000000000000E-002   0.0000000000000000     
  0.75000000000000000        9.3750000000000000E-002   0.0000000000000000     
  0.62500000000000000       0.12500000000000000        0.0000000000000000     
  0.65625000000000000       0.12500000000000000        0.0000000000000000     
  0.68750000000000000       0.12500000000000000        0.0000000000000000     
  0.71875000000000000       0.12500000000000000        0.0000000000000000     
  0.75000000000000000       0.12500000000000000        0.0000000000000000     
  0.75000000000000000        0.0000000000000000        0.0000000000000000     
  0.78125000000000000        0.0000000000000000        0.0000000000000000     
  0.81250000000000000        0.0000000000000000        0.0000000000000000     
  0.84375000000000000        0.0000000000000000        0.0000000000000000     
  0.87500000000000000        0.0000000000000000        0.0000000000000000     
  0.75000000000000000        3.1250000000000000E-002   0.0000000000000000     
  0.78125000000000000        3.1250000000000000E-002   0.0000000000000000     
  0.81250000000000000        3.1250000000000000E-002   0.0000000000000000     
  0.84375000000000000        3.1250000000000000E-002   0.0000000000000000     
  0.87500000000000000        3.1250000000000000E-002   0.0000000000000000     
  0.75000000000000000        6.2500000000000000E-002   0.0000000000000000     
  0.78125000000000000        6.2500000000000000E-002   0.0000000000000000     
  0.81250000000000000        6.2500000000000000E-002   0.0000000000000000     
  0.84375000000000000        6.2500000000000000E-002   0.0000000000000000     
  0.87500000000000000        6.2500000000000000E-002   0.0000000000000000     
  0.75000000000000000        9.3750000000000000E-002   0.0000000000000000     
  0.78125000000000000        9.3750000000000000E-002   0.0000000000000000     
  0.81250000000000000        9.3750000000000000E-002   0.0000000000000000     
  0.84375000000000000        9.3750000000000000E-002   0.0000000000000000     
  0.87500000000000000        9.3750000000000000E-002   0.0000000000000000     
  0.75000000000000000       0.12500000000000000        0.0000000000000000     
  0.78125000000000000       0.12500000000000000        0.0000000000000000     
  0.81250000000000000       0.12500000000000000        0.0000000000000000     
  0.84375000000000000       0.12500000000000000        0.0000000000000000     
  0.87500000000000000       0.12500000000000000        0.0000000000000000     
  0.87500000000000000        0.0000000000000000        0.0000000000000000     
  0.90625000000000000        0.0000000000000000        0.0000000000000000     
  0.93750000000000000        0.0000000000000000        0.0000000000000000     
  0.96875000000000000        0.0000000000000000        0.0000000000000000     
   1.0000000000000000        0.0000000000000000        0.0000000000000000     
  0.87500000000000000        3.1250000000000000E-002   0.0000000000000000     
  0.90625000000000000        3.1250000000000000E-002   0.0000000000000000     
  0.93750000000000000        3.1250000000000000E-002   0.0000000000000000     
  0.96875000000000000        3.1250000000000000E-002   0.0000000000000000     
   1.0000000000000000        3.1250000000000000E-002   0.0000000000000000     
  0.87500000000000000        6.2500000000000000E-002   0.0000000000000000     
  0.90625000000000000        6.2500000000000000E-002   0.0000000000000000     
  0.93750000000000000        6.2500000000000000E-002   0.0000000000000000     
  0.96875000000000000        6.2500000000000000E-002   0.0000000000000000     
   1.0000000000000000        6.2500000000000000E-002   0.0000000000000000     
  0.87500000000000000        9.3750000000000000E-002   0.0000000000000000     
  0.90625000000000000        9.3750000000000000E-002   0.0000000000000000     
  0.93750000000000000        9.3750000000000000E-002   0.0000000000000000     
  0.96875000000000000        9.3750000000000000E-002   0.0000000000000000     
   1.0000000000000000        9.3750000000000000E-002   0.0000000000000000     
  0.87500000000000000       0.12500000000000000        0.0000000000000000     
  0.90625000000000000       0.12500000000000000        0.0000000000000000     
  0.93750000000000000       0.12500000000000000        0.0000000000000000     
  0.96875000000000000       0.12500000000000000        0.0000000000000000     
   1.0000000000000000       0.12500000000000000        0.0000000000000000     
   1.0000000000000000        0.0000000000000000        0.0000000000000000     
   1.0312500000000000        0.0000000000000000        0.0000000000000000     
   1.0625000000000000        0.0000000000000000        0.0000000000000000     
   1.0937500000000000        0.0000000000000000        0.0000000000000000     
   1.1250000000000000        0.0000000000000000        0.0000000000000000     
   1.0000000000000000        3.1250000000000000E-002   0.0000000000000000     
   1.0312500000000000        3.1250000000000000E-002   0.0000000000000000     
   1.0625000000000000        3.1250000000000000E-002   0.0000000000000000     
   1.0937500000000000        3.1250000000000000E-002   0.0000000000000000     
   1.1250000000000000        3.1250000000000000E-002   0.0000000000000000     
   1.0000000000000000        6.2500000000000000E-002   0.0000000000000000     
   1.0312500000000000        6.2500000000000000E-002   0.0000000000000000     
   1.0625000000000000        6.2500000000000000E-002   0.0000000000000000     
   1.0937500000000000        6.2500000000000000E-002   0.0000000000000000     
   1.1250000000000000        6.2500000000000000E-002   0.0000000000000000     
   1.0000000000000000        9.3750000000000000E-002   0.0000000000000000     
   1.0312500000000000        9.3750000000000000E-002   0.0000000000000000     
   1.0625000000000000        9.3750000000000000E-002   0.0000000000000000     
   1.0937500000000000        9.3750000000000000E-002   0.0000000000000000     
   1.1250000000000000        9.3750000000000000E-002   0.0000000000000000     
   1.0000000000000000       0.12500000000000000        0.0000000000000000     
   1.0312500000000000       0.12500000000000000        0.0000000000000000     
   1.0625000000000000       0.12500000000000000        0.0000000000000000     
   1.0937500000000000       0.12500000000000000        0.0000000000000000     
   1.1250000000000000       0.12500000000000000        0.0000000000000000     
   1.1250000000000000        0.0000000000000000        0.0000000000000000     
   1.1562500000000000        0.0000000000000000        0.0000000000000000     
   1.1875000000000000        0.0000000000000000        0.0000000000000000     
   1.2187500000000000        0.0000000000000000        0.0000000000000000     
   1.2500000000000000        0.0000000000000000        0.0000000000000000     
   1.1250000000000000        3.1250000000000000E-002   0.0000000000000000     
   1.1562500000000000        3.1250000000000000E-002   0.0000000000000000     
   1.1875000000000000        3.1250000000000000E-002   0.0000000000000000     
   1.2187500000000000        3.1250000000000000E-002   0.0000000000000000     
   1.2500000000000000        3.1250000000000000E-002   0.0000000000000000     
   1.1250000000000000        6.2500000000000000E-002   0.0000000000000000     
   1.1562500000000000        6.2500000000000000E-002   0.0000000000000000     
   1.1875000000000000        6.2500000000000000E-002   0.0000000000000000     
   1.2187500000000000        6.2500000000000000E-002   0.0000000000000000     
   1.2500000000000000        6.2500000000000000E-002   0.0000000000000000     
   1.1250000000000000        9.3750000000000000E-002   0.0000000000000000     
   1.1562500000000000        9.3750000000000000E-002   0.0000000000000000     
   1.1875000000000000        9.3750000000000000E-002   0.0000000000000000     
   1.2187500000000000        9.3750000000000000E-002   0.0000000000000000     
   1.2500000000000000        9.3750000000000000E-002   0.0000000000000000     
   1.1250000000000000       0.12500000000000000        0.0000000000000000     
   1.1562500000000000       0.12500000000000000        0.0000000000000000     
   1.1875000000000000       0.12500000000000000        0.0000000000000000     
   1.2187500000000000       0.12500000000000000        0.0000000000000000     
   1.2500000000000000       0.12500000000000000        0.0000000000000000     
   1.2500000000000000        0.0000000000000000        0.0000000000000000     
   1.2812500000000000        0.0000000000000000        0.0000000000000000     
   1.3125000000000000        0.0000000000000000        0.0000000000000000     
   1.3437500000000000        0.0000000000000000        0.0000000000000000     
   1.3750000000000000        0.0000000000000000        0.0000000000000000     
   1.2500000000000000        3.1250000000000000E-002   0.0000000000000000     
   1.2812500000000000        3.1250000000000000E-002   0.0000000000000000     
   1.3125000000000000        3.1250000000000000E-002   0.0000000000000000     
   1.3437500000000000        3.1250000000000000E-002   0.0000000000000000     
   1.3750000000000000        3.1250000000000000E-002   0.0000000000000000     
   1.2500000000000000        6.2500000000000000E-002   0.0000000000000000     
   1.2812500000000000        6.2500000000000000E-002   0.0000000000000000     
   1.3125000000000000        6.2500000000000000E-002   0.0000000000000000     
   1.3437500000000000        6.2500000000000000E-002   0.0000000000000000     
   1.3750000000000000        6.2500000000000000E-002   0.0000000000000000     
   1.2500000000000000        9.3750000000000000E-002   0.0000000000000000     
   1.2812500000000000        9.3750000000000000E-002   0.0000000000000000     
   1.3125000000000000        9.3750000000000000E-002   0.0000000000000000     
   1.3437500000000000        9.3750000000000000E-002   0.0000000000000000     
   1.3750000000000000        9.3750000000000000E-002   0.0000000000000000     
   1.2500000000000000       0.12500000000000000        0.0000000000000000     
   1.2812500000000000       0.12500000000000000        0.0000000000000000     
   1.3125000000000000       0.12500000000000000        0.0000000000000000     
   1.3437500000000000       0.12500000000000000        0.0000000000000000     
   1.3750000000000000       0.12500000000000000        0.0000000000000000     
   1.3750000000000000        0.0000000000000000        0.0000000000000000     
   1.4062500000000000        0.0000000000000000        0.0000000000000000     
   1.4375000000000000        0.0000000000000000        0.0000000000000000     
   1.4687500000000000        0.0000000000000000        0.0000000000000000     
   1.5000000000000000        0.0000000000000000        0.0000000000000000     
   1.3750000000000000        3.1250000000000000E-002   0.0000000000000000     
   1.4062500000000000        3.1250000000000000E-002   0.0000000000000000     
   1.4375000000000000        3.1250000000000000E-002   0.0000000000000000     
   1.4687500000000000        3.1250000000000000E-002   0.0000000000000000     
   1.5000000000000000        3.1250000000000000E-002   0.0000000000000000     
   1.3750000000000000        6.2500000000000000E-002   0.0000000000000000     
   1.4062500000000000        6.2500000000000000E-002   0.0000000000000000     
   1.4375000000000000        6.2500000000000000E-002   0.0000000000000000     
   1.4687500000000000        6.2500000000000000E-002   0.0000000000000000     
   1.5000000000000000        6.2500000000000000E-002   0.0000000000000000     
   1.3750000000000000        9.3750000000000000E-002   0.0000000000000000     
   1.4062500000000000        9.3750000000000000E-002   0.0000000000000000     
   1.4375000000000000        9.3750000000000000E-002   0.0000000000000000     
   1.4687500000000000        9.3750000000000000E-002   0.0000000000000000     
   1.5000000000000000        9.3750000000000000E-002   0.0000000000000000     
   1.3750000000000000       0.12500000000000000        0.0000000000000000     
   1.4062500000000000       0.12500000000000000        0.0000000000000000     
   1.4375000000000000       0.12500000000000000        0.0000000000000000     
   1.4687500000000000       0.12500000000000000        0.0000000000000000     
   1.5000000000000000       0.12500000000000000        0.0000000000000000     
  0.50000000000000000       0.12500000000000000        0.0000000000000000     
  0.53125000000000000       0.12500000000000000        0.0000000000000000     
  0.56250000000000000       0.12500000000000000        0.0000000000000000     
  0.59375000000000000       0.12500000000000000        0.0000000000000000     
  0.62500000000000000       0.12500000000000000        0.0000000000000000     
  0.50000000000000000       0.15625000000000000        0.0000000000000000     
  0.53125000000000000       0.15625000000000000        0.0000000000000000     
  0.56250000000000000       0.15625000000000000        0.0000000000000000     
  0.59375000000000000       0.15625000000000000        0.0000000000000000     
  0.62500000000000000       0.15625000000000000        0.0000000000000000     
  0.50000000000000000       0.18750000000000000        0.0000000000000000     
  0.53125000000000000       0.18750000000000000        0.0000000000000000     
  0.56250000000000000       0.18750000000000000        0.0000000000000000     
  0.59375000000000000       0.18750000000000000        0.0000000000000000     
  0.62500000000000000       0.18750000000000000        0.0000000000000000     
  0.50000000000000000       0.21875000000000000        0.0000000000000000     
  0.53125000000000000       0.21875000000000000        0.0000000000000000     
  0.56250000000000000       0.21875000000000000        0.0000000000000000     
  0.59375000000000000       0.21875000000000000        0.0000000000000000     
  0.62500000000000000       0.21875000000000000        0.0000000000000000     
  0.50000000000000000       0.25000000000000000        0.0000000000000000     
  0.53125000000000000       0.25000000000000000        0.0000000000000000     
  0.56250000000000000       0.25000000000000000        0.0000000000000000     
  0.59375000000000000       0.25000000000000000        0.0000000000000000     
  0.62500000000000000       0.25000000000000000        0.0000000000000000     
  0.62500000000000000       0.12500000000000000        0.0000000000000000     
  0.65625000000000000       0.12500000000000000        0.0000000000000000     
  0.68750000000000000       0.12500000000000000        0.0000000000000000     
  0.71875000000000000       0.12500000000000000        0.0000000000000000     
  0.75000000000000000       0.12500000000000000        0.0000000000000000     
  0.62500000000000000       0.15625000000000000        0.0000000000000000     
  0.65625000000000000       0.15625000000000000        0.0000000000000000     
  0.68750000000000000       0.15625000000000000        0.0000000000000000     
  0.71875000000000000       0.15625000000000000        0.0000000000000000     
  0.75000000000000000       0.15625000000000000        0.0000000000000000     
  0.62500000000000000       0.18750000000000000        0.0000000000000000     
  0.65625000000000000       0.18750000000000000        0.0000000000000000     
  0.68750000000000000       0.18750000000000000        0.0000000000000000     
  0.71875000000000000       0.18750000000000000        0.0000000000000000     
  0.75000000000000000       0.18750000000000000        0.0000000000000000     
  0.62500000000000000       0.21875000000000000        0.0000000000000000     
  0.65625000000000000       0.21875000000000000        0.0000000000000000     
  0.68750000000000000       0.21875000000000000        0.0000000000000000     
  0.71875000000000000       0.21875000000000000        0.0000000000000000     
  0.75000000000000000       0.21875000000000000        0.0000000000000000     
  0.62500000000000000       0.25000000000000000        0.0000000000000000     
  0.65625000000000000       0.25000000000000000        0.0000000000000000     
  0.68750000000000000       0.25000000000000000        0.0000000000000000     
  0.71875000000000000       0.25000000000000000        0.0000000000000000     
  0.75000000000000000       0.25000000000000000        0.0000000000000000     
  0.75000000000000000       0.12500000000000000        0.0000000000000000     
  0.78125000000000000       0.12500000000000000        0.0000000000000000     
  0.81250000000000000       0.12500000000000000        0.0000000000000000     
  0.84375000000000000       0.12500000000000000        0.0000000000000000     
  0.87500000000000000       0.12500000000000000        0.0000000000000000     
  0.75000000000000000       0.15625000000000000        0.0000000000000000     
  0.78125000000000000       0.15625000000000000        0.0000000000000000     
  0.81250000000000000       0.15625000000000000        0.0000000000000000     
  0.84375000000000000       0.15625000000000000        0.0000000000000000     
  0.87500000000000000       0.15625000000000000        0.0000000000000000     
  0.75000000000000000       0.18750000000000000        0.0000000000000000     
  0.78125000000000000       0.18750000000000000        0.0000000000000000     
  0.81250000000000000       0.18750000000000000        0.0000000000000000     
  0.84375000000000000       0.18750000000000000        0.0000000000000000     
  0.87500000000000000       0.18750000000000000        0.0000000000000000     
  0.75000000000000000       0.21875000000000000        0.0000000000000000     
  0.78125000000000000       0.21875000000000000        0.0000000000000000     
  0.81250000000000000       0.21875000000000000        0.0000000000000000     
  0.84375000000000000       0.21875000000000000        0.0000000000000000     
  0.87500000000000000       0.21875000000000000        0.0000000000000000     
  0.75000000000000000       0.25000000000000000        0.0000000000000000     
  0.78125000000000000       0.25000000000000000        0.0000000000000000     
  0.81250000000000000       0.25000000000000000        0.0000000000000000     
  0.84375000000000000       0.25000000000000000        0.0000000000000000     
  0.87500000000000000       0.25000000000000000        0.0000000000000000     
  0.87500000000000000       0.12500000000000000        0.0000000000000000     
  0.90625000000000000       0.12500000000000000        0.0000000000000000     
  0.93750000000000000       0.12500000000000000        0.0000000000000000     
  0.96875000000000000       0.12500000000000000        0.0000000000000000     
   1.0000000000000000       0.12500000000000000        0.0000000000000000     
  0.87500000000000000       0.15625000000000000        0.0000000000000000     
  0.90625000000000000       0.15625000000000000        0.0000000000000000     
  0.93750000000000000       0.15625000000000000        0.0000000000000000     
  0.96875000000000000       0.15625000000000000        0.0000000000000000     
   1.0000000000000000       0.15625000000000000        0.0000000000000000     
  0.87500000000000000       0.18750000000000000        0.0000000000000000     
  0.90625000000000000       0.18750000000000000        0.0000000000000000     
  0.93750000000000000       0.18750000000000000        0.0000000000000000     
  0.96875000000000000       0.18750000000000000        0.0000000000000000     
   1.0000000000000000       0.18750000000000000        0.0000000000000000     
  0.87500000000000000       0.21875000000000000        0.0000000000000000     
  0.90625000000000000       0.21875000000000000        0.0000000000000000     
  0.93750000000000000       0.21875000000000000        0.0000000000000000     
  0.96875000000000000       0.21875000000000000        0.0000000000000000     
   1.0000000000000000       0.21875000000000000        0.0000000000000000     
  0.87500000000000000       0.25000000000000000        0.0000000000000000     
  0.90625000000000000       0.25000000000000000        0.0000000000000000     
  0.93750000000000000       0.25000000000000000        0.0000000000000000     
  0.96875000000000000       0.25000000000000000        0.0000000000000000     
   1.0000000000000000       0.25000000000000000        0.0000000000000000     
   1.0000000000000000       0.12500000000000000        0.0000000000000000     
   1.0312500000000000       0.12500000000000000        0.0000000000000000     
   1.0625000000000000       0.12500000000000000        0.0000000000000000     
   1.0937500000000000       0.12500000000000000        0.0000000000000000     
   1.1250000000000000       0.12500000000000000        0.0000000000000000     
   1.0000000000000000       0.15625000000000000        0.0000000000000000     
   1.0312500000000000       0.15625000000000000        0.0000000000000000     
   1.0625000000000000       0.15625000000000000        0.0000000000000000     
   1.0937500000000000       0.15625000000000000        0.0000000000000000     
   1.1250000000000000       0.15625000000000000        0.0000000000000000     
   1.0000000000000000       0.18750000000000000        0.0000000000000000     
   1.0312500000000000       0.18750000000000000        0.0000000000000000     
   1.0625000000000000       0.18750000000000000        0.0000000000000000     
   1.0937500000000000       0.18750000000000000        0.0000000000000000     
   1.1250000000000000       0.18750000000000000        0.0000000000000000     
   1.0000000000000000       0.21875000000000000        0.0000000000000000     
   1.0312500000000000       0.21875000000000000        0.0000000000000000     
   1.0625000000000000       0.21875000000000000        0.0000000000000000     
   1.0937500000000000       0.21875000000000000        0.0000000000000000     
   1.1250000000000000       0.21875000000000000        0.0000000000000000     
   1.0000000000000000       0.25000000000000000        0.0000000000000000     
   1.0312500000000000       0.25000000000000000        0.0000000000000000     
   1.0625000000000000       0.25000000000000000        0.0000000000000000     
   1.0937500000000000       0.25000000000000000        0.0000000000000000     
   1.1250000000000000       0.25000000000000000        0.0000000000000000     
   1.1250000000000000       0.12500000000000000        0.0000000000000000     
   1.1562500000000000       0.12500000000000000        0.0000000000000000     
   1.1875000000000000       0.12500000000000000        0.0000000000000000     
   1.2187500000000000       0.12500000000000000        0.0000000000000000     
   1.2500000000000000       0.12500000000000000        0.0000000000000000     
   1.1250000000000000       0.15625000000000000        0.0000000000000000     
   1.1562500000000000       0.15625000000000000        0.0000000000000000     
   1.1875000000000000       0.15625000000000000        0.0000000000000000     
   1.2187500000000000       0.15625000000000000        0.0000000000000000     
   1.2500000000000000       0.15625000000000000        0.0000000000000000     
   1.1250000000000000       0.18750000000000000        0.0000000000000000     
   1.1562500000000000       0.18750000000000000        0.0000000000000000     
   1.1875000000000000       0.18750000000000000        0.0000000000000000     
   1.2187500000000000       0.18750000000000000        0.0000000000000000     
   1.2500000000000000       0.18750000000000000        0.0000000000000000     
   1.1250000000000000       0.21875000000000000        0.0000000000000000     
   1.1562500000000000       0.21875000000000000        0.0000000000000000     
   1.1875000000000000       0.21875000000000000        0.0000000000000000     
   1.2187500000000000       0.21875000000000000        0.0000000000000000     
   1.2500000000000000       0.21875000000000000        0.0000000000000000     
   1.1250000000000000       0.25000000000000000        0.0000000000000000     
   1.1562500000000000       0.25000000000000000        0.0000000000000000     
   1.1875000000000000       0.25000000000000000        0.0000000000000000     
   1.2187500000000000       0.25000000000000000        0.0000000000000000     
   1.2500000000000000       0.25000000000000000        0.0000000000000000     
   1.2500000000000000       0.12500000000000000        0.0000000000000000     
   1.2812500000000000       0.12500000000000000        0.0000000000000000     
   1.3125000000000000       0.12500000000000000        0.0000000000000000     
   1.3437500000000000       0.12500000000000000        0.0000000000000000     
   1.3750000000000000       0.12500000000000000        0.0000000000000000     
   1.2500000000000000       0.15625000000000000        0.0000000000000000     
   1.2812500000000000       0.15625000000000000        0.0000000000000000     
   1.3125000000000000       0.15625000000000000        0.0000000000000000     
   1.3437500000000000       0.15625000000000000        0.0000000000000000     
   1.3750000000000000       0.15625000000000000        0.0000000000000000     
   1.2500000000000000       0.18750000000000000        0.0000000000000000     
   1.2812500000000000       0.18750000000000000        0.0000000000000000     
   1.3125000000000000       0.18750000000000000        0.0000000000000000     
   1.3437500000000000       0.18750000000000000        0.0000000000000000     
   1.3750000000000000       0.18750000000000000        0.0000000000000000     
   1.2500000000000000       0.21875000000000000        0.0000000000000000     
   1.2812500000000000       0.21875000000000000        0.0000000000000000     
   1.3125000000000000       0.21875000000000000        0.0000000000000000     
   1.3437500000000000       0.21875000000000000        0.0000000000000000     
   1.3750000000000000       0.21875000000000000        0.0000000000000000     
   1.2500000000000000       0.25000000000000000        0.0000000000000000     
   1.2812500000000000       0.25000000000000000        0.0000000000000000     
   1.3125000000000000       0.25000000000000000        0.0000000000000000     
   1.3437500000000000       0.25000000000000000        0.0000000000000000     
   1.3750000000000000       0.25000000000000000        0.0000000000000000     
   1.3750000000000000       0.12500000000000000        0.0000000000000000     
   1.4062500000000000       0.12500000000000000        0.0000000000000000     
   1.4375000000000000       0.12500000000000000        0.0000000000000000     
   1.4687500000000000       0.12500000000000000        0.0000000000000000     
   1.5000000000000000       0.12500000000000000        0.0000000000000000     
   1.3750000000000000       0.15625000000000000        0.0000000000000000     
   1.4062500000000000       0.15625000000000000        0.0000000000000000     
   1.4375000000000000       0.15625000000000000        0.0000000000000000     
   1.4687500000000000       0.15625000000000000        0.0000000000000000     
   1.5000000000000000       0.15625000000000000        0.0000000000000000     
   1.3750000000000000       0.18750000000000000        0.0000000000000000     
   1.4062500000000000       0.18750000000000000        0.0000000000000000     
   1.4375000000000000       0.18750000000000000        0.0000000000000000     
   1.4687500000000000       0.18750000000000000        0.0000000000000000     
   1.5000000000000000       0.18750000000000000        0.0000000000000000     
   1.3750000000000000       0.21875000000000000        0.0000000000000000     
   1.4062500000000000       0.21875000000000000        0.0000000000000000     
   1.4375000000000000       0.21875000000000000        0.0000000000000000     
   1.4687500000000000       0.21875000000000000        0.0000000000000000     
   1.5000000000000000       0.21875000000000000        0.0000000000000000     
   1.3750000000000000       0.25000000000000000        0.0000000000000000     
   1.4062500000000000       0.25000000000000000        0.0000000000000000     
   1.4375000000000000       0.25000000000000000        0.0000000000000000     
   1.4687500000000000       0.25000000000000000        0.0000000000000000     
   1.5000000000000000       0.25000000000000000        0.0000000000000000     
  0.50000000000000000       0.25000000000000000        0.0000000000000000     
  0.53125000000000000       0.25000000000000000        0.0000000000000000     
  0.56250000000000000       0.25000000000000000        0.0000000000000000     
  0.59375000000000000       0.25000000000000000        0.0000000000000000     
  0.62500000000000000       0.25000000000000000        0.0000000000000000     
  0.50000000000000000       0.28125000000000000        0.0000000000000000     
  0.53125000000000000       0.28125000000000000        0.0000000000000000     
  0.56250000000000000       0.28125000000000000        0.0000000000000000     
  0.59375000000000000       0.28125000000000000        0.0000000000000000     
  0.62500000000000000       0.28125000000000000        0.0000000000000000     
  0.50000000000000000       0.31250000000000000        0.0000000000000000     
  0.53125000000000000       0.31250000000000000        0.0000000000000000     
  0.56250000000000000       0.31250000000000000        0.0000000000000000     
  0.59375000000000000       0.31250000000000000        0.0000000000000000     
  0.62500000000000000       0.31250000000000000        0.0000000000000000     
  0.50000000000000000       0.34375000000000000        0.0000000000000000     
  0.53125000000000000       0.34375000000000000        0.0000000000000000     
  0.56250000000000000       0.34375000000000000        0.0000000000000000     
  0.59375000000000000       0.34375000000000000        0.0000000000000000     
  0.62500000000000000       0.34375000000000000        0.0000000000000000     
  0.50000000000000000       0.37500000000000000        0.0000000000000000     
  0.53125000000000000       0.37500000000000000        0.0000000000000000     
  0.56250000000000000       0.37500000000000000        0.0000000000000000     
  0.59375000000000000       0.37500000000000000        0.0000000000000000     
  0.62500000000000000       0.37500000000000000        0.0000000000000000     
  0.62500000000000000       0.25000000000000000        0.0000000000000000     
  0.65625000000000000       0.25000000000000000        0.0000000000000000     
  0.68750000000000000       0.25000000000000000        0.0000000000000000     
  0.71875000000000000       0.25000000000000000        0.0000000000000000     
  0.75000000000000000       0.25000000000000000        0.0000000000000000     
  0.62500000000000000       0.28125000000000000        0.0000000000000000     
  0.65625000000000000       0.28125000000000000        0.0000000000000000     
  0.68750000000000000       0.28125000000000000        0.0000000000000000     
  0.71875000000000000       0.28125000000000000        0.0000000000000000     
  0.75000000000000000       0.28125000000000000        0.0000000000000000     
  0.62500000000000000       0.31250000000000000        0.0000000000000000     
  0.65625000000000000       0.31250000000000000        0.0000000000000000     
  0.68750000000000000       0.31250000000000000        0.0000000000000000     
  0.71875000000000000       0.31250000000000000        0.0000000000000000     
  0.75000000000000000       0.31250000000000000        0.0000000000000000     
  0.62500000000000000       0.34375000000000000        0.0000000000000000     
  0.65625000000000000       0.34375000000000000        0.0000000000000000     
  0.68750000000000000       0.34375000000000000        0.0000000000000000     
  0.71875000000000000       0.34375000000000000        0.0000000000000000     
  0.75000000000000000       0.34375000000000000        0.0000000000000000     
  0.62500000000000000       0.37500000000000000        0.0000000000000000     
  0.65625000000000000       0.37500000000000000        0.0000000000000000     
  0.68750000000000000       0.37500000000000000        0.0000000000000000     
  0.71875000000000000       0.37500000000000000        0.0000000000000000     
  0.75000000000000000       0.37500000000000000        0.0000000000000000     
  0.75000000000000000       0.25000000000000000        0.0000000000000000     
  0.78125000000000000       0.25000000000000000        0.0000000000000000     
  0.81250000000000000       0.25000000000000000        0.0000000000000000     
  0.84375000000000000       0.25000000000000000        0.0000000000000000     
  0.87500000000000000       0.25000000000000000        0.0000000000000000     
  0.75000000000000000       0.28125000000000000        0.0000000000000000     
  0.78125000000000000       0.28125000000000000        0.0000000000000000     
  0.81250000000000000       0.28125000000000000        0.0000000000000000     
  0.84375000000000000       0.28125000000000000        0.0000000000000000     
  0.87500000000000000       0.28125000000000000        0.0000000000000000     
  0.75000000000000000       0.31250000000000000        0.0000000000000000     
  0.78125000000000000       0.31250000000000000        0.0000000000000000     
  0.81250000000000000       0.31250000000000000        0.0000000000000000     
  0.84375000000000000       0.31250000000000000        0.0000000000000000     
  0.87500000000000000       0.31250000000000000        0.0000000000000000     
  0.75000000000000000       0.34375000000000000        0.0000000000000000     
  0.78125000000000000       0.34375000000000000        0.0000000000000000     
  0.81250000000000000       0.34375000000000000        0.0000000000000000     
  0.84375000000000000       0.34375000000000000        0.0000000000000000     
  0.87500000000000000       0.34375000000000000        0.0000000000000000     
  0.75000000000000000       0.37500000000000000        0.0000000000000000     
  0.78125000000000000       0.37500000000000000        0.0000000000000000     
  0.81250000000000000       0.37500000000000000        0.0000000000000000     
  0.84375000000000000       0.37500000000000000        0.0000000000000000     
  0.87500000000000000       0.37500000000000000        0.0000000000000000     
  0.87500000000000000       0.25000000000000000        0.0000000000000000     
  0.90625000000000000       0.25000000000000000        0.0000000000000000     
  0.93750000000000000       0.25000000000000000        0.0000000000000000     
  0.96875000000000000       0.25000000000000000        0.0000000000000000     
   1.0000000000000000       0.25000000000000000        0.0000000000000000     
  0.87500000000000000       0.28125000000000000        0.0000000000000000     
  0.90625000000000000       0.28125000000000000        0.0000000000000000     
  0.93750000000000000       0.28125000000000000        0.0000000000000000     
  0.96875000000000000       0.28125000000000000        0.0000000000000000     
   1.0000000000000000       0.28125000000000000        0.0000000000000000     
  0.87500000000000000       0.31250000000000000        0.0000000000000000     
  0.90625000000000000       0.31250000000000000        0.0000000000000000     
  0.93750000000000000       0.31250000000000000        0.0000000000000000     
  0.96875000000000000       0.31250000000000000        0.0000000000000000     
   1.0000000000000000       0.31250000000000000        0.0000000000000000     
  0.87500000000000000       0.34375000000000000        0.0000000000000000     
  0.90625000000000000       0.34375000000000000        0.0000000000000000     
  0.93750000000000000       0.34375000000000000        0.0000000000000000     
  0.96875000000000000       0.34375000000000000        0.0000000000000000     
   1.0000000000000000       0.34375000000000000        0.0000000000000000     
  0.87500000000000000       0.37500000000000000        0.0000000000000000     
  0.90625000000000000       0.37500000000000000        0.0000000000000000     
  0.93750000000000000       0.37500000000000000        0.0000000000000000     
  0.96875000000000000       0.37500000000000000        0.0000000000000000     
   1.0000000000000000       0.37500000000000000        0.0000000000000000     
   1.0000000000000000       0.25000000000000000        0.0000000000000000     
   1.0312500000000000       0.25000000000000000        0.0000000000000000     
   1.0625000000000000       0.25000000000000000        0.0000000000000000     
   1.0937500000000000       0.25000000000000000        0.0000000000000000     
   1.1250000000000000       0.25000000000000000        0.0000000000000000     
   1.0000000000000000       0.28125000000000000        0.0000000000000000     
   1.0312500000000000       0.28125000000000000        0.0000000000000000     
   1.0625000000000000       0.28125000000000000        0.0000000000000000     
   1.0937500000000000       0.28125000000000000        0.0000000000000000     
   1.1250000000000000       0.28125000000000000        0.0000000000000000     
   1.0000000000000000       0.31250000000000000        0.0000000000000000     
   1.0312500000000000       0.31250000000000000        0.0000000000000000     
   1.0625000000000000       0.31250000000000000        0.0000000000000000     
   1.0937500000000000       0.31250000000000000        0.0000000000000000     
   1.1250000000000000       0.31250000000000000        0.0000000000000000     
   1.0000000000000000       0.34375000000000000        0.0000000000000000     
   1.0312500000000000       0.34375000000000000        0.0000000000000000     
   1.0625000000000000       0.34375000000000000        0.0000000000000000     
   1.0937500000000000       0.34375000000000000        0.0000000000000000     
   1.1250000000000000       0.34375000000000000        0.0000000000000000     
   1.0000000000000000       0.37500000000000000        0.0000000000000000     
   1.0312500000000000       0.37500000000000000        0.0000000000000000     
   1.0625000000000000       0.37500000000000000        0.0000000000000000     
   1.0937500000000000       0.37500000000000000        0.0000000000000000     
   1.1250000000000000       0.37500000000000000        0.0000000000000000     
   1.1250000000000000       0.25000000000000000        0.0000000000000000     
   1.1562500000000000       0.25000000000000000        0.0000000000000000     
   1.1875000000000000       0.25000000000000000        0.0000000000000000     
   1.2187500000000000       0.25000000000000000        0.0000000000000000     
   1.2500000000000000       0.25000000000000000        0.0000000000000000     
   1.1250000000000000       0.28125000000000000        0.0000000000000000     
   1.1562500000000000       0.28125000000000000        0.0000000000000000     
   1.1875000000000000       0.28125000000000000        0.0000000000000000     
   1.2187500000000000       0.28125000000000000        0.0000000000000000     
   1.2500000000000000       0.28125000000000000        0.0000000000000000     
   1.1250000000000000       0.31250000000000000        0.0000000000000000     
   1.1562500000000000       0.31250000000000000        0.0000000000000000     
   1.1875000000000000       0.31250000000000000        0.0000000000000000     
   1.2187500000000000       0.31250000000000000        0.0000000000000000     
   1.2500000000000000       0.31250000000000000        0.0000000000000000     
   1.1250000000000000       0.34375000000000000        0.0000000000000000     
   1.1562500000000000       0.34375000000000000        0.0000000000000000     
   1.1875000000000000       0.34375000000000000        0.0000000000000000     
   1.2187500000000000       0.34375000000000000        0.0000000000000000     
   1.2500000000000000       0.34375000000000000        0.0000000000000000     
   1.1250000000000000       0.37500000000000000        0.0000000000000000     
   1.1562500000000000       0.37500000000000000        0.0000000000000000     
   1.1875000000000000       0.37500000000000000        0.0000000000000000     
   1.2187500000000000       0.37500000000000000        0.0000000000000000     
   1.2500000000000000       0.37500000000000000        0.0000000000000000     
   1.2500000000000000       0.25000000000000000        0.0000000000000000     
   1.2812500000000000       0.25000000000000000        0.0000000000000000     
   1.3125000000000000       0.25000000000000000        0.0000000000000000     
   1.3437500000000000       0.25000000000000000        0.0000000000000000     
   1.3750000000000000       0.25000000000000000        0.0000000000000000     
   1.2500000000000000       0.28125000000000000        0.0000000000000000     
   1.2812500000000000       0.28125000000000000        0.0000000000000000     
   1.3125000000000000       0.28125000000000000        0.0000000000000000     
   1.3437500000000000       0.28125000000000000        0.0000000000000000     
   1.3750000000000000       0.28125000000000000        0.0000000000000000     
   1.2500000000000000       0.31250000000000000        0.0000000000000000     
   1.2812500000000000       0.31250000000000000        0.0000000000000000     
   1.3125000000000000       0.31250000000000000        0.0000000000000000     
   1.3437500000000000       0.31250000000000000        0.0000000000000000     
   1.3750000000000000       0.31250000000000000        0.0000000000000000     
   1.2500000000000000       0.34375000000000000        0.0000000000000000     
   1.2812500000000000       0.34375000000000000        0.0000000000000000     
   1.3125000000000000       0.34375000000000000        0.0000000000000000     
   1.3437500000000000       0.34375000000000000        0.0000000000000000     
   1.3750000000000000       0.34375000000000000        0.0000000000000000     
   1.2500000000000000       0.37500000000000000        0.0000000000000000     
   1.2812500000000000       0.37500000000000000        0.0000000000000000     
   1.3125000000000000       0.37500000000000000        0.0000000000000000     
   1.3437500000000000       0.37500000000000000        0.0000000000000000     
   1.3750000000000000       0.37500000000000000        0.0000000000000000     
   1.3750000000000000       0.25000000000000000        0.0000000000000000     
   1.4062500000000000       0.25000000000000000        0.0000000000000000     
   1.4375000000000000       0.25000000000000000        0.0000000000000000     
   1.4687500000000000       0.25000000000000000        0.0000000000000000     
   1.5000000000000000       0.25000000000000000        0.0000000000000000     
   1.3750000000000000       0.28125000000000000        0.0000000000000000     
   1.4062500000000000       0.28125000000000000        0.0000000000000000     
   1.4375000000000000       0.28125000000000000        0.0000000000000000     
   1.4687500000000000       0.28125000000000000        0.0000000000000000     
   1.5000000000000000       0.28125000000000000        0.0000000000000000     
   1.3750000000000000       0.31250000000000000        0.0000000000000000     
   1.4062500000000000       0.31250000000000000        0.0000000000000000     
   1.4375000000000000       0.31250000000000000        0.0000000000000000     
   1.4687500000000000       0.31250000000000000        0.0000000000000000     
   1.5000000000000000       0.31250000000000000        0.0000000000000000     
   1.3750000000000000       0.34375000000000000        0.0000000000000000     
   1.4062500000000000       0.34375000000000000        0.0000000000000000     
   1.4375000000000000       0.34375000000000000        0.0000000000000000     
   1.4687500000000000       0.34375000000000000        0.0000000000000000     
   1.5000000000000000       0.34375000000000000        0.0000000000000000     
   1.3750000000000000       0.37500000000000000        0.0000000000000000     
   1.4062500000000000       0.37500000000000000        0.0000000000000000     
   1.4375000000000000       0.37500000000000000        0.0000000000000000     
   1.4687500000000000       0.37500000000000000        0.0000000000000000     
   1.5000000000000000       0.37500000000000000        0.0000000000000000     
  0.50000000000000000       0.37500000000000000        0.0000000000000000     
  0.53125000000000000       0.37500000000000000        0.0000000000000000     
  0.56250000000000000       0.37500000000000000        0.0000000000000000     
  0.59375000000000000       0.37500000000000000        0.0000000000000000     
  0.62500000000000000       0.37500000000000000        0.0000000000000000     
  0.50000000000000000       0.40625000000000000        0.0000000000000000     
  0.53125000000000000       0.40625000000000000        0.0000000000000000     
  0.56250000000000000       0.40625000000000000        0.0000000000000000     
  0.59375000000000000       0.40625000000000000        0.0000000000000000     
  0.62500000000000000       0.40625000000000000        0.0000000000000000     
  0.50000000000000000       0.43750000000000000        0.0000000000000000     
  0.53125000000000000       0.43750000000000000        0.0000000000000000     
  0.56250000000000000       0.43750000000000000        0.0000000000000000     
  0.59375000000000000       0.43750000000000000        0.0000000000000000     
  0.62500000000000000       0.43750000000000000        0.0000000000000000     
  0.50000000000000000       0.46875000000000000        0.0000000000000000     
  0.53125000000000000       0.46875000000000000        0.0000000000000000     
  0.56250000000000000       0.46875000000000000        0.0000000000000000     
  0.59375000000000000       0.46875000000000000        0.0000000000000000     
  0.62500000000000000       0.46875000000000000        0.0000000000000000     
  0.50000000000000000       0.50000000000000000        0.0000000000000000     
  0.53125000000000000       0.50000000000000000        0.0000000000000000     
  0.56250000000000000       0.50000000000000000        0.0000000000000000     
  0.59375000000000000       0.50000000000000000        0.0000000000000000     
  0.62500000000000000       0.50000000000000000        0.0000000000000000     
  0.62500000000000000       0.37500000000000000        0.0000000000000000     
  0.65625000000000000       0.37500000000000000        0.0000000000000000     
  0.68750000000000000       0.37500000000000000        0.0000000000000000     
  0.71875000000000000       0.37500000000000000        0.0000000000000000     
  0.75000000000000000       0.37500000000000000        0.0000000000000000     
  0.62500000000000000       0.40625000000000000        0.0000000000000000     
  0.65625000000000000       0.40625000000000000        0.0000000000000000     
  0.68750000000000000       0.40625000000000000        0.0000000000000000     
  0.71875000000000000       0.40625000000000000        0.0000000000000000     
  0.75000000000000000       0.40625000000000000        0.0000000000000000     
  0.62500000000000000       0.43750000000000000        0.0000000000000000     
  0.65625000000000000       0.43750000000000000        0.0000000000000000     
  0.68750000000000000       0.43750000000000000        0.0000000000000000     
  0.71875000000000000       0.43750000000000000        0.0000000000000000     
  0.75000000000000000       0.43750000000000000        0.0000000000000000     
  0.62500000000000000       0.46875000000000000        0.0000000000000000     
  0.65625000000000000       0.46875000000000000        0.0000000000000000     
  0.68750000000000000       0.46875000000000000        0.0000000000000000     
  0.71875000000000000       0.46875000000000000        0.0000000000000000     
  0.75000000000000000       0.46875000000000000        0.0000000000000000     
  0.62500000000000000       0.50000000000000000        0.0000000000000000     
  0.65625000000000000       0.50000000000000000        0.0000000000000000     
  0.68750000000000000       0.50000000000000000        0.0000000000000000     
  0.71875000000000000       0.50000000000000000        0.0000000000000000     
  0.75000000000000000       0.50000000000000000        0.0000000000000000     
  0.75000000000000000       0.37500000000000000        0.0000000000000000     
  0.78125000000000000       0.37500000000000000        0.0000000000000000     
  0.81250000000000000       0.37500000000000000        0.0000000000000000     
  0.84375000000000000       0.37500000000000000        0.0000000000000000     
  0.87500000000000000       0.37500000000000000        0.0000000000000000     
  0.75000000000000000       0.40625000000000000        0.0000000000000000     
  0.78125000000000000       0.40625000000000000        0.0000000000000000     
  0.81250000000000000       0.40625000000000000        0.0000000000000000     
  0.84375000000000000       0.40625000000000000        0.0000000000000000     
  0.87500000000000000       0.40625000000000000        0.0000000000000000     
  0.75000000000000000       0.43750000000000000        0.0000000000000000     
  0.78125000000000000       0.43750000000000000        0.0000000000000000     
  0.81250000000000000       0.43750000000000000        0.0000000000000000     
  0.84375000000000000       0.43750000000000000        0.0000000000000000     
  0.87500000000000000       0.43750000000000000        0.0000000000000000     
  0.75000000000000000       0.46875000000000000        0.0000000000000000     
  0.78125000000000000       0.46875000000000000        0.0000000000000000     
  0.81250000000000000       0.46875000000000000        0.0000000000000000     
  0.84375000000000000       0.46875000000000000        0.0000000000000000     
  0.87500000000000000       0.46875000000000000        0.0000000000000000     
  0.75000000000000000       0.50000000000000000        0.0000000000000000     
  0.78125000000000000       0.50000000000000000        0.0000000000000000     
  0.81250000000000000       0.50000000000000000        0.0000000000000000     
  0.84375000000000000       0.50000000000000000        0.0000000000000000     
  0.87500000000000000       0.50000000000000000        0.0000000000000000     
  0.87500000000000000       0.37500000000000000        0.0000000000000000     
  0.90625000000000000       0.37500000000000000        0.0000000000000000     
  0.93750000000000000       0.37500000000000000        0.0000000000000000     
  0.96875000000000000       0.37500000000000000        0.0000000000000000     
   1.0000000000000000       0.37500000000000000        0.0000000000000000     
  0.87500000000000000       0.40625000000000000        0.0000000000000000     
  0.90625000000000000       0.40625000000000000        0.0000000000000000     
  0.93750000000000000       0.40625000000000000        0.0000000000000000     
  0.96875000000000000       0.40625000000000000        0.0000000000000000     
   1.0000000000000000       0.40625000000000000        0.0000000000000000     
  0.87500000000000000       0.43750000000000000        0.0000000000000000     
  0.90625000000000000       0.43750000000000000        0.0000000000000000     
  0.93750000000000000       0.43750000000000000        0.0000000000000000     
  0.96875000000000000       0.43750000000000000        0.0000000000000000     
   1.0000000000000000       0.43750000000000000        0.0000000000000000     
  0.87500000000000000       0.46875000000000000        0.0000000000000000     
  0.90625000000000000       0.46875000000000000        0.0000000000000000     
  0.93750000000000000       0.46875000000000000        0.0000000000000000     
  0.96875000000000000       0.46875000000000000        0.0000000000000000     
   1.0000000000000000       0.46875000000000000        0.0000000000000000     
  0.87500000000000000       0.50000000000000000        0.0000000000000000     
  0.90625000000000000       0.50000000000000000        0.0000000000000000     
  0.93750000000000000       0.50000000000000000        0.0000000000000000     
  0.96875000000000000       0.50000000000000000        0.0000000000000000     
   1.0000000000000000       0.50000000000000000        0.0000000000000000     
   1.0000000000000000       0.37500000000000000        0.0000000000000000     
   1.0312500000000000       0.37500000000000000        0.0000000000000000     
   1.0625000000000000       0.37500000000000000        0.0000000000000000     
   1.0937500000000000       0.37500000000000000        0.0000000000000000     
   1.1250000000000000       0.37500000000000000        0.0000000000000000     
   1.0000000000000000       0.40625000000000000        0.0000000000000000     
   1.0312500000000000       0.40625000000000000        0.0000000000000000     
   1.0625000000000000       0.40625000000000000        0.0000000000000000     
   1.0937500000000000       0.40625000000000000        0.0000000000000000     
   1.1250000000000000       0.40625000000000000        0.0000000000000000     
   1.0000000000000000       0.43750000000000000        0.0000000000000000     
   1.0312500000000000       0.43750000000000000        0.0000000000000000     
   1.0625000000000000       0.43750000000000000        0.0000000000000000     
   1.0937500000000000       0.43750000000000000        0.0000000000000000     
   1.1250000000000000       0.43750000000000000        0.0000000000000000     
   1.0000000000000000       0.46875000000000000        0.0000000000000000     
   1.0312500000000000       0.46875000000000000        0.0000000000000000     
   1.0625000000000000       0.46875000000000000        0.0000000000000000     
   1.0937500000000000       0.46875000000000000        0.0000000000000000     
   1.1250000000000000       0.46875000000000000        0.0000000000000000     
   1.0000000000000000       0.50000000000000000        0.0000000000000000     
   1.0312500000000000       0.50000000000000000        0.0000000000000000     
   1.0625000000000000       0.50000000000000000        0.0000000000000000     
   1.0937500000000000       0.50000000000000000        0.0000000000000000     
   1.1250000000000000       0.50000000000000000        0.0000000000000000     
   1.1250000000000000       0.37500000000000000        0.0000000000000000     
   1.1562500000000000       0.37500000000000000        0.0000000000000000     
   1.1875000000000000       0.37500000000000000        0.0000000000000000     
   1.2187500000000000       0.37500000000000000        0.0000000000000000     
   1.2500000000000000       0.37500000000000000        0.0000000000000000     
   1.1250000000000000       0.40625000000000000        0.0000000000000000     
   1.1562500000000000       0.40625000000000000        0.0000000000000000     
   1.1875000000000000       0.40625000000000000        0.0000000000000000     
   1.2187500000000000       0.40625000000000000        0.0000000000000000     
   1.2500000000000000       0.40625000000000000        0.0000000000000000     
   1.1250000000000000       0.43750000000000000        0.0000000000000000     
   1.1562500000000000       0.43750000000000000        0.0000000000000000     
   1.1875000000000000       0.43750000000000000        0.0000000000000000     
   1.2187500000000000       0.43750000000000000        0.0000000000000000     
   1.2500000000000000       0.43750000000000000        0.0000000000000000     
   1.1250000000000000       0.46875000000000000        0.0000000000000000     
   1.1562500000000000       0.46875000000000000        0.0000000000000000     
   1.1875000000000000       0.46875000000000000        0.0000000000000000     
   1.2187500000000000       0.46875000000000000        0.0000000000000000     
   1.2500000000000000       0.46875000000000000        0.0000000000000000     
   1.1250000000000000       0.50000000000000000        0.0000000000000000     
   1.1562500000000000       0.50000000000000000        0.0000000000000000     
   1.1875000000000000       0.50000000000000000        0.0000000000000000     
   1.2187500000000000       0.50000000000000000        0.0000000000000000     
   1.2500000000000000       0.50000000000000000        0.0000000000000000     
   1.2500000000000000       0.37500000000000000        0.0000000000000000     
   1.2812500000000000       0.37500000000000000        0.0000000000000000     
   1.3125000000000000       0.37500000000000000        0.0000000000000000     
   1.3437500000000000       0.37500000000000000        0.0000000000000000     
   1.3750000000000000       0.37500000000000000        0.0000000000000000     
   1.2500000000000000       0.40625000000000000        0.0000000000000000     
   1.2812500000000000       0.40625000000000000        0.0000000000000000     
   1.3125000000000000       0.40625000000000000        0.0000000000000000     
   1.3437500000000000       0.40625000000000000        0.0000000000000000     
   1.3750000000000000       0.40625000000000000        0.0000000000000000     
   1.2500000000000000       0.43750000000000000        0.0000000000000000     
   1.2812500000000000       0.43750000000000000        0.0000000000000000     
   1.3125000000000000       0.43750000000000000        0.0000000000000000     
   1.3437500000000000       0.43750000000000000        0.0000000000000000     
   1.3750000000000000       0.43750000000000000        0.0000000000000000     
   1.2500000000000000       0.46875000000000000        0.0000000000000000     
   1.2812500000000000       0.46875000000000000        0.0000000000000000     
   1.3125000000000000       0.46875000000000000        0.0000000000000000     
   1.3437500000000000       0.46875000000000000        0.0000000000000000     
   1.3750000000000000       0.46875000000000000        0.0000000000000000     
   1.2500000000000000       0.50000000000000000        0.0000000000000000     
   1.2812500000000000       0.50000000000000000        0.0000000000000000     
   1.3125000000000000       0.50000000000000000        0.0000000000000000     
   1.3437500000000000       0.50000000000000000        0.0000000000000000     
   1.3750000000000000       0.50000000000000000        0.0000000000000000     
   1.3750000000000000       0.37500000000000000        0.0000000000000000     
   1.4062500000000000       0.37500000000000000        0.0000000000000000     
   1.4375000000000000       0.37500000000000000        0.0000000000000000     
   1.4687500000000000       0.37500000000000000        0.0000000000000000     
   1.5000000000000000       0.37500000000000000        0.0000000000000000     
   1.3750000000000000       0.40625000000000000        0.0000000000000000     
   1.4062500000000000       0.40625000000000000        0.0000000000000000     
   1.4375000000000000       0.40625000000000000        0.0000000000000000     
   1.4687500000000000       0.40625000000000000        0.0000000000000000     
   1.5000000000000000       0.40625000000000000        0.0000000000000000     
   1.3750000000000000       0.43750000000000000        0.0000000000000000     
   1.4062500000000000       0.43750000000000000        0.0000000000000000     
   1.4375000000000000       0.43750000000000000        0.0000000000000000     
   1.4687500000000000       0.43750000000000000        0.0000000000000000     
   1.5000000000000000       0.43750000000000000        0.0000000000000000     
   1.3750000000000000       0.46875000000000000        0.0000000000000000     
   1.4062500000000000       0.46875000000000000        0.0000000000000000     
   1.4375000000000000       0.46875000000000000        0.0000000000000000     
   1.4687500000000000       0.46875000000000000        0.0000000000000000     
   1.5000000000000000       0.46875000000000000        0.0000000000000000     
   1.3750000000000000       0.50000000000000000        0.0000000000000000     
   1.4062500000000000       0.50000000000000000        0.0000000000000000     
   1.4375000000000000       0.50000000000000000        0.0000000000000000     
   1.4687500000000000       0.50000000000000000        0.0000000000000000     
   1.5000000000000000       0.50000000000000000        0.0000000000000000     
  0.50000000000000000       0.50000000000000000        0.0000000000000000     
  0.53125000000000000       0.50000000000000000        0.0000000000000000     
  0.56250000000000000       0.50000000000000000        0.0000000000000000     
  0.59375000000000000       0.50000000000000000        0.0000000000000000     
  0.62500000000000000       0.50000000000000000        0.0000000000000000     
  0.50000000000000000       0.53125000000000000        0.0000000000000000     
  0.53125000000000000       0.53125000000000000        0.0000000000000000     
  0.56250000000000000       0.53125000000000000        0.0000000000000000     
  0.59375000000000000       0.53125000000000000        0.0000000000000000     
  0.62500000000000000       0.53125000000000000        0.0000000000000000     
  0.50000000000000000       0.56250000000000000        0.0000000000000000     
  0.53125000000000000       0.56250000000000000        0.0000000000000000     
  0.56250000000000000       0.56250000000000000        0.0000000000000000     
  0.59375000000000000       0.56250000000000000        0.0000000000000000     
  0.62500000000000000       0.56250000000000000        0.0000000000000000     
  0.50000000000000000       0.59375000000000000        0.0000000000000000     
  0.53125000000000000       0.59375000000000000        0.0000000000000000     
  0.56250000000000000       0.59375000000000000        0.0000000000000000     
  0.59375000000000000       0.59375000000000000        0.0000000000000000     
  0.62500000000000000       0.59375000000000000        0.0000000000000000     
  0.50000000000000000       0.62500000000000000        0.0000000000000000     
  0.53125000000000000       0.62500000000000000        0.0000000000000000     
  0.56250000000000000       0.62500000000000000        0.0000000000000000     
  0.59375000000000000       0.62500000000000000        0.0000000000000000     
  0.62500000000000000       0.62500000000000000        0.0000000000000000     
  0.62500000000000000       0.50000000000000000        0.0000000000000000     
  0.65625000000000000       0.50000000000000000        0.0000000000000000     
  0.68750000000000000       0.50000000000000000        0.0000000000000000     
  0.71875000000000000       0.50000000000000000        0.0000000000000000     
  0.75000000000000000       0.50000000000000000        0.0000000000000000     
  0.62500000000000000       0.53125000000000000        0.0000000000000000     
  0.65625000000000000       0.53125000000000000        0.0000000000000000     
  0.68750000000000000       0.53125000000000000        0.0000000000000000     
  0.71875000000000000       0.53125000000000000        0.0000000000000000     
  0.75000000000000000       0.53125000000000000        0.0000000000000000     
  0.62500000000000000       0.56250000000000000        0.0000000000000000     
  0.65625000000000000       0.56250000000000000        0.0000000000000000     
  0.68750000000000000       0.56250000000000000        0.0000000000000000     
  0.71875000000000000       0.56250000000000000        0.0000000000000000     
  0.75000000000000000       0.56250000000000000        0.0000000000000000     
  0.62500000000000000       0.59375000000000000        0.0000000000000000     
  0.65625000000000000       0.59375000000000000        0.0000000000000000     
  0.68750000000000000       0.59375000000000000        0.0000000000000000     
  0.71875000000000000       0.59375000000000000        0.0000000000000000     
  0.75000000000000000       0.59375000000000000        0.0000000000000000     
  0.62500000000000000       0.62500000000000000        0.0000000000000000     
  0.65625000000000000       0.62500000000000000        0.0000000000000000     
  0.68750000000000000       0.62500000000000000        0.0000000000000000     
  0.71875000000000000       0.62500000000000000        0.0000000000000000     
  0.75000000000000000       0.62500000000000000        0.0000000000000000     
  0.75000000000000000       0.50000000000000000        0.0000000000000000     
  0.78125000000000000       0.50000000000000000        0.0000000000000000     
  0.81250000000000000       0.50000000000000000        0.0000000000000000     
  0.84375000000000000       0.50000000000000000        0.0000000000000000     
  0.87500000000000000       0.50000000000000000        0.0000000000000000     
  0.75000000000000000       0.53125000000000000        0.0000000000000000     
  0.78125000000000000       0.53125000000000000        0.0000000000000000     
  0.81250000000000000       0.53125000000000000        0.0000000000000000     
  0.84375000000000000       0.53125000000000000        0.0000000000000000     
  0.87500000000000000       0.53125000000000000        0.0000000000000000     
  0.75000000000000000       0.56250000000000000        0.0000000000000000     
  0.78125000000000000       0.56250000000000000        0.0000000000000000     
  0.81250000000000000       0.56250000000000000        0.0000000000000000     
  0.84375000000000000       0.56250000000000000        0.0000000000000000     
  0.87500000000000000       0.56250000000000000        0.0000000000000000     
  0.75000000000000000       0.59375000000000000        0.0000000000000000     
  0.78125000000000000       0.59375000000000000        0.0000000000000000     
  0.81250000000000000       0.59375000000000000        0.0000000000000000     
  0.84375000000000000       0.59375000000000000        0.0000000000000000     
  0.87500000000000000       0.59375000000000000        0.0000000000000000     
  0.75000000000000000       0.62500000000000000        0.0000000000000000     
  0.78125000000000000       0.62500000000000000        0.0000000000000000     
  0.81250000000000000       0.62500000000000000        0.0000000000000000     
  0.84375000000000000       0.62500000000000000        0.0000000000000000     
  0.87500000000000000       0.62500000000000000        0.0000000000000000     
  0.87500000000000000       0.50000000000000000        0.0000000000000000     
  0.90625000000000000       0.50000000000000000        0.0000000000000000     
  0.93750000000000000       0.50000000000000000        0.0000000000000000     
  0.96875000000000000       0.50000000000000000        0.0000000000000000     
   1.0000000000000000       0.50000000000000000        0.0000000000000000     
  0.87500000000000000       0.53125000000000000        0.0000000000000000     
  0.90625000000000000       0.53125000000000000        0.0000000000000000     
  0.93750000000000000       0.53125000000000000        0.0000000000000000     
  0.96875000000000000       0.53125000000000000        0.0000000000000000     
   1.0000000000000000       0.53125000000000000        0.0000000000000000     
  0.87500000000000000       0.56250000000000000        0.0000000000000000     
  0.90625000000000000       0.56250000000000000        0.0000000000000000     
  0.93750000000000000       0.56250000000000000        0.0000000000000000     
  0.96875000000000000       0.56250000000000000        0.0000000000000000     
   1.0000000000000000       0.56250000000000000        0.0000000000000000     
  0.87500000000000000       0.59375000000000000        0.0000000000000000     
  0.90625000000000000       0.59375000000000000        0.0000000000000000     
  0.93750000000000000       0.59375000000000000        0.0000000000000000     
  0.96875000000000000       0.59375000000000000        0.0000000000000000     
   1.0000000000000000       0.59375000000000000        0.0000000000000000     
  0.87500000000000000       0.62500000000000000        0.0000000000000000     
  0.90625000000000000       0.62500000000000000        0.0000000000000000     
  0.93750000000000000       0.62500000000000000        0.0000000000000000     
  0.96875000000000000       0.62500000000000000        0.0000000000000000     
   1.0000000000000000       0.62500000000000000        0.0000000000000000     
   1.0000000000000000       0.50000000000000000        0.0000000000000000     
   1.0312500000000000       0.50000000000000000        0.0000000000000000     
   1.0625000000000000       0.50000000000000000        0.0000000000000000     
   1.0937500000000000       0.50000000000000000        0.0000000000000000     
   1.1250000000000000       0.50000000000000000        0.0000000000000000     
   1.0000000000000000       0.53125000000000000        0.0000000000000000     
   1.0312500000000000       0.53125000000000000        0.0000000000000000     
   1.0625000000000000       0.53125000000000000        0.0000000000000000     
   1.0937500000000000       0.53125000000000000        0.0000000000000000     
   1.1250000000000000       0.53125000000000000        0.0000000000000000     
   1.0000000000000000       0.56250000000000000        0.0000000000000000     
   1.0312500000000000       0.56250000000000000        0.0000000000000000     
   1.0625000000000000       0.56250000000000000        0.0000000000000000     
   1.0937500000000000       0.56250000000000000        0.0000000000000000     
   1.1250000000000000       0.56250000000000000        0.0000000000000000     
   1.0000000000000000       0.59375000000000000        0.0000000000000000     
   1.0312500000000000       0.59375000000000000        0.0000000000000000     
   1.0625000000000000       0.59375000000000000        0.0000000000000000     
   1.0937500000000000       0.59375000000000000        0.0000000000000000     
   1.1250000000000000       0.59375000000000000        0.0000000000000000     
   1.0000000000000000       0.62500000000000000        0.0000000000000000     
   1.0312500000000000       0.62500000000000000        0.0000000000000000     
   1.0625000000000000       0.62500000000000000        0.0000000000000000     
   1.0937500000000000       0.62500000000000000        0.0000000000000000     
   1.1250000000000000       0.62500000000000000        0.0000000000000000     
   1.1250000000000000       0.50000000000000000        0.0000000000000000     
   1.1562500000000000       0.50000000000000000        0.0000000000000000     
   1.1875000000000000       0.50000000000000000        0.0000000000000000     
   1.2187500000000000       0.50000000000000000        0.0000000000000000     
   1.2500000000000000       0.50000000000000000        0.0000000000000000     
   1.1250000000000000       0.53125000000000000        0.0000000000000000     
   1.1562500000000000       0.53125000000000000        0.0000000000000000     
   1.1875000000000000       0.53125000000000000        0.0000000000000000     
   1.2187500000000000       0.53125000000000000        0.0000000000000000     
   1.2500000000000000       0.53125000000000000        0.0000000000000000     
   1.1250000000000000       0.56250000000000000        0.0000000000000000     
   1.1562500000000000       0.56250000000000000        0.0000000000000000     
   1.1875000000000000       0.56250000000000000        0.0000000000000000     
   1.2187500000000000       0.56250000000000000        0.0000000000000000     
   1.2500000000000000       0.56250000000000000        0.0000000000000000     
   1.1250000000000000       0.59375000000000000        0.0000000000000000     
   1.1562500000000000       0.59375000000000000        0.0000000000000000     
   1.1875000000000000       0.59375000000000000        0.0000000000000000     
   1.2187500000000000       0.59375000000000000        0.0000000000000000     
   1.2500000000000000       0.59375000000000000        0.0000000000000000     
   1.1250000000000000       0.62500000000000000        0.0000000000000000     
   1.1562500000000000       0.62500000000000000        0.0000000000000000     
   1.1875000000000000       0.62500000000000000        0.0000000000000000     
   1.2187500000000000       0.62500000000000000        0.0000000000000000     
   1.2500000000000000       0.62500000000000000        0.0000000000000000     
   1.2500000000000000       0.50000000000000000        0.0000000000000000     
   1.2812500000000000       0.50000000000000000        0.0000000000000000     
   1.3125000000000000       0.50000000000000000        0.0000000000000000     
   1.3437500000000000       0.50000000000000000        0.0000000000000000     
   1.3750000000000000       0.50000000000000000        0.0000000000000000     
   1.2500000000000000       0.53125000000000000        0.0000000000000000     
   1.2812500000000000       0.53125000000000000        0.0000000000000000     
   1.3125000000000000       0.53125000000000000        0.0000000000000000     
   1.3437500000000000       0.53125000000000000        0.0000000000000000     
   1.3750000000000000       0.53125000000000000        0.0000000000000000     
   1.2500000000000000       0.56250000000000000        0.0000000000000000     
   1.2812500000000000       0.56250000000000000        0.0000000000000000     
   1.3125000000000000       0.56250000000000000        0.0000000000000000     
   1.3437500000000000       0.56250000000000000        0.0000000000000000     
   1.3750000000000000       0.56250000000000000        0.0000000000000000     
   1.2500000000000000       0.59375000000000000        0.0000000000000000     
   1.2812500000000000       0.59375000000000000        0.0000000000000000     
   1.3125000000000000       0.59375000000000000        0.0000000000000000     
   1.3437500000000000       0.59375000000000000        0.0000000000000000     
   1.3750000000000000       0.59375000000000000        0.0000000000000000     
   1.2500000000000000       0.62500000000000000        0.0000000000000000     
   1.2812500000000000       0.62500000000000000        0.0000000000000000     
   1.3125000000000000       0.62500000000000000        0.0000000000000000     
   1.3437500000000000       0.62500000000000000        0.0000000000000000     
   1.3750000000000000       0.62500000000000000        0.0000000000000000     
   1.3750000000000000       0.50000000000000000        0.0000000000000000     
   1.4062500000000000       0.50000000000000000        0.0000000000000000     
   1.4375000000000000       0.50000000000000000        0.0000000000000000     
   1.4687500000000000       0.50000000000000000        0.0000000000000000     
   1.5000000000000000       0.50000000000000000        0.0000000000000000     
   1.3750000000000000       0.53125000000000000        0.0000000000000000     
   1.4062500000000000       0.53125000000000000        0.0000000000000000     
   1.4375000000000000       0.53125000000000000        0.0000000000000000     
   1.4687500000000000       0.53125000000000000        0.0000000000000000     
   1.5000000000000000       0.53125000000000000        0.0000000000000000     
   1.3750000000000000       0.56250000000000000        0.0000000000000000     
   1.4062500000000000       0.56250000000000000        0.0000000000000000     
   1.4375000000000000       0.56250000000000000        0.0000000000000000     
   1.4687500000000000       0.56250000000000000        0.0000000000000000     
   1.5000000000000000       0.56250000000000000        0.0000000000000000     
   1.3750000000000000       0.59375000000000000        0.0000000000000000     
   1.4062500000000000       0.59375000000000000        0.0000000000000000     
   1.4375000000000000       0.59375000000000000        0.0000000000000000     
   1.4687500000000000       0.59375000000000000        0.0000000000000000     
   1.5000000000000000       0.59375000000000000        0.0000000000000000     
   1.3750000000000000       0.62500000000000000        0.0000000000000000     
   1.4062500000000000       0.62500000000000000        0.0000000000000000     
   1.4375000000000000       0.62500000000000000        0.0000000000000000     
   1.4687500000000000       0.62500000000000000        0.0000000000000000     
   1.5000000000000000       0.62500000000000000        0.0000000000000000     
  0.50000000000000000       0.62500000000000000        0.0000000000000000     
  0.53125000000000000       0.62500000000000000        0.0000000000000000     
  0.56250000000000000       0.62500000000000000        0.0000000000000000     
  0.59375000000000000       0.62500000000000000        0.0000000000000000     
  0.62500000000000000       0.62500000000000000        0.0000000000000000     
  0.50000000000000000       0.65625000000000000        0.0000000000000000     
  0.53125000000000000       0.65625000000000000        0.0000000000000000     
  0.56250000000000000       0.65625000000000000        0.0000000000000000     
  0.59375000000000000       0.65625000000000000        0.0000000000000000     
  0.62500000000000000       0.65625000000000000        0.0000000000000000     
  0.50000000000000000       0.68750000000000000        0.0000000000000000     
  0.53125000000000000       0.68750000000000000        0.0000000000000000     
  0.56250000000000000       0.68750000000000000        0.0000000000000000     
  0.59375000000000000       0.68750000000000000        0.0000000000000000     
  0.62500000000000000       0.68750000000000000        0.0000000000000000     
  0.50000000000000000       0.71875000000000000        0.0000000000000000     
  0.53125000000000000       0.71875000000000000        0.0000000000000000     
  0.56250000000000000       0.71875000000000000        0.0000000000000000     
  0.59375000000000000       0.71875000000000000        0.0000000000000000     
  0.62500000000000000       0.71875000000000000        0.0000000000000000     
  0.50000000000000000       0.75000000000000000        0.0000000000000000     
  0.53125000000000000       0.75000000000000000        0.0000000000000000     
  0.56250000000000000       0.75000000000000000        0.0000000000000000     
  0.59375000000000000       0.75000000000000000        0.0000000000000000     
  0.62500000000000000       0.75000000000000000        0.0000000000000000     
  0.62500000000000000       0.62500000000000000        0.0000000000000000     
  0.65625000000000000       0.62500000000000000        0.0000000000000000     
  0.68750000000000000       0.62500000000000000        0.0000000000000000     
  0.71875000000000000       0.62500000000000000        0.0000000000000000     
  0.75000000000000000       0.62500000000000000        0.0000000000000000     
  0.62500000000000000       0.65625000000000000        0.0000000000000000     
  0.65625000000000000       0.65625000000000000        0.0000000000000000     
  0.68750000000000000       0.65625000000000000        0.0000000000000000     
  0.71875000000000000       0.65625000000000000        0.0000000000000000     
  0.75000000000000000       0.65625000000000000        0.0000000000000000     
  0.62500000000000000       0.68750000000000000        0.0000000000000000     
  0.65625000000000000       0.68750000000000000        0.0000000000000000     
  0.68750000000000000       0.68750000000000000        0.0000000000000000     
  0.71875000000000000       0.68750000000000000        0.0000000000000000     
  0.75000000000000000       0.68750000000000000        0.0000000000000000     
  0.62500000000000000       0.71875000000000000        0.0000000000000000     
  0.65625000000000000       0.71875000000000000        0.0000000000000000     
  0.68750000000000000       0.71875000000000000        0.0000000000000000     
  0.71875000000000000       0.71875000000000000        0.0000000000000000     
  0.75000000000000000       0.71875000000000000        0.0000000000000000     
  0.62500000000000000       0.75000000000000000        0.0000000000000000     
  0.65625000000000000       0.75000000000000000        0.0000000000000000     
  0.68750000000000000       0.75000000000000000        0.0000000000000000     
  0.71875000000000000       0.75000000000000000        0.0000000000000000     
  0.75000000000000000       0.75000000000000000        0.0000000000000000     
  0.75000000000000000       0.62500000000000000        0.0000000000000000     
  0.78125000000000000       0.62500000000000000        0.0000000000000000     
  0.81250000000000000       0.62500000000000000        0.0000000000000000     
  0.84375000000000000       0.62500000000000000        0.0000000000000000     
  0.87500000000000000       0.62500000000000000        0.0000000000000000     
  0.75000000000000000       0.65625000000000000        0.0000000000000000     
  0.78125000000000000       0.65625000000000000        0.0000000000000000     
  0.81250000000000000       0.65625000000000000        0.0000000000000000     
  0.84375000000000000       0.65625000000000000        0.0000000000000000     
  0.87500000000000000       0.65625000000000000        0.0000000000000000     
  0.75000000000000000       0.68750000000000000        0.0000000000000000     
  0.78125000000000000       0.68750000000000000        0.0000000000000000     
  0.81250000000000000       0.68750000000000000        0.0000000000000000     
  0.84375000000000000       0.68750000000000000        0.0000000000000000     
  0.87500000000000000       0.68750000000000000        0.0000000000000000     
  0.75000000000000000       0.71875000000000000        0.0000000000000000     
  0.78125000000000000       0.71875000000000000        0.0000000000000000     
  0.81250000000000000       0.71875000000000000        0.0000000000000000     
  0.84375000000000000       0.71875000000000000        0.0000000000000000     
  0.87500000000000000       0.71875000000000000        0.0000000000000000     
  0.75000000000000000       0.75000000000000000        0.0000000000000000     
  0.78125000000000000       0.75000000000000000        0.0000000000000000     
  0.81250000000000000       0.75000000000000000        0.0000000000000000     
  0.84375000000000000       0.75000000000000000        0.0000000000000000     
  0.87500000000000000       0.75000000000000000        0.0000000000000000     
  0.87500000000000000       0.62500000000000000        0.0000000000000000     
  0.90625000000000000       0.62500000000000000        0.0000000000000000     
  0.93750000000000000       0.62500000000000000        0.0000000000000000     
  0.96875000000000000       0.62500000000000000        0.0000000000000000     
   1.0000000000000000       0.62500000000000000        0.0000000000000000     
  0.87500000000000000       0.65625000000000000        0.0000000000000000     
  0.90625000000000000       0.65625000000000000        0.0000000000000000     
  0.93750000000000000       0.65625000000000000        0.0000000000000000     
  0.96875000000000000       0.65625000000000000        0.0000000000000000     
   1.0000000000000000       0.65625000000000000        0.0000000000000000     
  0.87500000000000000       0.68750000000000000        0.0000000000000000     
  0.90625000000000000       0.68750000000000000        0.0000000000000000     
  0.93750000000000000       0.68750000000000000        0.0000000000000000     
  0.96875000000000000       0.68750000000000000        0.0000000000000000     
   1.0000000000000000       0.68750000000000000        0.0000000000000000     
  0.87500000000000000       0.71875000000000000        0.0000000000000000     
  0.90625000000000000       0.71875000000000000        0.0000000000000000     
  0.93750000000000000       0.71875000000000000        0.0000000000000000     
  0.96875000000000000       0.71875000000000000        0.0000000000000000     
   1.0000000000000000       0.71875000000000000        0.0000000000000000     
  0.87500000000000000       0.75000000000000000        0.0000000000000000     
  0.90625000000000000       0.75000000000000000        0.0000000000000000     
  0.93750000000000000       0.75000000000000000        0.0000000000000000     
  0.96875000000000000       0.75000000000000000        0.0000000000000000     
   1.0000000000000000       0.75000000000000000        0.0000000000000000     
   1.0000000000000000       0.62500000000000000        0.0000000000000000     
   1.0312500000000000       0.62500000000000000        0.0000000000000000     
   1.0625000000000000       0.62500000000000000        0.0000000000000000     
   1.0937500000000000       0.62500000000000000        0.0000000000000000     
   1.1250000000000000       0.62500000000000000        0.0000000000000000     
   1.0000000000000000       0.65625000000000000        0.0000000000000000     
   1.0312500000000000       0.65625000000000000        0.0000000000000000     
   1.0625000000000000       0.65625000000000000        0.0000000000000000     
   1.0937500000000000       0.65625000000000000        0.0000000000000000     
   1.1250000000000000       0.65625000000000000        0.0000000000000000     
   1.0000000000000000       0.68750000000000000        0.0000000000000000     
   1.0312500000000000       0.68750000000000000        0.0000000000000000     
   1.0625000000000000       0.68750000000000000        0.0000000000000000     
   1.0937500000000000       0.68750000000000000        0.0000000000000000     
   1.1250000000000000       0.68750000000000000        0.0000000000000000     
   1.0000000000000000       0.71875000000000000        0.0000000000000000     
   1.0312500000000000       0.71875000000000000        0.0000000000000000     
   1.0625000000000000       0.71875000000000000        0.0000000000000000     
   1.0937500000000000       0.71875000000000000        0.0000000000000000     
   1.1250000000000000       0.71875000000000000        0.0000000000000000     
   1.0000000000000000       0.75000000000000000        0.0000000000000000     
   1.0312500000000000       0.75000000000000000        0.0000000000000000     
   1.0625000000000000       0.75000000000000000        0.0000000000000000     
   1.0937500000000000       0.75000000000000000        0.0000000000000000     
   1.1250000000000000       0.75000000000000000        0.0000000000000000     
   1.1250000000000000       0.62500000000000000        0.0000000000000000     
   1.1562500000000000       0.62500000000000000        0.0000000000000000     
   1.1875000000000000       0.62500000000000000        0.0000000000000000     
   1.2187500000000000       0.62500000000000000        0.0000000000000000     
   1.2500000000000000       0.62500000000000000        0.0000000000000000     
   1.1250000000000000       0.65625000000000000        0.0000000000000000     
   1.1562500000000000       0.65625000000000000        0.0000000000000000     
   1.1875000000000000       0.65625000000000000        0.0000000000000000     
   1.2187500000000000       0.65625000000000000        0.0000000000000000     
   1.2500000000000000       0.65625000000000000        0.0000000000000000     
   1.1250000000000000       0.68750000000000000        0.0000000000000000     
   1.1562500000000000       0.68750000000000000        0.0000000000000000     
   1.1875000000000000       0.68750000000000000        0.0000000000000000     
   1.2187500000000000       0.68750000000000000        0.0000000000000000     
   1.2500000000000000       0.68750000000000000        0.0000000000000000     
   1.1250000000000000       0.71875000000000000        0.0000000000000000     
   1.1562500000000000       0.71875000000000000        0.0000000000000000     
   1.1875000000000000       0.71875000000000000        0.0000000000000000     
   1.2187500000000000       0.71875000000000000        0.0000000000000000     
   1.2500000000000000       0.71875000000000000        0.0000000000000000     
   1.1250000000000000       0.75000000000000000        0.0000000000000000     
   1.1562500000000000       0.75000000000000000        0.0000000000000000     
   1.1875000000000000       0.75000000000000000        0.0000000000000000     
   1.2187500000000000       0.75000000000000000        0.0000000000000000     
   1.2500000000000000       0.75000000000000000        0.0000000000000000     
   1.2500000000000000       0.62500000000000000        0.0000000000000000     
   1.2812500000000000       0.62500000000000000        0.0000000000000000     
   1.3125000000000000       0.62500000000000000        0.0000000000000000     
   1.3437500000000000       0.62500000000000000        0.0000000000000000     
   1.3750000000000000       0.62500000000000000        0.0000000000000000     
   1.2500000000000000       0.65625000000000000        0.0000000000000000     
   1.2812500000000000       0.65625000000000000        0.0000000000000000     
   1.3125000000000000       0.65625000000000000        0.0000000000000000     
   1.3437500000000000       0.65625000000000000        0.0000000000000000     
   1.3750000000000000       0.65625000000000000        0.0000000000000000     
   1.2500000000000000       0.68750000000000000        0.0000000000000000     
   1.2812500000000000       0.68750000000000000        0.0000000000000000     
   1.3125000000000000       0.68750000000000000        0.0000000000000000     
   1.3437500000000000       0.68750000000000000        0.0000000000000000     
   1.3750000000000000       0.68750000000000000        0.0000000000000000     
   1.2500000000000000       0.71875000000000000        0.0000000000000000     
   1.2812500000000000       0.71875000000000000        0.0000000000000000     
   1.3125000000000000       0.71875000000000000        0.0000000000000000     
   1.3437500000000000       0.71875000000000000        0.0000000000000000     
   1.3750000000000000       0.71875000000000000        0.0000000000000000     
   1.2500000000000000       0.75000000000000000        0.0000000000000000     
   1.2812500000000000       0.75000000000000000        0.0000000000000000     
   1.3125000000000000       0.75000000000000000        0.0000000000000000     
   1.3437500000000000       0.75000000000000000        0.0000000000000000     
   1.3750000000000000       0.75000000000000000        0.0000000000000000     
   1.3750000000000000       0.62500000000000000        0.0000000000000000     
   1.4062500000000000       0.62500000000000000        0.0000000000000000     
   1.4375000000000000       0.62500000000000000        0.0000000000000000     
   1.4687500000000000       0.62500000000000000        0.0000000000000000     
   1.5000000000000000       0.62500000000000000        0.0000000000000000     
   1.3750000000000000       0.65625000000000000        0.0000000000000000     
   1.4062500000000000       0.65625000000000000        0.0000000000000000     
   1.4375000000000000       0.65625000000000000        0.0000000000000000     
   1.4687500000000000       0.65625000000000000        0.0000000000000000     
   1.5000000000000000       0.65625000000000000        0.0000000000000000     
   1.3750000000000000       0.68750000000000000        0.0000000000000000     
   1.4062500000000000       0.68750000000000000        0.0000000000000000     
   1.4375000000000000       0.68750000000000000        0.0000000000000000     
   1.4687500000000000       0.68750000000000000        0.0000000000000000     
   1.5000000000000000       0.68750000000000000        0.0000000000000000     
   1.3750000000000000       0.71875000000000000        0.0000000000000000     
   1.4062500000000000       0.71875000000000000        0.0000000000000000     
   1.4375000000000000       0.71875000000000000        0.0000000000000000     
   1.4687500000000000       0.71875000000000000        0.0000000000000000     
   1.5000000000000000       0.71875000000000000        0.0000000000000000     
   1.3750000000000000       0.75000000000000000        0.0000000000000000     
   1.4062500000000000       0.75000000000000000        0.0000000000000000     
   1.4375000000000000       0.75000000000000000        0.0000000000000000     
   1.4687500000000000       0.75000000000000000        0.0000000000000000     
   1.5000000000000000       0.75000000000000000        0.0000000000000000     
  0.50000000000000000       0.75000000000000000        0.0000000000000000     
  0.53125000000000000       0.75000000000000000        0.0000000000000000     
  0.56250000000000000       0.75000000000000000        0.0000000000000000     
  0.59375000000000000       0.75000000000000000        0.0000000000000000     
  0.62500000000000000       0.75000000000000000        0.0000000000000000     
  0.50000000000000000       0.78125000000000000        0.0000000000000000     
  0.53125000000000000       0.78125000000000000        0.0000000000000000     
  0.56250000000000000       0.78125000000000000        0.0000000000000000     
  0.59375000000000000       0.78125000000000000        0.0000000000000000     
  0.62500000000000000       0.78125000000000000        0.0000000000000000     
  0.50000000000000000       0.81250000000000000        0.0000000000000000     
  0.53125000000000000       0.81250000000000000        0.0000000000000000     
  0.56250000000000000       0.81250000000000000        0.0000000000000000     
  0.59375000000000000       0.81250000000000000        0.0000000000000000     
  0.62500000000000000       0.81250000000000000        0.0000000000000000     
  0.50000000000000000       0.84375000000000000        0.0000000000000000     
  0.53125000000000000       0.84375000000000000        0.0000000000000000     
  0.56250000000000000       0.84375000000000000        0.0000000000000000     
  0.59375000000000000       0.84375000000000000        0.0000000000000000     
  0.62500000000000000       0.84375000000000000        0.0000000000000000     
  0.50000000000000000       0.87500000000000000        0.0000000000000000     
  0.53125000000000000       0.87500000000000000        0.0000000000000000     
  0.56250000000000000       0.87500000000000000        0.0000000000000000     
  0.59375000000000000       0.87500000000000000        0.0000000000000000     
  0.62500000000000000       0.87500000000000000        0.0000000000000000     
  0.62500000000000000       0.75000000000000000        0.0000000000000000     
  0.65625000000000000       0.75000000000000000        0.0000000000000000     
  0.68750000000000000       0.75000000000000000        0.0000000000000000     
  0.71875000000000000       0.75000000000000000        0.0000000000000000     
  0.75000000000000000       0.75000000000000000        0.0000000000000000     
  0.62500000000000000       0.78125000000000000        0.0000000000000000     
  0.65625000000000000       0.78125000000000000        0.0000000000000000     
  0.68750000000000000       0.78125000000000000        0.0000000000000000     
  0.71875000000000000       0.78125000000000000        0.0000000000000000     
  0.75000000000000000       0.78125000000000000        0.0000000000000000     
  0.62500000000000000       0.81250000000000000        0.0000000000000000     
  0.65625000000000000       0.81250000000000000        0.0000000000000000     
  0.68750000000000000       0.81250000000000000        0.0000000000000000     
  0.71875000000000000       0.81250000000000000        0.0000000000000000     
  0.75000000000000000       0.81250000000000000        0.0000000000000000     
  0.62500000000000000       0.84375000000000000        0.0000000000000000     
  0.65625000000000000       0.84375000000000000        0.0000000000000000     
  0.68750000000000000       0.84375000000000000        0.0000000000000000     
  0.71875000000000000       0.84375000000000000        0.0000000000000000     
  0.75000000000000000       0.84375000000000000        0.0000000000000000     
  0.62500000000000000       0.87500000000000000        0.0000000000000000     
  0.65625000000000000       0.87500000000000000        0.0000000000000000     
  0.68750000000000000       0.87500000000000000        0.0000000000000000     
  0.71875000000000000       0.87500000000000000        0.0000000000000000     
  0.75000000000000000       0.87500000000000000        0.0000000000000000     
  0.75000000000000000       0.75000000000000000        0.0000000000000000     
  0.78125000000000000       0.75000000000000000        0.0000000000000000     
  0.81250000000000000       0.75000000000000000        0.0000000000000000     
  0.84375000000000000       0.75000000000000000        0.0000000000000000     
  0.87500000000000000       0.75000000000000000        0.0000000000000000     
  0.75000000000000000       0.78125000000000000        0.0000000000000000     
  0.78125000000000000       0.78125000000000000        0.0000000000000000     
  0.81250000000000000       0.78125000000000000        0.0000000000000000     
  0.84375000000000000       0.78125000000000000        0.0000000000000000     
  0.87500000000000000       0.78125000000000000        0.0000000000000000     
  0.75000000000000000       0.81250000000000000        0.0000000000000000     
  0.78125000000000000       0.81250000000000000        0.0000000000000000     
  0.81250000000000000       0.81250000000000000        0.0000000000000000     
  0.84375000000000000       0.81250000000000000        0.0000000000000000     
  0.87500000000000000       0.81250000000000000        0.0000000000000000     
  0.75000000000000000       0.84375000000000000        0.0000000000000000     
  0.78125000000000000       0.84375000000000000        0.0000000000000000     
  0.81250000000000000       0.84375000000000000        0.0000000000000000     
  0.84375000000000000       0.84375000000000000        0.0000000000000000     
  0.87500000000000000       0.84375000000000000        0.0000000000000000     
  0.75000000000000000       0.87500000000000000        0.0000000000000000     
  0.78125000000000000       0.87500000000000000        0.0000000000000000     
  0.81250000000000000       0.87500000000000000        0.0000000000000000     
  0.84375000000000000       0.87500000000000000        0.0000000000000000     
  0.87500000000000000       0.87500000000000000        0.0000000000000000     
  0.87500000000000000       0.75000000000000000        0.0000000000000000     
  0.90625000000000000       0.75000000000000000        0.0000000000000000     
  0.93750000000000000       0.75000000000000000        0.0000000000000000     
  0.96875000000000000       0.75000000000000000        0.0000000000000000     
   1.0000000000000000       0.75000000000000000        0.0000000000000000     
  0.87500000000000000       0.78125000000000000        0.0000000000000000     
  0.90625000000000000       0.78125000000000000        0.0000000000000000     
  0.93750000000000000       0.78125000000000000        0.0000000000000000     
  0.96875000000000000       0.78125000000000000        0.0000000000000000     
   1.0000000000000000       0.78125000000000000        0.0000000000000000     
  0.87500000000000000       0.81250000000000000        0.0000000000000000     
  0.90625000000000000       0.81250000000000000        0.0000000000000000     
  0.93750000000000000       0.81250000000000000        0.0000000000000000     
  0.96875000000000000       0.81250000000000000        0.0000000000000000     
   1.0000000000000000       0.81250000000000000        0.0000000000000000     
  0.87500000000000000       0.84375000000000000        0.0000000000000000     
  0.90625000000000000       0.84375000000000000        0.0000000000000000     
  0.93750000000000000       0.84375000000000000        0.0000000000000000     
  0.96875000000000000       0.84375000000000000        0.0000000000000000     
   1.0000000000000000       0.84375000000000000        0.0000000000000000     
  0.87500000000000000       0.87500000000000000        0.0000000000000000     
  0.90625000000000000       0.87500000000000000        0.0000000000000000     
  0.93750000000000000       0.87500000000000000        0.0000000000000000     
  0.96875000000000000       0.87500000000000000        0.0000000000000000     
   1.0000000000000000       0.87500000000000000        0.0000000000000000     
   1.0000000000000000       0.75000000000000000        0.0000000000000000     
   1.0312500000000000       0.75000000000000000        0.0000000000000000     
   1.0625000000000000       0.75000000000000000        0.0000000000000000     
   1.0937500000000000       0.75000000000000000        0.0000000000000000     
   1.1250000000000000       0.75000000000000000        0.0000000000000000     
   1.0000000000000000       0.78125000000000000        0.0000000000000000     
   1.0312500000000000       0.78125000000000000        0.0000000000000000     
   1.0625000000000000       0.78125000000000000        0.0000000000000000     
   1.0937500000000000       0.78125000000000000        0.0000000000000000     
   1.1250000000000000       0.78125000000000000        0.0000000000000000     
   1.0000000000000000       0.81250000000000000        0.0000000000000000     
   1.0312500000000000       0.81250000000000000        0.0000000000000000     
   1.0625000000000000       0.81250000000000000        0.0000000000000000     
   1.0937500000000000       0.81250000000000000        0.0000000000000000     
   1.1250000000000000       0.81250000000000000        0.0000000000000000     
   1.0000000000000000       0.84375000000000000        0.0000000000000000     
   1.0312500000000000       0.84375000000000000        0.0000000000000000     
   1.0625000000000000       0.84375000000000000        0.0000000000000000     
   1.0937500000000000       0.84375000000000000        0.0000000000000000     
   1.1250000000000000       0.84375000000000000        0.0000000000000000     
   1.0000000000000000       0.87500000000000000        0.0000000000000000     
   1.0312500000000000       0.87500000000000000        0.0000000000000000     
   1.0625000000000000       0.87500000000000000        0.0000000000000000     
   1.0937500000000000       0.87500000000000000        0.0000000000000000     
   1.1250000000000000       0.87500000000000000        0.0000000000000000     
   1.1250000000000000       0.75000000000000000        0.0000000000000000     
   1.1562500000000000       0.75000000000000000        0.0000000000000000     
   1.1875000000000000       0.75000000000000000        0.0000000000000000     
   1.2187500000000000       0.75000000000000000        0.0000000000000000     
   1.2500000000000000       0.75000000000000000        0.0000000000000000     
   1.1250000000000000       0.78125000000000000        0.0000000000000000     
   1.1562500000000000       0.78125000000000000        0.0000000000000000     
   1.1875000000000000       0.78125000000000000        0.0000000000000000     
   1.2187500000000000       0.78125000000000000        0.0000000000000000     
   1.2500000000000000       0.78125000000000000        0.0000000000000000     
   1.1250000000000000       0.81250000000000000        0.0000000000000000     
   1.1562500000000000       0.81250000000000000        0.0000000000000000     
   1.1875000000000000       0.81250000000000000        0.0000000000000000     
   1.2187500000000000       0.81250000000000000        0.0000000000000000     
   1.2500000000000000       0.81250000000000000        0.0000000000000000     
   1.1250000000000000       0.84375000000000000        0.0000000000000000     
   1.1562500000000000       0.84375000000000000        0.0000000000000000     
   1.1875000000000000       0.84375000000000000        0.0000000000000000     
   1.2187500000000000       0.84375000000000000        0.0000000000000000     
   1.2500000000000000       0.84375000000000000        0.0000000000000000     
   1.1250000000000000       0.87500000000000000        0.0000000000000000     
   1.1562500000000000       0.87500000000000000        0.0000000000000000     
   1.1875000000000000       0.87500000000000000        0.0000000000000000     
   1.2187500000000000       0.87500000000000000        0.0000000000000000     
   1.2500000000000000       0.87500000000000000        0.0000000000000000     
   1.2500000000000000       0.75000000000000000        0.0000000000000000     
   1.2812500000000000       0.75000000000000000        0.0000000000000000     
   1.3125000000000000       0.75000000000000000        0.0000000000000000     
   1.3437500000000000       0.75000000000000000        0.0000000000000000     
   1.3750000000000000       0.75000000000000000        0.0000000000000000     
   1.2500000000000000       0.78125000000000000        0.0000000000000000     
   1.2812500000000000       0.78125000000000000        0.0000000000000000     
   1.3125000000000000       0.78125000000000000        0.0000000000000000     
   1.3437500000000000       0.78125000000000000        0.0000000000000000     
   1.3750000000000000       0.78125000000000000        0.0000000000000000     
   1.2500000000000000       0.81250000000000000        0.0000000000000000     
   1.2812500000000000       0.81250000000000000        0.0000000000000000     
   1.3125000000000000       0.81250000000000000        0.0000000000000000     
   1.3437500000000000       0.81250000000000000        0.0000000000000000     
   1.3750000000000000       0.81250000000000000        0.0000000000000000     
   1.2500000000000000       0.84375000000000000        0.0000000000000000     
   1.2812500000000000       0.84375000000000000        0.0000000000000000     
   1.3125000000000000       0.84375000000000000        0.0000000000000000     
   1.3437500000000000       0.84375000000000000        0.0000000000000000     
   1.3750000000000000       0.84375000000000000        0.0000000000000000     
   1.2500000000000000       0.87500000000000000        0.0000000000000000     
   1.2812500000000000       0.87500000000000000        0.0000000000000000     
   1.3125000000000000       0.87500000000000000        0.0000000000000000     
   1.3437500000000000       0.87500000000000000        0.0000000000000000     
   1.3750000000000000       0.87500000000000000        0.0000000000000000     
   1.3750000000000000       0.75000000000000000        0.0000000000000000     
   1.4062500000000000       0.75000000000000000        0.0000000000000000     
   1.4375000000000000       0.75000000000000000        0.0000000000000000     
   1.4687500000000000       0.75000000000000000        0.0000000000000000     
   1.5000000000000000       0.75000000000000000        0.0000000000000000     
   1.3750000000000000       0.78125000000000000        0.0000000000000000     
   1.4062500000000000       0.78125000000000000        0.0000000000000000     
   1.4375000000000000       0.78125000000000000        0.0000000000000000     
   1.4687500000000000       0.78125000000000000        0.0000000000000000     
   1.5000000000000000       0.78125000000000000        0.0000000000000000     
   1.3750000000000000       0.81250000000000000        0.0000000000000000     
   1.4062500000000000       0.81250000000000000        0.0000000000000000     
   1.4375000000000000       0.81250000000000000        0.0000000000000000     
   1.4687500000000000       0.81250000000000000        0.0000000000000000     
   1.5000000000000000       0.81250000000000000        0.0000000000000000     
   1.3750000000000000       0.84375000000000000        0.0000000000000000     
   1.4062500000000000       0.84375000000000000        0.0000000000000000     
   1.4375000000000000       0.84375000000000000        0.0000000000000000     
   1.4687500000000000       0.84375000000000000        0.0000000000000000     
   1.5000000000000000       0.84375000000000000        0.0000000000000000     
   1.3750000000000000       0.87500000000000000        0.0000000000000000     
   1.4062500000000000       0.87500000000000000        0.0000000000000000     
   1.4375000000000000       0.87500000000000000        0.0000000000000000     
   1.4687500000000000       0.87500000000000000        0.0000000000000000     
   1.5000000000000000       0.87500000000000000        0.0000000000000000     
  0.50000000000000000       0.87500000000000000        0.0000000000000000     
  0.53125000000000000       0.87500000000000000        0.0000000000000000     
  0.56250000000000000       0.87500000000000000        0.0000000000000000     
  0.59375000000000000       0.87500000000000000        0.0000000000000000     
  0.62500000000000000       0.87500000000000000        0.0000000000000000     
  0.50000000000000000       0.90625000000000000        0.0000000000000000     
  0.53125000000000000       0.90625000000000000        0.0000000000000000     
  0.56250000000000000       0.90625000000000000        0.0000000000000000     
  0.59375000000000000       0.90625000000000000        0.0000000000000000     
  0.62500000000000000       0.90625000000000000        0.0000000000000000     
  0.50000000000000000       0.93750000000000000        0.0000000000000000     
  0.53125000000000000       0.93750000000000000        0.0000000000000000     
  0.56250000000000000       0.93750000000000000        0.0000000000000000     
  0.59375000000000000       0.93750000000000000        0.0000000000000000     
  0.62500000000000000       0.93750000000000000        0.0000000000000000     
  0.50000000000000000       0.96875000000000000        0.0000000000000000     
  0.53125000000000000       0.96875000000000000        0.0000000000000000     
  0.56250000000000000       0.96875000000000000        0.0000000000000000     
  0.59375000000000000       0.96875000000000000        0.0000000000000000     
  0.62500000000000000       0.96875000000000000        0.0000000000000000     
  0.50000000000000000        1.0000000000000000        0.0000000000000000     
  0.53125000000000000        1.0000000000000000        0.0000000000000000     
  0.56250000000000000        1.0000000000000000        0.0000000000000000     
  0.59375000000000000        1.0000000000000000        0.0000000000000000     
  0.62500000000000000        1.0000000000000000        0.0000000000000000     
  0.62500000000000000       0.87500000000000000        0.0000000000000000     
  0.65625000000000000       0.87500000000000000        0.0000000000000000     
  0.68750000000000000       0.87500000000000000        0.0000000000000000     
  0.71875000000000000       0.87500000000000000        0.0000000000000000     
  0.75000000000000000       0.87500000000000000        0.0000000000000000     
  0.62500000000000000       0.90625000000000000        0.0000000000000000     
  0.65625000000000000       0.90625000000000000        0.0000000000000000     
  0.68750000000000000       0.90625000000000000        0.0000000000000000     
  0.71875000000000000       0.90625000000000000        0.0000000000000000     
  0.75000000000000000       0.90625000000000000        0.0000000000000000     
  0.62500000000000000       0.93750000000000000        0.0000000000000000     
  0.65625000000000000       0.93750000000000000        0.0000000000000000     
  0.68750000000000000       0.93750000000000000        0.0000000000000000     
  0.71875000000000000       0.93750000000000000        0.0000000000000000     
  0.75000000000000000       0.93750000000000000        0.0000000000000000     
  0.62500000000000000       0.96875000000000000        0.0000000000000000     
  0.65625000000000000       0.96875000000000000        0.0000000000000000     
  0.68750000000000000       0.96875000000000000        0.0000000000000000     
  0.71875000000000000       0.96875000000000000        0.0000000000000000     
  0.75000000000000000       0.96875000000000000        0.0000000000000000     
  0.62500000000000000        1.0000000000000000        0.0000000000000000     
  0.65625000000000000        1.0000000000000000        0.0000000000000000     
  0.68750000000000000        1.0000000000000000        0.0000000000000000     
  0.71875000000000000        1.0000000000000000        0.0000000000000000     
  0.75000000000000000        1.0000000000000000        0.0000000000000000     
  0.75000000000000000       0.87500000000000000        0.0000000000000000     
  0.78125000000000000       0.87500000000000000        0.0000000000000000     
  0.81250000000000000       0.87500000000000000        0.0000000000000000     
  0.84375000000000000       0.87500000000000000        0.0000000000000000     
  0.87500000000000000       0.87500000000000000        0.0000000000000000     
  0.75000000000000000       0.90625000000000000        0.0000000000000000     
  0.78125000000000000       0.90625000000000000        0.0000000000000000     
  0.81250000000000000       0.90625000000000000        0.0000000000000000     
  0.84375000000000000       0.90625000000000000        0.0000000000000000     
  0.87500000000000000       0.90625000000000000        0.0000000000000000     
  0.75000000000000000       0.93750000000000000        0.0000000000000000     
  0.78125000000000000       0.93750000000000000        0.0000000000000000     
  0.81250000000000000       0.93750000000000000        0.0000000000000000     
  0.84375000000000000       0.93750000000000000        0.0000000000000000     
  0.87500000000000000       0.93750000000000000        0.0000000000000000     
  0.75000000000000000       0.96875000000000000        0.0000000000000000     
  0.78125000000000000       0.96875000000000000        0.0000000000000000     
  0.81250000000000000       0.96875000000000000        0.0000000000000000     
  0.84375000000000000       0.96875000000000000        0.0000000000000000     
  0.87500000000000000       0.96875000000000000        0.0000000000000000     
  0.75000000000000000        1.0000000000000000        0.0000000000000000     
  0.78125000000000000        1.0000000000000000        0.0000000000000000     
  0.81250000000000000        1.0000000000000000        0.0000000000000000     
  0.84375000000000000        1.0000000000000000        0.0000000000000000     
  0.87500000000000000        1.0000000000000000        0.0000000000000000     
  0.87500000000000000       0.87500000000000000        0.0000000000000000     
  0.90625000000000000       0.87500000000000000        0.0000000000000000     
  0.93750000000000000       0.87500000000000000        0.0000000000000000     
  0.96875000000000000       0.87500000000000000        0.0000000000000000     
   1.0000000000000000       0.87500000000000000        0.0000000000000000     
  0.87500000000000000       0.90625000000000000        0.0000000000000000     
  0.90625000000000000       0.90625000000000000        0.0000000000000000     
  0.93750000000000000       0.90625000000000000        0.0000000000000000     
  0.96875000000000000       0.90625000000000000        0.0000000000000000     
   1.0000000000000000       0.90625000000000000        0.0000000000000000     
  0.87500000000000000       0.93750000000000000        0.0000000000000000     
  0.90625000000000000       0.93750000000000000        0.0000000000000000     
  0.93750000000000000       0.93750000000000000        0.0000000000000000     
  0.96875000000000000       0.93750000000000000        0.0000000000000000     
   1.0000000000000000       0.93750000000000000        0.0000000000000000     
  0.87500000000000000       0.96875000000000000        0.0000000000000000     
  0.90625000000000000       0.96875000000000000        0.0000000000000000     
  0.93750000000000000       0.96875000000000000        0.0000000000000000     
  0.96875000000000000       0.96875000000000000        0.0000000000000000     
   1.0000000000000000       0.96875000000000000        0.0000000000000000     
  0.87500000000000000        1.0000000000000000        0.0000000000000000     
  0.90625000000000000        1.0000000000000000        0.0000000000000000     
  0.93750000000000000        1.0000000000000000        0.0000000000000000     
  0.96875000000000000        1.0000000000000000        0.0000000000000000     
   1.0000000000000000        1.0000000000000000        0.0000000000000000     
   1.0000000000000000       0.87500000000000000        0.0000000000000000     
   1.0312500000000000       0.87500000000000000        0.0000000000000000     
   1.0625000000000000       0.87500000000000000        0.0000000000000000     
   1.0937500000000000       0.87500000000000000        0.0000000000000000     
   1.1250000000000000       0.87500000000000000        0.0000000000000000     
   1.0000000000000000       0.90625000000000000        0.0000000000000000     
   1.0312500000000000       0.90625000000000000        0.0000000000000000     
   1.0625000000000000       0.90625000000000000        0.0000000000000000     
   1.0937500000000000       0.90625000000000000        0.0000000000000000     
   1.1250000000000000       0.90625000000000000        0.0000000000000000     
   1.0000000000000000       0.93750000000000000        0.0000000000000000     
   1.0312500000000000       0.93750000000000000        0.0000000000000000     
   1.0625000000000000       0.93750000000000000        0.0000000000000000     
   1.0937500000000000       0.93750000000000000        0.0000000000000000     
   1.1250000000000000       0.93750000000000000        0.0000000000000000     
   1.0000000000000000       0.96875000000000000        0.0000000000000000     
   1.0312500000000000       0.96875000000000000        0.0000000000000000     
   1.0625000000000000       0.96875000000000000        0.0000000000000000     
   1.0937500000000000       0.96875000000000000        0.0000000000000000     
   1.1250000000000000       0.96875000000000000        0.0000000000000000     
   1.0000000000000000        1.0000000000000000        0.0000000000000000     
   1.0312500000000000        1.0000000000000000        0.0000000000000000     
   1.0625000000000000        1.0000000000000000        0.0000000000000000     
   1.0937500000000000        1.0000000000000000        0.0000000000000000     
   1.1250000000000000        1.0000000000000000        0.0000000000000000     
   1.1250000000000000       0.87500000000000000        0.0000000000000000     
   1.1562500000000000       0.87500000000000000        0.0000000000000000     
   1.1875000000000000       0.87500000000000000        0.0000000000000000     
   1.2187500000000000       0.87500000000000000        0.0000000000000000     
   1.2500000000000000       0.87500000000000000        0.0000000000000000     
   1.1250000000000000       0.90625000000000000        0.0000000000000000     
   1.1562500000000000       0.90625000000000000        0.0000000000000000     
   1.1875000000000000       0.90625000000000000        0.0000000000000000     
   1.2187500000000000       0.90625000000000000        0.0000000000000000     
   1.2500000000000000       0.90625000000000000        0.0000000000000000     
   1.1250000000000000       0.93750000000000000        0.0000000000000000     
   1.1562500000000000       0.93750000000000000        0.0000000000000000     
   1.1875000000000000       0.93750000000000000        0.0000000000000000     
   1.2187500000000000       0.93750000000000000        0.0000000000000000     
   1.2500000000000000       0.93750000000000000        0.0000000000000000     
   1.1250000000000000       0.96875000000000000        0.0000000000000000     
   1.1562500000000000       0.96875000000000000        0.0000000000000000     
   1.1875000000000000       0.96875000000000000        0.0000000000000000     
   1.2187500000000000       0.96875000000000000        0.0000000000000000     
   1.2500000000000000       0.96875000000000000        0.0000000000000000     
   1.1250000000000000        1.0000000000000000        0.0000000000000000     
   1.1562500000000000        1.0000000000000000        0.0000000000000000     
   1.1875000000000000        1.0000000000000000        0.0000000000000000     
   1.2187500000000000        1.0000000000000000        0.0000000000000000     
   1.2500000000000000        1.0000000000000000        0.0000000000000000     
   1.2500000000000000       0.87500000000000000        0.0000000000000000     
   1.2812500000000000       0.87500000000000000        0.0000000000000000     
   1.3125000000000000       0.87500000000000000        0.0000000000000000     
   1.3437500000000000       0.87500000000000000        0.0000000000000000     
   1.3750000000000000       0.87500000000000000        0.0000000000000000     
   1.2500000000000000       0.90625000000000000        0.0000000000000000     
   1.2812500000000000       0.90625000000000000        0.0000000000000000     
   1.3125000000000000       0.90625000000000000        0.0000000000000000     
   1.3437500000000000       0.90625000000000000        0.0000000000000000     
   1.3750000000000000       0.90625000000000000        0.0000000000000000     
   1.2500000000000000       0.93750000000000000        0.0000000000000000     
   1.2812500000000000       0.93750000000000000        0.0000000000000000     
   1.3125000000000000       0.93750000000000000        0.0000000000000000     
   1.3437500000000000       0.93750000000000000        0.0000000000000000     
   1.3750000000000000       0.93750000000000000        0.0000000000000000     
   1.2500000000000000       0.96875000000000000        0.0000000000000000     
   1.2812500000000000       0.96875000000000000        0.0000000000000000     
   1.3125000000000000       0.96875000000000000        0.0000000000000000     
   1.3437500000000000       0.96875000000000000        0.0000000000000000     
   1.3750000000000000       0.96875000000000000        0.0000000000000000     
   1.2500000000000000        1.0000000000000000        0.0000000000000000     
   1.2812500000000000        1.0000000000000000        0.0000000000000000     
   1.3125000000000000        1.0000000000000000        0.0000000000000000     
   1.3437500000000000        1.0000000000000000        0.0000000000000000     
   1.3750000000000000        1.0000000000000000        0.0000000000000000     
   1.3750000000000000       0.87500000000000000        0.0000000000000000     
   1.4062500000000000       0.87500000000000000        0.0000000000000000     
   1.4375000000000000       0.87500000000000000        0.0000000000000000     
   1.4687500000000000       0.87500000000000000        0.0000000000000000     
   1.5000000000000000       0.87500000000000000        0.0000000000000000     
   1.3750000000000000       0.90625000000000000        0.0000000000000000     
   1.4062500000000000       0.90625000000000000        0.0000000000000000     
   1.4375000000000000       0.90625000000000000        0.0000000000000000     
   1.4687500000000000       0.90625000000000000        0.0000000000000000     
   1.5000000000000000       0.90625000000000000        0.0000000000000000     
   1.3750000000000000       0.93750000000000000        0.0000000000000000     
   1.4062500000000000       0.93750000000000000        0.0000000000000000     
   1.4375000000000000       0.93750000000000000        0.0000000000000000     
   1.4687500000000000       0.93750000000000000        0.0000000000000000     
   1.5000000000000000       0.93750000000000000        0.0000000000000000     
   1.3750000000000000       0.96875000000000000        0.0000000000000000     
   1.4062500000000000       0.96875000000000000        0.0000000000000000     
   1.4375000000000000       0.96875000000000000        0.0000000000000000     
   1.4687500000000000       0.96875000000000000        0.0000000000000000     
   1.5000000000000000       0.96875000000000000        0.0000000000000000     
   1.3750000000000000        1.0000000000000000        0.0000000000000000     
   1.4062500000000000        1.0000000000000000        0.0000000000000000     
   1.4375000000000000        1.0000000000000000        0.0000000000000000     
   1.4687500000000000        1.0000000000000000        0.0000000000000000     
   1.5000000000000000        1.0000000000000000        0.0000000000000000     
 </DataArray>
 </Points>
 <Cells>
 <DataArray  type="Int32"  Name="connectivity"  format="ascii">
           0           1           6           5
           1           2           7           6
           2           3           8           7
           3           4           9           8
           5           6          11          10
           6           7          12          11
           7           8          13          12
           8           9          14          13
          10          11          16          15
          11          12          17          16
          12          13          18          17
          13          14          19          18
          15          16          21          20
          16          17          22          21
          17          18          23          22
          18          19          24          23
          25          26          31          30
          26          27          32          31
          27          28          33          32
          28          29          34          33
          30          31          36          35
          31          32          37          36
          32          33          38          37
          33          34          39          38
          35          36          41          40
          36          37          42          41
          37          38          43          42
          38          39          44          43
          40          41          46          45
          41          42          47          46
          42          43          48          47
          43          44          49          48
          50          51          56          55
          51          52          57          56
          52          53          58          57
          53          54          59          58
          55          56          61          60
          56          57          62          61
          57          58          63          62
          58          59          64          63
          60          61          66          65
          61          62          67          66
          62          63          68          67
          63          64          69          68
          65          66          71          70
          66          67          72          71
          67          68          73          72
          68          69          74          73
          75          76          81          80
          76          77          82          81
          77          78          83          82
          78          79          84          83
          80          81          86          85
          81          82          87          86
          82          83          88          87
          83          84          89          88
          85          86          91          90
          86          87          92          91
          87          88          93          92
          88          89          94          93
          90          91          96          95
          91          92          97          96
          92          93          98          97
          93          94          99          98
         100         101         106         105
         101         102         107         106
         102         103         108         107
         103         104         109         108
         105         106         111         110
         106         107         112         111
         107         108         113         112
         108         109         114         113
         110         111         116         115
         111         112         117         116
         112         113         118         117
         113         114         119         118
         115         116         121         120
         116         117         122         121
         117         118         123         122
         118         119         124         123
         125         126         131         130
         126         127         132         131
         127         128         133         132
         128         129         134         133
         130         131         136         135
         131         132         137         136
         132         133         138         137
         133         134         139         138
         135         136         141         140
         136         137         142         141
         137         138         143         142
         138         139         144         143
         140         141         146         145
         141         142         147         146
         142         143         148         147
         143         144         149         148
         150         151         156         155
         151         152         157         156
         152         153         158         157
         153         154         159         158
         155         156         161         160
         156         157         162         161
         157         158         163         162
         158         159         164         163
         160         161         166         165
         161         162         167         166
         162         163         168         167
         163         164         169         168
         165         166         171         170
         166         167         172         171
         167         168         173         172
         168         169         174         173
         175         176         181         180
         176         177         182         181
         177         178         183         182
         178         179         184         183
         180         181         186         185
         181         182         187         186
         182         183         188         187
         183         184         189         188
         185         186         191         190
         186         187         192         191
         187         188         193         192
         188         189         194         193
         190         191         196         195
         191         192         197         196
         192         193         198         197
         193         194         199         198
         200         201         206         205
         201         202         207         206
         202         203         208         207
         203         204         209         208
         205         206         211         210
         206         207         212         211
         207         208         213         212
         208         209         214         213
         210         211         216         215
         211         212         217         216
         212         213         218         217
         213         214         219         218
         215         216         221         220
         216         217         222         221
         217         218         223         222
         218         219         224         223
         225         226         231         230
         226         227         232         231
         227         228         233         232
         228         229         234         233
         230         231         236         235
         231         232         237         236
         232         233         238         237
         233         234         239         238
         235         236         241         240
         236         237         242         241
         237         238         243         242
         238         239         244         243
         240         241         246         245
         241         242         247         246
         242         243         248         247
         243         244         249         248
         250         251         256         255
         251         252         257         256
         252         253         258         257
         253         254         259         258
         255         256         261         260
         256         257         262         261
         257         258         263         262
         258         259         264         263
         260         261         266         265
         261         262         267         266
         262         263         268         267
         263         264         269         268
         265         266         271         270
         266         267         272         271
         267         268         273         272
         268         269         274         273
         275         276         281         280
         276         277         282         281
         277         278         283         282
         278         279         284         283
         280         281         286         285
         281         282         287         286
         282         283         288         287
         283         284         289         288
         285         286         291         290
         286         287         292         291
         287         288         293         292
         288         289         294         293
         290         291         296         295
         291         292         297         296
         292         293         298         297
         293         294         299         298
         300         301         306         305
         301         302         307         306
         302         303         308         307
         303         304         309         308
         305         306         311         310
         306         307         312         311
         307         308         313         312
         308         309         314         313
         310         311         316         315
         311         312         317         316
         312         313         318         317
         313         314         319         318
         315         316         321         320
         316         317         322         321
         317         318         323         322
         318         319         324         323
         325         326         331         330
         326         327         332         331
         327         328         333         332
         328         329         334         333
         330         331         336         335
         331         332         337         336
         332         333         338         337
         333         334         339         338
         335         336         341         340
         336         337         342         341
         337         338         343         342
         338         339         344         343
         340         341         346         345
         341         342         347         346
         342         343         348         347
         343         344         349         348
         350         351         356         355
         351         352         357         356
         352         353         358         357
         353         354         359         358
         355         356         361         360
         356         357         362         361
         357         358         363         362
         358         359         364         363
         360         361         366         365
         361         362         367         366
         362         363         368         367
         363         364         369         368
         365         366         371         370
         366         367         372         371
         367         368         373         372
         368         369         374         373
         375         376         381         380
         376         377         382         381
         377         378         383         382
         378         379         384         383
         380         381         386         385
         381         382         387         386
         382         383         388         387
         383         384         389         388
         385         386         391         390
         386         387         392         391
         387         388         393         392
         388         389         394         393
         390         391         396         395
         391         392         397         396
         392         393         398         397
         393         394         399         398
         400         401         406         405
         401         402         407         406
         402         403         408         407
         403         404         409         408
         405         406         411         410
         406         407         412         411
         407         408         413         412
         408         409         414         413
         410         411         416         415
         411         412         417         416
         412         413         418         417
         413         414         419         418
         415         416         421         420
         416         417         422         421
         417         418         423         422
         418         419         424         423
         425         426         431         430
         426         427         432         431
         427         428         433         432
         428         429         434         433
         430         431         436         435
         431         432         437         436
         432         433         438         437
         433         434         439         438
         435         436         441         440
         436         437         442         441
         437         438         443         442
         438         439         444         443
         440         441         446         445
         441         442         447         446
         442         443         448         447
         443         444         449         448
         450         451         456         455
         451         452         457         456
         452         453         458         457
         453         454         459         458
         455         456         461         460
         456         457         462         461
         457         458         463         462
         458         459         464         463
         460         461         466         465
         461         462         467         466
         462         463         468         467
         463         464         469         468
         465         466         471         470
         466         467         472         471
         467         468         473         472
         468         469         474         473
         475         476         481         480
         476         477         482         481
         477         478         483         482
         478         479         484         483
         480         481         486         485
         481         482         487         486
         482         483         488         487
         483         484         489         488
         485         486         491         490
         486         487         492         491
         487         488         493         492
         488         489         494         493
         490         491         496         495
         491         492         497         496
         492         493         498         497
         493         494         499         498
         500         501         506         505
         501         502         507         506
         502         503         508         507
         503         504         509         508
         505         506         511         510
         506         507         512         511
         507         508         513         512
         508         509         514         513
         510         511         516         515
         511         512         517         516
         512         513         518         517
         513         514         519         518
         515         516         521         520
         516         517         522         521
         517         518         523         522
         518         519         524         523
         525         526         531         530
         526         527         532         531
         527         528         533         532
         528         529         534         533
         530         531         536         535
         531         532         537         536
         532         533         538         537
         533         534         539         538
         535         536         541         540
         536         537         542         541
         537         538         543         542
         538         539         544         543
         540         541         546         545
         541         542         547         546
         542         543         548         547
         543         544         549         548
         550         551         556         555
         551         552         557         556
         552         553         558         557
         553         554         559         558
         555         556         561         560
         556         557         562         561
         557         558         563         562
         558         559         564         563
         560         561         566         565
         561         562         567         566
         562         563         568         567
         563         564         569         568
         565         566         571         570
         566         567         572         571
         567         568         573         572
         568         569         574         573
         575         576         581         580
         576         577         582         581
         577         578         583         582
         578         579         584         583
         580         581         586         585
         581         582         587         586
         582         583         588         587
         583         584         589         588
         585         586         591         590
         586         587         592         591
         587         588         593         592
         588         589         594         593
         590         591         596         595
         591         592         597         596
         592         593         598         597
         593         594         599         598
         600         601         606         605
         601         602         607         606
         602         603         608         607
         603         604         609         608
         605         606         611         610
         606         607         612         611
         607         608         613         612
         608         609         614         613
         610         611         616         615
         611         612         617         616
         612         613         618         617
         613         614         619         618
         615         616         621         620
         616         617         622         621
         617         618         623         622
         618         619         624         623
         625         626         631         630
         626         627         632         631
         627         628         633         632
         628         629         634         633
         630         631         636         635
         631         632         637         636
         632         633         638         637
         633         634         639         638
         635         636         641         640
         636         637         642         641
         637         638         643         642
         638         639         644         643
         640         641         646         645
         641         642         647         646
         642         643         648         647
         643         644         649         648
         650         651         656         655
         651         652         657         656
         652         653         658         657
         653         654         659         658
         655         656         661         660
         656         657         662         661
         657         658         663         662
         658         659         664         663
         660         661         666         665
         661         662         667         666
         662         663         668         667
         663         664         669         668
         665         666         671         670
         666         667         672         671
         667         668         673         672
         668         669         674         673
         675         676         681         680
         676         677         682         681
         677         678         683         682
         678         679         684         683
         680         681         686         685
         681         682         687         686
         682         683         688         687
         683         684         689         688
         685         686         691         690
         686         687         692         691
         687         688         693         692
         688         689         694         693
         690         691         696         695
         691         692         697         696
         692         693         698         697
         693         694         699         698
         700         701         706         705
         701         702         707         706
         702         703         708         707
         703         704         709         708
         705         706         711         710
         706         707         712         711
         707         708         713         712
         708         709         714         713
         710         711         716         715
         711         712         717         716
         712         713         718         717
         713         714         719         718
         715         716         721         720
         716         717         722         721
         717         718         723         722
         718         719         724         723
         725         726         731         730
         726         727         732         731
         727         728         733         732
         728         729         734         733
         730         731         736         735
         731         732         737         736
         732         733         738         737
         733         734         739         738
         735         736         741         740
         736         737         742         741
         737         738         743         742
         738         739         744         743
         740         741         746         745
         741         742         747         746
         742         743         748         747
         743         744         749         748
         750         751         756         755
         751         752         757         756
         752         753         758         757
         753         754         759         758
         755         756         761         760
         756         757         762         761
         757         758         763         762
         758         759         764         763
         760         761         766         765
         761         762         767         766
         762         763         768         767
         763         764         769         768
         765         766         771         770
         766         767         772         771
         767         768         773         772
         768         769         774         773
         775         776         781         780
         776         777         782         781
         777         778         783         782
         778         779         784         783
         780         781         786         785
         781         782         787         786
         782         783         788         787
         783         784         789         788
         785         786         791         790
         786         787         792         791
         787         788         793         792
         788         789         794         793
         790         791         796         795
         791         792         797         796
         792         793         798         797
         793         794         799         798
         800         801         806         805
         801         802         807         806
         802         803         808         807
         803         804         809         808
         805         806         811         810
         806         807         812         811
         807         808         813         812
         808         809         814         813
         810         811         816         815
         811         812         817         816
         812         813         818         817
         813         814         819         818
         815         816         821         820
         816         817         822         821
         817         818         823         822
         818         819         824         823
         825         826         831         830
         826         827         832         831
         827         828         833         832
         828         829         834         833
         830         831         836         835
         831         832         837         836
         832         833         838         837
         833         834         839         838
         835         836         841         840
         836         837         842         841
         837         838         843         842
         838         839         844         843
         840         841         846         845
         841         842         847         846
         842         843         848         847
         843         844         849         848
         850         851         856         855
         851         852         857         856
         852         853         858         857
         853         854         859         858
         855         856         861         860
         856         857         862         861
         857         858         863         862
         858         859         864         863
         860         861         866         865
         861         862         867         866
         862         863         868         867
         863         864         869         868
         865         866         871         870
         866         867         872         871
         867         868         873         872
         868         869         874         873
         875         876         881         880
         876         877         882         881
         877         878         883         882
         878         879         884         883
         880         881         886         885
         881         882         887         886
         882         883         888         887
         883         884         889         888
         885         886         891         890
         886         887         892         891
         887         888         893         892
         888         889         894         893
         890         891         896         895
         891         892         897         896
         892         893         898         897
         893         894         899         898
         900         901         906         905
         901         902         907         906
         902         903         908         907
         903         904         909         908
         905         906         911         910
         906         907         912         911
         907         908         913         912
         908         909         914         913
         910         911         916         915
         911         912         917         916
         912         913         918         917
         913         914         919         918
         915         916         921         920
         916         917         922         921
         917         918         923         922
         918         919         924         923
         925         926         931         930
         926         927         932         931
         927         928         933         932
         928         929         934         933
         930         931         936         935
         931         932         937         936
         932         933         938         937
         933         934         939         938
         935         936         941         940
         936         937         942         941
         937         938         943         942
         938         939         944         943
         940         941         946         945
         941         942         947         946
         942         943         948         947
         943         944         949         948
         950         951         956         955
         951         952         957         956
         952         953         958         957
         953         954         959         958
         955         956         961         960
         956         957         962         961
         957         958         963         962
         958         959         964         963
         960         961         966         965
         961         962         967         966
         962         963         968         967
         963         964         969         968
         965         966         971         970
         966         967         972         971
         967         968         973         972
         968         969         974         973
         975         976         981         980
         976         977         982         981
         977         978         983         982
         978         979         984         983
         980         981         986         985
         981         982         987         986
         982         983         988         987
         983         984         989         988
         985         986         991         990
         986         987         992         991
         987         988         993         992
         988         989         994         993
         990         991         996         995
         991         992         997         996
         992         993         998         997
         993         994         999         998
        1000        1001        1006        1005
        1001        1002        1007        1006
        1002        1003        1008        1007
        1003        1004        1009        1008
        1005        1006        1011        1010
        1006        1007        1012        1011
        1007        1008        1013        1012
        1008        1009        1014        1013
        1010        1011        1016        1015
        1011        1012        1017        1016
        1012        1013        1018        1017
        1013        1014        1019        1018
        1015        1016        1021        1020
        1016        1017        1022        1021
        1017        1018        1023        1022
        1018        1019        1024        1023
        1025        1026        1031        1030
        1026        1027        1032        1031
        1027        1028        1033        1032
        1028        1029        1034        1033
        1030        1031        1036        1035
        1031        1032        1037        1036
        1032        1033        1038        1037
        1033        1034        1039        1038
        1035        1036        1041        1040
        1036        1037        1042        1041
        1037        1038        1043        1042
        1038        1039        1044        1043
        1040        1041        1046        1045
        1041        1042        1047        1046
        1042        1043        1048        1047
        1043        1044        1049        1048
        1050        1051        1056        1055
        1051        1052        1057        1056
        1052        1053        1058        1057
        1053        1054        1059        1058
        1055        1056        1061        1060
        1056        1057        1062        1061
        1057        1058        1063        1062
        1058        1059        1064        1063
        1060        1061        1066        1065
        1061        1062        1067        1066
        1062        1063        1068        1067
        1063        1064        1069        1068
        1065        1066        1071        1070
        1066        1067        1072        1071
        1067        1068        1073        1072
        1068        1069        1074        1073
        1075        1076        1081        1080
        1076        1077        1082        1081
        1077        1078        1083        1082
        1078        1079        1084        1083
        1080        1081        1086        1085
        1081        1082        1087        1086
        1082        1083        1088        1087
        1083        1084        1089        1088
        1085        1086        1091        1090
        1086        1087        1092        1091
        1087        1088        1093        1092
        1088        1089        1094        1093
        1090        1091        1096        1095
        1091        1092        1097        1096
        1092        1093        1098        1097
        1093        1094        1099        1098
        1100        1101        1106        1105
        1101        1102        1107        1106
        1102        1103        1108        1107
        1103        1104        1109        1108
        1105        1106        1111        1110
        1106        1107        1112        1111
        1107        1108        1113        1112
        1108        1109        1114        1113
        1110        1111        1116        1115
        1111        1112        1117        1116
        1112        1113        1118        1117
        1113        1114        1119        1118
        1115        1116        1121        1120
        1116        1117        1122        1121
        1117        1118        1123        1122
        1118        1119        1124        1123
        1125        1126        1131        1130
        1126        1127        1132        1131
        1127        1128        1133        1132
        1128        1129        1134        1133
        1130        1131        1136        1135
        1131        1132        1137        1136
        1132        1133        1138        1137
        1133        1134        1139        1138
        1135        1136        1141        1140
        1136        1137        1142        1141
        1137        1138        1143        1142
        1138        1139        1144        1143
        1140        1141        1146        1145
        1141        1142        1147        1146
        1142        1143        1148        1147
        1143        1144        1149        1148
        1150        1151        1156        1155
        1151        1152        1157        1156
        1152        1153        1158        1157
        1153        1154        1159        1158
        1155        1156        1161        1160
        1156        1157        1162        1161
        1157        1158        1163        1162
        1158        1159        1164        1163
        1160        1161        1166        1165
        1161        1162        1167        1166
        1162        1163        1168        1167
        1163        1164        1169        1168
        1165        1166        1171        1170
        1166        1167        1172        1171
        1167        1168        1173        1172
        1168        1169        1174        1173
        1175        1176        1181        1180
        1176        1177        1182        1181
        1177        1178        1183        1182
        1178        1179        1184        1183
        1180        1181        1186        1185
        1181        1182        1187        1186
        1182        1183        1188        1187
        1183        1184        1189        1188
        1185        1186        1191        1190
        1186        1187        1192        1191
        1187        1188        1193        1192
        1188        1189        1194        1193
        1190        1191        1196        1195
        1191        1192        1197        1196
        1192        1193        1198        1197
        1193        1194        1199        1198
        1200        1201        1206        1205
        1201        1202        1207        1206
        1202        1203        1208        1207
        1203        1204        1209        1208
        1205        1206        1211        1210
        1206        1207        1212        1211
        1207        1208        1213        1212
        1208        1209        1214        1213
        1210        1211        1216        1215
        1211        1212        1217        1216
        1212        1213        1218        1217
        1213        1214        1219        1218
        1215        1216        1221        1220
        1216        1217        1222        1221
        1217        1218        1223        1222
        1218        1219        1224        1223
        1225        1226        1231        1230
        1226        1227        1232        1231
        1227        1228        1233        1232
        1228        1229        1234        1233
        1230        1231        1236        1235
        1231        1232        1237        1236
        1232        1233        1238        1237
        1233        1234        1239        1238
        1235        1236        1241        1240
        1236        1237        1242        1241
        1237        1238        1243        1242
        1238        1239        1244        1243
        1240        1241        1246        1245
        1241        1242        1247        1246
        1242        1243        1248        1247
        1243        1244        1249        1248
        1250        1251        1256        1255
        1251        1252        1257        1256
        1252        1253        1258        1257
        1253        1254        1259        1258
        1255        1256        1261        1260
        1256        1257        1262        1261
        1257        1258        1263        1262
        1258        1259        1264        1263
        1260        1261        1266        1265
        1261        1262        1267        1266
        1262        1263        1268        1267
        1263        1264        1269        1268
        1265        1266        1271        1270
        1266        1267        1272        1271
        1267        1268        1273        1272
        1268        1269        1274        1273
        1275        1276        1281        1280
        1276        1277        1282        1281
        1277        1278        1283        1282
        1278        1279        1284        1283
        1280        1281        1286        1285
        1281        1282        1287        1286
        1282        1283        1288        1287
        1283        1284        1289        1288
        1285        1286        1291        1290
        1286        1287        1292        1291
        1287        1288        1293        1292
        1288        1289        1294        1293
        1290        1291        1296        1295
        1291        1292        1297        1296
        1292        1293        1298        1297
        1293        1294        1299        1298
        1300        1301        1306        1305
        1301        1302        1307        1306
        1302        1303        1308        1307
        1303        1304        1309        1308
        1305        1306        1311        1310
        1306        1307        1312        1311
        1307        1308        1313        1312
        1308        1309        1314        1313
        1310        1311        1316        1315
        1311        1312        1317        1316
        1312        1313        1318        1317
        1313        1314        1319        1318
        1315        1316        1321        1320
        1316        1317        1322        1321
        1317        1318        1323        1322
        1318        1319        1324        1323
        1325        1326        1331        1330
        1326        1327        1332        1331
        1327        1328        1333        1332
        1328        1329        1334        1333
        1330        1331        1336        1335
        1331        1332        1337        1336
        1332        1333        1338        1337
        1333        1334        1339        1338
        1335        1336        1341        1340
        1336        1337        1342        1341
        1337        1338        1343        1342
        1338        1339        1344        1343
        1340        1341        1346        1345
        1341        1342        1347        1346
        1342        1343        1348        1347
        1343        1344        1349        1348
        1350        1351        1356        1355
        1351        1352        1357        1356
        1352        1353        1358        1357
        1353        1354        1359        1358
        1355        1356        1361        1360
        1356        1357        1362        1361
        1357        1358        1363        1362
        1358        1359        1364        1363
        1360        1361        1366        1365
        1361        1362        1367        1366
        1362        1363        1368        1367
        1363        1364        1369        1368
        1365        1366        1371        1370
        1366        1367        1372        1371
        1367        1368        1373        1372
        1368        1369        1374        1373
        1375        1376        1381        1380
        1376        1377        1382        1381
        1377        1378        1383        1382
        1378        1379        1384        1383
        1380        1381        1386        1385
        1381        1382        1387        1386
        1382        1383        1388        1387
        1383        1384        1389        1388
        1385        1386        1391        1390
        1386        1387        1392        1391
        1387        1388        1393        1392
        1388        1389        1394        1393
        1390        1391        1396        1395
        1391        1392        1397        1396
        1392        1393        1398        1397
        1393        1394        1399        1398
        1400        1401        1406        1405
        1401        1402        1407        1406
        1402        1403        1408        1407
        1403        1404        1409        1408
        1405        1406        1411        1410
        1406        1407        1412        1411
        1407        1408        1413        1412
        1408        1409        1414        1413
        1410        1411        1416        1415
        1411        1412        1417        1416
        1412        1413        1418        1417
        1413        1414        1419        1418
        1415        1416        1421        1420
        1416        1417        1422        1421
        1417        1418        1423        1422
        1418        1419        1424        1423
        1425        1426        1431        1430
        1426        1427        1432        1431
        1427        1428        1433        1432
        1428        1429        1434        1433
        1430        1431        1436        1435
        1431        1432        1437        1436
        1432        1433        1438        1437
        1433        1434        1439        1438
        1435        1436        1441        1440
        1436        1437        1442        1441
        1437        1438        1443        1442
        1438        1439        1444        1443
        1440        1441        1446        1445
        1441        1442        1447        1446
        1442        1443        1448        1447
        1443        1444        1449        1448
        1450        1451        1456        1455
        1451        1452        1457        1456
        1452        1453        1458        1457
        1453        1454        1459        1458
        1455        1456        1461        1460
        1456        1457        1462        1461
        1457        1458        1463        1462
        1458        1459        1464        1463
        1460        1461        1466        1465
        1461        1462        1467        1466
        1462        1463        1468        1467
        1463        1464        1469        1468
        1465        1466        1471        1470
        1466        1467        1472        1471
        1467        1468        1473        1472
        1468        1469        1474        1473
        1475        1476        1481        1480
        1476        1477        1482        1481
        1477        1478        1483        1482
        1478        1479        1484        1483
        1480        1481        1486        1485
        1481        1482        1487        1486
        1482        1483        1488        1487
        1483        1484        1489        1488
        1485        1486        1491        1490
        1486        1487        1492        1491
        1487        1488        1493        1492
        1488        1489        1494        1493
        1490        1491        1496        1495
        1491        1492        1497        1496
        1492        1493        1498        1497
        1493        1494        1499        1498
        1500        1501        1506        1505
        1501        1502        1507        1506
        1502        1503        1508        1507
        1503        1504        1509        1508
        1505        1506        1511        1510
        1506        1507        1512        1511
        1507        1508        1513        1512
        1508        1509        1514        1513
        1510        1511        1516        1515
        1511        1512        1517        1516
        1512        1513        1518        1517
        1513        1514        1519        1518
        1515        1516        1521        1520
        1516        1517        1522        1521
        1517        1518        1523        1522
        1518        1519        1524        1523
        1525        1526        1531        1530
        1526        1527        1532        1531
        1527        1528        1533        1532
        1528        1529        1534        1533
        1530        1531        1536        1535
        1531        1532        1537        1536
        1532        1533        1538        1537
        1533        1534        1539        1538
        1535        1536        1541        1540
        1536        1537        1542        1541
        1537        1538        1543        1542
        1538        1539        1544        1543
        1540        1541        1546        1545
        1541        1542        1547        1546
        1542        1543        1548        1547
        1543        1544        1549        1548
        1550        1551        1556        1555
        1551        1552        1557        1556
        1552        1553        1558        1557
        1553        1554        1559        1558
        1555        1556        1561        1560
        1556        1557        1562        1561
        1557        1558        1563        1562
        1558        1559        1564        1563
        1560        1561        1566        1565
        1561        1562        1567        1566
        1562        1563        1568        1567
        1563        1564        1569        1568
        1565        1566        1571        1570
        1566        1567        1572        1571
        1567        1568        1573        1572
        1568        1569        1574        1573
        1575        1576        1581        1580
        1576        1577        1582        1581
        1577        1578        1583        1582
        1578        1579        1584        1583
        1580        1581        1586        1585
        1581        1582        1587        1586
        1582        1583        1588        1587
        1583        1584        1589        1588
        1585        1586        1591        1590
        1586        1587        1592        1591
        1587        1588        1593        1592
        1588        1589        1594        1593
        1590        1591        1596        1595
        1591        1592        1597        1596
        1592        1593        1598        1597
        1593        1594        1599        1598
 </DataArray>
 <DataArray  type="Int32"  Name="offsets"  format="ascii"> 
           4
           8
          12
          16
          20
          24
          28
          32
          36
          40
          44
          48
          52
          56
          60
          64
          68
          72
          76
          80
          84
          88
          92
          96
         100
         104
         108
         112
         116
         120
         124
         128
         132
         136
         140
         144
         148
         152
         156
         160
         164
         168
         172
         176
         180
         184
         188
         192
         196
         200
         204
         208
         212
         216
         220
         224
         228
         232
         236
         240
         244
         248
         252
         256
         260
         264
         268
         272
         276
         280
         284
         288
         292
         296
         300
         304
         308
         312
         316
         320
         324
         328
         332
         336
         340
         344
         348
         352
         356
         360
         364
         368
         372
         376
         380
         384
         388
         392
         396
         400
         404
         408
         412
         416
         420
         424
         428
         432
         436
         440
         444
         448
         452
         456
         460
         464
         468
         472
         476
         480
         484
         488
         492
         496
         500
         504
         508
         512
         516
         520
         524
         528
         532
         536
         540
         544
         548
         552
         556
         560
         564
         568
         572
         576
         580
         584
         588
         592
         596
         600
         604
         608
         612
         616
         620
         624
         628
         632
         636
         640
         644
         648
         652
         656
         660
         664
         668
         672
         676
         680
         684
         688
         692
         696
         700
         704
         708
         712
         716
         720
         724
         728
         732
         736
         740
         744
         748
         752
         756
         760
         764
         768
         772
         776
         780
         784
         788
         792
         796
         800
         804
         808
         812
         816
         820
         824
         828
         832
         836
         840
         844
         848
         852
         856
         860
         864
         868
         872
         876
         880
         884
         888
         892
         896
         900
         904
         908
         912
         916
         920
         924
         928
         932
         936
         940
         944
         948
         952
         956
         960
         964
         968
         972
         976
         980
         984
         988
         992
         996
        1000
        1004
        1008
        1012
        1016
        1020
        1024
        1028
        1032
        1036
        1040
        1044
        1048
        1052
        1056
        1060
        1064
        1068
        1072
        1076
        1080
        1084
        1088
        1092
        1096
        1100
        1104
        1108
        1112
        1116
        1120
        1124
        1128
        1132
        1136
        1140
        1144
        1148
        1152
        1156
        1160
        1164
        1168
        1172
        1176
        1180
        1184
        1188
        1192
        1196
        1200
        1204
        1208
        1212
        1216
        1220
        1224
        1228
        1232
        1236
        1240
        1244
        1248
        1252
        1256
        1260
        1264
        1268
        1272
        1276
        1280
        1284
        1288
        1292
        1296
        1300
        1304
        1308
        1312
        1316
        1320
        1324
        1328
        1332
        1336
        1340
        1344
        1348
        1352
        1356
        1360
        1364
        1368
        1372
        1376
        1380
        1384
        1388
        1392
        1396
        1400
        1404
        1408
        1412
        1416
        1420
        1424
        1428
        1432
        1436
        1440
        1444
        1448
        1452
        1456
        1460
        1464
        1468
        1472
        1476
        1480
        1484
        1488
        1492
        1496
        1500
        1504
        1508
        1512
        1516
        1520
        1524
        1528
        1532
        1536
        1540
        1544
        1548
        1552
        1556
        1560
        1564
        1568
        1572
        1576
        1580
        1584
        1588
        1592
        1596
        1600
        1604
        1608
        1612
        1616
        1620
        1624
        1628
        1632
        1636
        1640
        1644
        1648
        1652
        1656
        1660
        1664
        1668
        1672
        1676
        1680
        1684
        1688
        1692
        1696
        1700
        1704
        1708
        1712
        1716
        1720
        1724
        1728
        1732
        1736
        1740
        1744
        1748
        1752
        1756
        1760
        1764
        1768
        1772
        1776
        1780
        1784
        1788
        1792
        1796
        1800
        1804
        1808
        1812
        1816
        1820
        1824
        1828
        1832
        1836
        1840
        1844
        1848
        1852
        1856
        1860
        1864
        1868
        1872
        1876
        1880
        1884
        1888
        1892
        1896
        1900
        1904
        1908
        1912
        1916
        1920
        1924
        1928
        1932
        1936
        1940
        1944
        1948
        1952
        1956
        1960
        1964
        1968
        1972
        1976
        1980
        1984
        1988
        1992
        1996
        2000
        2004
        2008
        2012
        2016
        2020
        2024
        2028
        2032
        2036
        2040
        2044
        2048
        2052
        2056
        2060
        2064
        2068
        2072
        2076
        2080
        2084
        2088
        2092
        2096
        2100
        2104
        2108
        2112
        2116
        2120
        2124
        2128
        2132
        2136
        2140
        2144
        2148
        2152
        2156
        2160
        2164
        2168
        2172
        2176
        2180
        2184
        2188
        2192
        2196
        2200
        2204
        2208
        2212
        2216
        2220
        2224
        2228
        2232
        2236
        2240
        2244
        2248
        2252
        2256
        2260
        2264
        2268
        2272
        2276
        2280
        2284
        2288
        2292
        2296
        2300
        2304
        2308
        2312
        2316
        2320
        2324
        2328
        2332
        2336
        2340
        2344
        2348
        2352
        2356
        2360
        2364
        2368
        2372
        2376
        2380
        2384
        2388
        2392
        2396
        2400
        2404
        2408
        2412
        2416
        2420
        2424
        2428
        2432
        2436
        2440
        2444
        2448
        2452
        2456
        2460
        2464
        2468
        2472
        2476
        2480
        2484
        2488
        2492
        2496
        2500
        2504
        2508
        2512
        2516
        2520
        2524
        2528
        2532
        2536
        2540
        2544
        2548
        2552
        2556
        2560
        2564
        2568
        2572
        2576
        2580
        2584
        2588
        2592
        2596
        2600
        2604
        2608
        2612
        2616
        2620
        2624
        2628
        2632
        2636
        2640
        2644
        2648
        2652
        2656
        2660
        2664
        2668
        2672
        2676
        2680
        2684
        2688
        2692
        2696
        2700
        2704
        2708
        2712
        2716
        2720
        2724
        2728
        2732
        2736
        2740
        2744
        2748
        2752
        2756
        2760
        2764
        2768
        2772
        2776
        2780
        2784
        2788
        2792
        2796
        2800
        2804
        2808
        2812
        2816
        2820
        2824
        2828
        2832
        2836
        2840
        2844
        2848
        2852
        2856
        2860
        2864
        2868
        2872
        2876
        2880
        2884
        2888
        2892
        2896
        2900
        2904
        2908
        2912
        2916
        2920
        2924
        2928
        2932
        2936
        2940
        2944
        2948
        2952
        2956
        2960
        2964
        2968
        2972
        2976
        2980
        2984
        2988
        2992
        2996
        3000
        3004
        3008
        3012
        3016
        3020
        3024
        3028
        3032
        3036
        3040
        3044
        3048
        3052
        3056
        3060
        3064
        3068
        3072
        3076
        3080
        3084
        3088
        3092
        3096
        3100
        3104
        3108
        3112
        3116
        3120
        3124
        3128
        3132
        3136
        3140
        3144
        3148
        3152
        3156
        3160
        3164
        3168
        3172
        3176
        3180
        3184
        3188
        3192
        3196
        3200
        3204
        3208
        3212
        3216
        3220
        3224
        3228
        3232
        3236
        3240
        3244
        3248
        3252
        3256
        3260
        3264
        3268
        3272
        3276
        3280
        3284
        3288
        3292
        3296
        3300
        3304
        3308
        3312
        3316
        3320
        3324
        3328
        3332
        3336
        3340
        3344
        3348
        3352
        3356
        3360
        3364
        3368
        3372
        3376
        3380
        3384
        3388
        3392
        3396
        3400
        3404
        3408
        3412
        3416
        3420
        3424
        3428
        3432
        3436
        3440
        3444
        3448
        3452
        3456
        3460
        3464
        3468
        3472
        3476
        3480
        3484
        3488
        3492
        3496
        3500
        3504
        3508
        3512
        3516
        3520
        3524
        3528
        3532
        3536
        3540
        3544
        3548
        3552
        3556
        3560
        3564
        3568
        3572
        3576
        3580
        3584
        3588
        3592
        3596
        3600
        3604
        3608
        3612
        3616
        3620
        3624
        3628
        3632
        3636
        3640
        3644
        3648
        3652
        3656
        3660
        3664
        3668
        3672
        3676
        3680
        3684
        3688
        3692
        3696
        3700
        3704
        3708
        3712
        3716
        3720
        3724
        3728
        3732
        3736
        3740
        3744
        3748
        3752
        3756
        3760
        3764
        3768
        3772
        3776
        3780
        3784
        3788
        3792
        3796
        3800
        3804
        3808
        3812
        3816
        3820
        3824
        3828
        3832
        3836
        3840
        3844
        3848
        3852
        3856
        3860
        3864
        3868
        3872
        3876
        3880
        3884
        3888
        3892
        3896
        3900
        3904
        3908
        3912
        3916
        3920
        3924
        3928
        3932
        3936
        3940
        3944
        3948
        3952
        3956
        3960
        3964
        3968
        3972
        3976
        3980
        3984
        3988
        3992
        3996
        4000
        4004
        4008
        4012
        4016
        4020
        4024
        4028
        4032
        4036
        4040
        4044
        4048
        4052
        4056
        4060
        4064
        4068
        4072
        4076
        4080
        4084
        4088
        4092
        4096
 </DataArray>
 <DataArray  type="UInt8"  Name="types"  format="ascii">
 9
 9
 9
 9
 9
 9
 9
 9
 9
 9
 9
 9
 9
 9
 9
 9
 9
 9
 9
 9
 9
 9
 9
 9
 9
 9
 9
 9
 9
 9
 9
 9
 9
 9
 9
 9
 9
 9
 9
 9
 9
 9
 9
 9
 9
 9
 9
 9
 9
 9
 9
 9
 9
 9
 9
 9
 9
 9
 9
 9
 9
 9
 9
 9
 9
 9
 9
 9
 9
 9
 9
 9
 9
 9
 9
 9
 9
 9
 9
 9
 9
 9
 9
 9
 9
 9
 9
 9
 9
 9
 9
 9
 9
 9
 9
 9
 9
 9
 9
 9
 9
 9
 9
 9
 9
 9
 9
 9
 9
 9
 9
 9
 9
 9
 9
 9
 9
 9
 9
 9
 9
 9
 9
 9
 9
 9
 9
 9
 9
 9
 9
 9
 9
 9
 9
 9
 9
 9
 9
 9
 9
 9
 9
 9
 9
 9
 9
 9
 9
 9
 9
 9
 9
 9
 9
 9
 9
 9
 9
 9
 9
 9
 9
 9
 9
 9
 9
 9
 9
 9
 9
 9
 9
 9
 9
 9
 9
 9
 9
 9
 9
 9
 9
 9
 9
 9
 9
 9
 9
 9
 9
 9
 9
 9
 9
 9
 9
 9
 9
 9
 9
 9
 9
 9
 9
 9
 9
 9
 9
 9
 9
 9
 9
 9
 9
 9
 9
 9
 9
 9
 9
 9
 9
 9
 9
 9
 9
 9
 9
 9
 9
 9
 9
 9
 9
 9
 9
 9
 9
 9
 9
 9
 9
 9
 9
 9
 9
 9
 9
 9
 9
 9
 9
 9
 9
 9
 9
 9
 9
 9
 9
 9
 9
 9
 9
 9
 9
 9
 9
 9
 9
 9
 9
 9
 9
 9
 9
 9
 9
 9
 9
 9
 9
 9
 9
 9
 9
 9
 9
 9
 9
 9
 9
 9
 9
 9
 9
 9
 9
 9
 9
 9
 9
 9
 9
 9
 9
 9
 9
 9
 9
 9
 9
 9
 9
 9
 9
 9
 9
 9
 9
 9
 9
 9
 9
 9
 9
 9
 9
 9
 9
 9
 9
 9
 9
 9
 9
 9
 9
 9
 9
 9
 9
 9
 9
 9
 9
 9
 9
 9
 9
 9
 9
 9
 9
 9
 9
 9
 9
 9
 9
 9
 9
 9
 9
 9
 9
 9
 9
 9
 9
 9
 9
 9
 9
 9
 9
 9
 9
 9
 9
 9
 9
 9
 9
 9
 9
 9
 9
 9
 9
 9
 9
 9
 9
 9
 9
 9
 9
 9
 9
 9
 9
 9
 9
 9
 9
 9
 9
 9
 9
 9
 9
 9
 9
 9
 9
 9
 9
 9
 9
 9
 9
 9
 9
 9
 9
 9
 9
 9
 9
 9
 9
 9
 9
 9
 9
 9
 9
 9
 9
 9
 9
 9
 9
 9
 9
 9
 9
 9
 9
 9
 9
 9
 9
 9
 9
 9
 9
 9
 9
 9
 9
 9
 9
 9
 9
 9
 9
 9
 9
 9
 9
 9
 9
 9
 9
 9
 9
 9
 9
 9
 9
 9
 9
 9
 9
 9
 9
 9
 9
 9
 9
 9
 9
 9
 9
 9
 9
 9
 9
 9
 9
 9
 9
 9
 9
 9
 9
 9
 9
 9
 9
 9
 9
 9
 9
 9
 9
 9
 9
 9
 9
 9
 9
 9
 9
 9
 9
 9
 9
 9
 9
 9
 9
 9
 9
 9
 9
 9
 9
 9
 9
 9
 9
 9
 9
 9
 9
 9
 9
 9
 9
 9
 9
 9
 9
 9
 9
 9
 9
 9
 9
 9
 9
 9
 9
 9
 9
 9
 9
 9
 9
 9
 9
 9
 9
 9
 9
 9
 9
 9
 9
 9
 9
 9
 9
 9
 9
 9
 9
 9
 9
 9
 9
 9
 9
 9
 9
 9
 9
 9
 9
 9
 9
 9
 9
 9
 9
 9
 9
 9
 9
 9
 9
 9
 9
 9
 9
 9
 9
 9
 9
 9
 9
 9
 9
 9
 9
 9
 9
 9
 9
 9
 9
 9
 9
 9
 9
 9
 9
 9
 9
 9
 9
 9
 9
 9
 9
 9
 9
 9
 9
 9
 9
 9
 9
 9
 9
 9
 9
 9
 9
 9
 9
 9
 9
 9
 9
 9
 9
 9
 9
 9
 9
 9
 9
 9
 9
 9
 9
 9
 9
 9
 9
 9
 9
 9
 9
 9
 9
 9
 9
 9
 9
 9
 9
 9
 9
 9
 9
 9
 9
 9
 9
 9
 9
 9
 9
 9
 9
 9
 9
 9
 9
 9
 9
 9
 9
 9
 9
 9
 9
 9
 9
 9
 9
 9
 9
 9
 9
 9
 9
 9
 9
 9
 9
 9
 9
 9
 9
 9
 9
 9
 9
 9
 9
 9
 9
 9
 9
 9
 9
 9
 9
 9
 9
 9
 9
 9
 9
 9
 9
 9
 9
 9
 9
 9
 9
 9
 9
 9
 9
 9
 9
 9
 9
 9
 9
 9
 9
 9
 9
 9
 9
 9
 9
 9
 9
 9
 9
 9
 9
 9
 9
 9
 9
 9
 9
 9
 9
 9
 9
 9
 9
 9
 9
 9
 9
 9
 9
 9
 9
 9
 9
 9
 9
 9
 9
 9
 9
 9
 9
 9
 9
 9
 9
 9
 9
 9
 9
 9
 9
 9
 9
 9
 9
 9
 9
 9
 9
 9
 9
 9
 9
 9
 9
 9
 9
 9
 9
 9
 9
 9
 9
 9
 9
 9
 9
 9
 9
 9
 9
 9
 9
 9
 9
 9
 9
 9
 9
 9
 9
 9
 9
 9
 9
 9
 9
 9
 9
 9
 9
 9
 9
 9
 9
 9
 9
 9
 9
 9
 9
 9
 9
 9
 9
 9
 9
 9
 9
 9
 9
 9
 9
 9
 9
 9
 9
 9
 9
 9
 9
 9
 9
 9
 9
 9
 9
 9
 9
 9
 9
 9
 9
 9
 9
 9
 9
 9
 9
 9
 9
 9
 9
 9
 9
 9
 9
 9
 9
 9
 9
 9
 9
 9
 9
 9
 9
 9
 9
 9
 9
 9
 9
 9
 9
 9
 9
 9
 9
 9
 9
 9
 9
 9
 9
 9
 9
 9
 9
 9
 9
 9
 9
 9
 9
 9
 9
 9
 9
 9
 9
 9
 9
 9
 9
 9
 9
 9
 9
 9
 9
 9
 9
 9
 9
 9
 9
 9
 9
 9
 9
 9
 9
 9
 9
 9
 9
 9
 9
 9
 9
 9
 9
 9
 9
 9
 9
 9
 9
 9
 9
 9
 </DataArray>
 </Cells> 
 <PointData>
 <DataArray  type="Float64" Name="disp" NumberOfComponents="3" format="ascii">
   6.6947346716422163E-002   6.1944917662787903E-002   0.0000000000000000     
   6.9501502053884390E-002   6.7706488618171273E-002   0.0000000000000000     
   7.2084701632579337E-002   7.3535008975859004E-002   0.0000000000000000     
   7.4696945452506977E-002   7.9430478735851087E-002   0.0000000000000000     
   7.7338233513667351E-002   8.5392897898147524E-002   0.0000000000000000     
   6.0633898150950549E-002   6.1598144863727257E-002   0.0000000000000000     
   6.3344314905862009E-002   6.7147434601906447E-002   0.0000000000000000     
   6.6007425220207971E-002   7.2833795173707888E-002   0.0000000000000000     
   6.8623229093988450E-002   7.8657226579131587E-002   0.0000000000000000     
   7.1191726527203458E-002   8.4617728818177529E-002   0.0000000000000000     
   5.4934399667269811E-002   6.1107584808813092E-002   0.0000000000000000     
   5.7675049694824281E-002   6.6527828867374600E-002   0.0000000000000000     
   6.0321684604401044E-002   7.2130883266597404E-002   0.0000000000000000     
   6.2874304396000100E-002   7.7916748006481532E-002   0.0000000000000000     
   6.5332909069621456E-002   8.3885423087026956E-002   0.0000000000000000     
   4.9848851265379912E-002   6.0473237498045417E-002   0.0000000000000000     
   5.2493706420771211E-002   6.5847671414575731E-002   0.0000000000000000     
   5.5027479785158540E-002   7.1426273254527592E-002   0.0000000000000000     
   5.7450171358541920E-002   7.7209043017900922E-002   0.0000000000000000     
   5.9761781140921316E-002   8.3195980704695804E-002   0.0000000000000000     
   4.5377252945280881E-002   5.9695102931424229E-002   0.0000000000000000     
   4.7800285083702800E-002   6.5106962243509869E-002   0.0000000000000000     
   5.0124810762480466E-002   7.0719965137498370E-002   0.0000000000000000     
   5.2350829981613882E-002   7.6534111613389771E-002   0.0000000000000000     
   5.4478342741103067E-002   8.2549401671184061E-002   0.0000000000000000     
   7.7338233513667351E-002   8.5392897898147524E-002   0.0000000000000000     
   7.9951392050677195E-002   9.1472529440599915E-002   0.0000000000000000     
   8.2479247298153258E-002   9.7719636341059832E-002   0.0000000000000000     
   8.4921799256095554E-002  0.10413421859952729        0.0000000000000000     
   8.7279047924504083E-002  0.11071627621600230        0.0000000000000000     
   7.1191726527203458E-002   8.4617728818177529E-002   0.0000000000000000     
   7.3691618414269827E-002   9.0729180319033223E-002   0.0000000000000000     
   7.6101605649604429E-002   9.7005459509886191E-002   0.0000000000000000     
   7.8421688233207262E-002  0.10344656639073641        0.0000000000000000     
   8.0651866165078301E-002  0.11005250096158392        0.0000000000000000     
   6.5332909069621456E-002   8.3885423087026956E-002   0.0000000000000000     
   6.7699297345633638E-002   9.0026778448613412E-002   0.0000000000000000     
   6.9975267944405242E-002   9.6330684031620706E-002   0.0000000000000000     
   7.2160820865936240E-002  0.10279713983604875        0.0000000000000000     
   7.4255956110226631E-002  0.10942614586189760        0.0000000000000000     
   5.9761781140921316E-002   8.3195980704695804E-002   0.0000000000000000     
   6.1974428844768628E-002   8.9365323829340496E-002   0.0000000000000000     
   6.4100234182555685E-002   9.5695309906263307E-002   0.0000000000000000     
   6.6139197154282500E-002  0.10218593893546428        0.0000000000000000     
   6.8091317759949074E-002  0.10883721091694339        0.0000000000000000     
   5.4478342741103067E-002   8.2549401671184061E-002   0.0000000000000000     
   5.6517012911674762E-002   8.8744816461214432E-002   0.0000000000000000     
   5.8476504364055763E-002   9.5099337133814091E-002   0.0000000000000000     
   6.0356817098246050E-002  0.10161296368898301        0.0000000000000000     
   6.2157951114245630E-002  0.10828569612672122        0.0000000000000000     
   8.7279047924504083E-002  0.11071627621600230        0.0000000000000000     
   8.9548340348850883E-002  0.11744544312155704        0.0000000000000000     
   9.1727023574608005E-002  0.12430135324726370        0.0000000000000000     
   9.3815097601775463E-002  0.13128400659312231        0.0000000000000000     
   9.5812562430353257E-002  0.13839340315913284        0.0000000000000000     
   8.0651866165078301E-002  0.11005250096158392        0.0000000000000000     
   8.2793688276067853E-002  0.11680490246114127        0.0000000000000000     
   8.4848703397026146E-002  0.12368541012812109        0.0000000000000000     
   8.6816911527953219E-002  0.13069402396252341        0.0000000000000000     
   8.8698312668849061E-002  0.13783074396434819        0.0000000000000000     
   7.4255956110226631E-002  0.10942614586189760        0.0000000000000000     
   7.6264616743522931E-002  0.11620113666058565        0.0000000000000000     
   7.8190745832071626E-002  0.12310554678353126        0.0000000000000000     
   8.0034343375872730E-002  0.13013937623073446        0.0000000000000000     
   8.1795409374926201E-002  0.13730262500219520        0.0000000000000000     
   6.8091317759949074E-002  0.10883721091694339        0.0000000000000000     
   6.9961125751216144E-002  0.11563414571989017        0.0000000000000000     
   7.1753150879744432E-002  0.12256176321349416        0.0000000000000000     
   7.3467393145533952E-002  0.12962006339775539        0.0000000000000000     
   7.5103852548584663E-002  0.13680904627267385        0.0000000000000000     
   6.2157951114245630E-002  0.10828569612672122        0.0000000000000000     
   6.3883215299147478E-002  0.11510392963905480        0.0000000000000000     
   6.5535918540044563E-002  0.12205405941800980        0.0000000000000000     
   6.7116060836936900E-002  0.12913608546358626        0.0000000000000000     
   6.8623642189824474E-002  0.13635000777578418        0.0000000000000000     
   9.5812562430353257E-002  0.13839340315913284        0.0000000000000000     
   9.7717626969432717E-002  0.14562324670629817        0.0000000000000000     
   9.9528500128105171E-002  0.15296724099562120        0.0000000000000000     
  0.10124518190637065       0.16042538602710193        0.0000000000000000     
  0.10286767230422914       0.16799768180074032        0.0000000000000000     
   8.8698312668849061E-002  0.13783074396434819        0.0000000000000000     
   9.0492040933151330E-002  0.14508796419118131        0.0000000000000000     
   9.2197230434297645E-002  0.15245807870060851        0.0000000000000000     
   9.3813881172288061E-002  0.15994108749262986        0.0000000000000000     
   9.5341993147122550E-002  0.16753699056724536        0.0000000000000000     
   8.1795409374926201E-002  0.13730262500219520        0.0000000000000000     
   8.3473582156292733E-002  0.14458653858879597        0.0000000000000000     
   8.5068500047032994E-002  0.15198236248141925        0.0000000000000000     
   8.6580163047146969E-002  0.15949009668006503        0.0000000000000000     
   8.8008571156634671E-002  0.16710974118473335        0.0000000000000000     
   7.5103852548584663E-002  0.13680904627267385        0.0000000000000000     
   7.6662250638856982E-002  0.14411896989914230        0.0000000000000000     
   7.8142308966311219E-002  0.15154009233805354        0.0000000000000000     
   7.9544027530947400E-002  0.15907241358940746        0.0000000000000000     
   8.0867406332765499E-002  0.16671593365320411        0.0000000000000000     
   6.8623642189824474E-002  0.13635000777578418        0.0000000000000000     
   7.0058046380844022E-002  0.14368525812222027        0.0000000000000000     
   7.1418657192132307E-002  0.15113126827051124        0.0000000000000000     
   7.2705474623689301E-002  0.15868803822065711        0.0000000000000000     
   7.3918498675515046E-002  0.16635556797265783        0.0000000000000000     
  0.10286767230422914       0.16799768180074032        0.0000000000000000     
  0.10440175634534687       0.17567065460853826        0.0000000000000000     
  0.10585321905339022       0.18343083074249750        0.0000000000000000     
  0.10722206042835911       0.19127821020261809        0.0000000000000000     
  0.10850828047025356       0.19921279298890004        0.0000000000000000     
   9.5341993147122550E-002  0.16753699056724536        0.0000000000000000     
   9.6784595353712172E-002  0.17523356195422021        0.0000000000000000     
   9.8144716786968025E-002  0.18301857568331953        0.0000000000000000     
   9.9422357446890069E-002  0.19089203175454331        0.0000000000000000     
  0.10061751733347836       0.19885393016789163        0.0000000000000000     
   8.8008571156634671E-002  0.16710974118473335        0.0000000000000000     
   8.9354812012437404E-002  0.17482992956265617        0.0000000000000000     
   9.0619973251496538E-002  0.18263929538106569        0.0000000000000000     
   9.1804054873812005E-002  0.19053783863996193        0.0000000000000000     
   9.2907056879383873E-002  0.19852555933934482        0.0000000000000000     
   8.0867406332765499E-002  0.16671593365320411        0.0000000000000000     
   8.2112406321522613E-002  0.17445975743384612        0.0000000000000000     
   8.3278988446975732E-002  0.18229298983573605        0.0000000000000000     
   8.4367152709124912E-002  0.19021563085887389        0.0000000000000000     
   8.5376899107970125E-002  0.19822768050325962        0.0000000000000000     
   7.3918498675515046E-002  0.16635556797265783        0.0000000000000000     
   7.5057378280967743E-002  0.17412304556779012        0.0000000000000000     
   7.6121762373405663E-002  0.18197965904733057        0.0000000000000000     
   7.7111650952828792E-002  0.18992540841127922        0.0000000000000000     
   7.8027044019237130E-002  0.19796029365963608        0.0000000000000000     
  0.10850828047025356       0.19921279298890004        0.0000000000000000     
  0.10971558965477740       0.20723194437763381        0.0000000000000000     
  0.11084769845763441       0.21533302964510986        0.0000000000000000     
  0.11190460687882467       0.22351604879132816        0.0000000000000000     
  0.11288631491834811       0.23178100181628875        0.0000000000000000     
  0.10061751733347836       0.19885393016789163        0.0000000000000000     
  0.10173478003706916       0.20689888087481129        0.0000000000000000     
  0.10277872914799883       0.21502149382674912        0.0000000000000000     
  0.10374936466626740       0.22322176902370516        0.0000000000000000     
  0.10464668659187482       0.23149970646567938        0.0000000000000000     
   9.2907056879383873E-002  0.19852555933934482        0.0000000000000000     
   9.3933302737759808E-002  0.20659542860259417        0.0000000000000000     
   9.4887115918487488E-002  0.21474041755308965        0.0000000000000000     
   9.5768496421566901E-002  0.22296052619083129        0.0000000000000000     
   9.6577444246998129E-002  0.23125575451581909        0.0000000000000000     
   8.5376899107970125E-002  0.19822768050325962        0.0000000000000000     
   8.6311157756849305E-002  0.20632158756098246        0.0000000000000000     
   8.7172858769100359E-002  0.21448980082413138        0.0000000000000000     
   8.7962002144723259E-002  0.22273232029270654        0.0000000000000000     
   8.8678587883718032E-002  0.23104914596670784        0.0000000000000000     
   7.8027044019237130E-002  0.19796029365963608        0.0000000000000000     
   7.8868345094337697E-002  0.20607735774997610        0.0000000000000000     
   7.9635957699837431E-002  0.21426964363987436        0.0000000000000000     
   8.0329881835736389E-002  0.22253715132933086        0.0000000000000000     
   8.0950117502034541E-002  0.23087988081834565        0.0000000000000000     
  0.11288631491834811       0.23178100181628875        0.0000000000000000     
  0.11382093027480668       0.24014440812353194        0.0000000000000000     
  0.11473656064680229       0.24862278711659799        0.0000000000000000     
  0.11563320603433495       0.25721613879548699        0.0000000000000000     
  0.11651086643740466       0.26592446316019885        0.0000000000000000     
  0.10464668659187482       0.23149970646567938        0.0000000000000000     
  0.10547582959024454       0.23987877994821530        0.0000000000000000     
  0.10624192832679999       0.24838246326685615        0.0000000000000000     
  0.10694498280154117       0.25701075642160215        0.0000000000000000     
  0.10758499301446810       0.26576365941245317        0.0000000000000000     
   9.6577444246998129E-002  0.23125575451581909        0.0000000000000000     
   9.7305026811130430E-002  0.23965258855529240        0.0000000000000000     
   9.7942311530313172E-002  0.24817751433649043        0.0000000000000000     
   9.8489298404546399E-002  0.25683053185941324        0.0000000000000000     
   9.8945987433830027E-002  0.26561164112406088        0.0000000000000000     
   8.8678587883718032E-002  0.23104914596670784        0.0000000000000000     
   8.9308521937464358E-002  0.23946583394476328        0.0000000000000000     
   8.9837710257341857E-002  0.24800794032550080        0.0000000000000000     
   9.0266152843350586E-002  0.25667546510892036        0.0000000000000000     
   9.0593849695490516E-002  0.26546840829502211        0.0000000000000000     
   8.0950117502034541E-002  0.23087988081834565        0.0000000000000000     
   8.1486314969246298E-002  0.23931851611662794        0.0000000000000000     
   8.1928124507886030E-002  0.24787374123388725        0.0000000000000000     
   8.2275546117953777E-002  0.25654555617012348        0.0000000000000000     
   8.2528579799449497E-002  0.26533396092533668        0.0000000000000000     
  0.11651086643740466       0.26592446316019885        0.0000000000000000     
  0.11730986184741893       0.27491227854025635        0.0000000000000000     
  0.11797051225578523       0.28434410326518228        0.0000000000000000     
  0.11849281766250358       0.29421993733497653        0.0000000000000000     
  0.11887677806757395       0.30453978074963922        0.0000000000000000     
  0.10758499301446810       0.26576365941245317        0.0000000000000000     
  0.10814292576781170       0.27477324176765483        0.0000000000000000     
  0.10859974786380303       0.28417157301545265        0.0000000000000000     
  0.10895545930244199       0.29395865315584668        0.0000000000000000     
  0.10921006008372866       0.30413448218883687        0.0000000000000000     
   9.8945987433830027E-002  0.26561164112406088        0.0000000000000000     
   9.9323329282774278E-002  0.27461907196620561        0.0000000000000000     
   9.9632274615989239E-002  0.28395105422161981        0.0000000000000000     
   9.9872823433474908E-002  0.29360758789030339        0.0000000000000000     
  0.10004497573523133       0.30358867297225645        0.0000000000000000     
   9.0593849695490516E-002  0.26546840829502211        0.0000000000000000     
   9.0851072392306609E-002  0.27444976913590885        0.0000000000000000     
   9.1068092512343893E-002  0.28368254688368377        0.0000000000000000     
   9.1244910055602327E-002  0.29316674153834688        0.0000000000000000     
   9.1381525022081952E-002  0.30290235309989810        0.0000000000000000     
   8.2528579799449497E-002  0.26533396092533668        0.0000000000000000     
   8.2726155096408710E-002  0.27426533327676450        0.0000000000000000     
   8.2907201552866974E-002  0.28336605100164458        0.0000000000000000     
   8.3071719168824262E-002  0.29263611409997703        0.0000000000000000     
   8.3219707944280574E-002  0.30207552257176173        0.0000000000000000     
   4.5377252945280881E-002   5.9695102931424229E-002   0.0000000000000000     
   4.7800285083702800E-002   6.5106962243509869E-002   0.0000000000000000     
   5.0124810762480466E-002   7.0719965137498370E-002   0.0000000000000000     
   5.2350829981613882E-002   7.6534111613389771E-002   0.0000000000000000     
   5.4478342741103067E-002   8.2549401671184061E-002   0.0000000000000000     
   4.1234941270180500E-002   5.8896950885165403E-002   0.0000000000000000     
   4.3387293026354037E-002   6.4378181754281671E-002   0.0000000000000000     
   4.5465308737962722E-002   7.0047670573751331E-002   0.0000000000000000     
   4.7468988405006553E-002   7.5905417343574380E-002   0.0000000000000000     
   4.9398332027485538E-002   8.1951422063750792E-002   0.0000000000000000     
   3.7137252803286565E-002   5.8202551135484788E-002   0.0000000000000000     
   3.9047237591459914E-002   6.3733810346995906E-002   0.0000000000000000     
   4.0900604913201195E-002   6.9445101221527972E-002   0.0000000000000000     
   4.2697354768510429E-002   7.5336423759081034E-002   0.0000000000000000     
   4.4437487157387594E-002   8.1407777959655064E-002   0.0000000000000000     
   3.3084187544599082E-002   5.7611903682382400E-002   0.0000000000000000     
   3.4780118779020437E-002   6.3173848021652532E-002   0.0000000000000000     
   3.6430699288195915E-002   6.8912257080828321E-002   0.0000000000000000     
   3.8035929072125503E-002   7.4827130859909760E-002   0.0000000000000000     
   3.9595808130809221E-002   8.0918469358896891E-002   0.0000000000000000     
   2.9075745494118052E-002   5.7125008525858230E-002   0.0000000000000000     
   3.0585936589035613E-002   6.2698294778251562E-002   0.0000000000000000     
   3.2055591862946861E-002   6.8449138151652336E-002   0.0000000000000000     
   3.3484711315851803E-002   7.4377538646060559E-002   0.0000000000000000     
   3.4873294947750433E-002   8.0483496261476217E-002   0.0000000000000000     
   5.4478342741103067E-002   8.2549401671184061E-002   0.0000000000000000     
   5.6517012911674762E-002   8.8744816461214432E-002   0.0000000000000000     
   5.8476504364055763E-002   9.5099337133814091E-002   0.0000000000000000     
   6.0356817098246050E-002  0.10161296368898301        0.0000000000000000     
   6.2157951114245630E-002  0.10828569612672122        0.0000000000000000     
   4.9398332027485538E-002   8.1951422063750792E-002   0.0000000000000000     
   5.1255471470531250E-002   8.8170564820933897E-002   0.0000000000000000     
   5.3042538599275234E-002   9.4547725701776969E-002   0.0000000000000000     
   5.4759533413717497E-002  0.10108290470627999        0.0000000000000000     
   5.6406455913858060E-002  0.10777610183444300        0.0000000000000000     
   4.4437487157387594E-002   8.1407777959655064E-002   0.0000000000000000     
   4.6118226445517226E-002   8.7647877385197567E-002   0.0000000000000000     
   4.7736796998583859E-002   9.4045435597655977E-002   0.0000000000000000     
   4.9293198816587502E-002  0.10060045259703032        0.0000000000000000     
   5.0787431899528127E-002  0.10731292838332059        0.0000000000000000     
   3.9595808130809221E-002   8.0918469358896891E-002   0.0000000000000000     
   4.1105277836632717E-002   8.7176754154005401E-002   0.0000000000000000     
   4.2559279561981647E-002   9.3592466821451087E-002   0.0000000000000000     
   4.3957813306856018E-002  0.10016560736123392        0.0000000000000000     
   4.5300879071255837E-002  0.10689617577335396        0.0000000000000000     
   3.4873294947750433E-002   8.0483496261476217E-002   0.0000000000000000     
   3.6216625643877710E-002   8.6757195127357425E-002   0.0000000000000000     
   3.7509986289468590E-002   9.3188819373162327E-002   0.0000000000000000     
   3.8753376884523086E-002   9.9778368998890893E-002   0.0000000000000000     
   3.9946797429041184E-002  0.10652584400454315        0.0000000000000000     
   6.2157951114245630E-002  0.10828569612672122        0.0000000000000000     
   6.3883215299147478E-002  0.11510392963905480        0.0000000000000000     
   6.5535918540044563E-002  0.12205405941800980        0.0000000000000000     
   6.7116060836936900E-002  0.12913608546358626        0.0000000000000000     
   6.8623642189824474E-002  0.13635000777578418        0.0000000000000000     
   5.6406455913858060E-002  0.10777610183444300        0.0000000000000000     
   5.7984809136948645E-002  0.11461478081987687        0.0000000000000000     
   5.9496096120241038E-002  0.12158640539619256        0.0000000000000000     
   6.0940316863735224E-002  0.12869097556339004        0.0000000000000000     
   6.2317471367431203E-002  0.13592849132146934        0.0000000000000000     
   5.0787431899528127E-002  0.10731292838332059        0.0000000000000000     
   5.2219831014251365E-002  0.11417099166415373        0.0000000000000000     
   5.3590730927602838E-002  0.12116277114715675        0.0000000000000000     
   5.4900131639582538E-002  0.12828826683232963        0.0000000000000000     
   5.6148033150190478E-002  0.13554747871967235        0.0000000000000000     
   4.5300879071255837E-002  0.10689617577335396        0.0000000000000000     
   4.6588280931055638E-002  0.11377256217188536        0.0000000000000000     
   4.7819822962129978E-002  0.12078315667090241        0.0000000000000000     
   4.8995505164478863E-002  0.12792795927040509        0.0000000000000000     
   5.0115327538102300E-002  0.13520696997039336        0.0000000000000000     
   3.9946797429041184E-002  0.10652584400454315        0.0000000000000000     
   4.1090158887361450E-002  0.11341949234307178        0.0000000000000000     
   4.2183372223822443E-002  0.12044756196742951        0.0000000000000000     
   4.3226437438424192E-002  0.12761005287761634        0.0000000000000000     
   4.4219354531166662E-002  0.13490696507363226        0.0000000000000000     
   6.8623642189824474E-002  0.13635000777578418        0.0000000000000000     
   7.0058046380844022E-002  0.14368525812222027        0.0000000000000000     
   7.1418657192132307E-002  0.15113126827051124        0.0000000000000000     
   7.2705474623689301E-002  0.15868803822065711        0.0000000000000000     
   7.3918498675515046E-002  0.16635556797265783        0.0000000000000000     
   6.2317471367431203E-002  0.13592849132146934        0.0000000000000000     
   6.3626473057737082E-002  0.14328775104281871        0.0000000000000000     
   6.4866235361060953E-002  0.15075755309982655        0.0000000000000000     
   6.6036758277402838E-002  0.15833789749249291        0.0000000000000000     
   6.7138041806762708E-002  0.16602878422081771        0.0000000000000000     
   5.6148033150190478E-002  0.13554747871967235        0.0000000000000000     
   5.7333034345019365E-002  0.14292879644572651        0.0000000000000000     
   5.8453734109661898E-002  0.15042060964703369        0.0000000000000000     
   5.9510132444118090E-002  0.15802291832359378        0.0000000000000000     
   6.0502229348387948E-002  0.16573572247540694        0.0000000000000000     
   5.0115327538102300E-002  0.13520696997039336        0.0000000000000000     
   5.1177730242690858E-002  0.14260839433094369        0.0000000000000000     
   5.2181153437935113E-002  0.15012043791213250        0.0000000000000000     
   5.3125597123835085E-002  0.15774310071395978        0.0000000000000000     
   5.4011061300390732E-002  0.16547638273642556        0.0000000000000000     
   4.4219354531166662E-002  0.13490696507363226        0.0000000000000000     
   4.5160560750751561E-002  0.14232654469847023        0.0000000000000000     
   4.6048493345880598E-002  0.14985703789512309        0.0000000000000000     
   4.6883152316553774E-002  0.15749844466359086        0.0000000000000000     
   4.7664537662771095E-002  0.16525076500387362        0.0000000000000000     
   7.3918498675515046E-002  0.16635556797265783        0.0000000000000000     
   7.5057378280967743E-002  0.17412304556779012        0.0000000000000000     
   7.6121762373405663E-002  0.18197965904733057        0.0000000000000000     
   7.7111650952828792E-002  0.18992540841127922        0.0000000000000000     
   7.8027044019237130E-002  0.19796029365963608        0.0000000000000000     
   6.7138041806762708E-002  0.16602878422081771        0.0000000000000000     
   6.8169765966871410E-002  0.17381929208966199        0.0000000000000000     
   6.9131610775459748E-002  0.18169849990388676        0.0000000000000000     
   7.0023576232527709E-002  0.18966640766349210        0.0000000000000000     
   7.0845662338075321E-002  0.19772301536847792        0.0000000000000000     
   6.0502229348387948E-002  0.16573572247540694        0.0000000000000000     
   6.1429607455332158E-002  0.17354799512463553        0.0000000000000000     
   6.2291849397811426E-002  0.18144870929344209        0.0000000000000000     
   6.3088955175825773E-002  0.18943786498182660        0.0000000000000000     
   6.3820924789375177E-002  0.19751546218978908        0.0000000000000000     
   5.4011061300390732E-002  0.16547638273642556        0.0000000000000000     
   5.4836902746349989E-002  0.17330915467271080        0.0000000000000000     
   5.5602478240460738E-002  0.18123028721599654        0.0000000000000000     
   5.6307787782722968E-002  0.18923978036628281        0.0000000000000000     
   5.6952831373136677E-002  0.19733763412356950        0.0000000000000000     
   4.7664537662771095E-002  0.16525076500387362        0.0000000000000000     
   4.8391651839924922E-002  0.17310277073388786        0.0000000000000000     
   4.9063497303407651E-002  0.18104323367155017        0.0000000000000000     
   4.9680074053219288E-002  0.18907215381686068        0.0000000000000000     
   5.0241382089359833E-002  0.19718953116981927        0.0000000000000000     
   7.8027044019237130E-002  0.19796029365963608        0.0000000000000000     
   7.8868345094337697E-002  0.20607735774997610        0.0000000000000000     
   7.9635957699837431E-002  0.21426964363987436        0.0000000000000000     
   8.0329881835736389E-002  0.22253715132933086        0.0000000000000000     
   8.0950117502034541E-002  0.23087988081834565        0.0000000000000000     
   7.0845662338075321E-002  0.19772301536847792        0.0000000000000000     
   7.1595754374930820E-002  0.20586213852158686        0.0000000000000000     
   7.2271737625922441E-002  0.21407759262556156        0.0000000000000000     
   7.2873612091050186E-002  0.22236937768040191        0.0000000000000000     
   7.3401377770314052E-002  0.23073749368610799        0.0000000000000000     
   6.3820924789375177E-002  0.19751546218978908        0.0000000000000000     
   6.4484275223334608E-002  0.20567532922782650        0.0000000000000000     
   6.5075523462579055E-002  0.21391129440643589        0.0000000000000000     
   6.5594669507108488E-002  0.22222335772561724        0.0000000000000000     
   6.6041713356922938E-002  0.23061151918537054        0.0000000000000000     
   5.6952831373136677E-002  0.19733763412356950        0.0000000000000000     
   5.7533907639549048E-002  0.20551692986869499        0.0000000000000000     
   5.8047315209807264E-002  0.21377074898249743        0.0000000000000000     
   5.8493054083911311E-002  0.22209909146497681        0.0000000000000000     
   5.8871124261861182E-002  0.23050195731613315        0.0000000000000000     
   5.0241382089359833E-002  0.19718953116981927        0.0000000000000000     
   5.0744651623574132E-002  0.20538694044419231        0.0000000000000000     
   5.1187112867607069E-002  0.21365595635374610        0.0000000000000000     
   5.1568765821458626E-002  0.22199657889848068        0.0000000000000000     
   5.1889610485128815E-002  0.23040880807839598        0.0000000000000000     
   8.0950117502034541E-002  0.23087988081834565        0.0000000000000000     
   8.1486314969246298E-002  0.23931851611662794        0.0000000000000000     
   8.1928124507886030E-002  0.24787374123388725        0.0000000000000000     
   8.2275546117953777E-002  0.25654555617012348        0.0000000000000000     
   8.2528579799449497E-002  0.26533396092533668        0.0000000000000000     
   7.3401377770314052E-002  0.23073749368610799        0.0000000000000000     
   7.3851991123072433E-002  0.23919567547428650        0.0000000000000000     
   7.4222408608683690E-002  0.24775765787654400        0.0000000000000000     
   7.4512630227147852E-002  0.25642344089288066        0.0000000000000000     
   7.4722655978464919E-002  0.26519302452329629        0.0000000000000000     
   6.6041713356922938E-002  0.23061151918537054        0.0000000000000000     
   6.6419135615538874E-002  0.23908235242113882        0.0000000000000000     
   6.6729416886472825E-002  0.24764243106836528        0.0000000000000000     
   6.6972557169724764E-002  0.25629175512704983        0.0000000000000000     
   6.7148556465294718E-002  0.26503032459719245        0.0000000000000000     
   5.8871124261861182E-002  0.23050195731613315        0.0000000000000000     
   5.9187748446645649E-002  0.23897854695718504        0.0000000000000000     
   5.9449149341253407E-002  0.24752806080935108        0.0000000000000000     
   5.9655326945684491E-002  0.25615049887263108        0.0000000000000000     
   5.9806281259938872E-002  0.26484586114702524        0.0000000000000000     
   5.1889610485128815E-002  0.23040880807839598        0.0000000000000000     
   5.2157829616392738E-002  0.23888425908242519        0.0000000000000000     
   5.2381605973025470E-002  0.24741454709950134        0.0000000000000000     
   5.2560939555027025E-002  0.25599967212962449        0.0000000000000000     
   5.2695830362397389E-002  0.26463963417279462        0.0000000000000000     
   8.2528579799449497E-002  0.26533396092533668        0.0000000000000000     
   8.2726155096408710E-002  0.27426533327676450        0.0000000000000000     
   8.2907201552866974E-002  0.28336605100164458        0.0000000000000000     
   8.3071719168824262E-002  0.29263611409997703        0.0000000000000000     
   8.3219707944280574E-002  0.30207552257176173        0.0000000000000000     
   7.4722655978464919E-002  0.26519302452329629        0.0000000000000000     
   7.4893404046715739E-002  0.27406007664667642        0.0000000000000000     
   7.5065792615981189E-002  0.28301826514190631        0.0000000000000000     
   7.5239821686261268E-002  0.29206759000898608        0.0000000000000000     
   7.5415491257555950E-002  0.30120805124791566        0.0000000000000000     
   6.7148556465294718E-002  0.26503032459719245        0.0000000000000000     
   6.7297645894862812E-002  0.27382831150354853        0.0000000000000000     
   6.7460056580109229E-002  0.28265588787087303        0.0000000000000000     
   6.7635788521033927E-002  0.29151305369916630        0.0000000000000000     
   6.7824841717636933E-002  0.30039980898842811        0.0000000000000000     
   5.9806281259938872E-002  0.26484586114702524        0.0000000000000000     
   5.9938880640849942E-002  0.27357003784738076        0.0000000000000000     
   6.0089993445251066E-002  0.28227891918854497        0.0000000000000000     
   6.0259619673142265E-002  0.29097250517051781        0.0000000000000000     
   6.0447759324523502E-002  0.29965079579329917        0.0000000000000000     
   5.2695830362397389E-002  0.26463963417279462        0.0000000000000000     
   5.2817108284677117E-002  0.27328525567817330        0.0000000000000000     
   5.2955603211406743E-002  0.28188735909492180        0.0000000000000000     
   5.3111315142586255E-002  0.29044594442304028        0.0000000000000000     
   5.3284244078215665E-002  0.29896101166252875        0.0000000000000000     
   2.9075745494118052E-002   5.7125008525858230E-002   0.0000000000000000     
   3.0585936589035613E-002   6.2698294778251562E-002   0.0000000000000000     
   3.2055591862946861E-002   6.8449138151652336E-002   0.0000000000000000     
   3.3484711315851803E-002   7.4377538646060559E-002   0.0000000000000000     
   3.4873294947750433E-002   8.0483496261476217E-002   0.0000000000000000     
   2.5144280241621370E-002   5.6714995572652999E-002   0.0000000000000000     
   2.6479799627253161E-002   6.2290633723226976E-002   0.0000000000000000     
   2.7776988331738289E-002   6.8046847108130887E-002   0.0000000000000000     
   2.9035846355076753E-002   7.3983635727364702E-002   0.0000000000000000     
   3.0256373697268562E-002   8.0100999580928464E-002   0.0000000000000000     
   2.1322145376886939E-002   5.6354994729507460E-002   0.0000000000000000     
   2.2476816499420807E-002   6.1934347963012747E-002   0.0000000000000000     
   2.3596594388854433E-002   6.7696486624394772E-002   0.0000000000000000     
   2.4681479045187821E-002   7.3641410713653530E-002   0.0000000000000000     
   2.5731470468420965E-002   7.9769120230788998E-002   0.0000000000000000     
   1.7609340899914751E-002   5.6045005996421565E-002   0.0000000000000000     
   1.8576987205538558E-002   6.1629437497608866E-002   0.0000000000000000     
   1.9514410034295306E-002   6.7398056700444020E-002   0.0000000000000000     
   2.0421609386185001E-002   7.3350863604926986E-002   0.0000000000000000     
   2.1298585261207641E-002   7.9487858211057819E-002   0.0000000000000000     
   1.4005866810704815E-002   5.5785029373395356E-002   0.0000000000000000     
   1.4780311745606407E-002   6.1375902327015334E-002   0.0000000000000000     
   1.5530435268060900E-002   6.7151557336278589E-002   0.0000000000000000     
   1.6256237378068295E-002   7.3111994401185113E-002   0.0000000000000000     
   1.6957718075628590E-002   7.9257213521734912E-002   0.0000000000000000     
   3.4873294947750433E-002   8.0483496261476217E-002   0.0000000000000000     
   3.6216625643877710E-002   8.6757195127357425E-002   0.0000000000000000     
   3.7509986289468590E-002   9.3188819373162327E-002   0.0000000000000000     
   3.8753376884523086E-002   9.9778368998890893E-002   0.0000000000000000     
   3.9946797429041184E-002  0.10652584400454315        0.0000000000000000     
   3.0256373697268562E-002   8.0100999580928464E-002   0.0000000000000000     
   3.1435321482131726E-002   8.6387956208492767E-002   0.0000000000000000     
   3.2569440833484273E-002   9.2833523149728231E-002   0.0000000000000000     
   3.3658731751326200E-002   9.9437700404634871E-002   0.0000000000000000     
   3.4703194235657500E-002  0.10620048797321269        0.0000000000000000     
   2.5731470468420965E-002   7.9769120230788998E-002   0.0000000000000000     
   2.6744416966274307E-002   8.6067793300650508E-002   0.0000000000000000     
   2.7718166846468276E-002   9.2525608048087377E-002   0.0000000000000000     
   2.8652720109002876E-002   9.9142564473099604E-002   0.0000000000000000     
   2.9548076753878105E-002  0.10591866257568719        0.0000000000000000     
   2.1298585261207641E-002   7.9487858211057819E-002   0.0000000000000000     
   2.2143912096305434E-002   8.5796706403830678E-002   0.0000000000000000     
   2.2956164328420597E-002   9.2265074068239750E-002   0.0000000000000000     
   2.3735341957553113E-002   9.8892961204285063E-002   0.0000000000000000     
   2.4481444983703003E-002  0.10568036781196660        0.0000000000000000     
   1.6957718075628590E-002   7.9257213521734912E-002   0.0000000000000000     
   1.7633806872225127E-002   8.5574695518033247E-002   0.0000000000000000     
   1.8283433279341236E-002   9.2051921210185378E-002   0.0000000000000000     
   1.8906597296976926E-002   9.8688890598191276E-002   0.0000000000000000     
   1.9503298925132192E-002  0.10548560368205097        0.0000000000000000     
   3.9946797429041184E-002  0.10652584400454315        0.0000000000000000     
   4.1090158887361450E-002  0.11341949234307178        0.0000000000000000     
   4.2183372223822443E-002  0.12044756196742951        0.0000000000000000     
   4.3226437438424192E-002  0.12761005287761634        0.0000000000000000     
   4.4219354531166662E-002  0.13490696507363226        0.0000000000000000     
   3.4703194235657500E-002  0.10620048797321269        0.0000000000000000     
   3.5703079487926899E-002  0.11310984255246048        0.0000000000000000     
   3.6658638709583136E-002  0.12015372083937702        0.0000000000000000     
   3.7569871900626189E-002  0.12733212283396234        0.0000000000000000     
   3.8436779061056081E-002  0.13464504853621645        0.0000000000000000     
   2.9548076753878105E-002  0.10591866257568719        0.0000000000000000     
   3.0404657337510081E-002  0.11284167317479898        0.0000000000000000     
   3.1222882416314900E-002  0.11989936708938392        0.0000000000000000     
   3.2002751990292573E-002  0.12709174431944201        0.0000000000000000     
   3.2744266059443097E-002  0.13441880486497318        0.0000000000000000     
   2.4481444983703003E-002  0.10568036781196660        0.0000000000000000     
   2.5194892436110974E-002  0.11261498421008731        0.0000000000000000     
   2.5876103344017746E-002  0.11968450071745021        0.0000000000000000     
   2.6525077707423326E-002  0.12688891733405527        0.0000000000000000     
   2.7141815526327707E-002  0.13422823405990247        0.0000000000000000     
   1.9503298925132192E-002  0.10548560368205097        0.0000000000000000     
   2.0073784783729589E-002  0.11242977565832547        0.0000000000000000     
   2.0618301492691671E-002  0.11950912172357589        0.0000000000000000     
   2.1136849052018451E-002  0.12672364187780216        0.0000000000000000     
   2.1629427461709913E-002  0.13407333612100431        0.0000000000000000     
   4.4219354531166662E-002  0.13490696507363226        0.0000000000000000     
   4.5160560750751561E-002  0.14232654469847023        0.0000000000000000     
   4.6048493345880598E-002  0.14985703789512309        0.0000000000000000     
   4.6883152316553774E-002  0.15749844466359086        0.0000000000000000     
   4.7664537662771095E-002  0.16525076500387362        0.0000000000000000     
   3.8436779061056081E-002  0.13464504853621645        0.0000000000000000     
   3.9257886608535672E-002  0.14208087266180572        0.0000000000000000     
   4.0031720960727830E-002  0.14962796992639660        0.0000000000000000     
   4.0758282117632570E-002  0.15728634032998906        0.0000000000000000     
   4.1437570079249871E-002  0.16505598387258319        0.0000000000000000     
   3.2744266059443097E-002  0.13441880486497318        0.0000000000000000     
   3.3446068555377365E-002  0.14186900333444979        0.0000000000000000     
   3.4106803409706260E-002  0.14943079433634424        0.0000000000000000     
   3.4726470622429798E-002  0.15710417787065642        0.0000000000000000     
   3.5305070193547949E-002  0.16488915393738640        0.0000000000000000     
   2.7141815526327707E-002  0.13422823405990247        0.0000000000000000     
   2.7725106591276649E-002  0.14169093671640248        0.0000000000000000     
   2.8273740692815904E-002  0.14926551112496594        0.0000000000000000     
   2.8787717830945459E-002  0.15695195728559294        0.0000000000000000     
   2.9267038005665331E-002  0.16475027519828336        0.0000000000000000     
   2.1629427461709913E-002  0.13407333612100431        0.0000000000000000     
   2.2095000716233524E-002  0.14154667280766373        0.0000000000000000     
   2.2532532810056745E-002  0.14913212029226180        0.0000000000000000     
   2.2942023743179572E-002  0.15682967857479854        0.0000000000000000     
   2.3323473515602010E-002  0.16463934765527394        0.0000000000000000     
   4.7664537662771095E-002  0.16525076500387362        0.0000000000000000     
   4.8391651839924922E-002  0.17310277073388786        0.0000000000000000     
   4.9063497303407651E-002  0.18104323367155017        0.0000000000000000     
   4.9680074053219288E-002  0.18907215381686068        0.0000000000000000     
   5.0241382089359833E-002  0.19718953116981927        0.0000000000000000     
   4.1437570079249871E-002  0.16505598387258319        0.0000000000000000     
   4.2068268673422698E-002  0.17292554110365174        0.0000000000000000     
   4.2649061727994014E-002  0.18088365257266761        0.0000000000000000     
   4.3179949242963797E-002  0.18893031827963089        0.0000000000000000     
   4.3660931218332075E-002  0.19706553822454145        0.0000000000000000     
   3.5305070193547949E-002  0.16488915393738640        0.0000000000000000     
   3.5841167184209113E-002  0.17277416357748762        0.0000000000000000     
   3.6333326655561646E-002  0.18074764783191349        0.0000000000000000     
   3.6781548607605553E-002  0.18880960670066402        0.0000000000000000     
   3.7185833040340843E-002  0.19696004018373922        0.0000000000000000     
   2.9267038005665331E-002  0.16475027519828336        0.0000000000000000     
   2.9710347372284146E-002  0.17264863815539555        0.0000000000000000     
   3.0116292086110556E-002  0.18063521944928781        0.0000000000000000     
   3.0484872147144550E-002  0.18871001907996018        0.0000000000000000     
   3.0816087555386142E-002  0.19687303704741263        0.0000000000000000     
   2.3323473515602010E-002  0.16463934765527394        0.0000000000000000     
   2.3675809237647810E-002  0.17254896483737547        0.0000000000000000     
   2.3997958019640740E-002  0.18054636742479063        0.0000000000000000     
   2.4289919861580789E-002  0.18863155541751930        0.0000000000000000     
   2.4551694763467968E-002  0.19680452881556162        0.0000000000000000     
   5.0241382089359833E-002  0.19718953116981927        0.0000000000000000     
   5.0744651623574132E-002  0.20538694044419231        0.0000000000000000     
   5.1187112867607069E-002  0.21365595635374610        0.0000000000000000     
   5.1568765821458626E-002  0.22199657889848068        0.0000000000000000     
   5.1889610485128815E-002  0.23040880807839598        0.0000000000000000     
   4.3660931218332075E-002  0.19706553822454145        0.0000000000000000     
   4.4090572532431246E-002  0.20527905207674982        0.0000000000000000     
   4.4467438063593746E-002  0.21356059950560649        0.0000000000000000     
   4.4791527811819561E-002  0.22191018051111130        0.0000000000000000     
   4.5062841777108703E-002  0.23032779509326443        0.0000000000000000     
   3.7185833040340843E-002  0.19696004018373922        0.0000000000000000     
   3.7545735723141752E-002  0.20518695588879890        0.0000000000000000     
   3.7860812425382535E-002  0.21347836142350290        0.0000000000000000     
   3.8131063147063181E-002  0.22183425678785129        0.0000000000000000     
   3.8356487888183702E-002  0.23025464198184392        0.0000000000000000     
   3.0816087555386142E-002  0.19687303704741263        0.0000000000000000     
   3.1110141195705657E-002  0.20511065188033961        0.0000000000000000     
   3.1367235952973443E-002  0.21340924210743556        0.0000000000000000     
   3.1587371827189493E-002  0.22176880772870056        0.0000000000000000     
   3.1770548818353818E-002  0.23018934874413452        0.0000000000000000     
   2.4551694763467968E-002  0.19680452881556162        0.0000000000000000     
   2.4783788950122964E-002  0.20505014005137184        0.0000000000000000     
   2.4986708646366471E-002  0.21335324155740434        0.0000000000000000     
   2.5160453852198502E-002  0.22171383333365913        0.0000000000000000     
   2.5305024567619044E-002  0.23013191538013619        0.0000000000000000     
   5.1889610485128815E-002  0.23040880807839598        0.0000000000000000     
   5.2157829616392738E-002  0.23888425908242519        0.0000000000000000     
   5.2381605973025470E-002  0.24741454709950134        0.0000000000000000     
   5.2560939555027025E-002  0.25599967212962449        0.0000000000000000     
   5.2695830362397389E-002  0.26463963417279462        0.0000000000000000     
   4.5062841777108703E-002  0.23032779509326443        0.0000000000000000     
   4.5290246895464133E-002  0.23879809135336066        0.0000000000000000     
   4.5482610102888794E-002  0.24730571739269480        0.0000000000000000     
   4.5639931399382688E-002  0.25585067321126703        0.0000000000000000     
   4.5762210784945828E-002  0.26443295880907725        0.0000000000000000     
   3.8356487888183702E-002  0.23025464198184392        0.0000000000000000     
   3.8545868054543797E-002  0.23871864632649289        0.0000000000000000     
   3.8707985051943165E-002  0.24720539914281012        0.0000000000000000     
   3.8842838880381821E-002  0.25571490043079564        0.0000000000000000     
   3.8950429539859749E-002  0.26424715019044942        0.0000000000000000     
   3.1770548818353818E-002  0.23018934874413452        0.0000000000000000     
   3.1924693093631738E-002  0.23864592400182189        0.0000000000000000     
   3.2057730820188604E-002  0.24711359234984714        0.0000000000000000     
   3.2169661998024408E-002  0.25559235378821032        0.0000000000000000     
   3.2260486627139144E-002  0.26408220831691126        0.0000000000000000     
   2.5305024567619044E-002  0.23013191538013619        0.0000000000000000     
   2.5426722012727956E-002  0.23857992437934775        0.0000000000000000     
   2.5531847407625093E-002  0.24703029701380605        0.0000000000000000     
   2.5620400752310448E-002  0.25548303328351102        0.0000000000000000     
   2.5692382046784024E-002  0.26393813318846276        0.0000000000000000     
   5.2695830362397389E-002  0.26463963417279462        0.0000000000000000     
   5.2817108284677117E-002  0.27328525567817330        0.0000000000000000     
   5.2955603211406743E-002  0.28188735909492180        0.0000000000000000     
   5.3111315142586255E-002  0.29044594442304028        0.0000000000000000     
   5.3284244078215665E-002  0.29896101166252875        0.0000000000000000     
   4.5762210784945828E-002  0.26443295880907725        0.0000000000000000     
   4.5873580546803946E-002  0.27300268047964632        0.0000000000000000     
   4.5998172972182776E-002  0.28150994451649536        0.0000000000000000     
   4.6135988061082329E-002  0.28995475091962442        0.0000000000000000     
   4.6287025813502601E-002  0.29833709968903338        0.0000000000000000     
   3.8950429539859749E-002  0.26424715019044942        0.0000000000000000     
   3.9049549147690030E-002  0.27275102773552029        0.0000000000000000     
   3.9158989821185743E-002  0.28117541237975735        0.0000000000000000     
   3.9278751560346901E-002  0.28952030412316049        0.0000000000000000     
   3.9408834365173472E-002  0.29778570296572959        0.0000000000000000     
   3.2260486627139144E-002  0.26408220831691126        0.0000000000000000     
   3.2345014087335373E-002  0.27253029744579532        0.0000000000000000     
   3.2438053758415651E-002  0.28088376268470772        0.0000000000000000     
   3.2539605640379950E-002  0.28914260403364839        0.0000000000000000     
   3.2649669733228290E-002  0.29730682149261739        0.0000000000000000     
   2.5692382046784024E-002  0.26393813318846276        0.0000000000000000     
   2.5759975365739981E-002  0.27234048961047125        0.0000000000000000     
   2.5835364783872466E-002  0.28063499543134640        0.0000000000000000     
   2.5918550301181491E-002  0.28882165065108817        0.0000000000000000     
   2.6009531917667045E-002  0.29690045526969672        0.0000000000000000     
   1.4005866810704815E-002   5.5785029373395356E-002   0.0000000000000000     
   1.4780311745606407E-002   6.1375902327015334E-002   0.0000000000000000     
   1.5530435268060900E-002   6.7151557336278589E-002   0.0000000000000000     
   1.6256237378068295E-002   7.3111994401185113E-002   0.0000000000000000     
   1.6957718075628590E-002   7.9257213521734912E-002   0.0000000000000000     
   1.0468893462943364E-002   5.5579430126733165E-002   0.0000000000000000     
   1.1047718353604741E-002   6.1176535744584690E-002   0.0000000000000000     
   1.1608630583902400E-002   6.6958590012988650E-002   0.0000000000000000     
   1.2151630153836350E-002   7.2925592931944991E-002   0.0000000000000000     
   1.2676717063406584E-002   7.9077544501453753E-002   0.0000000000000000     
   6.9555912103166345E-003   5.5432573522739344E-002   0.0000000000000000     
   7.3401352635139288E-003   6.1034131043669490E-002   0.0000000000000000     
   7.7129564755709862E-003   6.6820756211664251E-002   0.0000000000000000     
   8.0740548464878093E-003   7.2792449026723674E-002   0.0000000000000000     
   8.4234303762643955E-003   7.8949209488847760E-002   0.0000000000000000     
   3.4659600528246302E-003   5.5344459561413900E-002   0.0000000000000000     
   3.6575624753339749E-003   6.0948688224269694E-002   0.0000000000000000     
   3.8434129430666556E-003   6.6738055932305460E-002   0.0000000000000000     
   4.0235114560226706E-003   7.2712562685521204E-002   0.0000000000000000     
   4.1978580142020220E-003   7.8872208483916934E-002   0.0000000000000000     
  -9.5326524451877503E-012   5.5315088242756827E-002   0.0000000000000000     
  -1.0935120864363768E-011   6.0920207286385329E-002   0.0000000000000000     
  -1.3610590736054529E-011   6.6710489174912235E-002   0.0000000000000000     
  -1.7559061463948838E-011   7.2685933908337566E-002   0.0000000000000000     
  -2.2780534620139847E-011   7.8846541486661273E-002   0.0000000000000000     
   1.6957718075628590E-002   7.9257213521734912E-002   0.0000000000000000     
   1.7633806872225127E-002   8.5574695518033247E-002   0.0000000000000000     
   1.8283433279341236E-002   9.2051921210185378E-002   0.0000000000000000     
   1.8906597296976926E-002   9.8688890598191276E-002   0.0000000000000000     
   1.9503298925132192E-002  0.10548560368205097        0.0000000000000000     
   1.2676717063406584E-002   7.9077544501453753E-002   0.0000000000000000     
   1.3183014890142347E-002   8.5401906748790821E-002   0.0000000000000000     
   1.3669647211572876E-002   9.1886141701232119E-002   0.0000000000000000     
   1.4136614027698171E-002   9.8530249358777633E-002   0.0000000000000000     
   1.4583915338518232E-002  0.10533422972142735        0.0000000000000000     
   8.4234303762643955E-003   7.8949209488847760E-002   0.0000000000000000     
   8.7604497461660786E-003   8.5278486201635986E-002   0.0000000000000000     
   9.0844796374581881E-003   9.1767727768687898E-002   0.0000000000000000     
   9.3955200501407311E-003   9.8416934190003524E-002   0.0000000000000000     
   9.6935709842136970E-003  0.10522610546558285        0.0000000000000000     
   4.1978580142020220E-003   7.8872208483916934E-002   0.0000000000000000     
   4.3661114402963217E-003   8.5204433876568730E-002   0.0000000000000000     
   4.5279305569971805E-003   9.1696679412552787E-002   0.0000000000000000     
   4.6833153643045990E-003   9.8348945091869006E-002   0.0000000000000000     
   4.8322658622185783E-003  0.10516123091451746        0.0000000000000000     
  -2.2780534620139847E-011   7.8846541486661273E-002   0.0000000000000000     
  -2.7466926086003318E-011   8.5179749773589081E-002   0.0000000000000000     
  -2.9810153206587947E-011   9.1672996632826673E-002   0.0000000000000000     
  -2.9810218462006204E-011   9.8326282064374035E-002   0.0000000000000000     
  -2.7467117989787848E-011  0.10513960606823118        0.0000000000000000     
   1.9503298925132192E-002  0.10548560368205097        0.0000000000000000     
   2.0073784783729589E-002  0.11242977565832547        0.0000000000000000     
   2.0618301492691671E-002  0.11950912172357589        0.0000000000000000     
   2.1136849052018451E-002  0.12672364187780216        0.0000000000000000     
   2.1629427461709913E-002  0.13407333612100431        0.0000000000000000     
   1.4583915338518232E-002  0.10533422972142735        0.0000000000000000     
   1.5011588962372750E-002  0.11228586585669828        0.0000000000000000     
   1.5419672717601401E-002  0.11937294083210738        0.0000000000000000     
   1.5808166604204192E-002  0.12659545464765468        0.0000000000000000     
   1.6177070622181117E-002  0.13395340730334010        0.0000000000000000     
   9.6935709842136970E-003  0.10522610546558285        0.0000000000000000     
   9.9785595540472713E-003  0.11218307314239048        0.0000000000000000     
   1.0250412874011636E-002  0.11927566876739115        0.0000000000000000     
   1.0509130944106789E-002  0.12650389234058473        0.0000000000000000     
   1.0754713764332732E-002  0.13386774386197131        0.0000000000000000     
   4.8322658622185783E-003  0.10516123091451746        0.0000000000000000     
   4.9746965587531607E-003  0.11212139751540215        0.0000000000000000     
   5.1105219619223836E-003  0.11921730552942711        0.0000000000000000     
   5.2397420717262477E-003  0.12644895495659236        0.0000000000000000     
   5.3623568881647540E-003  0.13381634579689786        0.0000000000000000     
  -2.7467117989787848E-011  0.10513960606823118        0.0000000000000000     
  -2.3509588590112096E-011  0.11210083897573324        0.0000000000000000     
  -1.8666360883205779E-011  0.11919785111821538        0.0000000000000000     
  -1.2937435384064930E-011  0.12643064249567754        0.0000000000000000     
  -6.3228124992653623E-012  0.13379921310811982        0.0000000000000000     
   2.1629427461709913E-002  0.13407333612100431        0.0000000000000000     
   2.2095000716233524E-002  0.14154667280766373        0.0000000000000000     
   2.2532532810056745E-002  0.14913212029226180        0.0000000000000000     
   2.2942023743179572E-002  0.15682967857479854        0.0000000000000000     
   2.3323473515602010E-002  0.16463934765527394        0.0000000000000000     
   1.6177070622181117E-002  0.13395340730334010        0.0000000000000000     
   1.6525554798569347E-002  0.14143523057265309        0.0000000000000000     
   1.6852789160406039E-002  0.14902935622908287        0.0000000000000000     
   1.7158773707691203E-002  0.15673578427262946        0.0000000000000000     
   1.7443508440424828E-002  0.16455451470329291        0.0000000000000000     
   1.0754713764332732E-002  0.13386774386197131        0.0000000000000000     
   1.0986572706605476E-002  0.14135562897579007        0.0000000000000000     
   1.1204119142841043E-002  0.14895595332628023        0.0000000000000000     
   1.1407353073039429E-002  0.15666871691344184        0.0000000000000000     
   1.1596274497200638E-002  0.16449391973727481        0.0000000000000000     
   5.3623568881647540E-003  0.13381634579689786        0.0000000000000000     
   5.4780544403419170E-003  0.14130786801707476        0.0000000000000000     
   5.5865227573617497E-003  0.14891191158385397        0.0000000000000000     
   5.6877618392242564E-003  0.15662847649723563        0.0000000000000000     
   5.7817716859294311E-003  0.16445756275721965        0.0000000000000000     
  -6.3228124992653623E-012  0.13379921310811982        0.0000000000000000     
  -2.2133206725727383E-013  0.14129194769650702        0.0000000000000000     
   3.9681661819293557E-012  0.14889723100180399        0.0000000000000000     
   6.2456795648941493E-012  0.15661506302401085        0.0000000000000000     
   6.6112111445082444E-012  0.16444544376312750        0.0000000000000000     
   2.3323473515602010E-002  0.16463934765527394        0.0000000000000000     
   2.3675809237647810E-002  0.17254896483737547        0.0000000000000000     
   2.3997958019640740E-002  0.18054636742479063        0.0000000000000000     
   2.4289919861580789E-002  0.18863155541751930        0.0000000000000000     
   2.4551694763467968E-002  0.19680452881556162        0.0000000000000000     
   1.7443508440424828E-002  0.16455451470329291        0.0000000000000000     
   1.7706273188676593E-002  0.17247306097959383        0.0000000000000000     
   1.7946347782516161E-002  0.18047893656005295        0.0000000000000000     
   1.8163732221943535E-002  0.18857214144467030        0.0000000000000000     
   1.8358426506958712E-002  0.19675267563344578        0.0000000000000000     
   1.1596274497200638E-002  0.16449391973727481        0.0000000000000000     
   1.1770459633746986E-002  0.17241884393821694        0.0000000000000000     
   1.1929484701100789E-002  0.18043077165670596        0.0000000000000000     
   1.2073349699262053E-002  0.18852970289274190        0.0000000000000000     
   1.2202054628230775E-002  0.19671563764632477        0.0000000000000000     
   5.7817716859294311E-003  0.16445756275721965        0.0000000000000000     
   5.8683685728589847E-003  0.17238631371324481        0.0000000000000000     
   5.9473687753946241E-003  0.18040187271474967        0.0000000000000000     
   6.0187722935363466E-003  0.18850423976173425        0.0000000000000000     
   6.0825791272841540E-003  0.19669341485419850        0.0000000000000000     
   6.6112111445082444E-012  0.16444544376312750        0.0000000000000000     
   6.0125938516203403E-012  0.17237547030467740        0.0000000000000000     
   5.3976625686430468E-012  0.18039223973418395        0.0000000000000000     
   4.7664158319034311E-012  0.18849575205164718        0.0000000000000000     
   4.1188528282498638E-012  0.19668600725706703        0.0000000000000000     
   2.4551694763467968E-002  0.19680452881556162        0.0000000000000000     
   2.4783788950122964E-002  0.20505014005137184        0.0000000000000000     
   2.4986708646366471E-002  0.21335324155740434        0.0000000000000000     
   2.5160453852198502E-002  0.22171383333365913        0.0000000000000000     
   2.5305024567619044E-002  0.23013191538013619        0.0000000000000000     
   1.8358426506958712E-002  0.19675267563344578        0.0000000000000000     
   1.8531003812468753E-002  0.20500410127958379        0.0000000000000000     
   1.8682037313380719E-002  0.21330998053628866        0.0000000000000000     
   1.8811527009694615E-002  0.22167031340356028        0.0000000000000000     
   1.8919472901410436E-002  0.23008509988139875        0.0000000000000000     
   1.2202054628230775E-002  0.19671563764632477        0.0000000000000000     
   1.2316110608818126E-002  0.20497121644266370        0.0000000000000000     
   1.2416028761835287E-002  0.21327907980696789        0.0000000000000000     
   1.2501809087282253E-002  0.22163922773923728        0.0000000000000000     
   1.2573451585159028E-002  0.23005166023947193        0.0000000000000000     
   6.0825791272841540E-003  0.19669341485419850        0.0000000000000000     
   6.1391093391710838E-003  0.20495148554061149        0.0000000000000000     
   6.1886829917301720E-003  0.21326053936944200        0.0000000000000000     
   6.2313000849614185E-003  0.22162057634069013        0.0000000000000000     
   6.2669606188648242E-003  0.23003159645435578        0.0000000000000000     
   4.1188528282498638E-012  0.19668600725706703        0.0000000000000000     
   3.5276235058057104E-012  0.20494490857342712        0.0000000000000000     
   3.0653753190293398E-012  0.21325435922371100        0.0000000000000000     
   2.7321086202864581E-012  0.22161435920791875        0.0000000000000000     
   2.5278230030012505E-012  0.23002490852605029        0.0000000000000000     
   2.5305024567619044E-002  0.23013191538013619        0.0000000000000000     
   2.5426722012727956E-002  0.23857992437934775        0.0000000000000000     
   2.5531847407625093E-002  0.24703029701380605        0.0000000000000000     
   2.5620400752310448E-002  0.25548303328351102        0.0000000000000000     
   2.5692382046784024E-002  0.26393813318846276        0.0000000000000000     
   1.8919472901410436E-002  0.23008509988139875        0.0000000000000000     
   1.9010275031407509E-002  0.23852511589190623        0.0000000000000000     
   1.9088333442565171E-002  0.24696113735718506        0.0000000000000000     
   1.9153648134883416E-002  0.25539316427723519        0.0000000000000000     
   1.9206219108362243E-002  0.26382119665205656        0.0000000000000000     
   1.2573451585159028E-002  0.23005166023947193        0.0000000000000000     
   1.2633672369245450E-002  0.23848596697233318        0.0000000000000000     
   1.2685187553321363E-002  0.24691173760248253        0.0000000000000000     
   1.2727997137386766E-002  0.25532897212991978        0.0000000000000000     
   1.2762101121441660E-002  0.26373767055464520        0.0000000000000000     
   6.2669606188648242E-003  0.23003159645435578        0.0000000000000000     
   6.2969140262417794E-003  0.23846247762062869        0.0000000000000000     
   6.3224097398936717E-003  0.24688209774969841        0.0000000000000000     
   6.3434477598205046E-003  0.25529045684156504        0.0000000000000000     
   6.3600280860222754E-003  0.26368755489622853        0.0000000000000000     
   2.5278230030012505E-012  0.23002490852605029        0.0000000000000000     
   2.3964942443693849E-012  0.23845464783679260        0.0000000000000000     
   2.2820943268789251E-012  0.24687221779883281        0.0000000000000000     
   2.1846260965605740E-012  0.25527761841217089        0.0000000000000000     
   2.1040881710565618E-012  0.26367084967680676        0.0000000000000000     
   2.5692382046784024E-002  0.26393813318846276        0.0000000000000000     
   2.5759975365739981E-002  0.27234048961047125        0.0000000000000000     
   2.5835364783872466E-002  0.28063499543134640        0.0000000000000000     
   2.5918550301181491E-002  0.28882165065108817        0.0000000000000000     
   2.6009531917667045E-002  0.29690045526969672        0.0000000000000000     
   1.9206219108362243E-002  0.26382119665205656        0.0000000000000000     
   1.9256008991346850E-002  0.27218793632837190        0.0000000000000000     
   1.9312980412182428E-002  0.28043608515290369        0.0000000000000000     
   1.9377133370868983E-002  0.28856564312565197        0.0000000000000000     
   1.9448467867406505E-002  0.29657661024661675        0.0000000000000000     
   1.2762101121441660E-002  0.26373767055464520        0.0000000000000000     
   1.2794690972599001E-002  0.27207896969832096        0.0000000000000000     
   1.2832958157971740E-002  0.28029400638260987        0.0000000000000000     
   1.2876902677559889E-002  0.28838278060751171        0.0000000000000000     
   1.2926524531363434E-002  0.29634529237302665        0.0000000000000000     
   6.3600280860222754E-003  0.26368755489622853        0.0000000000000000     
   6.3760213094964276E-003  0.27201358972031864        0.0000000000000000     
   6.3952980212404050E-003  0.28020875912046495        0.0000000000000000     
   6.4178582212542079E-003  0.28827306309666745        0.0000000000000000     
   6.4437019095378335E-003  0.29620650164892631        0.0000000000000000     
   2.1040881710565618E-012  0.26367084967680676        0.0000000000000000     
   2.0391340525838242E-012  0.27199179639436466        0.0000000000000000     
   1.9884194117636422E-012  0.28018034336646885        0.0000000000000000     
   1.9519395865266742E-012  0.28823649059311918        0.0000000000000000     
   1.9296985884209583E-012  0.29616023807431580        0.0000000000000000     
  -9.5326524451877503E-012   5.5315088242756827E-002   0.0000000000000000     
  -1.0935120864363768E-011   6.0920207286385329E-002   0.0000000000000000     
  -1.3610590736054529E-011   6.6710489174912235E-002   0.0000000000000000     
  -1.7559061463948838E-011   7.2685933908337566E-002   0.0000000000000000     
  -2.2780534620139847E-011   7.8846541486661273E-002   0.0000000000000000     
  -3.4659600662367844E-003   5.5344459559670600E-002   0.0000000000000000     
  -3.6575624920717103E-003   6.0948688225191193E-002   0.0000000000000000     
  -3.8434129655893004E-003   6.6738055936320526E-002   0.0000000000000000     
  -4.0235114867895553E-003   7.2712562693058619E-002   0.0000000000000000     
  -4.1978580556724715E-003   7.8872208495405452E-002   0.0000000000000000     
  -6.9555912067693366E-003   5.5432573505057717E-002   0.0000000000000000     
  -7.3401352648541449E-003   6.1034131035862055E-002   0.0000000000000000     
  -7.7129564839980196E-003   6.6820756213366223E-002   0.0000000000000000     
  -8.0740548642009718E-003   7.2792449037570248E-002   0.0000000000000000     
  -8.4234304054629887E-003   7.8949209508474102E-002   0.0000000000000000     
  -1.0468893431130312E-002   5.5579430078918163E-002   0.0000000000000000     
  -1.1047718329282421E-002   6.1176535718397908E-002   0.0000000000000000     
  -1.1608630568836754E-002   6.6958590006049326E-002   0.0000000000000000     
  -1.2151630149793306E-002   7.2925592941872425E-002   0.0000000000000000     
  -1.2676717072152082E-002   7.9077544525867211E-002   0.0000000000000000     
  -1.4005866739319708E-002   5.5785029281251952E-002   0.0000000000000000     
  -1.4780311685356541E-002   6.1375902272798787E-002   0.0000000000000000     
  -1.5530435220105492E-002   6.7151557314369864E-002   0.0000000000000000     
  -1.6256237343566567E-002   7.3111994405965192E-002   0.0000000000000000     
  -1.6957718055739757E-002   7.9257213547584776E-002   0.0000000000000000     
  -2.2780534620139847E-011   7.8846541486661273E-002   0.0000000000000000     
  -2.7466926086003318E-011   8.5179749773589081E-002   0.0000000000000000     
  -2.9810153206587947E-011   9.1672996632826673E-002   0.0000000000000000     
  -2.9810218462006204E-011   9.8326282064374035E-002   0.0000000000000000     
  -2.7467117989787848E-011  0.10513960606823118        0.0000000000000000     
  -4.1978580556724715E-003   7.8872208495405452E-002   0.0000000000000000     
  -4.3661114913981416E-003   8.5204433891195877E-002   0.0000000000000000     
  -4.5279306131266505E-003   9.1696679428264705E-002   0.0000000000000000     
  -4.6833154208579973E-003   9.8348945106611949E-002   0.0000000000000000     
  -4.8322659145921838E-003  0.10516123092623761        0.0000000000000000     
  -8.4234304054629887E-003   7.8949209508474102E-002   0.0000000000000000     
  -8.7604497857718053E-003   8.5278486227887945E-002   0.0000000000000000     
  -9.0844796831151473E-003   9.1767727797621920E-002   0.0000000000000000     
  -9.3955200974930146E-003   9.8416934217676069E-002   0.0000000000000000     
  -9.6935710289054056E-003  0.10522610548805035        0.0000000000000000     
  -1.2676717072152082E-002   7.9077544525867211E-002   0.0000000000000000     
  -1.3183014910587916E-002   8.5401906783665285E-002   0.0000000000000000     
  -1.3669647239775644E-002   9.1886141740898347E-002   0.0000000000000000     
  -1.4136614059715271E-002   9.8530249397566355E-002   0.0000000000000000     
  -1.4583915370406783E-002  0.10533422975366935        0.0000000000000000     
  -1.6957718055739757E-002   7.9257213547584776E-002   0.0000000000000000     
  -1.7633806865846480E-002   8.5574695558527925E-002   0.0000000000000000     
  -1.8283433283108146E-002   9.2051921258093958E-002   0.0000000000000000     
  -1.8906597307524756E-002   9.8688890646282848E-002   0.0000000000000000     
  -1.9503298939096320E-002  0.10548560372309464        0.0000000000000000     
  -2.7467117989787848E-011  0.10513960606823118        0.0000000000000000     
  -2.3509588590112096E-011  0.11210083897573324        0.0000000000000000     
  -1.8666360883205779E-011  0.11919785111821538        0.0000000000000000     
  -1.2937435384064930E-011  0.12643064249567754        0.0000000000000000     
  -6.3228124992653623E-012  0.13379921310811982        0.0000000000000000     
  -4.8322659145921838E-003  0.10516123092623761        0.0000000000000000     
  -4.9746966037608840E-003  0.11212139752330534        0.0000000000000000     
  -5.1105219977957712E-003  0.11921730553397880        0.0000000000000000     
  -5.2397420966968471E-003  0.12644895495825800        0.0000000000000000     
  -5.3623569004641082E-003  0.13381634579614288        0.0000000000000000     
  -9.6935710289054056E-003  0.10522610548805035        0.0000000000000000     
  -9.9785595930206392E-003  0.11218307315804001        0.0000000000000000     
  -1.0250412905507027E-002  0.11927566877694029        0.0000000000000000     
  -1.0509130966364575E-002  0.12650389234475123        0.0000000000000000     
  -1.0754713775593269E-002  0.13386774386147279        0.0000000000000000     
  -1.4583915370406783E-002  0.10533422975366935        0.0000000000000000     
  -1.5011588991288852E-002  0.11228586587993722        0.0000000000000000     
  -1.5419672741800131E-002  0.11937294084709987        0.0000000000000000     
  -1.5808166621940612E-002  0.12659545465515734        0.0000000000000000     
  -1.6177070631710311E-002  0.13395340730410960        0.0000000000000000     
  -1.9503298939096320E-002  0.10548560372309464        0.0000000000000000     
  -2.0073784798565524E-002  0.11242977568899698        0.0000000000000000     
  -2.0618301506675072E-002  0.11950912174445753        0.0000000000000000     
  -2.1136849063424969E-002  0.12672364188947632        0.0000000000000000     
  -2.1629427468815205E-002  0.13407333612405328        0.0000000000000000     
  -6.3228124992653623E-012  0.13379921310811982        0.0000000000000000     
  -2.2133206725727383E-013  0.14129194769650702        0.0000000000000000     
   3.9681661819293557E-012  0.14889723100180399        0.0000000000000000     
   6.2456795648941493E-012  0.15661506302401085        0.0000000000000000     
   6.6112111445082444E-012  0.16444544376312750        0.0000000000000000     
  -5.3623569004641082E-003  0.13381634579614288        0.0000000000000000     
  -5.4780544409165910E-003  0.14130786801459935        0.0000000000000000     
  -5.5865227498733240E-003  0.14891191158059322        0.0000000000000000     
  -5.6877618273343082E-003  0.15662847649412451        0.0000000000000000     
  -5.7817716732995470E-003  0.16445756275519319        0.0000000000000000     
  -1.0754713775593269E-002  0.13386774386147279        0.0000000000000000     
  -1.0986572707576175E-002  0.14135562897186418        0.0000000000000000     
  -1.1204119136696325E-002  0.14895595332068443        0.0000000000000000     
  -1.1407353062953722E-002  0.15666871690793358        0.0000000000000000     
  -1.1596274486348366E-002  0.16449391973361166        0.0000000000000000     
  -1.6177070631710311E-002  0.13395340730410960        0.0000000000000000     
  -1.6525554800200088E-002  0.14143523056830143        0.0000000000000000     
  -1.6852789156500840E-002  0.14902935622207761        0.0000000000000000     
  -1.7158773700612567E-002  0.15673578426543808        0.0000000000000000     
  -1.7443508432535258E-002  0.16455451469838289        0.0000000000000000     
  -2.1629427468815205E-002  0.13407333612405328        0.0000000000000000     
  -2.2095000718788328E-002  0.14154667280391120        0.0000000000000000     
  -2.2532532809286868E-002  0.14913212028477280        0.0000000000000000     
  -2.2942023740310825E-002  0.15682967856663801        0.0000000000000000     
  -2.3323473511860208E-002  0.16463934764950688        0.0000000000000000     
   6.6112111445082444E-012  0.16444544376312750        0.0000000000000000     
   6.0125938516203403E-012  0.17237547030467740        0.0000000000000000     
   5.3976625686430468E-012  0.18039223973418395        0.0000000000000000     
   4.7664158319034311E-012  0.18849575205164718        0.0000000000000000     
   4.1188528282498638E-012  0.19668600725706703        0.0000000000000000     
  -5.7817716732995470E-003  0.16445756275519319        0.0000000000000000     
  -5.8683685613386688E-003  0.17238631371254809        0.0000000000000000     
  -5.9473687650213099E-003  0.18040187271493793        0.0000000000000000     
  -6.0187722843474643E-003  0.18850423976236266        0.0000000000000000     
  -6.0825791193171389E-003  0.19669341485482242        0.0000000000000000     
  -1.1596274486348366E-002  0.16449391973361166        0.0000000000000000     
  -1.1770459623741290E-002  0.17241884393689014        0.0000000000000000     
  -1.1929484691993507E-002  0.18043077165694049        0.0000000000000000     
  -1.2073349691105018E-002  0.18852970289376272        0.0000000000000000     
  -1.2202054621075825E-002  0.19671563764735683        0.0000000000000000     
  -1.7443508432535258E-002  0.16455451469838289        0.0000000000000000     
  -1.7706273181195262E-002  0.17247306097770357        0.0000000000000000     
  -1.7946347775518921E-002  0.18047893656019171        0.0000000000000000     
  -1.8163732215506236E-002  0.18857214144584725        0.0000000000000000     
  -1.8358426501157210E-002  0.19675267563467022        0.0000000000000000     
  -2.3323473511860208E-002  0.16463934764950688        0.0000000000000000     
  -2.3675809233700589E-002  0.17254896483498844        0.0000000000000000     
  -2.3997958015597568E-002  0.18054636742469155        0.0000000000000000     
  -2.4289919857551134E-002  0.18863155541861631        0.0000000000000000     
  -2.4551694759561288E-002  0.19680452881676269        0.0000000000000000     
   4.1188528282498638E-012  0.19668600725706703        0.0000000000000000     
   3.5276235058057104E-012  0.20494490857342712        0.0000000000000000     
   3.0653753190293398E-012  0.21325435922371100        0.0000000000000000     
   2.7321086202864581E-012  0.22161435920791875        0.0000000000000000     
   2.5278230030012505E-012  0.23002490852605029        0.0000000000000000     
  -6.0825791193171389E-003  0.19669341485482242        0.0000000000000000     
  -6.1391093323226202E-003  0.20495148554103687        0.0000000000000000     
  -6.1886829857561911E-003  0.21326053936972578        0.0000000000000000     
  -6.2313000796178648E-003  0.22162057634088914        0.0000000000000000     
  -6.2669606139076281E-003  0.23003159645452698        0.0000000000000000     
  -1.2202054621075825E-002  0.19671563764735683        0.0000000000000000     
  -1.2316110602590004E-002  0.20497121644336691        0.0000000000000000     
  -1.2416028756331625E-002  0.21327907980743702        0.0000000000000000     
  -1.2501809082300685E-002  0.22163922773956723        0.0000000000000000     
  -1.2573451580497184E-002  0.23005166023975746        0.0000000000000000     
  -1.8358426501157210E-002  0.19675267563467022        0.0000000000000000     
  -1.8531003807274536E-002  0.20500410128041724        0.0000000000000000     
  -1.8682037308660918E-002  0.21330998053684483        0.0000000000000000     
  -1.8811527005316353E-002  0.22167031340395299        0.0000000000000000     
  -1.8919472897240844E-002  0.23008509988174175        0.0000000000000000     
  -2.4551694759561288E-002  0.19680452881676269        0.0000000000000000     
  -2.4783788946376215E-002  0.20505014005218788        0.0000000000000000     
  -2.4986708642744073E-002  0.21335324155794913        0.0000000000000000     
  -2.5160453848664870E-002  0.22171383333404646        0.0000000000000000     
  -2.5305024564138610E-002  0.23013191538047978        0.0000000000000000     
   2.5278230030012505E-012  0.23002490852605029        0.0000000000000000     
   2.3964942443693849E-012  0.23845464783679260        0.0000000000000000     
   2.2820943268789251E-012  0.24687221779883281        0.0000000000000000     
   2.1846260965605740E-012  0.25527761841217089        0.0000000000000000     
   2.1040881710565618E-012  0.26367084967680676        0.0000000000000000     
  -6.2669606139076281E-003  0.23003159645452698        0.0000000000000000     
  -6.2969140215329462E-003  0.23846247762079806        0.0000000000000000     
  -6.3224097354012687E-003  0.24688209774986125        0.0000000000000000     
  -6.3434477555125990E-003  0.25529045684171642        0.0000000000000000     
  -6.3600280818669370E-003  0.26368755489636359        0.0000000000000000     
  -1.2573451580497184E-002  0.23005166023975746        0.0000000000000000     
  -1.2633672364789079E-002  0.23848596697261804        0.0000000000000000     
  -1.2685187549044319E-002  0.24691173760275908        0.0000000000000000     
  -1.2727997133262904E-002  0.25532897213018069        0.0000000000000000     
  -1.2762101117444836E-002  0.26373767055488284        0.0000000000000000     
  -1.8919472897240844E-002  0.23008509988174175        0.0000000000000000     
  -1.9010275027371907E-002  0.23852511589225248        0.0000000000000000     
  -1.9088333438647052E-002  0.24696113735752648        0.0000000000000000     
  -1.9153648131066292E-002  0.25539316427756381        0.0000000000000000     
  -1.9206219104629614E-002  0.26382119665236453        0.0000000000000000     
  -2.5305024564138610E-002  0.23013191538047978        0.0000000000000000     
  -2.5426722009281432E-002  0.23857992437970138        0.0000000000000000     
  -2.5531847404209478E-002  0.24703029701416337        0.0000000000000000     
  -2.5620400748922755E-002  0.25548303328386579        0.0000000000000000     
  -2.5692382043421263E-002  0.26393813318880865        0.0000000000000000     
   2.1040881710565618E-012  0.26367084967680676        0.0000000000000000     
   2.0391340525838242E-012  0.27199179639436466        0.0000000000000000     
   1.9884194117636422E-012  0.28018034336646885        0.0000000000000000     
   1.9519395865266742E-012  0.28823649059311918        0.0000000000000000     
   1.9296985884209583E-012  0.29616023807431580        0.0000000000000000     
  -6.3600280818669370E-003  0.26368755489636359        0.0000000000000000     
  -6.3760213054644245E-003  0.27201358972044692        0.0000000000000000     
  -6.3952980173052074E-003  0.28020875912061055        0.0000000000000000     
  -6.4178582173892839E-003  0.28827306309685441        0.0000000000000000     
  -6.4437019057166584E-003  0.29620650164917850        0.0000000000000000     
  -1.2762101117444836E-002  0.26373767055488284        0.0000000000000000     
  -1.2794690968705795E-002  0.27207896969855311        0.0000000000000000     
  -1.2832958154161463E-002  0.28029400638287899        0.0000000000000000     
  -1.2876902673811844E-002  0.28838278060786054        0.0000000000000000     
  -1.2926524527656930E-002  0.29634529237349783        0.0000000000000000     
  -1.9206219104629614E-002  0.26382119665236453        0.0000000000000000     
  -1.9256008987684980E-002  0.27218793632868310        0.0000000000000000     
  -1.9312980408580351E-002  0.28043608515327412        0.0000000000000000     
  -1.9377133367315731E-002  0.28856564312613775        0.0000000000000000     
  -1.9448467863891115E-002  0.29657661024727372        0.0000000000000000     
  -2.5692382043421263E-002  0.26393813318880865        0.0000000000000000     
  -2.5759975362401977E-002  0.27234048961083701        0.0000000000000000     
  -2.5835364780561872E-002  0.28063499543179615        0.0000000000000000     
  -2.5918550297900956E-002  0.28882165065168586        0.0000000000000000     
  -2.6009531914419216E-002  0.29690045527050629        0.0000000000000000     
  -1.4005866739319708E-002   5.5785029281251952E-002   0.0000000000000000     
  -1.4780311685356541E-002   6.1375902272798787E-002   0.0000000000000000     
  -1.5530435220105492E-002   6.7151557314369864E-002   0.0000000000000000     
  -1.6256237343566567E-002   7.3111994405965192E-002   0.0000000000000000     
  -1.6957718055739757E-002   7.9257213547584776E-002   0.0000000000000000     
  -1.7609340794228368E-002   5.6045005860845105E-002   0.0000000000000000     
  -1.8576987114663872E-002   6.1629437415139668E-002   0.0000000000000000     
  -1.9514409958443803E-002   6.7398056662262437E-002   0.0000000000000000     
  -2.0421609325568184E-002   7.3350863602213365E-002   0.0000000000000000     
  -2.1298585216036989E-002   7.9487858234992492E-002   0.0000000000000000     
  -2.1322145258747132E-002   5.6354994566483643E-002   0.0000000000000000     
  -2.2476816398791757E-002   6.1934347861495598E-002   0.0000000000000000     
  -2.3596594304491236E-002   6.7696486573661646E-002   0.0000000000000000     
  -2.4681478975845571E-002   7.3641410702981802E-002   0.0000000000000000     
  -2.5731470412854767E-002   7.9769120249456094E-002   0.0000000000000000     
  -2.5144280132876003E-002   5.6714995398167579E-002   0.0000000000000000     
  -2.6479799537740212E-002   6.2290633611866549E-002   0.0000000000000000     
  -2.7776988258247794E-002   6.8046847048567546E-002   0.0000000000000000     
  -2.9035846294398749E-002   7.3983635708270518E-002   0.0000000000000000     
  -3.0256373646193088E-002   8.0100999590975497E-002   0.0000000000000000     
  -2.9075745416614986E-002   5.7125008355896900E-002   0.0000000000000000     
  -3.0585936531509230E-002   6.2698294666252555E-002   0.0000000000000000     
  -3.2055591819713472E-002   6.8449138086980083E-002   0.0000000000000000     
  -3.3484711281227708E-002   7.4377538618079497E-002   0.0000000000000000     
  -3.4873294916051949E-002   8.0483496259550785E-002   0.0000000000000000     
  -1.6957718055739757E-002   7.9257213547584776E-002   0.0000000000000000     
  -1.7633806865846480E-002   8.5574695558527925E-002   0.0000000000000000     
  -1.8283433283108146E-002   9.2051921258093958E-002   0.0000000000000000     
  -1.8906597307524756E-002   9.8688890646282848E-002   0.0000000000000000     
  -1.9503298939096320E-002  0.10548560372309464        0.0000000000000000     
  -2.1298585216036989E-002   7.9487858234992492E-002   0.0000000000000000     
  -2.2143912065385057E-002   8.5796706445889284E-002   0.0000000000000000     
  -2.2956164309147202E-002   9.2265074120193136E-002   0.0000000000000000     
  -2.3735341947323425E-002   9.8892961257904088E-002   0.0000000000000000     
  -2.4481444979913728E-002  0.10568036785902211        0.0000000000000000     
  -2.5731470412854767E-002   7.9769120249456094E-002   0.0000000000000000     
  -2.6744416923041227E-002   8.6067793339162799E-002   0.0000000000000000     
  -2.7718166813927376E-002   9.2525608098180293E-002   0.0000000000000000     
  -2.8652720085513214E-002   9.9142564526508561E-002   0.0000000000000000     
  -2.9548076737798735E-002  0.10591866262414765        0.0000000000000000     
  -3.0256373646193088E-002   8.0100999590975497E-002   0.0000000000000000     
  -3.1435321438814993E-002   8.6387956238348482E-002   0.0000000000000000     
  -3.2569440797448675E-002   9.2833523192055414E-002   0.0000000000000000     
  -3.3658731722094118E-002   9.9437700452096350E-002   0.0000000000000000     
  -3.4703194212751337E-002  0.10620048801847122        0.0000000000000000     
  -3.4873294916051949E-002   8.0483496259550785E-002   0.0000000000000000     
  -3.6216625612706339E-002   8.6757195143446333E-002   0.0000000000000000     
  -3.7509986259711074E-002   9.3188819401818543E-002   0.0000000000000000     
  -3.8753376857066132E-002   9.9778369034667372E-002   0.0000000000000000     
  -3.9946797404771528E-002  0.10652584404199286        0.0000000000000000     
  -1.9503298939096320E-002  0.10548560372309464        0.0000000000000000     
  -2.0073784798565524E-002  0.11242977568899698        0.0000000000000000     
  -2.0618301506675072E-002  0.11950912174445753        0.0000000000000000     
  -2.1136849063424969E-002  0.12672364188947632        0.0000000000000000     
  -2.1629427468815205E-002  0.13407333612405328        0.0000000000000000     
  -2.4481444979913728E-002  0.10568036785902211        0.0000000000000000     
  -2.5194892436682700E-002  0.11261498424655868        0.0000000000000000     
  -2.5876103347394923E-002  0.11968450074352517        0.0000000000000000     
  -2.6525077712050420E-002  0.12688891734992166        0.0000000000000000     
  -2.7141815530649167E-002  0.13422823406574808        0.0000000000000000     
  -2.9548076737798735E-002  0.10591866262414765        0.0000000000000000     
  -3.0404657327472422E-002  0.11284167321396166        0.0000000000000000     
  -3.1222882411222761E-002  0.11989936711881477        0.0000000000000000     
  -3.2002751989049741E-002  0.12709174433870693        0.0000000000000000     
  -3.2744266060953396E-002  0.13441880487363828        0.0000000000000000     
  -3.4703194212751337E-002  0.10620048801847122        0.0000000000000000     
  -3.5703079470934700E-002  0.11310984259120592        0.0000000000000000     
  -3.6658638698158559E-002  0.12015372087032625        0.0000000000000000     
  -3.7569871894422950E-002  0.12733212285583217        0.0000000000000000     
  -3.8436779059727859E-002  0.13464504854772380        0.0000000000000000     
  -3.9946797404771528E-002  0.10652584404199286        0.0000000000000000     
  -4.1090158867069515E-002  0.11341949237829148        0.0000000000000000     
  -4.2183372208202348E-002  0.12044756199805964        0.0000000000000000     
  -4.3226437428170048E-002  0.12761005290129737        0.0000000000000000     
  -4.4219354526972586E-002  0.13490696508800473        0.0000000000000000     
  -2.1629427468815205E-002  0.13407333612405328        0.0000000000000000     
  -2.2095000718788328E-002  0.14154667280391120        0.0000000000000000     
  -2.2532532809286868E-002  0.14913212028477280        0.0000000000000000     
  -2.2942023740310825E-002  0.15682967856663801        0.0000000000000000     
  -2.3323473511860208E-002  0.16463934764950688        0.0000000000000000     
  -2.7141815530649167E-002  0.13422823406574808        0.0000000000000000     
  -2.7725106594543233E-002  0.14169093671405353        0.0000000000000000     
  -2.8273740695084672E-002  0.14926551111788711        0.0000000000000000     
  -2.8787717832273466E-002  0.15695195727724873        0.0000000000000000     
  -2.9267038006109639E-002  0.16475027519213850        0.0000000000000000     
  -3.2744266060953396E-002  0.13441880487363828        0.0000000000000000     
  -3.3446068558667150E-002  0.14186900333408853        0.0000000000000000     
  -3.4106803413924497E-002  0.14943079433053769        0.0000000000000000     
  -3.4726470626725438E-002  0.15710417786298569        0.0000000000000000     
  -3.5305070197069965E-002  0.16488915393143255        0.0000000000000000     
  -3.8436779059727859E-002  0.13464504854772380        0.0000000000000000     
  -3.9257886611160073E-002  0.14208087266401620        0.0000000000000000     
  -4.0031720965806358E-002  0.14962796992272454        0.0000000000000000     
  -4.0758282123666736E-002  0.15728634032384886        0.0000000000000000     
  -4.1437570084741193E-002  0.16505598386738909        0.0000000000000000     
  -4.4219354526972586E-002  0.13490696508800473        0.0000000000000000     
  -4.5160560752021982E-002  0.14232654470383654        0.0000000000000000     
  -4.6048493350730239E-002  0.14985703789444771        0.0000000000000000     
  -4.6883152323097359E-002  0.15749844465983820        0.0000000000000000     
  -4.7664537669123326E-002  0.16525076500000807        0.0000000000000000     
  -2.3323473511860208E-002  0.16463934764950688        0.0000000000000000     
  -2.3675809233700589E-002  0.17254896483498844        0.0000000000000000     
  -2.3997958015597568E-002  0.18054636742469155        0.0000000000000000     
  -2.4289919857551134E-002  0.18863155541861631        0.0000000000000000     
  -2.4551694759561288E-002  0.19680452881676269        0.0000000000000000     
  -2.9267038006109639E-002  0.16475027519213850        0.0000000000000000     
  -2.9710347371938842E-002  0.17264863815264450        0.0000000000000000     
  -3.0116292085106751E-002  0.18063521944885480        0.0000000000000000     
  -3.0484872145613368E-002  0.18871001908076948        0.0000000000000000     
  -3.0816087553458684E-002  0.19687303704838849        0.0000000000000000     
  -3.5305070197069965E-002  0.16488915393143255        0.0000000000000000     
  -3.5841167186591597E-002  0.17277416357457165        0.0000000000000000     
  -3.6333326656923813E-002  0.18074764783109626        0.0000000000000000     
  -3.6781548608066615E-002  0.18880960670100647        0.0000000000000000     
  -3.7185833040020010E-002  0.19696004018430213        0.0000000000000000     
  -4.1437570084741193E-002  0.16505598386738909        0.0000000000000000     
  -4.2068268677658838E-002  0.17292554110076991        0.0000000000000000     
  -4.2649061731048737E-002  0.18088365257141595        0.0000000000000000     
  -4.3179949244910878E-002  0.18893031827932719        0.0000000000000000     
  -4.3660931219245282E-002  0.19706553822450362        0.0000000000000000     
  -4.7664537669123326E-002  0.16525076500000807        0.0000000000000000     
  -4.8391651845140576E-002  0.17310277073123925        0.0000000000000000     
  -4.9063497307481517E-002  0.18104323366981379        0.0000000000000000     
  -4.9680074056146155E-002  0.18907215381573167        0.0000000000000000     
  -5.0241382091134476E-002  0.19718953116899285        0.0000000000000000     
  -2.4551694759561288E-002  0.19680452881676269        0.0000000000000000     
  -2.4783788946376215E-002  0.20505014005218788        0.0000000000000000     
  -2.4986708642744073E-002  0.21335324155794913        0.0000000000000000     
  -2.5160453848664870E-002  0.22171383333404646        0.0000000000000000     
  -2.5305024564138610E-002  0.23013191538047978        0.0000000000000000     
  -3.0816087553458684E-002  0.19687303704838849        0.0000000000000000     
  -3.1110141193479379E-002  0.20511065188099339        0.0000000000000000     
  -3.1367235950512135E-002  0.21340924210786572        0.0000000000000000     
  -3.1587371824556947E-002  0.22176880772900540        0.0000000000000000     
  -3.1770548815613808E-002  0.23018934874441255        0.0000000000000000     
  -3.7185833040020010E-002  0.19696004018430213        0.0000000000000000     
  -3.7545735722168391E-002  0.20518695588914845        0.0000000000000000     
  -3.7860812423896141E-002  0.21347836142371032        0.0000000000000000     
  -3.8131063145203273E-002  0.22183425678798785        0.0000000000000000     
  -3.8356487886089773E-002  0.23025464198198090        0.0000000000000000     
  -4.3660931219245282E-002  0.19706553822450362        0.0000000000000000     
  -4.4090572532443258E-002  0.20527905207665298        0.0000000000000000     
  -4.4467438062896110E-002  0.21356059950548298        0.0000000000000000     
  -4.4791527810603866E-002  0.22191018051099362        0.0000000000000000     
  -4.5062841775566513E-002  0.23032779509318493        0.0000000000000000     
  -5.0241382091134476E-002  0.19718953116899285        0.0000000000000000     
  -5.0744651624303957E-002  0.20538694044350697        0.0000000000000000     
  -5.1187112867512027E-002  0.21365595635318366        0.0000000000000000     
  -5.1568765820758720E-002  0.22199657889802279        0.0000000000000000     
  -5.1889610484044016E-002  0.23040880807802458        0.0000000000000000     
  -2.5305024564138610E-002  0.23013191538047978        0.0000000000000000     
  -2.5426722009281432E-002  0.23857992437970138        0.0000000000000000     
  -2.5531847404209478E-002  0.24703029701416337        0.0000000000000000     
  -2.5620400748922755E-002  0.25548303328386579        0.0000000000000000     
  -2.5692382043421263E-002  0.26393813318880865        0.0000000000000000     
  -3.1770548815613808E-002  0.23018934874441255        0.0000000000000000     
  -3.1924693090821812E-002  0.23864592400212103        0.0000000000000000     
  -3.2057730817320058E-002  0.24711359235016492        0.0000000000000000     
  -3.2169661995108526E-002  0.25559235378854411        0.0000000000000000     
  -3.2260486624187235E-002  0.26408220831725870        0.0000000000000000     
  -3.8356487886089773E-002  0.23025464198198090        0.0000000000000000     
  -3.8545868052297233E-002  0.23871864632666770        0.0000000000000000     
  -3.8707985049567260E-002  0.24720539914302611        0.0000000000000000     
  -3.8842838877899827E-002  0.25571490043105632        0.0000000000000000     
  -3.8950429537294953E-002  0.26424715019075817        0.0000000000000000     
  -4.5062841775566513E-002  0.23032779509318493        0.0000000000000000     
  -4.5290246893707697E-002  0.23879809135334129        0.0000000000000000     
  -4.5482610100951081E-002  0.24730571739274709        0.0000000000000000     
  -4.5639931397296662E-002  0.25585067321140231        0.0000000000000000     
  -4.5762210782744450E-002  0.26443295880930717        0.0000000000000000     
  -5.1889610484044016E-002  0.23040880807802458        0.0000000000000000     
  -5.2157829615053185E-002  0.23888425908214186        0.0000000000000000     
  -5.2381605971471533E-002  0.24741454709932775        0.0000000000000000     
  -5.2560939553299026E-002  0.25599967212958230        0.0000000000000000     
  -5.2695830360535698E-002  0.26463963417290542        0.0000000000000000     
  -2.5692382043421263E-002  0.26393813318880865        0.0000000000000000     
  -2.5759975362401977E-002  0.27234048961083701        0.0000000000000000     
  -2.5835364780561872E-002  0.28063499543179615        0.0000000000000000     
  -2.5918550297900956E-002  0.28882165065168586        0.0000000000000000     
  -2.6009531914419216E-002  0.29690045527050629        0.0000000000000000     
  -3.2260486624187235E-002  0.26408220831725870        0.0000000000000000     
  -3.2345014084361190E-002  0.27253029744618784        0.0000000000000000     
  -3.2438053755435438E-002  0.28088376268521081        0.0000000000000000     
  -3.2539605637409957E-002  0.28914260403432762        0.0000000000000000     
  -3.2649669730284762E-002  0.29730682149353815        0.0000000000000000     
  -3.8950429537294953E-002  0.26424715019075817        0.0000000000000000     
  -3.9049549145067038E-002  0.27275102773590859        0.0000000000000000     
  -3.9158989818530443E-002  0.28117541238028443        0.0000000000000000     
  -3.9278751557685197E-002  0.28952030412388557        0.0000000000000000     
  -3.9408834362531286E-002  0.29778570296671214        0.0000000000000000     
  -4.5762210782744450E-002  0.26443295880930717        0.0000000000000000     
  -4.5873580544519503E-002  0.27300268047999926        0.0000000000000000     
  -4.5998172969846929E-002  0.28150994451701683        0.0000000000000000     
  -4.6135988058726679E-002  0.28995475092035977        0.0000000000000000     
  -4.6287025811158788E-002  0.29833709969002825        0.0000000000000000     
  -5.2695830360535698E-002  0.26463963417290542        0.0000000000000000     
  -5.2817108282718614E-002  0.27328525567845985        0.0000000000000000     
  -5.2955603209384847E-002  0.28188735909540807        0.0000000000000000     
  -5.3111315140534389E-002  0.29044594442375032        0.0000000000000000     
  -5.3284244076167261E-002  0.29896101166348643        0.0000000000000000     
  -2.9075745416614986E-002   5.7125008355896900E-002   0.0000000000000000     
  -3.0585936531509230E-002   6.2698294666252555E-002   0.0000000000000000     
  -3.2055591819713472E-002   6.8449138086980083E-002   0.0000000000000000     
  -3.3484711281227708E-002   7.4377538618079497E-002   0.0000000000000000     
  -3.4873294916051949E-002   8.0483496259550785E-002   0.0000000000000000     
  -3.3084187506114339E-002   5.7611903545171483E-002   0.0000000000000000     
  -3.4780118760406570E-002   6.3173847925923246E-002   0.0000000000000000     
  -3.6430699281441714E-002   6.8912257019240017E-002   0.0000000000000000     
  -3.8035929069219800E-002   7.4827130825121838E-002   0.0000000000000000     
  -3.9595808123740805E-002   8.0918469343568625E-002   0.0000000000000000     
  -3.7137252797524334E-002   5.8202551071491165E-002   0.0000000000000000     
  -3.9047237604739965E-002   6.3733810292148294E-002   0.0000000000000000     
  -4.0900604935985962E-002   6.9445101175688112E-002   0.0000000000000000     
  -4.2697354791262347E-002   7.5336423722110593E-002   0.0000000000000000     
  -4.4437487170569098E-002   8.1407777931415778E-002   0.0000000000000000     
  -4.1234941290844970E-002   5.8896950934855967E-002   0.0000000000000000     
  -4.3387293064509419E-002   6.4378181764927725E-002   0.0000000000000000     
  -4.5465308783346231E-002   7.0047670556324340E-002   0.0000000000000000     
  -4.7468988447355372E-002   7.5905417309045833E-002   0.0000000000000000     
  -4.9398332056536855E-002   8.1951422023092205E-002   0.0000000000000000     
  -4.5377252986076255E-002   5.9695103135265867E-002   0.0000000000000000     
  -4.7800285139714953E-002   6.5106962344261499E-002   0.0000000000000000     
  -5.0124810823522478E-002   7.0719965161148715E-002   0.0000000000000000     
  -5.2350830037498852E-002   7.6534111585927531E-002   0.0000000000000000     
  -5.4478342781644054E-002   8.2549401618597945E-002   0.0000000000000000     
  -3.4873294916051949E-002   8.0483496259550785E-002   0.0000000000000000     
  -3.6216625612706339E-002   8.6757195143446333E-002   0.0000000000000000     
  -3.7509986259711074E-002   9.3188819401818543E-002   0.0000000000000000     
  -3.8753376857066132E-002   9.9778369034667372E-002   0.0000000000000000     
  -3.9946797404771528E-002  0.10652584404199286        0.0000000000000000     
  -3.9595808123740805E-002   8.0918469343568625E-002   0.0000000000000000     
  -4.1105277822476360E-002   8.7176754153090813E-002   0.0000000000000000     
  -4.2559279542898100E-002   9.3592466832198698E-002   0.0000000000000000     
  -4.3957813285006017E-002  0.10016560738089231        0.0000000000000000     
  -4.5300879048800112E-002  0.10689617579917164        0.0000000000000000     
  -4.4437487170569098E-002   8.1407777931415778E-002   0.0000000000000000     
  -4.6118226445886104E-002   8.7647877365916324E-002   0.0000000000000000     
  -4.7736796989193239E-002   9.4045435587924997E-002   0.0000000000000000     
  -4.9293198800490504E-002  0.10060045259744176        0.0000000000000000     
  -5.0787431879777883E-002  0.10731292839446661        0.0000000000000000     
  -4.9398332056536855E-002   8.1951422023092205E-002   0.0000000000000000     
  -5.1255471482935598E-002   8.8170564781922908E-002   0.0000000000000000     
  -5.3042538598596513E-002   9.4547725668997398E-002   0.0000000000000000     
  -5.4759533403519592E-002  0.10108290468431572        0.0000000000000000     
  -5.6406455897704849E-002  0.10777610182787781        0.0000000000000000     
  -5.4478342781644054E-002   8.2549401618597945E-002   0.0000000000000000     
  -5.6517012933624829E-002   8.8744816401110552E-002   0.0000000000000000     
  -5.8476504371107907E-002   9.5099337075415985E-002   0.0000000000000000     
  -6.0356817094093289E-002  0.10161296364151420        0.0000000000000000     
  -6.2157951102580995E-002  0.10828569609940522        0.0000000000000000     
  -3.9946797404771528E-002  0.10652584404199286        0.0000000000000000     
  -4.1090158867069515E-002  0.11341949237829148        0.0000000000000000     
  -4.2183372208202348E-002  0.12044756199805964        0.0000000000000000     
  -4.3226437428170048E-002  0.12761005290129737        0.0000000000000000     
  -4.4219354526972586E-002  0.13490696508800473        0.0000000000000000     
  -4.5300879048800112E-002  0.10689617579917164        0.0000000000000000     
  -4.6588280909932195E-002  0.11377256220071985        0.0000000000000000     
  -4.7819822944054069E-002  0.12078315669922017        0.0000000000000000     
  -4.8995505151165714E-002  0.12792795929467260        0.0000000000000000     
  -5.0115327531267170E-002  0.13520696998707707        0.0000000000000000     
  -5.0787431879777883E-002  0.10731292839446661        0.0000000000000000     
  -5.2219830993578048E-002  0.11417099168399270        0.0000000000000000     
  -5.3590730908413653E-002  0.12116277117101310        0.0000000000000000     
  -5.4900131624284712E-002  0.12828826685552777        0.0000000000000000     
  -5.6148033141191198E-002  0.13554747873753684        0.0000000000000000     
  -5.6406455897704849E-002  0.10777610182787781        0.0000000000000000     
  -5.7984809118007075E-002  0.11461478082810993        0.0000000000000000     
  -5.9496096101281128E-002  0.12158640541343835        0.0000000000000000     
  -6.0940316847526980E-002  0.12869097558386305        0.0000000000000000     
  -6.2317471356744668E-002  0.13592849133938401        0.0000000000000000     
  -6.2157951102580995E-002  0.10828569609940522        0.0000000000000000     
  -6.3883215283219288E-002  0.11510392963307162        0.0000000000000000     
  -6.5535918522656472E-002  0.12205405942649600        0.0000000000000000     
  -6.7116060820892595E-002  0.12913608547967828        0.0000000000000000     
  -6.8623642177927602E-002  0.13635000779261860        0.0000000000000000     
  -4.4219354526972586E-002  0.13490696508800473        0.0000000000000000     
  -4.5160560752021982E-002  0.14232654470383654        0.0000000000000000     
  -4.6048493350730239E-002  0.14985703789444771        0.0000000000000000     
  -4.6883152323097359E-002  0.15749844465983820        0.0000000000000000     
  -4.7664537669123326E-002  0.16525076500000807        0.0000000000000000     
  -5.0115327531267170E-002  0.13520696998707707        0.0000000000000000     
  -5.1177730242173168E-002  0.14260839433943392        0.0000000000000000     
  -5.2181153441698491E-002  0.15012043791474342        0.0000000000000000     
  -5.3125597129843140E-002  0.15774310071300557        0.0000000000000000     
  -5.4011061306607114E-002  0.16547638273422038        0.0000000000000000     
  -5.6148033141191198E-002  0.13554747873753684        0.0000000000000000     
  -5.7333034342533867E-002  0.14292879645669268        0.0000000000000000     
  -5.8453734111713430E-002  0.15042060965264800        0.0000000000000000     
  -5.9510132448729929E-002  0.15802291832540274        0.0000000000000000     
  -6.0502229353583320E-002  0.16573572247495694        0.0000000000000000     
  -6.2317471356744668E-002  0.13592849133938401        0.0000000000000000     
  -6.3626473053104052E-002  0.14328775105561292        0.0000000000000000     
  -6.4866235360775071E-002  0.15075755310816150        0.0000000000000000     
  -6.6036758279757690E-002  0.15833789749702976        0.0000000000000000     
  -6.7138041810051938E-002  0.16602878422221773        0.0000000000000000     
  -6.8623642177927602E-002  0.13635000779261860        0.0000000000000000     
  -7.0058046373883784E-002  0.14368525813619457        0.0000000000000000     
  -7.1418657188883392E-002  0.15113126828128393        0.0000000000000000     
  -7.2705474622926466E-002  0.15868803822788663        0.0000000000000000     
  -7.3918498676012995E-002  0.16635556797600276        0.0000000000000000     
  -4.7664537669123326E-002  0.16525076500000807        0.0000000000000000     
  -4.8391651845140576E-002  0.17310277073123925        0.0000000000000000     
  -4.9063497307481517E-002  0.18104323366981379        0.0000000000000000     
  -4.9680074056146155E-002  0.18907215381573167        0.0000000000000000     
  -5.0241382091134476E-002  0.19718953116899285        0.0000000000000000     
  -5.4011061306607114E-002  0.16547638273422038        0.0000000000000000     
  -5.4836902751708168E-002  0.17330915467047037        0.0000000000000000     
  -5.5602478244864049E-002  0.18123028721383797        0.0000000000000000     
  -5.6307787786074759E-002  0.18923978036432323        0.0000000000000000     
  -5.6952831375340317E-002  0.19733763412192612        0.0000000000000000     
  -6.0502229353583320E-002  0.16573572247495694        0.0000000000000000     
  -6.1429607460032967E-002  0.17354799512295377        0.0000000000000000     
  -6.2291849401838212E-002  0.18144870929103651        0.0000000000000000     
  -6.3088955178999040E-002  0.18943786497920509        0.0000000000000000     
  -6.3820924791515479E-002  0.19751546218745961        0.0000000000000000     
  -6.7138041810051938E-002  0.16602878422221773        0.0000000000000000     
  -6.8169765970114996E-002  0.17381929208868951        0.0000000000000000     
  -6.9131610778404032E-002  0.18169849990140940        0.0000000000000000     
  -7.0023576234919019E-002  0.18966640766037729        0.0000000000000000     
  -7.0845662339659984E-002  0.19772301536559331        0.0000000000000000     
  -7.3918498676012995E-002  0.16635556797600276        0.0000000000000000     
  -7.5057378281954218E-002  0.17412304556767763        0.0000000000000000     
  -7.6121762374561433E-002  0.18197965904495667        0.0000000000000000     
  -7.7111650953834626E-002  0.18992540840783986        0.0000000000000000     
  -7.8027044019773825E-002  0.19796029365632720        0.0000000000000000     
  -5.0241382091134476E-002  0.19718953116899285        0.0000000000000000     
  -5.0744651624303957E-002  0.20538694044350697        0.0000000000000000     
  -5.1187112867512027E-002  0.21365595635318366        0.0000000000000000     
  -5.1568765820758720E-002  0.22199657889802279        0.0000000000000000     
  -5.1889610484044016E-002  0.23040880807802458        0.0000000000000000     
  -5.6952831375340317E-002  0.19733763412192612        0.0000000000000000     
  -5.7533907640670193E-002  0.20551692986739276        0.0000000000000000     
  -5.8047315210073919E-002  0.21377074898146908        0.0000000000000000     
  -5.8493054083551481E-002  0.22209909146415521        0.0000000000000000     
  -5.8871124261102893E-002  0.23050195731545109        0.0000000000000000     
  -6.3820924791515479E-002  0.19751546218745961        0.0000000000000000     
  -6.4484275224461651E-002  0.20567532922599246        0.0000000000000000     
  -6.5075523462911761E-002  0.21391129440499609        0.0000000000000000     
  -6.5594669506865794E-002  0.22222335772447055        0.0000000000000000     
  -6.6041713356323764E-002  0.23061151918441583        0.0000000000000000     
  -7.0845662339659984E-002  0.19772301536559331        0.0000000000000000     
  -7.1595754375678375E-002  0.20586213851930615        0.0000000000000000     
  -7.2271737626025581E-002  0.21407759262376466        0.0000000000000000     
  -7.2873612090701687E-002  0.22236937767896886        0.0000000000000000     
  -7.3401377769706608E-002  0.23073749368491875        0.0000000000000000     
  -7.8027044019773825E-002  0.19796029365632720        0.0000000000000000     
  -7.8868345094320294E-002  0.20607735774733382        0.0000000000000000     
  -7.9635957699415394E-002  0.21426964363777479        0.0000000000000000     
  -8.0329881835059111E-002  0.22253715132765009        0.0000000000000000     
  -8.0950117501251445E-002  0.23087988081695981        0.0000000000000000     
  -5.1889610484044016E-002  0.23040880807802458        0.0000000000000000     
  -5.2157829615053185E-002  0.23888425908214186        0.0000000000000000     
  -5.2381605971471533E-002  0.24741454709932775        0.0000000000000000     
  -5.2560939553299026E-002  0.25599967212958230        0.0000000000000000     
  -5.2695830360535698E-002  0.26463963417290542        0.0000000000000000     
  -5.8871124261102893E-002  0.23050195731545109        0.0000000000000000     
  -5.9187748445623904E-002  0.23897854695662385        0.0000000000000000     
  -5.9449149340010297E-002  0.24752806080894060        0.0000000000000000     
  -5.9655326944262059E-002  0.25615049887240127        0.0000000000000000     
  -5.9806281258379189E-002  0.26484586114700592        0.0000000000000000     
  -6.6041713356323764E-002  0.23061151918441583        0.0000000000000000     
  -6.6419135614710051E-002  0.23908235242034168        0.0000000000000000     
  -6.6729416885449089E-002  0.24764243106775791        0.0000000000000000     
  -6.6972557168540892E-002  0.25629175512666452        0.0000000000000000     
  -6.7148556463985418E-002  0.26503032459706150        0.0000000000000000     
  -7.3401377769706608E-002  0.23073749368491875        0.0000000000000000     
  -7.3851991122311597E-002  0.23919567547329537        0.0000000000000000     
  -7.4222408607787893E-002  0.24775765787577975        0.0000000000000000     
  -7.4512630226135454E-002  0.25642344089237190        0.0000000000000000     
  -7.4722655977354349E-002  0.26519302452307197        0.0000000000000000     
  -8.0950117501251445E-002  0.23087988081695981        0.0000000000000000     
  -8.1486314968428578E-002  0.23931851611548485        0.0000000000000000     
  -8.1928124507026717E-002  0.24787374123300615        0.0000000000000000     
  -8.2275546117045864E-002  0.25654555616952368        0.0000000000000000     
  -8.2528579798486004E-002  0.26533396092503742        0.0000000000000000     
  -5.2695830360535698E-002  0.26463963417290542        0.0000000000000000     
  -5.2817108282718614E-002  0.27328525567845985        0.0000000000000000     
  -5.2955603209384847E-002  0.28188735909540807        0.0000000000000000     
  -5.3111315140534389E-002  0.29044594442375032        0.0000000000000000     
  -5.3284244076167261E-002  0.29896101166348643        0.0000000000000000     
  -5.9806281258379189E-002  0.26484586114700592        0.0000000000000000     
  -5.9938880639190138E-002  0.27357003784758804        0.0000000000000000     
  -6.0089993443523372E-002  0.28227891918898079        0.0000000000000000     
  -6.0259619671378876E-002  0.29097250517118434        0.0000000000000000     
  -6.0447759322756645E-002  0.29965079579419868        0.0000000000000000     
  -6.7148556463985418E-002  0.26503032459706150        0.0000000000000000     
  -6.7297645893459934E-002  0.27382831150368159        0.0000000000000000     
  -6.7460056578641681E-002  0.28265588787125751        0.0000000000000000     
  -6.7635788519530657E-002  0.29151305369978925        0.0000000000000000     
  -6.7824841716126863E-002  0.30039980898927682        0.0000000000000000     
  -7.4722655977354349E-002  0.26519302452307197        0.0000000000000000     
  -7.4893404045527953E-002  0.27406007664674048        0.0000000000000000     
  -7.5065792614739751E-002  0.28301826514223816        0.0000000000000000     
  -7.5239821684989716E-002  0.29206759000956500        0.0000000000000000     
  -7.5415491256277889E-002  0.30120805124872096        0.0000000000000000     
  -8.2528579798486004E-002  0.26533396092503742        0.0000000000000000     
  -8.2726155095394216E-002  0.27426533327676472        0.0000000000000000     
  -8.2907201551817591E-002  0.28336605100192269        0.0000000000000000     
  -8.3071719167756103E-002  0.29263611410051149        0.0000000000000000     
  -8.3219707943209764E-002  0.30207552257253101        0.0000000000000000     
  -4.5377252986076255E-002   5.9695103135265867E-002   0.0000000000000000     
  -4.7800285139714953E-002   6.5106962344261499E-002   0.0000000000000000     
  -5.0124810823522478E-002   7.0719965161148715E-002   0.0000000000000000     
  -5.2350830037498852E-002   7.6534111585927531E-002   0.0000000000000000     
  -5.4478342781644054E-002   8.2549401618597945E-002   0.0000000000000000     
  -4.9848851301195249E-002   6.0473237856749247E-002   0.0000000000000000     
  -5.2493706471575668E-002   6.5847671606908381E-002   0.0000000000000000     
  -5.5027479841822928E-002   7.1426273321321329E-002   0.0000000000000000     
  -5.7450171411937048E-002   7.7209042999988112E-002   0.0000000000000000     
  -5.9761781181918036E-002   8.3195980642908701E-002   0.0000000000000000     
  -5.4934399654179018E-002   6.1107585283334459E-002   0.0000000000000000     
  -5.7675049701310682E-002   6.6527829129627153E-002   0.0000000000000000     
  -6.0321684623555756E-002   7.2130883368002358E-002   0.0000000000000000     
  -6.2874304420914240E-002   7.7916747998460045E-002   0.0000000000000000     
  -6.5332909093386154E-002   8.3885423021000244E-002   0.0000000000000000     
  -6.0633898045027564E-002   6.1598145415021510E-002   0.0000000000000000     
  -6.3344314828920001E-002   6.7147434912417814E-002   0.0000000000000000     
  -6.6007425168720948E-002   7.2833795301191759E-002   0.0000000000000000     
  -6.8623229064430413E-002   7.8657226581343331E-002   0.0000000000000000     
  -7.1191726516048395E-002   8.4617728752872517E-002   0.0000000000000000     
  -6.6947346473740885E-002   6.1944918251810380E-002   0.0000000000000000     
  -6.9501501854403624E-002   6.7706488955280350E-002   0.0000000000000000     
  -7.2084701477318505E-002   7.3535009120889533E-002   0.0000000000000000     
  -7.4696945342485541E-002   7.9430478748637928E-002   0.0000000000000000     
  -7.7338233449904759E-002   8.5392897838525550E-002   0.0000000000000000     
  -5.4478342781644054E-002   8.2549401618597945E-002   0.0000000000000000     
  -5.6517012933624829E-002   8.8744816401110552E-002   0.0000000000000000     
  -5.8476504371107907E-002   9.5099337075415985E-002   0.0000000000000000     
  -6.0356817094093289E-002  0.10161296364151420        0.0000000000000000     
  -6.2157951102580995E-002  0.10828569609940522        0.0000000000000000     
  -5.9761781181918036E-002   8.3195980642908701E-002   0.0000000000000000     
  -6.1974428870139320E-002   8.9365323750896938E-002   0.0000000000000000     
  -6.4100234194974334E-002   9.5695309824766664E-002   0.0000000000000000     
  -6.6139197156423093E-002  0.10218593886451782        0.0000000000000000     
  -6.8091317754485570E-002  0.10883721087015048        0.0000000000000000     
  -6.5332909093386154E-002   8.3885423021000244E-002   0.0000000000000000     
  -6.7699297364664596E-002   9.0026778358699752E-002   0.0000000000000000     
  -6.9975267958442694E-002   9.6330683934635439E-002   0.0000000000000000     
  -7.2160820874720435E-002  0.10279713974880728        0.0000000000000000     
  -7.4255956113497834E-002  0.10942614580121526        0.0000000000000000     
  -7.1191726516048395E-002   8.4617728752872517E-002   0.0000000000000000     
  -7.3691618417200663E-002   9.0729180224518952E-002   0.0000000000000000     
  -7.6101605661512986E-002   9.7005459405022268E-002   0.0000000000000000     
  -7.8421688248985377E-002  0.10344656629438247        0.0000000000000000     
  -8.0651866179617823E-002  0.11005250089259955        0.0000000000000000     
  -7.7338233449904759E-002   8.5392897838525550E-002   0.0000000000000000     
  -7.9951392027747523E-002   9.1472529348354578E-002   0.0000000000000000     
  -8.2479247304185224E-002   9.7719636235927221E-002   0.0000000000000000     
  -8.4921799279217877E-002  0.10413421850124348        0.0000000000000000     
  -8.7279047952845468E-002  0.11071627614430332        0.0000000000000000     
  -6.2157951102580995E-002  0.10828569609940522        0.0000000000000000     
  -6.3883215283219288E-002  0.11510392963307162        0.0000000000000000     
  -6.5535918522656472E-002  0.12205405942649600        0.0000000000000000     
  -6.7116060820892595E-002  0.12913608547967828        0.0000000000000000     
  -6.8623642177927602E-002  0.13635000779261860        0.0000000000000000     
  -6.8091317754485570E-002  0.10883721087015048        0.0000000000000000     
  -6.9961125740679378E-002  0.11563414570018668        0.0000000000000000     
  -7.1753150866522120E-002  0.12256176321314856        0.0000000000000000     
  -7.3467393132013781E-002  0.12962006340903606        0.0000000000000000     
  -7.5103852537154361E-002  0.13680904628784923        0.0000000000000000     
  -7.4255956113497834E-002  0.10942614580121526        0.0000000000000000     
  -7.6264616741852101E-002  0.11620113663076413        0.0000000000000000     
  -7.8190745826860461E-002  0.12310554677635865        0.0000000000000000     
  -8.0034343368522859E-002  0.13013937623799879        0.0000000000000000     
  -8.1795409366839350E-002  0.13730262501568452        0.0000000000000000     
  -8.0651866179617823E-002  0.11005250089259955        0.0000000000000000     
  -8.2793688286737471E-002  0.11680490242480397        0.0000000000000000     
  -8.4848703403671483E-002  0.12368541011612627        0.0000000000000000     
  -8.6816911530419857E-002  0.13069402396656643        0.0000000000000000     
  -8.8698312666982596E-002  0.13783074397612446        0.0000000000000000     
  -8.7279047952845468E-002  0.11071627614430332        0.0000000000000000     
  -8.9548340375335433E-002  0.11744544308230617        0.0000000000000000     
  -9.1727023596955184E-002  0.12430135323245144        0.0000000000000000     
  -9.3815097617704721E-002  0.13128400659473904        0.0000000000000000     
  -9.5812562437584056E-002  0.13839340316916904        0.0000000000000000     
  -6.8623642177927602E-002  0.13635000779261860        0.0000000000000000     
  -7.0058046373883784E-002  0.14368525813619457        0.0000000000000000     
  -7.1418657188883392E-002  0.15113126828128393        0.0000000000000000     
  -7.2705474622926466E-002  0.15868803822788663        0.0000000000000000     
  -7.3918498676012995E-002  0.16635556797600276        0.0000000000000000     
  -7.5103852537154361E-002  0.13680904628784923        0.0000000000000000     
  -7.6662250630442172E-002  0.14411896991370984        0.0000000000000000     
  -7.8142308960375537E-002  0.15154009235073965        0.0000000000000000     
  -7.9544027526954456E-002  0.15907241359893873        0.0000000000000000     
  -8.0867406330178943E-002  0.16671593365830698        0.0000000000000000     
  -8.1795409366839350E-002  0.13730262501568452        0.0000000000000000     
  -8.3473582148348435E-002  0.14458653860343101        0.0000000000000000     
  -8.5068500039588602E-002  0.15198236249525332        0.0000000000000000     
  -8.6580163040559877E-002  0.15949009669115141        0.0000000000000000     
  -8.8008571151262274E-002  0.16710974119112532        0.0000000000000000     
  -8.8698312666982596E-002  0.13783074397612446        0.0000000000000000     
  -9.0492040927602560E-002  0.14508796420535802        0.0000000000000000     
  -9.2197230426522614E-002  0.15245807871482478        0.0000000000000000     
  -9.3813881163742785E-002  0.15994108750452471        0.0000000000000000     
  -9.5341993139262976E-002  0.16753699057445787        0.0000000000000000     
  -9.5812562437584056E-002  0.13839340316916904        0.0000000000000000     
  -9.7717626968204532E-002  0.14562324671949090        0.0000000000000000     
  -9.9528500121177532E-002  0.15296724100945408        0.0000000000000000     
 -0.10124518189650306       0.16042538603905862        0.0000000000000000     
 -0.10286767229418112       0.16799768180830449        0.0000000000000000     
  -7.3918498676012995E-002  0.16635556797600276        0.0000000000000000     
  -7.5057378281954218E-002  0.17412304556767763        0.0000000000000000     
  -7.6121762374561433E-002  0.18197965904495667        0.0000000000000000     
  -7.7111650953834626E-002  0.18992540840783986        0.0000000000000000     
  -7.8027044019773825E-002  0.19796029365632720        0.0000000000000000     
  -8.0867406330178943E-002  0.16671593365830698        0.0000000000000000     
  -8.2112406319906142E-002  0.17445975743460884        0.0000000000000000     
  -8.3278988445993213E-002  0.18229298983360870        0.0000000000000000     
  -8.4367152708440182E-002  0.19021563085530666        0.0000000000000000     
  -8.5376899107247037E-002  0.19822768049970252        0.0000000000000000     
  -8.8008571151262274E-002  0.16710974119112532        0.0000000000000000     
  -8.9354812008326179E-002  0.17482992956417387        0.0000000000000000     
  -9.0619973248382057E-002  0.18263929537929599        0.0000000000000000     
  -9.1804054871429883E-002  0.19053783863649149        0.0000000000000000     
  -9.2907056877469696E-002  0.19852555933576049        0.0000000000000000     
  -9.5341993139262976E-002  0.16753699057445787        0.0000000000000000     
  -9.6784595347214383E-002  0.17523356195637288        0.0000000000000000     
  -9.8144716781727995E-002  0.18301857568201840        0.0000000000000000     
  -9.9422357442803797E-002  0.19089203175139449        0.0000000000000000     
 -0.10061751733044179       0.19885393016450109        0.0000000000000000     
 -0.10286767229418112       0.16799768180830449        0.0000000000000000     
 -0.10440175633657073       0.17567065461120565        0.0000000000000000     
 -0.10585321904603097       0.18343083074177599        0.0000000000000000     
 -0.10722206042256183       0.19127821020001554        0.0000000000000000     
 -0.10850828046616334       0.19921279298592431        0.0000000000000000     
  -7.8027044019773825E-002  0.19796029365632720        0.0000000000000000     
  -7.8868345094320294E-002  0.20607735774733382        0.0000000000000000     
  -7.9635957699415394E-002  0.21426964363777479        0.0000000000000000     
  -8.0329881835059111E-002  0.22253715132765009        0.0000000000000000     
  -8.0950117501251445E-002  0.23087988081695981        0.0000000000000000     
  -8.5376899107247037E-002  0.19822768049970252        0.0000000000000000     
  -8.6311157755956505E-002  0.20632158755810348        0.0000000000000000     
  -8.7172858768111261E-002  0.21448980082181643        0.0000000000000000     
  -8.7962002143711332E-002  0.22273232029084147        0.0000000000000000     
  -8.8678587882756690E-002  0.23104914596517856        0.0000000000000000     
  -9.2907056877469696E-002  0.19852555933576049        0.0000000000000000     
  -9.3933302736155994E-002  0.20659542859964314        0.0000000000000000     
  -9.4887115917143258E-002  0.21474041755067969        0.0000000000000000     
  -9.5768496420431531E-002  0.22296052618887011        0.0000000000000000     
  -9.6577444246020772E-002  0.23125575451421440        0.0000000000000000     
 -0.10061751733044179       0.19885393016450109        0.0000000000000000     
 -0.10173478003491877       0.20689888087195285        0.0000000000000000     
 -0.10277872914651141       0.21502149382436450        0.0000000000000000     
 -0.10374936466521971       0.22322176902173596        0.0000000000000000     
 -0.10464668659104373       0.23149970646406731        0.0000000000000000     
 -0.10850828046616334       0.19921279298592431        0.0000000000000000     
 -0.10971558965224483       0.20723194437503262        0.0000000000000000     
 -0.11084769845621567       0.21533302964287093        0.0000000000000000     
 -0.11190460687807591       0.22351604878943915        0.0000000000000000     
 -0.11288631491782551       0.23178100181473735        0.0000000000000000     
  -8.0950117501251445E-002  0.23087988081695981        0.0000000000000000     
  -8.1486314968428578E-002  0.23931851611548485        0.0000000000000000     
  -8.1928124507026717E-002  0.24787374123300615        0.0000000000000000     
  -8.2275546117045864E-002  0.25654555616952368        0.0000000000000000     
  -8.2528579798486004E-002  0.26533396092503742        0.0000000000000000     
  -8.8678587882756690E-002  0.23104914596517856        0.0000000000000000     
  -8.9308521936576735E-002  0.23946583394351664        0.0000000000000000     
  -8.9837710256500780E-002  0.24800794032454454        0.0000000000000000     
  -9.0266152842528910E-002  0.25667546510826245        0.0000000000000000     
  -9.0593849694661027E-002  0.26546840829467017        0.0000000000000000     
  -9.6577444246020772E-002  0.23125575451421440        0.0000000000000000     
  -9.7305026810271797E-002  0.23965258855399707        0.0000000000000000     
  -9.7942311529545384E-002  0.24817751433550261        0.0000000000000000     
  -9.8489298403841435E-002  0.25683053185873111        0.0000000000000000     
  -9.8945987433160049E-002  0.26561164112368246        0.0000000000000000     
 -0.10464668659104373       0.23149970646406731        0.0000000000000000     
 -0.10547582958951381       0.23987877994692619        0.0000000000000000     
 -0.10624192832616039       0.24838246326588029        0.0000000000000000     
 -0.10694498280098348       0.25701075642092969        0.0000000000000000     
 -0.10758499301398308       0.26576365941207425        0.0000000000000000     
 -0.11288631491782551       0.23178100181473735        0.0000000000000000     
 -0.11382093027430276       0.24014440812230400        0.0000000000000000     
 -0.11473656064634592       0.24862278711567759        0.0000000000000000     
 -0.11563320603395506       0.25721613879485822        0.0000000000000000     
 -0.11651086643713009       0.26592446315984575        0.0000000000000000     
  -8.2528579798486004E-002  0.26533396092503742        0.0000000000000000     
  -8.2726155095394216E-002  0.27426533327676472        0.0000000000000000     
  -8.2907201551817591E-002  0.28336605100192269        0.0000000000000000     
  -8.3071719167756103E-002  0.29263611410051149        0.0000000000000000     
  -8.3219707943209764E-002  0.30207552257253101        0.0000000000000000     
  -9.0593849694661027E-002  0.26546840829467017        0.0000000000000000     
  -9.0851072391458815E-002  0.27444976913585784        0.0000000000000000     
  -9.1068092511483886E-002  0.28368254688391575        0.0000000000000000     
  -9.1244910054736256E-002  0.29316674153884370        0.0000000000000000     
  -9.1381525021215881E-002  0.30290235310064173        0.0000000000000000     
  -9.8945987433160049E-002  0.26561164112368246        0.0000000000000000     
  -9.9323329282121800E-002  0.27461907196612362        0.0000000000000000     
  -9.9632274615347322E-002  0.28395105422182160        0.0000000000000000     
  -9.9872823432836627E-002  0.29360758789077629        0.0000000000000000     
 -0.10004497573458966       0.30358867297298781        0.0000000000000000     
 -0.10758499301398308       0.26576365941207425        0.0000000000000000     
 -0.10814292576738319       0.27477324176756190        0.0000000000000000     
 -0.10859974786340790       0.28417157301564028        0.0000000000000000     
 -0.10895545930205719       0.29395865315630942        0.0000000000000000     
 -0.10921006008333110       0.30413448218956918        0.0000000000000000     
 -0.11651086643713009       0.26592446315984575        0.0000000000000000     
 -0.11730986184724299       0.27491227854017275        0.0000000000000000     
 -0.11797051225566561       0.28434410326537179        0.0000000000000000     
 -0.11849281766239803       0.29421993733544283        0.0000000000000000     
 -0.11887677806744018       0.30453978075038596        0.0000000000000000     
 </DataArray>
 <DataArray  type="Float64" Name="stress" NumberOfComponents="3" format="ascii">
   5184357553.5944586        1027539257.5012678       -658949429.26954055     
   5084928023.0804949        510224345.23202252       -447583355.06153584     
   5037599524.0296125        166579537.83974123       -303544062.87778378     
   5042372056.4418297       -3395164.6755552292       -226831552.71829015     
   5099245620.3171358        300237.68611216545       -217445824.58304787     
   5503585154.3166027        847236006.47916257       -388223411.59983575     
   5295749426.6567926        457211467.23223448       -218142295.04473546     
   5124581776.1912746        189413851.96625972       -93498480.351930007     
   4990082202.9200382        43843160.681241274       -14291967.521446330     
   4892250706.8430920        20499393.377188683        19477243.446732227     
   5525636532.7987013        577779888.78504705       -47028594.132529527     
   5271935979.8843384        333808134.12782788        63762451.456070073     
   5039470549.8954487        160620122.55553246        151005675.34430346     
   4828240242.8320408        58215854.068182945        214701077.53218356     
   4638245058.6941185        26595328.665776730        254848658.01969582     
   5250511689.0407696        219170904.41892409        364635023.13237673     
   5013487682.7631168        140014345.91878462        398130884.44085896     
   4782265845.1421394        80198349.607563734        429968404.21093571     
   4556846176.1778412        39722915.485264063        460147582.44258767     
   4337228675.8702192        18588043.551891804        488668419.13583392     
   4678210623.0427856       -228590946.61921787        846767440.19488478     
   4520404535.2931366       -124169897.39488435        784963003.90965044     
   4352967661.9313555       -51851466.877645254        743389706.24794519     
   4175900002.9574409       -11635655.067513466        722047547.20977843     
   3989201558.3714027       -3522461.9644715786        720936526.79514277     
   5099245620.3171358        300237.68611216545       -217445824.58304787     
   4940012451.3777628        15464060.904319048       -169942669.91024166     
   4778986233.8550358        24651055.511357784       -127346983.94580728     
   4616166967.7489290        27861221.507134199       -89658766.689747304     
   4451554653.0594854        25094558.891773462       -56878018.142074548     
   4892250706.8430920        20499393.377188683        19477243.446732227     
   4722096342.6514568        28707950.488424778        50080979.691739693     
   4550383253.9136868        31720759.112541914        78796326.629604548     
   4377111440.6297827        29537819.249549627        105623284.26033641     
   4202280902.7997398        22159130.899419069        130561852.58392566     
   4638245058.6941185        26595328.665776730        254848658.01969582     
   4465795440.3966255        30436402.013957977        268826353.88032269     
   4292021421.5902224        29862806.999110937        283934739.83504450     
   4116923002.2749047        24874543.621212244        300173815.88387907     
   3940500182.4506803        15471611.880287170        317543582.02680820     
   4337228675.8702192        18588043.551891804        488668419.13583392     
   4171109744.6132751        20649415.480952740        486293452.65550447     
   4003900736.8846378        19077199.171041012        488068255.67051101     
   3835601652.6843176        13871394.622178793        493992828.18087506     
   3666212492.0123086        5032001.8343596458        504067170.18657386     
   3989201558.3714027       -3522461.9644715786        720936526.79514277     
   3838039255.3014030       -653009.11061954498        702482276.01729047     
   3686021199.7969332       -636064.37166190147        691196874.13601387     
   3533147391.8580046       -3471627.7475678921        687080321.15132916     
   3379417831.4846077       -9159699.2383730412        690132617.06322289     
   4451554653.0594854        25094558.891773462       -56878018.142074548     
   4275290158.3083334        17445114.028517723       -55313595.523491628     
   4099904122.0992117        12723864.305347919       -51116121.683361016     
   3925396544.4321012        10930809.722231865       -44285596.621694885     
   3751767425.3070207        12065950.279200792       -34822020.338479780     
   4202280902.7997398        22159130.899419069        130561852.58392566     
   4033630199.9012971        15554857.437864542        128930053.36956835     
   3865826439.8406801        11773726.769058228        130280772.49689566     
   3698869622.6178970        10815738.893031597        134614009.96590212     
   3532759748.2329350        12680893.809742451        141929765.77660671     
   3940500182.4506803        15471611.880287170        317543582.02680820     
   3780461748.8910651        10212053.066246271        312678792.65795207     
   3621238742.4650860        7670584.6976552010        311145988.75091976     
   3462831163.1727438        7847206.7745196819        312945170.30571944     
   3305239011.0140433        10741919.296855450        318076337.32235211     
   3666212492.0123086        5032001.8343596458        504067170.18657386     
   3515784805.2776418        1416700.9136672020        495932622.34165657     
   3366141029.9724216        414438.09112811089        491479527.07871497     
   3217281166.0966496        2025213.3667525053        490707884.39774621     
   3069205213.6503220        6249026.7405195236        493617694.29874760     
   3379417831.4846077       -9159699.2383730412        690132617.06322289     
   3239599369.0610213       -10831199.019870996        678691542.42069089     
   3100533302.3626909       -9994713.0505028963        671281387.48027933     
   2962219631.3896084       -6650241.3303098679        667902152.24198079     
   2824658356.1417866       -797783.85925710201        668553836.70580077     
   3751767425.3070207        12065950.279200792       -34822020.338479780     
   3570578758.5360451        10928562.314001560       -31185782.952822473     
   3388508557.9076195        6852728.1573379040       -23239153.238466047     
   3205556823.4217677       -161552.19076502323       -10982131.195410497     
   3021723555.0784736       -10114278.730339885        5585283.1763467323     
   3532759748.2329350        12680893.809742451        141929765.77660671     
   3363064963.7252889        13679696.315485001        141522433.15212646     
   3192661118.1111112        12314961.799459815        145153189.06206173     
   3021548211.3904123        8586690.2617020607        152822033.50640482     
   2849726243.5632052        2494881.7022491693        164528966.48517618     
   3305239011.0140433        10741919.296855450        318076337.32235211     
   3146260097.9289136        13643509.021279335        313826652.89712906     
   2986744596.4881635        14756470.893656731        313342753.21204549     
   2826692506.6918192        14080804.914030910        316624638.26708168     
   2666103828.5398555        11616511.082353830        323672308.06226635     
   3069205213.6503220        6249026.7405195236        493617694.29874760     
   2920164161.1468940        10820000.431375504        485726876.28218895     
   2770758993.0387769        14177255.439925194        481329539.21148384     
   2620989709.3259635        16320791.766151071        480425683.08662730     
   2470856310.0084558        17250609.410073638        483015307.90761465     
   2824658356.1417866       -797783.85925710201        668553836.70580077     
   2684777153.3792601        5209170.5458040237        657223103.30730927     
   2544704307.7629466        10577315.438241482        649113547.06038165     
   2404439819.2928610        15306650.818111062        644225167.96501589     
   2263983687.9690022        19397176.685390353        642557966.02122629     
   3021723555.0784736       -10114278.730339885        5585283.1763467323     
   2862332917.1805525       -12639873.380343914        4227436.8471919904     
   2703886017.1549950       -12019675.122434497        2507937.3359049307     
   2546382855.0018001       -8253683.9566570520        426784.64253551251     
   2389823430.7209597       -1341899.8830519915       -2016021.2329431651     
   2849726243.5632052        2494881.7022491693        164528966.48517618     
   2690643825.3160639        97103.548025846481        160482750.70695069     
   2532186181.7125554       -218092.46076703072        157005784.03547993     
   2374353312.7526822        1549293.6758944988        154098066.47077990     
   2217145218.4364042        5399261.9578924179        151759598.01283842     
   2666103828.5398555        11616511.082353830        323672308.06226635     
   2509989350.7688513        10144465.671551824        316565599.06811738     
   2354180684.4127250        9691791.6436967850        310959041.46958715     
   2198677829.4714885        10258488.998782992        306852635.26670086     
   2043480785.9451346        11844557.736829400        304246380.45942879     
   2470856310.0084558        17250609.410073638        483015307.90761465     
   2320369493.5389047        17502212.990250945        472475981.93067461     
   2169869525.2555060        17709977.190937281        464367709.63823533     
   2019356405.1582427        17873902.012076139        458690491.03028834     
   1868830133.2471230        17993987.453713655        455444326.10683215     
   2263983687.9690022        19397176.685390353        642557966.02122629     
   2121784253.6262424        22170345.504155397        628213899.29463625     
   1979252704.2408943        23836464.180963159        617231788.54140711     
   1836389039.8129394        24395532.715752721        609611633.76153922     
   1693193260.3424072        23847551.108606756        605353434.95503855     
   2389823430.7209597       -1341899.8830519915       -2016021.2329431651     
   2247767753.6763659        6421619.3024634123       -7648577.5774288895     
   2102461049.2699404        3348380.6151980162       -11516413.181922313     
   1953903317.5016973       -10561615.944793105       -13619528.046433685     
   1802094558.3716199       -35308370.377554059       -13957922.170978380     
   2217145218.4364042        5399261.9578924179        151759598.01283842     
   2078512965.6354406        12498745.652570367        142256027.75627291     
   1937724133.5477858        12409631.724950552        133774378.98348452     
   1794778722.1734447        5131920.1750404835        126314651.69447832     
   1649676731.5124218       -9334388.9971429110        119876845.88924408     
   2043480785.9451346        11844557.736829400        304246380.45942879     
   1906149673.7986243        17643320.863883376        292148652.37844032     
   1767756430.4405792        19901646.619132519        280330046.52504641     
   1628301055.8709924        18619535.002587020        268790562.89919609     
   1487783550.0898724        13796986.014269650        257530201.50092432     
   1868830133.2471230        17993987.453713655        455444326.10683215     
   1730677878.1659408        21855344.936462760        442029296.28910410     
   1592557939.9483397        25824425.297818720        428150589.44272834     
   1454470318.5943508        29901228.537903666        413808205.56772780     
   1316415014.1039658        34085754.656645060        399002144.66409373     
   1693193260.3424072        23847551.108606756        605353434.95503855     
   1552097578.7373633        25134817.870234072        591897959.48822069     
   1412128662.0710666        30177967.761024952        577236007.73656249     
   1273286510.3435128        38977000.780955493        561367579.70006192     
   1135571123.5547030        51531916.930033624        544292675.37871706     
   1802094558.3716199       -35308370.377554059       -13957922.170978380     
   1771292612.0925405       -16477624.078260899       -8386698.1894399934     
   1748538697.7093959        29179895.207482576       -41556735.347087353     
   1733832815.2221575        101664187.47957903       -113468033.64394864     
   1727174964.6308992        200975252.73827577       -224120593.08000079     
   1649676731.5124218       -9334388.9971429110        119876845.88924408     
   1527239593.2694302       -13974907.529132426        135453540.00019491     
   1408954419.9712026       -4775542.9119086862        124699331.77763604     
   1294821211.6177471        18263704.854567528        87614221.221568167     
   1184839968.2090654        55142835.770266652        24198208.331986766     
   1487783550.0898724        13796986.014269650        257530201.50092432     
   1309169387.8992033       -3677346.9441623092        278566954.29827261     
   1130811123.7021666       -20298686.590509355        285683163.56779182     
   952708757.49871874       -36067032.924881876        278878829.30948514     
   774862289.28888810       -50982385.947185665        258153951.52335057     
   1316415014.1039658        34085754.656645060        399002144.66409373     
   1117081995.9818888        14415057.676706553        420953544.70480281     
   914108808.90226948       -17389535.828383267        441394760.02338064     
   707495452.86507368       -61328025.858716667        460325790.61980879     
   497241927.87034702       -117400412.41416374        477746636.49411845     
   1135571123.5547030        51531916.930033624        544292675.37871706     
   950977417.51746285        40302306.333445311        562613311.21977711     
   758847475.57151461        3951909.3744737208        591834121.14438009     
   559181297.71684277       -57519273.946886837        631955105.15253222     
   351978883.95345366       -144111243.63066083        682976263.24424016     
   1727174964.6308992        200975252.73827577       -224120593.08000079     
   1456629798.8296096        184566043.94757324       -96580301.095677406     
   1153935010.2623003        60991425.936814845        60125119.970692970     
   819090598.92898393       -169748601.29396123        245995670.11911163     
   452096564.82965124       -507654037.74481368        461031349.34959519     
   1184839968.2090654        55142835.770266652        24198208.331986766     
   977715562.67572784        11836357.713999689        155586844.93101987     
   732784690.87809408       -157491674.55656534        312802614.79231966     
   450047352.81620824       -452841261.04134876        495845517.91588610     
   129503548.49002635       -874212401.74043024        704715554.30177045     
   774862289.28888810       -50982385.947185665        258153951.52335057     
   621621513.10989189       -124047272.54313344        386791281.98909104     
   424917427.16834140       -341989858.34759796        537917749.89734674     
   184750031.46425480       -704810143.36050344        711533355.24812365     
  -98880674.002381623       -1212508127.5819085        907638098.04142404     
   497241927.87034702       -117400412.41416374        477746636.49411845     
   388347650.13208371       -223084846.82388487        597033010.07858098     
   230333219.13300574       -492503125.43631124        735470525.28580880     
   23198634.873118877       -925655248.25141919        893059182.11579406     
  -233056102.64756751       -1522541215.2692068        1069798980.5685545     
   351978883.95345366       -144111243.63066083        682976263.24424016     
   277893973.74231142       -285276365.12823218        786312029.19947803     
   149032066.77211237       -609031475.82268178        905460940.95771325     
  -34606836.957167208       -1115376575.7140443        1040422998.5189396     
  -273022737.44551855       -1804311664.8023345        1191198201.8831761     
   4678210623.0427856       -228590946.61921787        846767440.19488478     
   4520404535.2931366       -124169897.39488435        784963003.90965044     
   4352967661.9313555       -51851466.877645254        743389706.24794519     
   4175900002.9574409       -11635655.067513466        722047547.20977843     
   3989201558.3714027       -3522461.9644715786        720936526.79514277     
   4147278085.0602999       -188666298.58378029        935705961.55748606     
   4028225299.8625360       -109758230.69464397        885294349.41897404     
   3902490940.3373027       -53122077.230384588        850349442.46650064     
   3770075006.4846106       -18757838.190998316        830871240.70006597     
   3630977498.3044558       -6665513.5764932632        826859744.11966741     
   3682890073.2594476       -128778292.69384694        1008639889.6319362     
   3588977923.6492887       -79467006.229194164        973061848.13892949     
   3491333410.9963331       -42596929.907194853        948186078.39446497     
   3389956535.3005843       -18168063.727845192        934012580.39854085     
   3284847296.5620360       -6180407.6911559105        930541354.15116322     
   3285046587.6402154       -48926928.949429035        1065569224.4182485     
   3202662406.6533957       -33296223.998540759        1048265500.0695231     
   3119495073.9084392       -20276024.908084273        1036899614.0318437     
   3035544589.4053588       -9866331.6780556440        1031471566.3052074     
   2950810953.1441512       -2067144.3084552288        1031981356.8896165     
   2953747628.2026095        50887792.649473786        1106493965.9164116     
   2869278748.8748531        28754115.997323036        1110905305.2107434     
   2786975929.0736251        13840637.766953349        1116490049.3786306     
   2706839168.7989426        6147357.9583867788        1123248198.4200652     
   2628868468.0507903        5674276.5715956688        1131179752.3350472     
   3989201558.3714027       -3522461.9644715786        720936526.79514277     
   3838039255.3014030       -653009.11061954498        702482276.01729047     
   3686021199.7969332       -636064.37166190147        691196874.13601387     
   3533147391.8580046       -3471627.7475678921        687080321.15132916     
   3379417831.4846077       -9159699.2383730412        690132617.06322289     
   3630977498.3044558       -6665513.5764932632        826859744.11966741     
   3497274565.9618092       -3879143.1876621246        811390955.76688063     
   3363050354.9948010       -2830368.2133564949        802202776.56893277     
   3228304865.4034405       -3519188.6535630226        799295206.52584088     
   3093038097.1877222       -5945604.5083001852        802668245.63758206     
   3284847296.5620360       -6180407.6911559105        930541354.15116322     
   3166065907.1131978       -4238468.1174020767        918448247.66856968     
   3047097712.8501110       -2919211.2578117847        911747510.59907901     
   2927942713.7727766       -2222637.1123811007        910439142.94269085     
   2808600909.8811908       -2148745.6811208725        914523144.69941282     
   2950810953.1441512       -2067144.3084552288        1031981356.8896165     
   2844413278.7555795       -1730983.8998380899        1023654151.7223468     
   2738163273.3628602       -902593.50504386425        1019831076.2264372     
   2632060936.9660044        418026.87596714497        1020512130.4018892     
   2526106269.5650063        2230877.2431590557        1025697314.2487106     
   2628868468.0507903        5674276.5715956688        1131179752.3350472     
   2532316680.8889365        3643309.4649982452        1127008667.9282207     
   2436247036.5330515        3219485.0449634790        1126453473.4510159     
   2340659534.9831295        4402803.3114789724        1129514168.9034400     
   2245554176.2391768        7193264.2645522356        1136190754.2854795     
   3379417831.4846077       -9159699.2383730412        690132617.06322289     
   3239599369.0610213       -10831199.019870996        678691542.42069089     
   3100533302.3626909       -9994713.0505028963        671281387.48027933     
   2962219631.3896084       -6650241.3303098679        667902152.24198079     
   2824658356.1417866       -797783.85925710201        668553836.70580077     
   3093038097.1877222       -5945604.5083001852        802668245.63758206     
   2964141166.3254533       -6378106.0073741674        792708656.06896317     
   2835820215.0653095       -4890675.4993371964        786833402.24175894     
   2708075243.4073024       -1483312.9841896296        785042484.15596175     
   2580906251.3514271        3843981.5380678177        787335901.81158578     
   2808600909.8811908       -2148745.6811208725        914523144.69941282     
   2690778127.8353567       -1296463.7212390900        905839221.39439857     
   2573354909.2685380        887696.50201511383        901293049.87009108     
   2456331254.1807299        4403734.9886509180        900884630.12649250     
   2339707162.5719371        9251651.7386585474        904613962.16359806     
   2526106269.5650063        2230877.2431590557        1025697314.2487106     
   2419510253.5907454        4413727.8385399580        1018083238.3969946     
   2313137384.9723682        7340402.9535460472        1014660330.3652798     
   2206987663.7098899        11010902.588210940        1015428590.1535723     
   2101061089.8032980        15425226.742502093        1020388017.7618585     
   2245554176.2391768        7193264.2645522356        1136190754.2854795     
   2150337543.5916100        10752468.671970010        1129440707.0767534     
   2055167642.1768095        14467443.855267048        1126935243.7273233     
   1960044471.9947841        18338189.814493060        1128674364.2371950     
   1864968033.0455282        22364706.549606442        1134658068.6063576     
   2824658356.1417866       -797783.85925710201        668553836.70580077     
   2684777153.3792601        5209170.5458040237        657223103.30730927     
   2544704307.7629466        10577315.438241482        649113547.06038165     
   2404439819.2928610        15306650.818111062        644225167.96501589     
   2263983687.9690022        19397176.685390353        642557966.02122629     
   2580906251.3514271        3843981.5380678177        787335901.81158578     
   2449398319.8399615        8616286.5179820061        776879904.93511832     
   2317806733.3160205        13109741.456325531        769928627.89062977     
   2186131491.7796130        17324346.353116989        766482070.67811465     
   2054372595.2307463        21260101.208355665        766540233.29757798     
   2339707162.5719371        9251651.7386585474        904613962.16359806     
   2217382624.2555571        13032343.876646399        895158687.62402618     
   2095082418.7680082        16894145.444086432        889491675.59683585     
   1972806546.1093066        20837056.441002131        887612926.08203149     
   1850555006.2794442        24861076.867400289        889522439.07960522     
   2101061089.8032980        15425226.742502093        1020388017.7618585     
   1988730066.6260300        18457342.621765256        1012059451.3740326     
   1876531364.1189027        21930527.401511312        1007802690.1790079     
   1764464982.2819281        25844781.081763864        1007617734.1767653     
   1652530921.1151063        30200103.662527561        1011504583.3673246     
   1864968033.0455282        22364706.549606442        1134658068.6063576     
   1763440646.9513962        24891282.753358245        1127582196.1851480     
   1662153569.3687148        28218887.328623354        1124861671.6371386     
   1561106800.2974896        32347520.275410771        1126496494.9623315     
   1460300339.7377377        37277181.593765616        1132486666.1607232     
   2263983687.9690022        19397176.685390353        642557966.02122629     
   2121784253.6262424        22170345.504155397        628213899.29463625     
   1979252704.2408943        23836464.180963159        617231788.54140711     
   1836389039.8129394        24395532.715752721        609611633.76153922     
   1693193260.3424072        23847551.108606756        605353434.95503855     
   2054372595.2307463        21260101.208355665        766540233.29757798     
   1921111738.8138762        24285096.215763092        753948870.43697810     
   1787631127.3738115        26577574.479189754        744813267.04094160     
   1653930760.9105661        28137535.998669267        739133423.10947323     
   1520010639.4241152        28964980.774146616        736909338.64255297     
   1850555006.2794442        24861076.867400289        889522439.07960522     
   1726500737.7633216        28218301.055904388        878814866.77430475     
   1602339074.2434018        31217541.898438096        871656857.42476678     
   1478070015.7196903        33858799.394995093        868048411.03098452     
   1353693562.1921976        36142073.545602143        867989527.59295654     
   1652530921.1151063        30200103.662527561        1011504583.3673246     
   1537951250.4745727        33969960.024578989        1002811888.3066202     
   1423376544.8496530        37756366.438678026        997762559.69287407     
   1308806804.2403440        41559322.904806316        996356597.52608287     
   1194242028.6466360        45378829.422959626        998594001.80625033     
   1460300339.7377377        37277181.593765616        1132486666.1607232     
   1355463276.9476483        41540073.121820986        1125939935.0339227     
   1250743539.1925688        46194048.099912405        1123130373.8452709     
   1146141126.4725037        51239106.528046429        1124057982.5947809     
   1041656038.7874539        56675248.406244159        1128722761.2824345     
   1693193260.3424072        23847551.108606756        605353434.95503855     
   1552097578.7373633        25134817.870234072        591897959.48822069     
   1412128662.0710666        30177967.761024952        577236007.73656249     
   1273286510.3435128        38977000.780955493        561367579.70006192     
   1135571123.5547030        51531916.930033624        544292675.37871706     
   1520010639.4241152        28964980.774146616        736909338.64255297     
   1377195672.4770908        27211320.479541183        727571957.93743873     
   1234658053.0157242        26382151.803788543        718820278.72860932     
   1092397781.0400157        26477474.746908188        710654301.01608288     
   950414856.54997110        27497289.308890998        703074024.79984641     
   1353693562.1921976        36142073.545602143        867989527.59295654     
   1214279817.8492897        32883638.578569710        861779254.62093663     
   1074294003.5389585        27718303.720117033        857946860.92635012     
   933736119.26120484        20646068.970259786        856492346.50919724     
   792606165.01602817        11666934.328981608        857415711.36947453     
   1194242028.6466360        45378829.422959626        998594001.80625033     
   1063350014.8539608        42151772.167343140        994519849.53873503     
   931036513.64077175        34186423.510019779        994615754.32978427     
   797301525.00707889        21482783.451020271        998881716.17941129     
   662145048.95287549        4040851.9903077185        1007317735.0876070     
   1041656038.7874539        56675248.406244159        1128722761.2824345     
   924406263.49111128        55015721.245870471        1125793742.6908247     
   804885583.32116699        45786511.173505664        1128826958.9389234     
   683093998.27764285        28987618.189194858        1137822410.0267253     
   559031508.36051536        4619042.2928849161        1152780095.9542379     
   1135571123.5547030        51531916.930033624        544292675.37871706     
   950977417.51746285        40302306.333445311        562613311.21977711     
   758847475.57151461        3951909.3744737208        591834121.14438009     
   559181297.71684277       -57519273.946886837        631955105.15253222     
   351978883.95345366       -144111243.63066083        682976263.24424016     
   950414856.54997110        27497289.308890998        703074024.79984641     
   791400506.08130360        10703004.154820442        721102093.56132579     
   623732101.36493254       -34938128.491622716        749190571.26680410     
   447409642.40083629       -109426108.63045958        787339457.91628397     
   262433129.18901822       -212760936.26172206        835548753.50977647     
   792606165.01602817        11666934.328981608        857415711.36947453     
   656771841.14581668       -11411824.073590994        873847091.65586877     
   511165644.68888319       -67063491.098573476        899499115.74671447     
   355787575.64524138       -155288066.74592236        934371783.64203131     
   190637634.01486889       -276085551.01570410        978465095.34180558     
   662145048.95287549        4040851.9903077185        1007317735.0876070     
   547091422.71098995       -26042178.351806909        1020848305.5034149     
   421148105.54338992       -92424178.446330369        1042759754.5841361     
   284315097.45005989       -195105148.29326767        1073052082.3297781     
   136592398.43101901       -334085087.89258629        1111725288.7403286     
   559031508.36051536        4619042.2928849161        1152780095.9542379     
   462359250.77683067       -33188058.679829240        1162105735.1039550     
   353679483.92842567       -111020190.53495523        1178972487.7790492     
   232992207.81530505       -228877353.27245837        1203380353.9795098     
   100297422.43745363       -386759546.89240313        1235329333.7053552     
   351978883.95345366       -144111243.63066083        682976263.24424016     
   277893973.74231142       -285276365.12823218        786312029.19947803     
   149032066.77211237       -609031475.82268178        905460940.95771325     
  -34606836.957167208       -1115376575.7140443        1040422998.5189396     
  -273022737.44551855       -1804311664.8023345        1191198201.8831761     
   262433129.18901822       -212760936.26172206        835548753.50977647     
   223680111.35100222       -352436868.88205022        884946984.76214755     
   140696650.88077036       -639547610.27640665        945366789.98839819     
   13482747.778354228       -1074093160.4447434        1016808169.1885514     
  -157961597.95629758       -1656073519.3871574        1099271122.3625867     
   190637634.01486889       -276085551.01570410        978465095.34180558     
   173526303.32394275       -418379356.32659662        986230105.03931558     
   122731084.12767547       -672952789.98862886        1000225116.8816103     
   38251976.426060617       -1039805852.0018032        1020450130.8686917     
  -79911019.780877471       -1518938542.3661077        1046905147.0005276     
   136592398.43101901       -334085087.89258629        1111725288.7403286     
   127432549.66114864       -483103827.46187508        1090161390.0310025     
   95135366.512801319       -709247014.95939910        1070035921.6373440     
   39700848.985975742       -1012514650.3851988        1051348883.5593438     
  -38871002.919316113       -1392906733.7392220        1034100275.7969997     
   100297422.43745363       -386759546.89240313        1235329333.7053552     
   85398850.362614781       -546610282.28786218        1196740839.7371879     
   57909498.036156625       -748430285.18871880        1154799204.2555704     
   17829365.458101869       -992219555.59490585        1109504427.2605166     
  -34841547.371567369       -1277978093.5064800        1060856508.7520214     
   2953747628.2026095        50887792.649473786        1106493965.9164116     
   2869278748.8748531        28754115.997323036        1110905305.2107434     
   2786975929.0736251        13840637.766953349        1116490049.3786306     
   2706839168.7989426        6147357.9583867788        1123248198.4200652     
   2628868468.0507903        5674276.5715956688        1131179752.3350472     
   2614539231.8294487        45148525.052092195        1187852658.3090115     
   2535585806.2895122        27286799.257590890        1189931610.7802110     
   2458287053.6928272        14940649.940583348        1194093980.3244190     
   2382642974.0393829        8110077.1010606289        1200339766.9416361     
   2308653567.3291860        6795080.7390218973        1208668970.6318650     
   2260998968.2270331        35109697.285932183        1270516319.0500591     
   2190161031.3305268        22299932.805768847        1269666267.0176170     
   2120466380.7939694        13301122.858790517        1271809644.2576458     
   2051915016.6173708        8113267.4449968338        1276946450.7701442     
   1984506938.8007276        6736366.5643919706        1285076686.5551100     
   1893126837.3953748        20771309.350999475        1354484948.1395578     
   1833004423.9978867        13793516.641852021        1350109273.9229691     
   1773513910.3770614        8922056.5215833187        1349637041.1783097     
   1714655296.5329051        6156928.9902045727        1353068249.9055815     
   1656428582.4654117        5498134.0477029085        1360402900.1047809     
   1510922839.3344595        2133361.2472914457        1439758545.5775006     
   1464115984.2915926        1767550.7658339739        1431260631.4962595     
   1417429642.4421010        1803450.9289621711        1427576171.0864105     
   1370863813.7859812        2241061.7366643548        1428705164.3479476     
   1324418498.3232396        3080383.1889569759        1434647611.2808743     
   2628868468.0507903        5674276.5715956688        1131179752.3350472     
   2532316680.8889365        3643309.4649982452        1127008667.9282207     
   2436247036.5330515        3219485.0449634790        1126453473.4510159     
   2340659534.9831295        4402803.3114789724        1129514168.9034400     
   2245554176.2391768        7193264.2645522356        1136190754.2854795     
   2308653567.3291860        6795080.7390218973        1208668970.6318650     
   2221974422.7203178        4766573.1774439812        1203808575.2109697     
   2135680216.2693484        4021192.8088600636        1202926062.6985099     
   2049770947.9762685        4558939.6332440376        1206021433.0944905     
   1964246617.8410802        6379813.6505997181        1213094686.3989110     
   1984506938.8007276        6736366.5643919706        1285076686.5551100     
   1908734702.3986089        5020598.2439705133        1279413574.6973882     
   1833250199.5063121        4263941.6229499578        1278090338.7269225     
   1758053430.1238351        4466396.7013304234        1281106978.6437116     
   1683144394.2511783        5627963.4791086912        1288463494.4477572     
   1656428582.4654117        5498134.0477029085        1360402900.1047809     
   1592597519.9238055        4405384.6645597816        1353823666.3874815     
   1528956986.2439444        3947731.4872370958        1351946301.5362558     
   1465506981.4258332        4125174.5157449245        1354770805.5511007     
   1402247505.4694655        4937713.7500662208        1362297178.4320228     
   1324418498.3232396        3080383.1889569759        1434647611.2808743     
   1273562875.2959077        2920932.4392241836        1427038850.2812443     
   1222800576.4822500        3072562.4017387033        1424493951.1265080     
   1172131601.8822634        3535273.0764936805        1427012913.8166583     
   1121555951.4959524        4309064.4634969234        1434595738.3517003     
   2245554176.2391768        7193264.2645522356        1136190754.2854795     
   2150337543.5916100        10752468.671970010        1129440707.0767534     
   2055167642.1768095        14467443.855267048        1126935243.7273233     
   1960044471.9947841        18338189.814493060        1128674364.2371950     
   1864968033.0455282        22364706.549606442        1134658068.6063576     
   1964246617.8410802        6379813.6505997181        1213094686.3989110     
   1880016235.7209322        9298469.1744046211        1206546947.5617068     
   1795868781.6639504        12493551.575437546        1204353405.7825198     
   1711804255.6701288        15965060.853664875        1206514061.0613420     
   1627822657.7394705        19712997.009100199        1213028913.3981760     
   1683144394.2511783        5627963.4791086912        1288463494.4477572     
   1610213443.2262149        8000024.2896465063        1282160293.6175327     
   1537401617.0948088        10769168.078703344        1280320903.0440395     
   1464708915.8569567        13935394.846281469        1282945322.7272742     
   1392135339.5126626        17498704.592375338        1290033552.6672401     
   1402247505.4694655        4937713.7500662208        1362297178.4320228     
   1340929166.1074543        6857134.0176709890        1356280745.2442317     
   1279766148.4693887        9294293.3651005626        1354837735.5118923     
   1218758452.5552697        12249191.792350292        1357968149.2349951     
   1157906078.3650980        15721829.299416840        1365671986.4135494     
   1121555951.4959524        4309064.4634969234        1434595738.3517003     
   1072163404.3646472        5869798.3584748507        1428908302.4418032     
   1022962375.7876883        8068927.4346070886        1427903903.1860735     
   973952865.76506472        10906451.691854537        1431582540.5845060     
   925134874.29678071        14382371.130239248        1439944214.6371045     
   1864968033.0455282        22364706.549606442        1134658068.6063576     
   1763440646.9513962        24891282.753358245        1127582196.1851480     
   1662153569.3687148        28218887.328623354        1124861671.6371386     
   1561106800.2974896        32347520.275410771        1126496494.9623315     
   1460300339.7377377        37277181.593765616        1132486666.1607232     
   1627822657.7394705        19712997.009100199        1213028913.3981760     
   1537771770.1615384        22091821.588866413        1206804625.7745113     
   1447935762.4227540        25186912.299119234        1205087162.5879478     
   1358314634.5231168        28998269.139862061        1207876523.8384931     
   1268908386.4626260        33525892.111093462        1215172709.5261414     
   1392135339.5126626        17498704.592375338        1290033552.6672401     
   1313993740.6335206        19859614.602939785        1284631183.0567527     
   1236041592.9212136        22852028.502948761        1283887114.4472730     
   1158278896.3757403        26475946.292405665        1287801346.8388033     
   1080705650.9970994        30731367.971303463        1296373880.2313442     
   1157906078.3650980        15721829.299416840        1365671986.4135494     
   1092106558.3673294        18194661.795551121        1361061868.0318723     
   1026471060.8640866        21214235.940095186        1361261527.2151113     
   960999585.85536468        24780551.733046174        1366270963.9632626     
   895692133.34116304        28893609.174393892        1376090178.2763302     
   925134874.29678071        14382371.130239248        1439944214.6371045     
   872110223.36297572        17096963.166723728        1436096680.6998725     
   819224166.25138092        20273534.610581398        1437210400.8914642     
   766476702.96199203        23912085.461790949        1443285375.2118738     
   713867833.49480975        28012615.720352501        1454321603.6611042     
   1460300339.7377377        37277181.593765616        1132486666.1607232     
   1355463276.9476483        41540073.121820986        1125939935.0339227     
   1250743539.1925688        46194048.099912405        1123130373.8452709     
   1146141126.4725037        51239106.528046429        1124057982.5947809     
   1041656038.7874539        56675248.406244159        1128722761.2824345     
   1268908386.4626260        33525892.111093462        1215172709.5261414     
   1174058375.5506778        36754642.521001339        1210037185.6130373     
   1079213873.5649335        40001756.018251657        1209085487.3106923     
   984374880.50539291        43267232.602847099        1212317614.6191151     
   889541396.37205446        46551072.274788558        1219733567.5382853     
   1080705650.9970994        30731367.971303463        1296373880.2313442     
   997118851.02787924        33308824.982436717        1292519111.4049962     
   913425743.87605608        35531924.718224168        1293294823.8620131     
   829626329.54162169        37400667.178639382        1298701017.6023896     
   745720608.02458191        38915052.363707662        1308737692.6261344     
   895692133.34116304        28893609.174393892        1376090178.2763302     
   824644703.37925756        31202620.506133497        1373385712.4097939     
   753379150.12593317        32784554.199813515        1375758383.4992244     
   681895473.58119309        33639410.255432934        1383208191.5446208     
   610193673.74503648        33767188.673003256        1395735136.5459933     
   713867833.49480975        28012615.720352501        1454321603.6611042     
   656635932.60480106        30436029.092066467        1452636988.6274252     
   599074092.31457162        31759644.463041186        1456476166.2223275     
   541182312.62410915        31983461.833242327        1465839136.4457974     
   482960593.53341973        31107481.202684119        1480725899.2978463     
   1041656038.7874539        56675248.406244159        1128722761.2824345     
   924406263.49111128        55015721.245870471        1125793742.6908247     
   804885583.32116699        45786511.173505664        1128826958.9389234     
   683093998.27764285        28987618.189194858        1137822410.0267253     
   559031508.36051536        4619042.2928849161        1152780095.9542379     
   889541396.37205446        46551072.274788558        1219733567.5382853     
   787528592.85484052        44273404.678799897        1217038294.3874223     
   683263437.69532859        34487898.275156707        1220244181.7121048     
   576745930.89351535        17194553.063838482        1229351229.5123146     
   467976072.44939494       -7606630.9551678896        1244359437.7880640     
   745720608.02458191        38915052.363707662        1308737692.6261344     
   658770278.10315847        35966894.877127528        1306297810.3525343     
   569586149.77072418        25572742.687177122        1309698014.1902933     
   478168223.02727598        7732595.7938482463        1318938304.1394160     
   384516497.87281412       -17553545.802855477        1334018680.1999049     
   610193673.74503648        33767188.673003256        1395735136.5459933     
   538131319.23605466        30096191.840817839        1393572290.5861454     
   463853719.54735470        19041044.409575090        1397188456.3734941     
   387360874.67892402        601746.37922438979        1406583633.9080381     
   308652784.63077182       -25221702.250189826        1421757823.1897697     
   482960593.53341973        31107481.202684119        1480725899.2978463     
   425611716.25353193        26661295.569882423        1478861735.0882695     
   366066147.02521640        14892803.442327440        1482715508.2617085     
   304323885.84846503       -4197995.1800153852        1492287218.8181734     
   240384932.72327793       -30611100.297146335        1507576866.7576556     
   559031508.36051536        4619042.2928849161        1152780095.9542379     
   462359250.77683067       -33188058.679829240        1162105735.1039550     
   353679483.92842567       -111020190.53495523        1178972487.7790492     
   232992207.81530505       -228877353.27245837        1203380353.9795098     
   100297422.43745363       -386759546.89240313        1235329333.7053552     
   467976072.44939494       -7606630.9551678896        1244359437.7880640     
   390418812.13228250       -41862602.055328384        1242816272.3377757     
   302706057.40080541       -109970221.20338199        1247616345.9042797     
   204837808.25497538       -211929488.39927197        1258759658.4875638     
   96814064.694788620       -347740403.64302605        1276246210.0876350     
   384516497.87281412       -17553545.802855477        1334018680.1999049     
   322651736.22630495       -49285136.609269664        1323767394.1417086     
   252483495.01579922       -108694992.62901126        1318661472.5917115     
   174011774.24129322       -195783113.86207801        1318700915.5499108     
   87236573.902795553       -310549500.30845737        1323885723.0163081     
   308652784.63077182       -25221702.250189826        1421757823.1897697     
   259058023.05889776       -55455662.341653153        1404959100.5157478     
   203011796.77339381       -107194504.81188357        1392107867.8413415     
   140514105.77425241       -180438229.66090494        1383204125.1665437     
   71564950.061485335       -275186836.88867885        1378247872.4913497     
   240384932.72327793       -30611100.297146335        1507576866.7576556     
   199637672.63007906       -60374179.252423465        1486391391.4599028     
   154290962.67360783       -105468757.75194174        1467955531.6531713     
   104344802.85386331       -165894835.79570433        1452269287.3374660     
   49799193.170847282       -241652413.38370532        1439332658.5127733     
   100297422.43745363       -386759546.89240313        1235329333.7053552     
   85398850.362614781       -546610282.28786218        1196740839.7371879     
   57909498.036156625       -748430285.18871880        1154799204.2555704     
   17829365.458101869       -992219555.59490585        1109504427.2605166     
  -34841547.371567369       -1277978093.5064800        1060856508.7520214     
   96814064.694788620       -347740403.64302605        1276246210.0876350     
   79852804.685082763       -488902983.54129761        1221942118.3130326     
   51506109.604274988       -668017013.67658949        1165091833.7564657     
   11773979.452340961       -885082494.04895651        1105695356.4179399     
  -39343585.770710826       -1140099424.6583934        1043752686.2974662     
   87236573.902795553       -310549500.30845737        1323885723.0163081     
   70518193.762489587       -432332254.36823142        1255272269.4791586     
   43619723.731560469       -588048641.39675748        1184919571.8915579     
   6541163.8100170791       -777698661.39400268        1112827630.2534802     
  -40717486.002160966       -1001282314.3600122        1038996444.5649247     
   71564950.061485335       -275186836.88867885        1378247872.4913497     
   57395017.594823286       -376898094.76871711        1296731293.2355835     
   34250340.418048620       -508525168.34913421        1214282418.6608362     
   2130918.5311334431       -670068057.63001680        1130901248.7671192     
  -38963248.065903097       -861526762.61131179        1046587783.5544195     
   49799193.170847282       -241652413.38370532        1439332658.5127733     
   40483276.182107180       -322600504.74265778        1346319189.5822902     
   23397959.663717628       -429446594.53377509        1253180374.0643268     
  -1456756.3842957616       -562190682.75696909        1159916211.9588675     
  -34080871.961949378       -720832769.41230261        1066526703.2659191     
   1510922839.3344595        2133361.2472914457        1439758545.5775006     
   1464115984.2915926        1767550.7658339739        1431260631.4962595     
   1417429642.4421010        1803450.9289621711        1427576171.0864105     
   1370863813.7859812        2241061.7366643548        1428705164.3479476     
   1324418498.3232396        3080383.1889569759        1434647611.2808743     
   1128607317.6154659        224578.65486782789        1461779809.7584531     
   1094195062.1066697        158086.61998027563        1454393872.3063371     
   1059873191.5751866        392877.84280282259        1451659715.0290618     
   1025641706.0210145        928952.32332706451        1453577337.9266284     
   991500605.44415605        1766310.0615676641        1460146740.9990385     
   749348337.16646254       -767241.55655863881        1482503625.1114738     
   726868756.91588604       -672992.42763760686        1476194514.7030699     
   704449433.42656147       -377887.42787879705        1474375510.9729681     
   682090366.69848800        118073.44271892309        1477046613.9211581     
   659791556.73166668        814890.18415486813        1484207823.5476427     
   373145897.98744392       -842099.38698963821        1501929991.6365554     
   362137068.71924204       -725686.37700891495        1496662558.6864696     
   351158367.99622875       -508844.88306483626        1495723558.9181335     
   340209795.81840503       -191574.90515638888        1499112992.3315406     
   329291352.18577045        226123.55671748519        1506830858.9266989     
   7.8415113230539957E-002   5.1635762515584060        1520058909.3337038     
  -2.4832642352679866        4.7718543859910110        1515798004.2565269     
  -4.7158153755626193        5.4772265477699289        1515703858.8645492     
  -6.6192355397209539        7.2797012694471128        1519776473.1577728     
  -8.1935291884605022        10.179265763632372        1528015847.1361985     
   1324418498.3232396        3080383.1889569759        1434647611.2808743     
   1273562875.2959077        2920932.4392241836        1427038850.2812443     
   1222800576.4822500        3072562.4017387033        1424493951.1265080     
   1172131601.8822634        3535273.0764936805        1427012913.8166583     
   1121555951.4959524        4309064.4634969234        1434595738.3517003     
   991500605.44415605        1766310.0615676641        1460146740.9990385     
   953741383.64530563        1761471.3522242904        1453011719.5271330     
   916052154.83771849        1989942.6137560606        1450851311.2998483     
   878432919.02140474        2451723.8462012410        1453665516.3171847     
   840883676.19635081        3146815.0495151877        1461454334.5791464     
   659791556.73166668        814890.18415486813        1484207823.5476427     
   634873740.16053236        888164.71496632695        1477519321.8439870     
   610002585.35825610        1116978.4753046036        1475716184.7846837     
   585178092.32484162        1501331.4651843309        1478798412.3697376     
   560400261.06028676        2041223.6845914125        1486766004.5991437     
   329291352.18577045        226123.55671748519        1506830858.9266989     
   316959944.84158802        301012.52745711803        1500561657.2318141     
   304651868.04385918        453669.98637253046        1499088571.5810161     
   292367121.79258293        684095.93346528709        1502411601.9743068     
   280105706.08775866        992290.36873014271        1510530748.4116809     
  -8.1935291884605022        10.179265763632372        1528015847.1361985     
  -2.3115228595684805        14.789706227102227        1522138725.6906126     
   2.8945252330523390        17.146951875778683        1520968471.6888471     
   7.4246240680256586        17.251033505769154        1524505085.1309023     
   11.278768303928207        15.101933485801748        1532748566.0167749     
   1121555951.4959524        4309064.4634969234        1434595738.3517003     
   1072163404.3646472        5869798.3584748507        1428908302.4418032     
   1022962375.7876883        8068927.4346070886        1427903903.1860735     
   973952865.76506472        10906451.691854537        1431582540.5845060     
   925134874.29678071        14382371.130239248        1439944214.6371045     
   840883676.19635081        3146815.0495151877        1461454334.5791464     
   803600834.42918766        4245835.0311603546        1456056325.2914643     
   766461631.62304759        5823651.5495453775        1455396986.6866505     
   729466067.77791929        7880264.6046408713        1459476318.7647059     
   692614142.89381051        10415674.196465671        1468294321.5256262     
   560400261.06028676        2041223.6845914125        1486766004.5991437     
   535386079.02498865        2726216.0632189810        1481601562.4081318     
   510467656.35738754        3730406.3341711760        1481231424.9286950     
   485644993.05747885        5053794.4974320233        1485655592.1608276     
   460918089.12526929        6696380.5530207455        1494874064.1045310     
   280105706.08775866        992290.36873014271        1510530748.4116809     
   267519138.15205050        1310941.4546633810        1505544013.7918053     
   254980449.99071264        1789191.7884958386        1505407217.9121997     
   242489641.60375115        2427041.3702503592        1510120360.7728682     
   230046712.99116197        3224490.1999126226        1519683442.3738146     
   11.278768303928207        15.101933485801748        1532748566.0167749     
   11.810368983155762        11.205471440843718        1527883679.4424834     
   12.523020715653793        7.9125129067872786        1527924365.6371710     
   13.416724462192228        5.2230600453647611        1532870624.6008344     
   14.491481183540991        3.1371191816448381        1542722456.3334751     
   925134874.29678071        14382371.130239248        1439944214.6371045     
   872110223.36297572        17096963.166723728        1436096680.6998725     
   819224166.25138092        20273534.610581398        1437210400.8914642     
   766476702.96199203        23912085.461790949        1443285375.2118738     
   713867833.49480975        28012615.720352501        1454321603.6611042     
   692614142.89381051        10415674.196465671        1468294321.5256262     
   652383706.72122681        12313033.417669088        1464930799.7961931     
   612257215.99373317        14556877.455835164        1466636319.7885602     
   572234670.71132326        17147206.310949445        1473410881.5027294     
   532316070.87399495        20084019.983002156        1485254484.9386981     
   460918089.12526929        6696380.5530207455        1494874064.1045310     
   433789832.26528865        7868896.3243626356        1491954131.4762497     
   406730872.47326779        9272402.3222402781        1494211028.1627522     
   379741209.74921322        10906898.546672225        1501644754.1640377     
   352820844.09311843        12772384.997636586        1514255309.4801054     
   230046712.99116197        3224490.1999126226        1519683442.3738146     
   216328599.99515346        3764551.8867879212        1517166675.7400432     
   202645135.68998894        4420109.2098130286        1519934526.0140374     
   188996320.07566214        5191162.1689610630        1527986993.1957970     
   175382153.15217680        6077710.7642498165        1541324077.2853203     
   14.491481183540991        3.1371191816448381        1542722456.3334751     
   9.9108306726271742       0.10497358476973995        1540568432.5875723     
   5.6438883328751341       -1.8814774143433817        1543806813.3424175     
   1.6906758731100830       -2.8221631876672912        1552437598.5980055     
  -1.9488291932593222       -2.7171562618936003        1566460788.3543427     
   713867833.49480975        28012615.720352501        1454321603.6611042     
   656635932.60480106        30436029.092066467        1452636988.6274252     
   599074092.31457162        31759644.463041186        1456476166.2223275     
   541182312.62410915        31983461.833242327        1465839136.4457974     
   482960593.53341973        31107481.202684119        1480725899.2978463     
   532316070.87399495        20084019.983002156        1485254484.9386981     
   489286757.63737333        21869964.098983407        1483965139.5172586     
   446009989.81085652        22831059.581979483        1488224177.1827104     
   402485767.39445126        22967306.432015911        1498031597.9350541     
   358714090.38815194        22278704.649072051        1513387401.7742889     
   352820844.09311843        12772384.997636586        1514255309.4801054     
   324064376.96222061        13941937.393579543        1513457465.9496243     
   295142940.05176461        14561590.524331331        1518232595.9643481     
   266056533.36175102        14631344.389890105        1528580699.5242879     
   236805156.89217716        14151198.990247920        1544501776.6294334     
   175382153.15217680        6077710.7642498165        1541324077.2853203     
   160968790.57933819        6651948.9758451134        1541113967.9245179     
   146472943.03728187        6951237.2900493219        1546501422.5672452     
   131894610.52600116        6975575.7068394274        1557486441.2135055     
   117233793.04549587        6724964.2262118310        1574069023.8632903     
  -1.9488291932593222       -2.7171562618936003        1566460788.3543427     
  -1.5112642822149875       -1.1541886951677078        1566934645.4419496     
  -1.2325845472487955      -0.12084115759318609        1573030656.9914010     
  -1.1127952954708094       0.38287143602065010        1584748823.0027034     
  -1.1518908537633754       0.35697077162354024        1602089143.4758506     
   482960593.53341973        31107481.202684119        1480725899.2978463     
   425611716.25353193        26661295.569882423        1478861735.0882695     
   366066147.02521640        14892803.442327440        1482715508.2617085     
   304323885.84846503       -4197995.1800153852        1492287218.8181734     
   240384932.72327793       -30611100.297146335        1507576866.7576556     
   358714090.38815194        22278704.649072051        1513387401.7742889     
   316413598.74415696        19157415.263428375        1510015961.1832664     
   272465588.14409024        10544396.024207950        1512196519.1797991     
   226870058.58794871       -3560353.0685930550        1519929075.7638817     
   179627010.07573923       -23156832.014953844        1533213630.9355195     
   236805156.89217716        14151198.990247920        1544501776.6294334     
   209078940.03988189        12212572.598497637        1540263761.4813888     
   180254377.22387445        6612792.9943757355        1541411806.1254275     
   150331468.44415113       -2648139.8221349344        1547945910.5615506     
   119310213.70071322       -15570225.851027541        1559866074.7897685     
   117233793.04549587        6724964.2262118310        1574069023.8632903     
   103607740.14070694        5826767.5751002729        1569605135.9826415     
   89432514.264564306        3097994.3528081402        1570361369.0986052     
   74708115.417064026       -1461355.4406737722        1576337723.2111881     
   59434543.598214492       -7851281.8053230681        1587534198.3203967     
  -1.1518908537633754       0.35697077162354024        1602089143.4758506     
 -0.95336934317764976       0.19322917807942469        1598040084.6870186     
 -0.73384068968027771        9.9512088130188747E-002   1599045208.0993299     
 -0.49330235409359952        7.5826924867277823E-002   1605104513.7127957     
 -0.23177201915933293       0.12211509276299466        1616218001.5274124     
   240384932.72327793       -30611100.297146335        1507576866.7576556     
   199637672.63007906       -60374179.252423465        1486391391.4599028     
   154290962.67360783       -105468757.75194174        1467955531.6531713     
   104344802.85386331       -165894835.79570433        1452269287.3374660     
   49799193.170847282       -241652413.38370532        1439332658.5127733     
   179627010.07573923       -23156832.014953844        1533213630.9355195     
   148402622.29490185       -45678324.045483373        1507564738.0814052     
   113728647.11613895       -79698440.735761896        1484820380.6862245     
   75605084.539465815       -125217182.08574735        1464980558.7499695     
   34031934.564868718       -182234548.09546971        1448045272.2726500     
   119310213.70071322       -15570225.851027541        1559866074.7897685     
   98051326.711980551       -30717342.412871495        1531095270.5888674     
   74492714.790683687       -53530208.749932155        1505383921.8148117     
   48634377.936809808       -84008824.862248152        1482732028.4675894     
   20476316.150369048       -122153190.74978706        1463139590.5472114     
   59434543.598214492       -7851281.8053230681        1587534198.3203967     
   48583785.881325908       -15491234.354560465        1556982988.9822893     
   36583165.697219804       -26964061.794521261        1529646155.0389361     
   23432683.045889996       -42269764.125231326        1505523696.4903247     
   9132337.9273416065       -61408341.346664473        1484615613.3364649     
 -0.23177201915933293       0.12211509276299466        1616218001.5274124     
 -0.19708053870178616       0.12939836930896348        1585227893.2616794     
 -0.16424961207977912       0.13047633028951455        1557607080.3585982     
 -0.13329673903123435       0.12529584741533412        1533355562.8181746     
 -0.10420583809764264       0.11390879082464345        1512473340.6404095     
   49799193.170847282       -241652413.38370532        1439332658.5127733     
   40483276.182107180       -322600504.74265778        1346319189.5822902     
   23397959.663717628       -429446594.53377509        1253180374.0643268     
  -1456756.3842957616       -562190682.75696909        1159916211.9588675     
  -34080871.961949378       -720832769.41230261        1066526703.2659191     
   34031934.564868718       -182234548.09546971        1448045272.2726500     
   29860568.096826658       -242100945.23517144        1347546132.0761080     
   19862151.983660340       -321390841.19195265        1246264678.6631496     
   4036686.2253779769       -420104235.96578676        1144200912.0337739     
  -17615829.178019047       -538241129.55667233        1041354832.1879907     
   20476316.150369048       -122153190.74978706        1463139590.5472114     
   19572452.691794805       -161501007.92361388        1357420853.9498885     
   14783889.472624063       -213797824.29942483        1250262837.5072176     
   6110626.4928468913       -279043639.87726271        1141665541.2192063     
  -6447336.2475274652       -357238454.65708703        1031628965.0858427     
   9132337.9273416065       -61408341.346664473        1484615613.3364649     
   9618929.9670150951       -80800692.807965621        1375943355.2036324     
   8163172.1306021139       -106667543.85621887        1265174850.5965140     
   4765064.4181167930       -139008894.49137995        1152310099.5151236     
  -575393.17046448588       -177824744.71353030        1037349101.9594567     
 -0.10420583809764264       0.11390879082464345        1512473340.6404095     
  -7.7513453531255036E-002  0.11176462685738728        1403113635.8373284     
  -4.2385737776738458E-002  0.13773892740661811        1291000717.9310367     
   1.1672439571673784E-003  0.19179744788714642        1176134586.9215441     
   5.3167177620201692E-002  0.27401039312993192        1058515242.8088526     
   7.8415113230539957E-002   5.1635762515584060        1520058909.3337038     
  -2.4832642352679866        4.7718543859910110        1515798004.2565269     
  -4.7158153755626193        5.4772265477699289        1515703858.8645492     
  -6.6192355397209539        7.2797012694471128        1519776473.1577728     
  -8.1935291884605022        10.179265763632372        1528015847.1361985     
  -373145908.00554174        842079.40719504654        1501930001.7953529     
  -362137080.80123335        725675.25727325678        1496662568.3929508     
  -351158382.25756687        508842.23854517937        1495723568.3003075     
  -340209812.37454420        191580.35100212693        1499113001.5174227     
  -329291371.15216464       -226110.40534970164        1506830868.0442955     
  -749348359.73936439        767190.55585247278        1482503649.2364185     
  -726868778.12747145        672960.04021397233        1476194537.0207264     
  -704449454.16599631        377870.68985500932        1474375531.7393486     
  -682090387.85493457       -118077.49521833658        1477046633.3922892     
  -659791579.19428885       -814884.51501178741        1484207841.9795463     
  -1128607355.1230497       -224661.39044803381        1461779851.6569066     
  -1094195094.4619832       -158140.87933284044        1454393910.1398528     
  -1059873220.4411017       -392909.16883683205        1451659749.1816781     
  -1025641733.0604064       -928966.25896483660        1453577368.7823753     
  -991500632.31989980       -1766312.1497165561        1460146768.9419487     
  -1510922894.1566005       -2133476.4317083359        1439758609.0568123     
  -1464116029.8047600       -1767627.5013525486        1431260687.7503340     
  -1417429681.0828831       -1803497.3375315666        1427576220.6272907     
  -1370863847.9909625       -2241085.9402366281        1428705207.6876800     
  -1324418530.5290022       -3080393.3094754219        1434647648.9315004     
  -8.1935291884605022        10.179265763632372        1528015847.1361985     
  -2.3115228595684805        14.789706227102227        1522138725.6906126     
   2.8945252330523390        17.146951875778683        1520968471.6888471     
   7.4246240680256586        17.251033505769154        1524505085.1309023     
   11.278768303928207        15.101933485801748        1532748566.0167749     
  -329291371.15216464       -226110.40534970164        1506830868.0442955     
  -316959951.99773741       -300989.47242133319        1500561664.4508457     
  -304651864.63783187       -453641.18790024519        1499088576.7794766     
  -292367109.07245284       -684065.55179993808        1502411605.0301957     
  -280105685.30159134       -992262.56409151852        1510530749.2029963     
  -659791579.19428885       -814884.51501178741        1484207841.9795463     
  -634873751.11525261       -888148.56393325329        1477519336.5998991     
  -610002585.94931149       -1116955.6565019786        1475716195.6205997     
  -585178083.69646144       -1501305.7927094400        1478798419.0416489     
  -560400244.35670090       -2041198.9725498259        1486766006.8630505     
  -991500632.31989980       -1766312.1497165561        1460146768.9419487     
  -953741399.66407514       -1761462.4848469496        1453011742.1377745     
  -916052161.03990746       -1989926.2588355541        1450851328.2122109     
  -878432916.44740152       -2451703.4716967940        1453665527.1652637     
  -840883665.88655758       -3146794.1234281063        1461454338.9969270     
  -1324418530.5290022       -3080393.3094754219        1434647648.9315004     
  -1273562897.6441941       -2920931.2351346612        1427038881.0644670     
  -1222800589.9096193       -3072552.9948989153        1424493974.5543146     
  -1172131607.3252778       -3535258.5887737870        1427012929.4010372     
  -1121555949.8911595       -4309048.0167300105        1434595745.6046410     
   11.278768303928207        15.101933485801748        1532748566.0167749     
   11.810368983155762        11.205471440843718        1527883679.4424834     
   12.523020715653793        7.9125129067872786        1527924365.6371710     
   13.416724462192228        5.2230600453647611        1532870624.6008344     
   14.491481183540991        3.1371191816448381        1542722456.3334751     
  -280105685.30159134       -992262.56409151852        1510530749.2029963     
  -267519115.79241848       -1310919.7232488543        1505544014.1157401     
  -254980425.83049318       -1789175.3732321560        1505407217.7644172     
  -242489615.41581142       -2427029.5140261203        1510120360.1490245     
  -230046684.54837355       -3224482.1456333101        1519683441.2695613     
  -560400244.35670090       -2041198.9725498259        1486766006.8630505     
  -535386060.25008565       -2726195.7084313929        1481601563.5798147     
  -510467635.41901696       -3730390.0294706225        1481231424.9994638     
  -485644969.86349016       -5053781.9356485903        1485655591.1219962     
  -460918063.58350974       -6696371.4269835353        1494874061.9474154     
  -840883665.88655758       -3146794.1234281063        1461454338.9969270     
  -803600821.56263328       -4245816.7500788867        1456056327.8347013     
  -766461616.24255431       -5823636.0562129319        1455396987.3423078     
  -729466049.92631829       -7880252.0418258011        1459476317.5197573     
  -692614122.61392879       -10415664.706921965        1468294318.3670394     
  -1121555949.8911595       -4309048.0167300105        1434595745.6046410     
  -1072163399.7300591       -5869782.8481866121        1428908306.8804016     
  -1022962368.3011084       -8068913.4534736276        1427903904.7929530     
  -973952855.60428989       -10906439.832536876        1431582539.3422985     
  -925134861.63962030       -14382361.985428810        1439944210.5284348     
   14.491481183540991        3.1371191816448381        1542722456.3334751     
   9.9108306726271742       0.10497358476973995        1540568432.5875723     
   5.6438883328751341       -1.8814774143433817        1543806813.3424175     
   1.6906758731100830       -2.8221631876672912        1552437598.5980055     
  -1.9488291932593222       -2.7171562618936003        1566460788.3543427     
  -230046684.54837355       -3224482.1456333101        1519683441.2695613     
  -216328580.36262143       -3764549.7659143507        1517166674.6198745     
  -202645124.31149024       -4420111.1682654247        1519934525.1177869     
  -188996316.39497155       -5191166.3526567072        1527986992.7632942     
  -175382156.61307281       -6077715.3191173002        1541324077.5563941     
  -460918063.58350974       -6696371.4269835353        1494874061.9474154     
  -433789814.49749917       -7868892.7952283025        1491954129.2042258     
  -406730861.99444437       -9272402.7733260989        1494211026.2554753     
  -379741206.07433963       -10906901.361256421        1501644753.1011679     
  -352820846.73719281       -12772388.559047908        1514255309.7413056     
  -692614122.61392879       -10415664.706921965        1468294318.3670394     
  -652383692.49380624       -12313028.982971907        1464930796.3406155     
  -612257207.40497327       -14556876.696655869        1466636316.7554851     
  -572234667.34743118       -17147207.847974896        1473410879.6116412     
  -532316072.32118279       -20084022.436939508        1485254484.9090898     
  -925134861.63962030       -14382361.985428810        1439944210.5284348     
  -872110214.35153544       -17096958.329135478        1436096676.0290523     
  -819224160.54308498       -20273532.938282132        1437210396.6178098     
  -766476700.21424723       -23912085.812807769        1443285372.2947071     
  -713867833.36504471       -28012616.952786028        1454321603.0597417     
  -1.9488291932593222       -2.7171562618936003        1566460788.3543427     
  -1.5112642822149875       -1.1541886951677078        1566934645.4419496     
  -1.2325845472487955      -0.12084115759318609        1573030656.9914010     
  -1.1127952954708094       0.38287143602065010        1584748823.0027034     
  -1.1518908537633754       0.35697077162354024        1602089143.4758506     
  -175382156.61307281       -6077715.3191173002        1541324077.5563941     
  -160968793.37979859       -6651951.0896926895        1541113967.9966166     
  -146472945.42258790       -6951237.7804820761        1546501422.4332743     
  -131894612.74143638       -6975575.3914666250        1557486440.8663704     
  -117233795.33635126       -6724963.9226743355        1574069023.2959063     
  -352820846.73719281       -12772388.559047908        1514255309.7413056     
  -324064379.18081486       -13941939.204956278        1513457465.8974433     
  -295142942.01767516       -14561591.161654800        1518232595.5846045     
  -266056535.24776727       -14631344.429128274        1528580698.8027904     
  -236805158.87110189       -14151199.007409848        1544501775.5520108     
  -532316072.32118279       -20084022.436939508        1485254484.9090898     
  -489286758.91430306       -21869965.499943942        1483965139.1444352     
  -446009991.01784116       -22831060.264347851        1488224176.4453990     
  -402485768.63178277       -22967306.730093643        1498031596.8119736     
  -358714091.75614607       -22278704.897245079        1513387400.2441599     
  -713867833.36504471       -28012616.952786028        1454321603.0597417     
  -656635932.58027375       -30436029.974699676        1452636987.7375946     
  -599074092.42308414       -31759645.088550687        1456476165.0156479     
  -541182312.89347947       -31983462.294353366        1465839134.8939054     
  -482960593.99147040       -31107481.592137679        1480725897.3723686     
  -1.1518908537633754       0.35697077162354024        1602089143.4758506     
 -0.95336934317764976       0.19322917807942469        1598040084.6870186     
 -0.73384068968027771        9.9512088130188747E-002   1599045208.0993299     
 -0.49330235409359952        7.5826924867277823E-002   1605104513.7127957     
 -0.23177201915933293       0.12211509276299466        1616218001.5274124     
  -117233795.33635126       -6724963.9226743355        1574069023.2959063     
  -103607742.02069412       -5826767.4640064463        1569605135.5516510     
  -89432515.703671753       -3097994.3341210894        1570361368.7834861     
  -74708116.385286823        1461355.4669717774        1576337722.9914174     
  -59434544.065548860        7851281.9392434843        1587534198.1754279     
  -236805158.87110189       -14151199.007409848        1544501775.5520108     
  -209078941.65276477       -12212572.690664157        1540263760.6627526     
  -180254378.45270932       -6612793.1015228704        1541411805.5245290     
  -150331469.27093339        2648139.7600180060        1547945910.1373327     
  -119310214.10744643        15570225.893928990        1559866074.5011673     
  -358714091.75614607       -22278704.897245079        1513387400.2441599     
  -316413599.84958029       -19157415.486739516        1510015960.0203207     
  -272465588.98094594       -10544396.202671066        1512196518.3224452     
  -226870059.15024048        3560352.9549660683        1519929075.1505456     
  -179627010.35746205        23156831.986182429        1533213630.5046053     
  -482960593.99147040       -31107481.592137679        1480725897.3723686     
  -425611716.61114657       -26661295.852253437        1478861733.6243532     
  -366066147.28839582       -14892803.637609869        1482715507.1772492     
  -304323886.02320629        4197995.0518281758        1492287218.0310538     
  -240384932.81559879        30611100.215992838        1507576866.1857669     
 -0.23177201915933293       0.12211509276299466        1616218001.5274124     
 -0.19708053870178616       0.12939836930896348        1585227893.2616794     
 -0.16424961207977912       0.13047633028951455        1557607080.3585982     
 -0.13329673903123435       0.12529584741533412        1533355562.8181746     
 -0.10420583809764264       0.11390879082464345        1512473340.6404095     
  -59434544.065548860        7851281.9392434843        1587534198.1754279     
  -48583786.281518646        15491234.507919766        1556982988.8548825     
  -36583166.032643095        26964061.959415630        1529646154.9262345     
  -23432683.318909932        42269764.293769285        1505523696.3894854     
  -9132338.1403305754        61408341.510943606        1484615613.2446313     
  -119310214.10744643        15570225.893928990        1559866074.5011673     
  -98051327.061964676        30717342.477615476        1531095270.3369818     
  -74492715.084918559        53530208.833182827        1505383921.5939312     
  -48634378.176289320        84008824.960692659        1482732028.2720227     
  -20476316.336096011        122153190.86008286        1463139590.3712547     
  -179627010.35746205        23156831.986182429        1533213630.5046053     
  -148402622.53840435        45678324.038528077        1507564737.7079558     
  -113728647.32107273        79698440.751786828        1484820380.3616846     
  -75605084.705430925        125217182.12607749        1464980558.4657915     
  -34031934.691505656        182234548.16131723        1448045272.0202873     
  -240384932.81559879        30611100.215992838        1507576866.1857669     
  -199637672.71084851        60374179.190626010        1486391390.9678218     
  -154290962.74110645        105468757.71522701        1467955531.2294986     
  -104344802.90632272        165894835.78996891        1452269286.9708035     
  -49799193.206547931        241652413.41468179        1439332658.1917276     
 -0.10420583809764264       0.11390879082464345        1512473340.6404095     
  -7.7513453531255036E-002  0.11176462685738728        1403113635.8373284     
  -4.2385737776738458E-002  0.13773892740661811        1291000717.9310367     
   1.1672439571673784E-003  0.19179744788714642        1176134586.9215441     
   5.3167177620201692E-002  0.27401039312993192        1058515242.8088526     
  -9132338.1403305754        61408341.510943606        1484615613.2446313     
  -9618930.1257983446        80800692.983140752        1375943355.1392133     
  -8163172.2216862366        106667544.08726737        1265174850.5566542     
  -4765064.4279992506        139008894.82331407        1152310099.4969306     
   575393.25527635962        177824745.19131869        1037349101.9600723     
  -20476316.336096011        122153190.86008286        1463139590.3712547     
  -19572452.830707319        161501008.05751967        1357420853.8248367     
  -14783889.554588884        213797824.49072099        1250262837.4273264     
  -6110626.5077506453        279043640.15965497        1141665541.1787248     
   6447336.3098218739        357238455.06437123        1031628965.0790328     
  -34031934.691505656        182234548.16131723        1448045272.0202873     
  -29860568.192234308        242100945.33492482        1347546131.8942041     
  -19862152.041103378        321390841.34806150        1246264678.5430932     
  -4036686.2380858660        420104236.20082092        1144200911.9669414     
   17615829.216799140        538241129.89313996        1041354832.1657513     
  -49799193.206547931        241652413.41468179        1439332658.1917276     
  -40483276.210384354        322600504.81533641        1346319189.3473191     
  -23397959.681206793        429446594.65937036        1253180373.9039321     
   1456756.3809894323        562190682.94680130        1159916211.8615620     
   34080871.976212502        720832769.67765284        1066526703.2202224     
  -1510922894.1566005       -2133476.4317083359        1439758609.0568123     
  -1464116029.8047600       -1767627.5013525486        1431260687.7503340     
  -1417429681.0828831       -1803497.3375315666        1427576220.6272907     
  -1370863847.9909625       -2241085.9402366281        1428705207.6876800     
  -1324418530.5290022       -3080393.3094754219        1434647648.9315004     
  -1893126890.8557932       -20771393.434314489        1354485007.8769941     
  -1833004470.4419098       -13793575.983632565        1350109324.7933948     
  -1773513951.4198940       -8922096.5058491230        1349637084.0693984     
  -1714655333.7897477       -6156955.0009632111        1353068285.7050107     
  -1656428617.5514739       -5498151.4689856768        1360402929.7002244     
  -2260999018.8001595       -35109749.810471058        1270516369.5589523     
  -2190161076.1065874       -22299973.974165797        1269666307.9759986     
  -2120466420.5668054       -13301155.317135096        1271809676.9288232     
  -2051915052.1807990       -8113293.8393729925        1276946476.4174237     
  -1984506970.9485791       -6736389.5408893824        1285076706.4418013     
  -2614539277.9896884       -45148545.560176492        1187852694.1026838     
  -2535585846.7988062       -27286821.472966433        1189931637.2981482     
  -2458287088.5236149       -14940673.771394730        1194093999.2055602     
  -2382643003.1641216       -8110102.4554709196        1200339779.8249230     
  -2308653590.7203169       -6795107.5251828432        1208668979.1562328     
  -2953747668.4243851       -50887780.683434010        1106493981.5081921     
  -2869278782.5185533       -28754118.480020523        1110905312.7598433     
  -2786975955.2903280       -13840651.868618727        1116490050.8996153     
  -2706839186.7397013       -6147380.8492290974        1123248195.9275064     
  -2628868476.8666859       -5674305.4218654633        1131179747.8435171     
  -1324418530.5290022       -3080393.3094754219        1434647648.9315004     
  -1273562897.6441941       -2920931.2351346612        1427038881.0644670     
  -1222800589.9096193       -3072552.9948989153        1424493974.5543146     
  -1172131607.3252778       -3535258.5887737870        1427012929.4010372     
  -1121555949.8911595       -4309048.0167300105        1434595745.6046410     
  -1656428617.5514739       -5498151.4689856768        1360402929.7002244     
  -1592597547.8713887       -4405394.9519382715        1353823690.3406324     
  -1528957007.3801825       -3947735.7311596274        1351946319.2106740     
  -1465506996.0778630       -4125173.8066722155        1354770816.3103507     
  -1402247513.9644251       -4937709.1784478426        1362297181.6396613     
  -1984506970.9485791       -6736389.5408893824        1285076706.4418013     
  -1908734730.5510530       -5020618.4044787884        1279413590.8778861     
  -1833250223.3810589       -4263958.0265142918        1278090350.4163632     
  -1758053449.4386044       -4466408.4070142508        1281106985.0572312     
  -1683144408.7236855       -5627969.5459609032        1288463494.8004873     
  -2308653590.7203169       -6795107.5251828432        1208668979.1562328     
  -2221974445.6831884       -4766601.5927559137        1203808582.6762359     
  -2135680237.9122462       -4021219.8809556961        1202926068.1713853     
  -2049770967.4074972       -4558962.3897966146        1206021435.6416814     
  -1964246634.1689370       -6379829.1192679405        1213094685.0871224     
  -2628868476.8666859       -5674305.4218654633        1131179747.8435171     
  -2532316693.2677979       -3643344.5167853832        1127008665.7356758     
  -2436247050.9737506       -3219521.2945019007        1126453472.4757357     
  -2340659549.9845510       -4402835.7550499439        1129514168.0636978     
  -2245554190.3001885       -7193287.8983850479        1136190752.4995594     
  -1121555949.8911595       -4309048.0167300105        1434595745.6046410     
  -1072163399.7300591       -5869782.8481866121        1428908306.8804016     
  -1022962368.3011084       -8068913.4534736276        1427903904.7929530     
  -973952855.60428989       -10906439.832536876        1431582539.3422985     
  -925134861.63962030       -14382361.985428810        1439944210.5284348     
  -1402247513.9644251       -4937709.1784478426        1362297181.6396613     
  -1340929170.9803567       -6857127.3280218244        1356280746.6816652     
  -1279766150.0419016       -9294285.6296353936        1354837734.9471865     
  -1218758451.1490564       -12249184.083281457        1357968146.4362273     
  -1157906074.3018229       -15721822.688973725        1365671981.1487827     
  -1683144408.7236855       -5627969.5459609032        1288463494.8004873     
  -1610213454.0974281       -8000025.3678743839        1282160293.0763507     
  -1537401624.8302534       -10769165.720064819        1280320901.1624620     
  -1464708920.9221587       -13935390.602520168        1282945319.0588148     
  -1392135342.3731465       -17498700.015251577        1290033546.7654130     
  -1964246634.1689370       -6379829.1192679405        1213094685.0871224     
  -1880016249.0812736       -9298476.9677599669        1206546946.0644648     
  -1795868792.6661594       -12493553.724758625        1204353403.4387810     
  -1711804264.9235990       -15965059.390256882        1206514057.2100677     
  -1627822665.8535869       -19712993.964266181        1213028907.3783262     
  -2245554190.3001885       -7193287.8983850479        1136190752.4995594     
  -2150337555.9318967       -10752482.127687097        1129440705.6460018     
  -2055167653.5496249       -14467449.643721461        1126935241.7761436     
  -1960044483.1533751       -18338190.446500421        1128674360.8899820     
  -1864968044.7431483       -22364704.536013603        1134658062.9875202     
  -925134861.63962030       -14382361.985428810        1439944210.5284348     
  -872110214.35153544       -17096958.329135478        1436096676.0290523     
  -819224160.54308498       -20273532.938282132        1437210396.6178098     
  -766476700.21424723       -23912085.812807769        1443285372.2947071     
  -713867833.36504471       -28012616.952786028        1454321603.0597417     
  -1157906074.3018229       -15721822.688973725        1365671981.1487827     
  -1092106555.1285820       -18194657.568342865        1361061862.9883783     
  -1026471058.2865237       -21214233.551660478        1361261523.1597226     
  -960999583.77564955       -24780550.638923347        1366270961.6628215     
  -895692131.59596455       -28893608.830147535        1376090178.4976704     
  -1392135342.3731465       -17498700.015251577        1290033546.7654130     
  -1313993742.0472736       -19859610.650026917        1284631177.9504936     
  -1236041592.9041479       -22852025.227293432        1283887110.7109418     
  -1158278894.9437671       -26475943.747043192        1287801345.0467525     
  -1080705648.1661336       -30731366.209283769        1296373880.9579322     
  -1627822665.8535869       -19712993.964266181        1213028907.3783262     
  -1537771775.1076188       -22091817.574208856        1206804620.9154053     
  -1447935764.3959556       -25186907.965175390        1205087159.2714686     
  -1358314633.7186038       -28998265.137177408        1207876522.4465060     
  -1268908383.0755579       -33525889.090196729        1215172710.4405251     
  -1864968044.7431483       -22364704.536013603        1134658062.9875202     
  -1763440654.3096220       -24891278.340904832        1127582191.8831151     
  -1662153572.7619574       -28218881.765338004        1124861668.8413026     
  -1561106800.1001616       -32347514.809331775        1126496493.8620799     
  -1460300336.3242333       -37277177.472884893        1132486666.9454494     
  -713867833.36504471       -28012616.952786028        1454321603.0597417     
  -656635932.58027375       -30436029.974699676        1452636987.7375946     
  -599074092.42308414       -31759645.088550687        1456476165.0156479     
  -541182312.89347947       -31983462.294353366        1465839134.8939054     
  -482960593.99147040       -31107481.592137679        1480725897.3723686     
  -895692131.59596455       -28893608.830147535        1376090178.4976704     
  -824644702.01896596       -31202620.605788141        1373385712.1816499     
  -753379149.10217953       -32784554.582125515        1375758382.8180039     
  -681895472.84560108       -33639410.759160787        1383208190.4067237     
  -610193673.24922729       -33767189.136878729        1395735134.9478121     
  -1080705648.1661336       -30731366.209283769        1296373880.9579322     
  -997118848.79072964       -33308824.436816454        1292519111.6099880     
  -913425742.10815132       -35531924.973769963        1293294823.5665779     
  -829626328.11840260       -37400667.820152134        1298701016.8277051     
  -745720606.82148075       -38915052.975962162        1308737691.3933661     
  -1268908383.0755579       -33525889.090196729        1215172710.4405251     
  -1174058372.8955574       -36754641.467768073        1210037186.0225990     
  -1079213871.4409981       -40001756.263466895        1209085487.2613735     
  -984374878.71189821       -43267233.477368355        1212317614.1568489     
  -889541394.70823622       -46551073.109396130        1219733566.7090249     
  -1460300336.3242333       -37277177.472884893        1132486666.9454494     
  -1355463274.3334444       -41540071.698614180        1125939935.4194849     
  -1250743537.1007245       -46194048.451244354        1123130373.9023855     
  -1146141124.6260734       -51239107.730772614        1124057982.3941541     
  -1041656036.9094881       -56675249.537179053        1128722760.8947856     
  -482960593.99147040       -31107481.592137679        1480725897.3723686     
  -425611716.61114657       -26661295.852253437        1478861733.6243532     
  -366066147.28839582       -14892803.637609869        1482715507.1772492     
  -304323886.02320629        4197995.0518281758        1492287218.0310538     
  -240384932.81559879        30611100.215992838        1507576866.1857669     
  -610193673.24922729       -33767189.136878729        1395735134.9478121     
  -538131318.82052135       -30096192.164030373        1393572289.3606224     
  -463853719.22553539       -19041044.636921450        1397188455.4559793     
  -387360874.46427619       -601746.55556359887        1406583633.2338772     
  -308652784.53673518        25221702.080057815        1421757822.6943319     
  -745720606.82148075       -38915052.975962162        1308737691.3933661     
  -658770277.11114347       -35966895.300181538        1306297809.3948202     
  -569586149.01067686       -25572742.990640312        1309698013.4604552     
  -478168222.52009028       -7732596.0473653376        1318938303.5902784     
  -384516497.63937485        17553545.529675126        1334018679.7842848     
  -889541394.70823622       -46551073.109396130        1219733566.7090249     
  -787528591.48301375       -44273405.260697156        1217038293.7269440     
  -683263436.64382064       -34487898.698763132        1220244181.1906879     
  -576745930.19065416       -17194553.423585296        1229351229.1002510     
  -467976072.12351489        7606630.5648373365        1244359437.4556391     
  -1041656036.9094881       -56675249.537179053        1128722760.8947856     
  -924406261.93613744       -55015722.045602113        1125793742.3569994     
  -804885582.12496090       -45786511.761278272        1128826958.6466701     
  -683093997.47597563       -28987618.684254229        1137822409.7637947     
  -559031507.98915565       -4619042.8144506812        1152780095.7083859     
  -240384932.81559879        30611100.215992838        1507576866.1857669     
  -199637672.71084851        60374179.190626010        1486391390.9678218     
  -154290962.74110645        105468757.71522701        1467955531.2294986     
  -104344802.90632272        165894835.78996891        1452269286.9708035     
  -49799193.206547931        241652413.41468179        1439332658.1917276     
  -308652784.53673518        25221702.080057815        1421757822.6943319     
  -259058022.97989774        55455662.193670496        1404959100.0873423     
  -203011796.70634627        107194504.69632469        1392107867.4702632     
  -140514105.71607545        180438229.58804736        1383204124.8430960     
  -71564950.009092093        275186836.86880362        1378247872.2058315     
  -384516497.63937485        17553545.529675126        1334018679.7842848     
  -322651736.02961963        49285136.362543136        1323767393.7819080     
  -252483494.85145038        108694992.42346309        1318661472.2797291     
  -174011774.10485592        195783113.71246409        1318700915.2777491     
  -87236573.789856032        310549500.22948945        1323885722.7759619     
  -467976072.12351489        7606630.5648373365        1244359437.4556391     
  -390418811.86002779        41862601.697201610        1242816272.0515256     
  -302706057.17641860        109970220.89664228        1247616345.6578946     
  -204837808.07269150        211929488.16314107        1258759658.2747500     
  -96814064.548842296        347740403.49671364        1276246209.9020882     
  -559031507.98915565       -4619042.8144506812        1152780095.7083859     
  -462359250.47112316        33188058.197643906        1162105734.8961930     
  -353679483.68125272        111020190.11585666        1178972487.6047642     
  -232992207.61956906        228877352.94011736        1203380353.8341088     
  -100297422.28606704        386759546.67043972        1235329333.5842187     
  -49799193.206547931        241652413.41468179        1439332658.1917276     
  -40483276.210384354        322600504.81533641        1346319189.3473191     
  -23397959.681206793        429446594.65937036        1253180373.9039321     
   1456756.3809894323        562190682.94680130        1159916211.8615620     
   34080871.976212502        720832769.67765284        1066526703.2202224     
  -71564950.009092093        275186836.86880362        1378247872.2058315     
  -57395017.557874367        376898094.80133456        1296731293.0290709     
  -34250340.398010314        508525168.42934847        1214282418.5247362     
  -2130918.5294905007        670068057.75287986        1130901248.6928396     
   38963248.047685951        861526762.77194715        1046587783.5333704     
  -87236573.789856032        310549500.22948945        1323885722.7759619     
  -70518193.679546714        432332254.35507470        1255272269.3050678     
  -43619723.684958100        588048641.42825758        1184919571.7780316     
  -6541163.8060694933        777698661.44911885        1112827630.1948490     
   40717485.957112908        1001282314.4176142        1038996444.5555168     
  -96814064.548842296        347740403.49671364        1276246209.9020882     
  -79852804.575405478        488902983.47654724        1221942118.1753213     
  -51506109.542035013        668017013.65615392        1165091833.6638267     
  -11773979.448731363        885082494.03553128        1105695356.3676083     
   39343585.704496384        1140099424.6146750        1043752686.2866344     
  -100297422.28606704        386759546.67043972        1235329333.5842187     
  -85398850.245434552        546610282.16579545        1196740839.6398246     
  -57909497.969253570        748430285.11298478        1154799204.1821101     
  -17829365.457490206        992219555.51211524        1109504427.2110825     
   34841547.289837837        1277978093.3631229        1060856508.7267392     
  -2953747668.4243851       -50887780.683434010        1106493981.5081921     
  -2869278782.5185533       -28754118.480020523        1110905312.7598433     
  -2786975955.2903280       -13840651.868618727        1116490050.8996153     
  -2706839186.7397013       -6147380.8492290974        1123248195.9275064     
  -2628868476.8666859       -5674305.4218654633        1131179747.8435171     
  -3285046604.4799061        48927025.626522779        1065569231.2723085     
  -3202662422.0398970        33296274.247951746        1048265501.8478076     
  -3119495084.5195460        20276039.803847790        1036899612.1573206     
  -3035544591.9188547        9866322.2942155600        1031471562.2008487     
  -2950810944.2378259        2067121.7190424204        1031981351.9783881     
  -3682890064.3469334        128778474.79302430        1008639874.5972759     
  -3588977920.0987682        79467109.414659262        973061833.88089240     
  -3491333407.0123158        42596973.497245550        948186065.74441683     
  -3389956525.0875754        18168067.040786743        934012570.18784797     
  -3284847274.3245492        6180390.0452768803        930541347.21118510     
  -4147278048.0254645        188666566.81607652        935705911.48309207     
  -4028225276.6951609        109758387.02011061        885294308.85909498     
  -3902490922.7686253        53122149.211582422        850349411.66089976     
  -3770074986.2458587        18757853.390492439        830871219.88850617     
  -3630977467.1268635        6665499.5568301678        826859733.54190826     
  -4678210555.5155048        228591301.69567513        846767341.92975795     
  -4520404491.8290844        124170107.06430554        784962926.78242147     
  -4352967631.7884836        51851566.946855068        743389649.90677249     
  -4175899975.3937092        11635681.343327522        722047511.30282092     
  -3989201522.6447597        3522450.2537152767        720936510.97055757     
  -2628868476.8666859       -5674305.4218654633        1131179747.8435171     
  -2532316693.2677979       -3643344.5167853832        1127008665.7356758     
  -2436247050.9737506       -3219521.2945019007        1126453472.4757357     
  -2340659549.9845510       -4402835.7550499439        1129514168.0636978     
  -2245554190.3001885       -7193287.8983850479        1136190752.4995594     
  -2950810944.2378259        2067121.7190424204        1031981351.9783881     
  -2844413277.2743387        1730950.3888862133        1023654149.7047254     
  -2738163277.3953996        902555.44357192516        1019831076.3025236     
  -2632060944.6010036       -418063.11689448357        1020512131.7717828     
  -2526106278.8911681       -2230905.2925485373        1025697316.1125028     
  -3284847274.3245492        6180390.0452768803        930541347.21118510     
  -3166065895.3577194        4238435.0715140104        918448244.69537687     
  -3047097709.2551432        2919170.5502341986        911747511.07458675     
  -2927942716.0168281        2222596.4814227819        910439146.34881949     
  -2808600915.6427646        2148712.8650995493        914523150.51806927     
  -3630977467.1268635        6665499.5568301678        826859733.54190826     
  -3497274547.5179491        3879109.5310845375        811390950.70762801     
  -3363050346.5529971        2830324.0254566669        802202776.79192770     
  -3228304864.2320089        3519143.0399498940        799295211.79480493     
  -3093038100.5549860        5945566.5745668411        802668255.71626508     
  -3989201522.6447597        3522450.2537152767        720936510.97055757     
  -3838039233.7550197        652973.76760125160        702482267.74148154     
  -3686021189.2889547        636015.86924672127        691196873.45454550     
  -3533147389.2465601        3471576.5586512089        687080328.10974765     
  -3379417833.6278334        9159655.8358328342        690132631.70708466     
  -2245554190.3001885       -7193287.8983850479        1136190752.4995594     
  -2150337555.9318967       -10752482.127687097        1129440705.6460018     
  -2055167653.5496249       -14467449.643721461        1126935241.7761436     
  -1960044483.1533751       -18338190.446500421        1128674360.8899820     
  -1864968044.7431483       -22364704.536013603        1134658062.9875202     
  -2526106278.8911681       -2230905.2925485373        1025697316.1125028     
  -2419510263.0789471       -4413745.4505108595        1018083239.4609255     
  -2313137395.3555989       -7340412.5713778734        1014660329.9968269     
  -2206987675.7211299       -11010906.655174494        1015428587.7202016     
  -2101061104.1755316       -15425227.701869607        1020388012.6310499     
  -2808600915.6427646        2148712.8650995493        914523150.51806927     
  -2690778134.9472542        1296441.8102926016        905839225.28181398     
  -2573354918.4434662       -887709.88359534740        901293051.43681145     
  -2456331266.1314106       -4403742.2165896893        900884628.98306036     
  -2339707178.0110826       -9251655.1886707544        904613957.92056143     
  -3093038100.5549860        5945566.5745668411        802668255.71626508     
  -2964141171.5368218        6378079.6547209024        792708663.10866511     
  -2835820222.8132334        4890658.4196106195        786833406.09609580     
  -2708075254.3842306        1483302.8692214489        785042484.67855835     
  -2580906266.2498021       -3843986.9964219332        787335898.85604775     
  -3379417833.6278334        9159655.8358328342        690132631.70708466     
  -3239599372.8476491        10831168.082762837        678691552.94148159     
  -3100533308.4648952        9994692.3382544518        671281393.97468174     
  -2962219640.4795823        6650228.6022748947        667902154.80669427     
  -2824658368.8917022        797776.87486302853        668553835.43750751     
  -1864968044.7431483       -22364704.536013603        1134658062.9875202     
  -1763440654.3096220       -24891278.340904832        1127582191.8831151     
  -1662153572.7619574       -28218881.765338004        1124861668.8413026     
  -1561106800.1001616       -32347514.809331775        1126496493.8620799     
  -1460300336.3242333       -37277177.472884893        1132486666.9454494     
  -2101061104.1755316       -15425227.701869607        1020388012.6310499     
  -1988730076.0346131       -18457340.068461180        1012059447.5647303     
  -1876531369.0126123       -21930522.831460714        1007802687.7249728     
  -1764464983.1095400       -25844775.990876198        1007617733.1117797     
  -1652530918.3253894       -30200099.546695411        1011504583.7251480     
  -2339707178.0110826       -9251655.1886707544        904613957.92056143     
  -2217382634.5514226       -13032342.833577752        895158684.62042272     
  -2095082424.4437411       -16894141.651729345        889491673.71082401     
  -1972806547.6880381       -20837051.643160224        887612925.19176126     
  -1850555004.2843099       -24861072.807835221        889522439.06323564     
  -2580906266.2498021       -3843986.9964219332        787335898.85604775     
  -2449398329.8600569       -8616286.6362378597        776879903.05019581     
  -2317806739.0553355       -13109738.226149201        769928626.79885614     
  -2186131493.8356533       -17324341.766177535        766482070.10202420     
  -2054372594.2009971       -21260097.256305218        766540232.95970881     
  -2824658368.8917022        797776.87486302853        668553835.43750751     
  -2684777161.9605083       -5209171.4764399529        657223102.85404611     
  -2544704312.8473992       -10577312.554697394        649113546.98907077     
  -2404439821.5523839       -15306646.359929442        644225167.84257221     
  -2263983688.0754509       -19397172.892104864        642557965.41456282     
  -1460300336.3242333       -37277177.472884893        1132486666.9454494     
  -1355463274.3334444       -41540071.698614180        1125939935.4194849     
  -1250743537.1007245       -46194048.451244354        1123130373.9023855     
  -1146141124.6260734       -51239107.730772614        1124057982.3941541     
  -1041656036.9094881       -56675249.537179053        1128722760.8947856     
  -1652530918.3253894       -30200099.546695411        1011504583.7251480     
  -1537951248.2559156       -33969958.430862665        1002811888.5139111     
  -1423376542.9448371       -37756366.509677589        997762559.81397092     
  -1308806802.3921564       -41559323.783155143        996356597.62533128     
  -1194242026.5978708       -45378830.251280725        998594001.94798505     
  -1850555004.2843099       -24861072.807835221        889522439.06323564     
  -1726500736.1292002       -28218299.348340154        878814866.83300650     
  -1602339072.7328148       -31217541.751263857        871656857.61650956     
  -1478070014.0951540       -33858800.016612113        868048411.41373897     
  -1353693560.2162266       -36142074.144384325        867989528.22470558     
  -2054372594.2009971       -21260097.256305218        766540232.95970881     
  -1921111737.9533012       -24285094.451066494        753948870.37676787     
  -1787631126.4646597       -26577574.176006913        744813267.30999243     
  -1653930759.7350767       -28137536.431143105        739133423.75938094     
  -1520010637.7645504       -28964981.216470122        736909339.72493017     
  -2263983688.0754509       -19397172.892104864        642557965.41456282     
  -2121784253.7282207       -22170343.739038587        628213899.14519811     
  -1979252704.1403761       -23836463.783924580        617231788.89442599     
  -1836389039.3119125       -24395533.026748180        609611634.66225338     
  -1693193259.2428455       -23847551.467553914        605353436.44867456     
  -1041656036.9094881       -56675249.537179053        1128722760.8947856     
  -924406261.93613744       -55015722.045602113        1125793742.3569994     
  -804885582.12496090       -45786511.761278272        1128826958.6466701     
  -683093997.47597563       -28987618.684254229        1137822409.7637947     
  -559031507.98915565       -4619042.8144506812        1152780095.7083859     
  -1194242026.5978708       -45378830.251280725        998594001.94798505     
  -1063350013.1741157       -42151772.766170919        994519849.61917639     
  -931036512.35609233       -34186423.966839790        994615754.34932482     
  -797301524.14381194       -21482783.853318959        998881716.13843167     
  -662145048.53725922       -4040852.4255499542        1007317734.9864967     
  -1353693560.2162266       -36142074.144384325        867989528.22470558     
  -1214279816.2520669       -32883639.038741410        861779255.08738661     
  -1074294002.3371999       -27718304.097414196        857946861.24052763     
  -933736118.47162712       -20646069.320397258        856492346.68412912     
  -792606164.65534425       -11666934.707680315        857415711.41818941     
  -1520010637.7645504       -28964981.216470122        736909339.72493017     
  -1377195671.1699836       -27211320.863296747        727571958.76162505     
  -1234658052.0682695       -26382152.152963817        718820279.32027996     
  -1092397780.4594004       -26477475.085449815        710654301.40089250     
  -950414856.34338617       -27497289.660772741        703074025.00346959     
  -1693193259.2428455       -23847551.467553914        605353436.44867456     
  -1552097577.9278753       -25134818.239847779        591897960.64189780     
  -1412128661.5493121       -30177968.133512080        577236008.58858216     
  -1273286510.1071494       -38977001.148504913        561367580.28872561     
  -1135571123.6014004       -51531917.284876883        544292675.74233651     
  -559031507.98915565       -4619042.8144506812        1152780095.7083859     
  -462359250.47112316        33188058.197643906        1162105734.8961930     
  -353679483.68125272        111020190.11585666        1178972487.6047642     
  -232992207.61956906        228877352.94011736        1203380353.8341088     
  -100297422.28606704        386759546.67043972        1235329333.5842187     
  -662145048.53725922       -4040852.4255499542        1007317734.9864967     
  -547091422.36215770        26042177.963165343        1020848305.4151187     
  -421148105.25796080        92424178.115542650        1042759754.5107237     
  -284315097.22467864        195105148.03153142        1073052082.2733103     
  -136592398.26231724        334085087.71111917        1111725288.7028830     
  -792606164.65534425       -11666934.707680315        857415711.41818941     
  -656771840.83398414        11411823.754440933        873847091.68776953     
  -511165644.42627227        67063490.837733448        899499115.77054596     
  -355787575.43221515        155288066.54217726        934371783.66652167     
  -190637633.85179752        276085550.86782295        978465095.37569761     
  -950414856.34338617       -27497289.660772741        703074025.00346959     
  -791400505.88659084       -10703004.428533465        721102093.71414840     
  -623732101.18618226        34938128.282438427        749190571.38424039     
  -447409642.24215227        109426108.47214293        787339458.01374638     
  -262433129.05450821        212760936.14056090        835548753.60266650     
  -1135571123.6014004       -51531917.284876883        544292675.74233651     
  -950977417.51998329       -40302306.585723579        562613311.49424994     
  -758847475.53768325       -3951909.5503105521        591834121.35180390     
  -559181297.65450799        57519273.821355581        631955105.31498182     
  -351978883.87044537        144111243.52932429        682976263.38378751     
  -100297422.28606704        386759546.67043972        1235329333.5842187     
  -85398850.245434552        546610282.16579545        1196740839.6398246     
  -57909497.969253570        748430285.11298478        1154799204.1821101     
  -17829365.457490206        992219555.51211524        1109504427.2110825     
   34841547.289837837        1277978093.3631229        1060856508.7267392     
  -136592398.26231724        334085087.71111917        1111725288.7028830     
  -127432549.53247243        483103827.35314751        1090161389.9939206     
  -95135366.435770810        709247014.88467896        1070035921.6022786     
  -39700848.972231448        1012514650.3056872        1051348883.5279685     
   38871002.858179271        1392906733.6162515        1034100275.7709943     
  -190637633.85179752        276085550.86782295        978465095.37569761     
  -173526303.20232087        418379356.22565645        986230105.05533671     
  -122731084.05471337        672952789.91060412        1000225116.8829426     
  -38251976.408968806        1039805851.9226763        1020450130.8585280     
   79911019.734916806        1518938542.2618718        1046905146.9820809     
  -262433129.05450821        212760936.14056090        835548753.60266650     
  -223680111.25499374        352436868.78331810        884946984.82407308     
  -140696650.82606024        639547610.19082201        945366790.02409577     
  -13482747.767704666        1074093160.3630579        1016808169.2027302     
   157961597.92006999        1656073519.3000236        1099271122.3599761     
  -351978883.87044537        144111243.52932429        682976263.38378751     
  -277893973.69048291        285276365.02614146        786312029.30012822     
  -149032066.74981388        609031475.72531962        905460941.02573454     
   34606836.951556027        1115376575.6268256        1040422998.5605851     
   273022737.41364074        1804311664.7307143        1191198201.9046974     
  -4678210555.5155048        228591301.69567513        846767341.92975795     
  -4520404491.8290844        124170107.06430554        784962926.78242147     
  -4352967631.7884836        51851566.946855068        743389649.90677249     
  -4175899975.3937092        11635681.343327522        722047511.30282092     
  -3989201522.6447597        3522450.2537152767        720936510.97055757     
  -5250511644.6312685       -219170631.24353576        364634905.09355009     
  -5013487653.6453381       -140014182.14255524        398130794.94512123     
  -4782265823.2671289       -80198268.400639296        429968342.04792482     
  -4556846153.4966373       -39722890.017774820        460147546.40196127     
  -4337228644.3338614       -18588046.993966579        488668408.00722694     
  -5525636520.4411983       -577779700.19099522       -47028717.537013270     
  -5271935976.4999390       -333808019.66093135        63762360.857933715     
  -5039470550.1282949       -160620064.36289978        151005615.48364615     
  -4828240241.3262510       -58215834.296882629        214701046.34013179     
  -4638245050.0938168       -26595329.462898254        254848653.42739013     
  -5503585182.9452972       -847235905.14670599       -388223525.96192074     
  -5295749460.3928843       -457211405.49079871       -218142375.47914690     
  -5124581812.3719645       -189413820.93988943       -93498529.786059827     
  -4990082238.8825512       -43843151.493992090       -14291988.882667074     
  -4892250739.9246349       -20499397.153091669        19477247.231042910     
  -5184357632.1435652       -1027539246.1106681       -658949520.18117774     
  -5084928105.3241701       -510224339.63218117       -447583414.06611401     
  -5037599609.9981585       -166579538.13166356       -303544093.76119947     
  -5042372146.1655436        3395158.3908762932       -226831559.26643375     
  -5099245713.8263140       -300250.06453704834       -217445810.58181691     
  -3989201522.6447597        3522450.2537152767        720936510.97055757     
  -3838039233.7550197        652973.76760125160        702482267.74148154     
  -3686021189.2889547        636015.86924672127        691196873.45454550     
  -3533147389.2465601        3471576.5586512089        687080328.10974765     
  -3379417833.6278334        9159655.8358328342        690132631.70708466     
  -4337228644.3338614       -18588046.993966579        488668408.00722694     
  -4171109723.8992982       -20649437.884183407        486293446.45594406     
  -4003900724.5903482       -19077232.526442528        488068255.85948163     
  -3835601646.4070206       -13871430.920775890        493992836.21785152     
  -3666212489.3493123       -5032033.0671629906        504067187.53104252     
  -4638245050.0938168       -26595329.462898254        254848653.42739013     
  -4465795435.2210369       -30436415.889180660        268826350.73495877     
  -4292021418.1758199       -29862828.407351971        283934741.01003569     
  -4116922998.9581614       -24874567.017387152        300173824.25263059     
  -3940500177.5680799       -15471631.719330788        317543600.46273535     
  -4892250739.9246349       -20499397.153091669        19477247.231042910     
  -4722096367.7202463       -28707960.247442245        50080980.578521490     
  -4550383270.0453682       -31720771.773480892        78796328.906210467     
  -4377111446.9000092       -29537831.731257439        105623292.21408693     
  -4202280898.2841482       -22159140.120692492        130561870.50217292     
  -5099245713.8263140       -300250.06453704834       -217445810.58181691     
  -4940012521.3969307       -15464070.958936214       -169942664.01336125     
  -4778986280.1989965       -24651062.624842405       -127346980.45200844     
  -4616166990.2325191       -27861225.062272310       -89658759.897773281     
  -4451554651.4975109       -25094558.271255970       -56878002.350649968     
  -3379417833.6278334        9159655.8358328342        690132631.70708466     
  -3239599372.8476491        10831168.082762837        678691552.94148159     
  -3100533308.4648952        9994692.3382544518        671281393.97468174     
  -2962219640.4795823        6650228.6022748947        667902154.80669427     
  -2824658368.8917022        797776.87486302853        668553835.43750751     
  -3666212489.3493123       -5032033.0671629906        504067187.53104252     
  -3515784804.6369681       -1416723.6062707901        495932634.22716564     
  -3366141031.7808418       -414453.66607737541        491479534.02292001     
  -3217281170.7809353       -2025223.2466255426        490707886.91830289     
  -3069205221.6372390       -6249032.3478826284        493617692.91331226     
  -3940500177.5680799       -15471631.719330788        317543600.46273535     
  -3780461745.2069521       -10212067.929498196        312678804.58534831     
  -3621238740.1608133       -7670595.1896266937        311145995.10841185     
  -3462831162.4296713       -7847213.4997439384        312945172.03192800     
  -3305239012.0135236       -10741922.859837532        318076335.35589659     
  -4202280898.2841482       -22159140.120692492        130561870.50217292     
  -4033630194.5575895       -15554864.886905670        128930064.01603042     
  -3865826433.6048050       -11773732.232373953        130280777.23116264     
  -3698869615.4257941       -10815742.157080173        134614010.14756018     
  -3532759740.0205560       -12680894.661031008        141929762.76524943     
  -4451554651.4975109       -25094558.271255970       -56878002.350649968     
  -4275290152.6888895       -17445114.478549242       -55313587.480790503     
  -4099904112.1128173       -12723864.794327259       -51116119.608833291     
  -3925396529.7692966       -10930809.218622208       -44285598.734779917     
  -3751767405.6583395       -12065947.751449823       -34822024.858630702     
  -2824658368.8917022        797776.87486302853        668553835.43750751     
  -2684777161.9605083       -5209171.4764399529        657223102.85404611     
  -2544704312.8473992       -10577312.554697394        649113546.98907077     
  -2404439821.5523839       -15306646.359929442        644225167.84257221     
  -2263983688.0754509       -19397172.892104864        642557965.41456282     
  -3069205221.6372390       -6249032.3478826284        493617692.91331226     
  -2920164166.7343359       -10820001.473328710        485726875.72643816     
  -2770758996.7347426       -14177253.609818339        481329538.90104067     
  -2620989711.6384673       -16320788.757372975        480425682.43712908     
  -2470856311.4455128       -17250606.915973783        483015306.33469212     
  -3305239012.0135236       -10741922.859837532        318076335.35589659     
  -3146260098.7303395       -13643509.636852145        313826651.96617019     
  -2986744597.4357090       -14756469.709032297        313342752.58092457     
  -2826692508.1296062       -14080803.076319575        316624637.20015585     
  -2666103830.8120623       -11616509.738789201        323672305.82386780     
  -3532759740.0205560       -12680894.661031008        141929762.76524943     
  -3363064957.9485383       -13679695.967049837        141522431.57324770     
  -3192661114.9502883       -12314960.852313995        145153188.02871034     
  -3021548211.0258040       -8586689.3167874813        152822032.13165689     
  -2849726246.1751013       -2494881.3605312109        164528963.88208103     
  -3751767405.6583395       -12065947.751449823       -34822024.858630702     
  -3570578744.3889136       -10928560.463900328       -31185785.452344857     
  -3388508549.2785006       -6852727.0397152901       -23239154.755590294     
  -3205556820.3270674        161552.52119767666       -10982132.768362362     
  -3021723557.5346427        10114278.218749046        5585280.5093416544     
  -2263983688.0754509       -19397172.892104864        642557965.41456282     
  -2121784253.7282207       -22170343.739038587        628213899.14519811     
  -1979252704.1403761       -23836463.783924580        617231788.89442599     
  -1836389039.3119125       -24395533.026748180        609611634.66225338     
  -1693193259.2428455       -23847551.467553914        605353436.44867456     
  -2470856311.4455128       -17250606.915973783        483015306.33469212     
  -2320369494.7151341       -17502211.778105140        472475981.14331102     
  -2169869526.0472231       -17709976.848434687        464367709.61617750     
  -2019356405.4417658       -17873902.126952052        458690491.75330532     
  -1868830132.8987644       -17993987.613664508        455444327.55467755     
  -2666103830.8120623       -11616509.738789201        323672305.82386780     
  -2509989352.7109489       -10144464.919831753        316565597.85687989     
  -2354180685.9753680       -9691791.3193341494        310959041.19980806     
  -2198677830.6053195       -10258488.937269449        306852635.85264319     
  -2043480786.6007965       -11844557.773622394        304246381.81539416     
  -2849726246.1751013       -2494881.3605312109        164528963.88208103     
  -2690643827.7156606       -97103.164259433746        160482749.28590697     
  -2532186183.9248042        218092.80340576172        157005783.64530671     
  -2374353314.8025789       -1549293.4577035904        154098066.96027192     
  -2217145220.3489432       -5399261.9474449158        151759599.23081654     
  -3021723557.5346427        10114278.218749046        5585280.5093416544     
  -2862332919.7292681        12639873.488677859        4227435.4303971045     
  -2703886019.8955517        12019675.519722223        2507936.9526826306     
  -2546382858.0335374        8253684.3117650747        426785.07619423047     
  -2389823434.1431746        1341899.8649806976       -2016020.1990573676     
  -1693193259.2428455       -23847551.467553914        605353436.44867456     
  -1552097577.9278753       -25134818.239847779        591897960.64189780     
  -1412128661.5493121       -30177968.133512080        577236008.58858216     
  -1273286510.1071494       -38977001.148504913        561367580.28872561     
  -1135571123.6014004       -51531917.284876883        544292675.74233651     
  -1868830132.8987644       -17993987.613664508        455444327.55467755     
  -1730677877.9830282       -21855345.177932024        442029297.33349693     
  -1592557939.9208953       -25824425.587549627        428150590.15759736     
  -1454470318.7123666       -29901228.842520356        413808206.02697223     
  -1316415014.3574522       -34085754.942866206        399002144.94161981     
  -2043480786.6007965       -11844557.773622394        304246381.81539416     
  -1906149674.3933887       -17643321.022583485        292148653.27641177     
  -1767756430.9567862       -19901646.840886235        280330047.07451040     
  -1628301056.2909954       -18619535.228565872        268790563.20970988     
  -1487783550.3960044       -13796986.185589075        257530201.68200064     
  -2217145220.3489432       -5399261.9474449158        151759599.23081654     
  -2078512967.1589470       -12498745.773771644        142256028.47061834     
  -1937724134.6569810       -12409631.893530488        133774379.33933865     
  -1794778722.8430192       -5131920.3066265583        126314651.83694784     
  -1649676731.7170610        9334388.9869085550        119876845.96348421     
  -2389823434.1431746        1341899.8649806976       -2016020.1990573676     
  -2247767756.2797203       -6421619.4315512180       -7648577.0838621631     
  -2102461051.0214691       -3348380.7454161644       -11516413.047949353     
  -1953903318.3684330        10561615.923323989       -13619528.091306606     
  -1802094558.3206148        35308370.574683547       -13957922.213946573     
  -1135571123.6014004       -51531917.284876883        544292675.74233651     
  -950977417.51998329       -40302306.585723579        562613311.49424994     
  -758847475.53768325       -3951909.5503105521        591834121.35180390     
  -559181297.65450799        57519273.821355581        631955105.31498182     
  -351978883.87044537        144111243.52932429        682976263.38378751     
  -1316415014.3574522       -34085754.942866206        399002144.94161981     
  -1117081996.1569433       -14415057.875354350        420953544.93149006     
  -914108809.00559103        17389535.694977045        441394760.20695686     
  -707495452.90337670        61328025.768156111        460325790.76800227     
  -497241927.85033166        117400412.34412590        477746636.61464930     
  -1487783550.3960044       -13796986.185589075        257530201.68200064     
  -1309169388.1336570        3677346.8330921531        278566954.46811628     
  -1130811123.8704975        20298686.521153510        285683163.71978307     
  -952708757.60651135        36067032.878643930        278878829.43700427     
  -774862289.34171462        50982385.905481756        258153951.61977535     
  -1649676731.7170610        9334388.9869085550        119876845.96348421     
  -1527239593.4501238        13974907.539624214        135453540.10413226     
  -1408954420.1324091        4775542.9282474518        124699331.89030698     
  -1294821211.7639105       -18263704.847171068        87614221.321983114     
  -1184839968.3446281       -55142835.786649883        24198208.399177410     
  -1802094558.3206148        35308370.574683547       -13957922.213946573     
  -1771292612.1063428        16477624.244217515       -8386698.1604529247     
  -1748538697.7913284       -29179895.083774209       -41556735.281489186     
  -1733832815.3755424       -101664187.40919924       -113468033.57704975     
  -1727174964.8590288       -200975252.73218763       -224120593.04714248     
  -351978883.87044537        144111243.52932429        682976263.38378751     
  -277893973.69048291        285276365.02614146        786312029.30012822     
  -149032066.74981388        609031475.72531962        905460941.02573454     
   34606836.951556027        1115376575.6268256        1040422998.5605851     
   273022737.41364074        1804311664.7307143        1191198201.9046974     
  -497241927.85033166        117400412.34412590        477746636.61464930     
  -388347650.12591219        223084846.74680281        597033010.16049492     
  -230333219.13786641        492503125.36155081        735470525.33762431     
  -23198634.886215389        925655248.18833578        893059182.14602530     
   233056102.62906787        1522541215.2272060        1069798980.5857062     
  -774862289.34171462        50982385.905481756        258153951.61977535     
  -621621513.15278077        124047272.49002230        386791282.04852813     
  -424917427.19731247        341989858.29635644        537917749.93058515     
  -184750031.47531083        704810143.32444179        711533355.26594412     
   98880674.013226032        1212508127.5743303        907638098.05460584     
  -1184839968.3446281       -55142835.786649883        24198208.399177410     
  -977715562.77109993       -11836357.744188368        155586844.96423545     
  -732784690.92812240        157491674.52978340        312802614.80460960     
  -450047352.81571615        452841261.03517830        495845517.92031127     
  -129503548.43386549        874212401.77205336        704715554.31134617     
  -1727174964.8590288       -200975252.73218763       -224120593.04714248     
  -1456629798.9808531       -184566043.95580256       -96580301.092381328     
  -1153935010.3303199       -60991425.938249230        60125119.959712014     
  -819090598.90743923        169748601.32046860        245995670.10914779     
  -452096564.71218342        507654037.82044834        461031349.35594904     
 </DataArray>
 <DataArray  type="Float64" Name="VM" NumberOfComponents="1" format="ascii">
   4889674049.3595886     
   4911553765.4018383     
   4984216458.0524368     
   5059348261.0056982     
   5112985728.5783615     
   5176540847.5129709     
   5096615066.1895723     
   5035153931.2843542     
   4968367379.7143364     
   4882149846.2289143     
   5261228192.8362827     
   5114403062.3690042     
   4968000605.0374680     
   4813782551.8884096     
   4646021136.3834953     
   5183051763.8581047     
   4992817557.9569874     
   4800790252.3008556     
   4606584543.9662638     
   4409951017.6661348     
   5015810038.5236540     
   4781137338.1204100     
   4564494338.3737268     
   4364736365.0619974     
   4181751035.0105042     
   5112985728.5783615     
   4941073874.8473959     
   4771809070.5659275     
   4604918865.1626453     
   4440153611.3634272     
   4882149846.2289143     
   4708607078.6675072     
   4536659446.8023062     
   4366251888.5679865     
   4197341553.0031371     
   4646021136.3834953     
   4474945292.4388475     
   4305348379.9499664     
   4137339740.4615188     
   3971059927.6125498     
   4409951017.6661348     
   4245220358.0169063     
   4082870767.6235228     
   3923125546.3479609     
   3766290231.2254572     
   4181751035.0105042     
   4026598573.3136315     
   3875868495.3355784     
   3729831956.0610638     
   3588920773.4619970     
   4440153611.3634272     
   4267669870.8972421     
   4094514337.1469941     
   3920692973.5868874     
   3746234573.6538563     
   4197341553.0031371     
   4032064096.2681632     
   3866543254.4355659     
   3700825617.6606007     
   3534994465.0338812     
   3971059927.6125498     
   3814012732.9357243     
   3657333363.0204635     
   3501127208.4836936     
   3345554269.0471110     
   3766290231.2254572     
   3618509566.9660382     
   3471911134.3714356     
   3326675398.3245125     
   3183057560.3899651     
   3588920773.4619970     
   3451387657.4015641     
   3316059664.3519616     
   3183201014.8010244     
   3053169112.5693140     
   3746234573.6538563     
   3565536210.8802776     
   3385326698.2109628     
   3205694037.2763567     
   3026808828.1880145     
   3534994465.0338812     
   3365185459.1078258     
   3196424176.8825226     
   3028852249.3148026     
   2862698988.7628984     
   3345554269.0471110     
   3186169208.5221295     
   3028421745.9513674     
   2872514608.3857098     
   2718743281.7816262     
   3183057560.3899651     
   3033755332.5872111     
   2886703831.3659582     
   2742171276.2475462     
   2600522269.4952087     
   3053169112.5693140     
   2913742723.5873551     
   2777185795.7869592     
   2643830444.3651328     
   2514105351.2803950     
   3026808828.1880145     
   2868683083.6617079     
   2709919328.5224729     
   2550519820.2129703     
   2390497213.4527216     
   2862698988.7628984     
   2704915354.1103749     
   2546855238.4848280     
   2388538491.5861921     
   2229996423.8982825     
   2718743281.7816262     
   2564240294.1011662     
   2410296864.1678433     
   2257035653.5488863     
   2104625256.4268272     
   2600522269.4952087     
   2452245903.9455271     
   2305890537.1654258     
   2161762449.6226044     
   2020274918.6917341     
   2514105351.2803950     
   2374737325.0464540     
   2239141866.9744678     
   2107842306.8897274     
   1981527681.7106686     
   2390497213.4527216     
   2244602928.1554837     
   2100883556.7080219     
   1959347486.5221932     
   1820166193.2987535     
   2229996423.8982825     
   2086888567.7878096     
   1945396907.3760860     
   1805522780.4531472     
   1667342360.8197536     
   2104625256.4268272     
   1963705568.7255940     
   1823713906.8584874     
   1684677389.6627097     
   1546650811.9040868     
   2020274918.6917341     
   1882569708.7777531     
   1745199009.0537770     
   1608290780.5268579     
   1472021556.6259296     
   1981527681.7106686     
   1849772025.5135007     
   1718140599.7837722     
   1586993866.8184941     
   1456853701.5498066     
   1820166193.2987535     
   1779647924.0746198     
   1735626041.0769150     
   1696722758.0689652     
   1681396772.4331574     
   1667342360.8197536     
   1552108916.8859076     
   1427779274.1517696     
   1294710800.0641034     
   1159011521.3753831     
   1546650811.9040868     
   1396979213.5969498     
   1243762205.8083503     
   1084728717.1981635     
   917848292.14238417     
   1472021556.6259296     
   1327999562.7377400     
   1198449515.3659134     
   1087841781.9416447     
   1002065040.3607332     
   1456853701.5498066     
   1348056732.9352446     
   1274232746.8593326     
   1243486090.6443884     
   1262834521.4054594     
   1681396772.4331574     
   1383825805.3779426     
   1129491438.8285646     
   1010101524.3768214     
   1152936376.3040187     
   1159011521.3753831     
   1008522200.3836316     
   985251717.20656145     
   1161462944.3799868     
   1544054447.8781211     
   917848292.14238417     
   963189478.82030630     
   1144943601.5868087     
   1476462920.4162335     
   1957416786.8145628     
   1002065040.3607332     
   1164714758.0674644     
   1425413354.5775664     
   1808732667.2789257     
   2334741731.7340112     
   1262834521.4054594     
   1446631974.5030932     
   1715655461.2859564     
   2110474574.8422585     
   2663517102.9080963     
   5015810038.5236540     
   4781137338.1204100     
   4564494338.3737268     
   4364736365.0619974     
   4181751035.0105042     
   4543632801.1879816     
   4362569778.5536499     
   4196289842.5319405     
   4044202878.6672535     
   3906319938.4346819     
   4136012900.9791260     
   4001603547.7601619     
   3877771794.1558771     
   3764420650.9319534     
   3661732279.9492769     
   3789586452.9542017     
   3696129512.1133327     
   3608378309.1414437     
   3526525026.8217134     
   3450847123.4251170     
   3499984515.8998508     
   3442878963.2216167     
   3386517822.0813422     
   3330981193.6138868     
   3276395517.8284855     
   4181751035.0105042     
   4026598573.3136315     
   3875868495.3355784     
   3729831956.0610638     
   3588920773.4619970     
   3906319938.4346819     
   3770885402.0752263     
   3640085473.7552924     
   3514248736.7934608     
   3393838378.5600839     
   3661732279.9492769     
   3545144864.9015446     
   3433301426.4186888     
   3326568731.9512949     
   3225420345.2792420     
   3450847123.4251170     
   3352494145.7475400     
   3258861250.0022235     
   3170328011.9461145     
   3087352809.5002980     
   3276395517.8284855     
   3195913116.0650144     
   3119961347.6371231     
   3048902712.9598045     
   2983152816.6081858     
   3588920773.4619970     
   3451387657.4015641     
   3316059664.3519616     
   3183201014.8010244     
   3053169112.5693140     
   3393838378.5600839     
   3269593274.5436535     
   3148505946.6318731     
   3030934798.5618114     
   2917338575.7093143     
   3225420345.2792420     
   3115350894.4144959     
   3009461646.8967595     
   2908185850.6040525     
   2812054107.8428292     
   3087352809.5002980     
   2992131469.2668529     
   2902117475.3670211     
   2817782909.7836418     
   2739682722.0266471     
   2983152816.6081858     
   2903076757.9064493     
   2829158788.8576031     
   2761862490.2933536     
   2701711176.1914568     
   3053169112.5693140     
   2913742723.5873551     
   2777185795.7869592     
   2643830444.3651328     
   2514105351.2803950     
   2917338575.7093143     
   2790904658.3471417     
   2668404832.0004358     
   2550310182.5470371     
   2437206263.4163604     
   2812054107.8428292     
   2700367582.3039885     
   2593809447.3860793     
   2492962592.8978791     
   2398523634.0359135     
   2739682722.0266471     
   2644139610.2557883     
   2554935688.6328058     
   2472707607.0367417     
   2398184407.6089888     
   2701711176.1914568     
   2623122760.9428806     
   2551977274.6686506     
   2488892510.6592259     
   2434544913.6656675     
   2514105351.2803950     
   2374737325.0464540     
   2239141866.9744678     
   2107842306.8897274     
   1981527681.7106686     
   2437206263.4163604     
   2312989925.0078764     
   2193868939.5386562     
   2080551801.3177261     
   1973917514.8070779     
   2398523634.0359135     
   2291250501.9335938     
   2190388318.9677911     
   2096739336.4918580     
   2011239587.3070295     
   2398184407.6089888     
   2308917260.2129488     
   2227167524.4134316     
   2153715095.3294530     
   2089413768.7802315     
   2434544913.6656675     
   2363455614.3712234     
   2300648146.4281206     
   2246788090.8664036     
   2202559531.0191426     
   1981527681.7106686     
   1849772025.5135007     
   1718140599.7837722     
   1586993866.8184941     
   1456853701.5498066     
   1973917514.8070779     
   1856883390.3548734     
   1744308278.0759749     
   1637131222.8062322     
   1536505750.4744267     
   2011239587.3070295     
   1914057815.7788010     
   1825737317.2080984     
   1747497879.5824339     
   1680654179.8989255     
   2089413768.7802315     
   2013672548.3072331     
   1950371859.1615217     
   1900609645.4846008     
   1865433950.1748004     
   2202559531.0191426     
   2146842203.2140794     
   2106142258.6737728     
   2081243843.1762128     
   2072838928.0395498     
   1456853701.5498066     
   1348056732.9352446     
   1274232746.8593326     
   1243486090.6443884     
   1262834521.4054594     
   1536505750.4744267     
   1475778994.4414265     
   1447727175.8251588     
   1456302861.1764250     
   1504792025.5113254     
   1680654179.8989255     
   1652210841.4317641     
   1651473390.1877992     
   1680803569.0260017     
   1742808097.1869805     
   1865433950.1748004     
   1854893113.0417747     
   1867317846.6893215     
   1904913317.4387233     
   1970711334.9171467     
   2072838928.0395498     
   2069224866.6223550     
   2084852178.1104996     
   2122350037.2542417     
   2185531787.4272957     
   1262834521.4054594     
   1446631974.5030932     
   1715655461.2859564     
   2110474574.8422585     
   2663517102.9080963     
   1504792025.5113254     
   1613217640.1081059     
   1788841525.4188738     
   2066406588.2009487     
   2476111134.4141383     
   1742808097.1869805     
   1787652636.0267851     
   1884640935.3956990     
   2060676942.4793248     
   2340985112.9623466     
   1970711334.9171467     
   1968894889.0809188     
   2003618517.0060334     
   2093552767.6106794     
   2257353889.6816335     
   2185531787.4272957     
   2156228551.5534873     
   2146514903.3558326     
   2166912181.0034270     
   2228489354.4967976     
   3499984515.8998508     
   3442878963.2216167     
   3386517822.0813422     
   3330981193.6138868     
   3276395517.8284855     
   3309500416.6244078     
   3257079004.9637885     
   3206906820.6907349     
   3159141745.0267353     
   3113981698.9475818     
   3142706029.3235345     
   3095903660.5063806     
   3053006603.6250534     
   3014224616.6514668     
   2979800509.0233417     
   3008143342.7927623     
   2967018209.7635651     
   2931581182.7075400     
   2902051817.1643939     
   2878674480.3363986     
   2915198628.2430143     
   2878640621.2269287     
   2849644706.2159529     
   2828391021.0170355     
   2815076453.0729451     
   3276395517.8284855     
   3195913116.0650144     
   3119961347.6371231     
   3048902712.9598045     
   2983152816.6081858     
   3113981698.9475818     
   3045335303.2159262     
   2982222579.0819550     
   2925012826.0119090     
   2874120753.3512764     
   2979800509.0233417     
   2923081878.0547719     
   2872899640.6415663     
   2829598013.8559375     
   2793554828.5767999     
   2878674480.3363986     
   2833352399.9324436     
   2795525987.2595563     
   2765482609.6616397     
   2743530455.0733924     
   2815076453.0729451     
   2779850819.5042586     
   2753006104.2062621     
   2734750217.7696400     
   2725301499.0948629     
   2983152816.6081858     
   2903076757.9064493     
   2829158788.8576031     
   2761862490.2933536     
   2701711176.1914568     
   2874120753.3512764     
   2807905419.5430932     
   2748502386.5006118     
   2696336064.4406481     
   2651871674.5607409     
   2793554828.5767999     
   2740761690.1266565     
   2695334490.3967652     
   2657630751.1891899     
   2628030849.1616859     
   2743530455.0733924     
   2703226867.5723672     
   2670720712.7170200     
   2646285299.3112321     
   2630203259.0556073     
   2725301499.0948629     
   2696036395.8155217     
   2674881603.1538000     
   2662023004.6074066     
   2657648166.8822131     
   2701711176.1914568     
   2623122760.9428806     
   2551977274.6686506     
   2488892510.6592259     
   2434544913.6656675     
   2651871674.5607409     
   2588511174.4916878     
   2533256506.9281554     
   2486637863.2894549     
   2449213207.3269844     
   2628030849.1616859     
   2579090997.7901068     
   2538734595.1983399     
   2507377389.7099967     
   2485440256.7921863     
   2630203259.0556073     
   2594344907.0822906     
   2567375297.8002977     
   2549590010.3179255     
   2541277630.6780758     
   2657648166.8822131     
   2633074085.6324492     
   2617566024.1108274     
   2611311603.4840341     
   2614488222.5149679     
   2434544913.6656675     
   2363455614.3712234     
   2300648146.4281206     
   2246788090.8664036     
   2202559531.0191426     
   2449213207.3269844     
   2393570940.8234282     
   2347082321.1369724     
   2310284999.3044653     
   2283701320.1586943     
   2485440256.7921863     
   2444168485.1177454     
   2412672343.4331989     
   2391343362.5694022     
   2380541302.7973666     
   2541277630.6780758     
   2512736826.6016335     
   2494411586.0385671     
   2486557698.6456904     
   2489397865.3015890     
   2614488222.5149679     
   2596646755.2774053     
   2589370682.4711452     
   2592806486.2800431     
   2607075466.7370481     
   2202559531.0191426     
   2146842203.2140794     
   2106142258.6737728     
   2081243843.1762128     
   2072838928.0395498     
   2283701320.1586943     
   2242953739.3478556     
   2216181763.6401215     
   2203843907.6882262     
   2206334158.2215738     
   2380541302.7973666     
   2351769521.7631297     
   2335903065.6803613     
   2333195643.6053786     
   2343870348.2553978     
   2489397865.3015890     
   2469904164.4070573     
   2462335745.4065270     
   2466829599.6806831     
   2483520353.8045173     
   2607075466.7370481     
   2594533656.0649123     
   2593088950.2169132     
   2602819938.2999268     
   2623822484.5015302     
   2072838928.0395498     
   2069224866.6223550     
   2084852178.1104996     
   2122350037.2542417     
   2185531787.4272957     
   2206334158.2215738     
   2191871377.1678133     
   2192407968.0874348     
   2209912089.0115447     
   2247304091.5000768     
   2343870348.2553978     
   2319378245.1027184     
   2306428070.8925061     
   2306424940.5246811     
   2321457022.9107199     
   2483520353.8045173     
   2450771887.8787236     
   2426594145.6358991     
   2411932262.8892837     
   2408162092.4668694     
   2623822484.5015302     
   2585271998.9016209     
   2552622683.6184497     
   2526455510.6300383     
   2507577605.8445883     
   2185531787.4272957     
   2156228551.5534873     
   2146514903.3558326     
   2166912181.0034270     
   2228489354.4967976     
   2247304091.5000768     
   2182629261.6265268     
   2134390664.9603570     
   2112254069.6079175     
   2127152563.1242442     
   2321457022.9107199     
   2224746433.8823037     
   2141368156.0582838     
   2079687729.6997623     
   2049876904.4879200     
   2408162092.4668694     
   2282874191.7230110     
   2168094432.8134789     
   2070564296.6351137     
   1999053921.8551338     
   2507577605.8445883     
   2357222091.2237315     
   2215040217.6912546     
   2086014948.9748721     
   1977026151.6504500     
   2915198628.2430143     
   2878640621.2269287     
   2849644706.2159529     
   2828391021.0170355     
   2815076453.0729451     
   2771985155.6871409     
   2746429407.2008653     
   2728527573.7280703     
   2718391110.9032850     
   2716138948.7105136     
   2674985877.6569915     
   2658247271.3400536     
   2649125288.0354266     
   2647671966.9578123     
   2653941690.2331014     
   2628104620.3643298     
   2617518486.0513310     
   2614394392.1267447     
   2618745350.1367388     
   2630584744.3991923     
   2632819261.4637084     
   2625439157.3838100     
   2625276092.7816062     
   2632330067.6571007     
   2646601082.0102949     
   2815076453.0729451     
   2779850819.5042586     
   2753006104.2062621     
   2734750217.7696400     
   2725301499.0948629     
   2716138948.7105136     
   2691036029.6331697     
   2674367439.5147290     
   2666257119.8638277     
   2666832478.8242373     
   2653941690.2331014     
   2636606080.0951023     
   2627667752.2345428     
   2627183157.0585508     
   2635209322.6535048     
   2630584744.3991923     
   2618286491.1600657     
   2614282768.0732393     
   2618587569.6593451     
   2631214865.9355397     
   2646601082.0102949     
   2636421609.0642872     
   2634394669.6754684     
   2640520263.8438392     
   2654798391.5693936     
   2725301499.0948629     
   2696036395.8155217     
   2674881603.1538000     
   2662023004.6074066     
   2657648166.8822131     
   2666832478.8242373     
   2646257817.9195538     
   2633927658.2261543     
   2629952058.8939176     
   2634439871.7417040     
   2635209322.6535048     
   2621185929.4849277     
   2615497370.4686904     
   2618194008.4117565     
   2629324865.0678444     
   2631214865.9355397     
   2621298502.3285718     
   2619792872.9927907     
   2626710699.0464768     
   2642064230.7103186     
   2654798391.5693936     
   2646372160.8496609     
   2646442631.4060264     
   2655009803.2384849     
   2672073676.3470378     
   2657648166.8822131     
   2633074085.6324492     
   2617566024.1108274     
   2611311603.4840341     
   2614488222.5149679     
   2634439871.7417040     
   2618356361.1127901     
   2611364496.1057782     
   2613570966.3759565     
   2625074356.2147436     
   2629324865.0678444     
   2619657130.6521401     
   2619111375.6063924     
   2627735042.0265164     
   2645571156.6796365     
   2642064230.7103186     
   2636547367.4326000     
   2640225703.3939738     
   2653111041.9178758     
   2675213944.6912823     
   2672073676.3470378     
   2668342797.7784243     
   2673951837.7800694     
   2688900796.3519640     
   2713189673.4941196     
   2614488222.5149679     
   2596646755.2774053     
   2589370682.4711452     
   2592806486.2800431     
   2607075466.7370481     
   2625074356.2147436     
   2614505067.6204047     
   2614134061.6530461     
   2624037782.0071726     
   2644277734.5804696     
   2645571156.6796365     
   2640521637.1950216     
   2645394921.4980636     
   2660222595.0643334     
   2685029436.6916947     
   2675213944.6912823     
   2673944881.6645923     
   2682440013.2278414     
   2700706731.5413814     
   2728750715.9814248     
   2713189673.4941196     
   2714010418.0453811     
   2724569019.7725577     
   2744865478.6756601     
   2774899794.7546778     
   2607075466.7370481     
   2594533656.0649123     
   2593088950.2169132     
   2602819938.2999268     
   2623822484.5015302     
   2644277734.5804696     
   2633413661.8481226     
   2632810405.9738827     
   2642507071.5448012     
   2662554001.0251112     
   2685029436.6916947     
   2675546135.4949589     
   2675667104.2648783     
   2685407657.6694798     
   2704788634.9657960     
   2728750715.9814248     
   2720504671.1090055     
   2721366421.3817806     
   2731339317.2646484     
   2750428191.6566787     
   2774899794.7546778     
   2767886619.2095876     
   2769627544.0275879     
   2780122569.2086978     
   2799371694.7529116     
   2623822484.5015302     
   2585271998.9016209     
   2552622683.6184497     
   2526455510.6300383     
   2507577605.8445883     
   2662554001.0251112     
   2617086729.3961353     
   2577290191.4949889     
   2543494965.5309367     
   2516162699.2226777     
   2704788634.9657960     
   2654491980.9316301     
   2609778633.2473531     
   2570795850.9071178     
   2537749852.3625212     
   2750428191.6566787     
   2697395237.8815346     
   2650000735.5201983     
   2608281257.7750845     
   2572288036.7087445     
   2799371694.7529116     
   2745695252.7046018     
   2697854601.4101110     
   2655849740.8694496     
   2619680671.0826187     
   2507577605.8445883     
   2357222091.2237315     
   2215040217.6912546     
   2086014948.9748721     
   1977026151.6504500     
   2516162699.2226777     
   2348270752.5309277     
   2183940713.3591089     
   2026274135.9923108     
   1879838271.4353518     
   2537749852.3625212     
   2357413996.6319261     
   2176823448.2892351     
   1997450487.0440748     
   1821574212.0498445     
   2572288036.7087445     
   2384755509.9348135     
   2194155317.1000757     
   2000865877.8781824     
   1805491381.8056178     
   2619680671.0826187     
   2430264106.0629482     
   2236078836.0644526     
   2037124861.0871482     
   1833402181.1310394     
   2632819261.4637084     
   2625439157.3838100     
   2625276092.7816062     
   2632330067.6571007     
   2646601082.0102949     
   2628104637.7804265     
   2617518503.6023812     
   2614394409.9684925     
   2618745368.4178519     
   2630584763.2625628     
   2674985916.9363780     
   2658247309.8873644     
   2649125325.9967341     
   2647672004.4726777     
   2653941727.4409380     
   2771985220.4048958     
   2746429469.3901167     
   2728527633.3697500     
   2718391167.9739079     
   2716139003.1975331     
   2915198720.9250507     
   2878640708.8029342     
   2849644788.3662438     
   2828391097.4122300     
   2815076523.4013090     
   2646601082.0102949     
   2636421609.0642872     
   2634394669.6754684     
   2640520263.8438392     
   2654798391.5693936     
   2630584763.2625628     
   2618286505.8306394     
   2614282778.2923589     
   2618587575.1888638     
   2631214866.5589914     
   2653941727.4409380     
   2636606109.4772024     
   2627667773.2671490     
   2627183169.2501321     
   2635209325.5481238     
   2716139003.1975331     
   2691036073.4962792     
   2674367471.9507213     
   2666257140.0979476     
   2666832486.1169300     
   2815076523.4013090     
   2779850877.4135160     
   2753006148.6083126     
   2734750247.5812025     
   2725301513.2477269     
   2654798391.5693936     
   2646372160.8496609     
   2646442631.4060264     
   2655009803.2384849     
   2672073676.3470378     
   2631214866.5589914     
   2621298501.7084274     
   2619792871.1824288     
   2626710696.1013370     
   2642064226.6864948     
   2635209325.5481238     
   2621185929.7042999     
   2615497368.0851498     
   2618194003.5042996     
   2629324857.7203608     
   2666832486.1169300     
   2646257820.9671617     
   2633927657.0743561     
   2629952053.6011806     
   2634439862.3787012     
   2725301513.2477269     
   2696036404.0852013     
   2674881605.5065761     
   2662023001.0274944     
   2657648157.3742733     
   2672073676.3470378     
   2668342797.7784243     
   2673951837.7800694     
   2688900796.3519640     
   2713189673.4941196     
   2642064226.6864948     
   2636547363.9859891     
   2640225700.9104152     
   2653111040.7711864     
   2675213945.2438216     
   2629324857.7203608     
   2619657124.1363387     
   2619111370.6998987     
   2627735039.4892259     
   2645571157.2541013     
   2634439862.3787012     
   2618356352.3329563     
   2611364489.0903206     
   2613570962.2939711     
   2625074356.2223821     
   2657648157.3742733     
   2633074075.8042274     
   2617566015.5556116     
   2611311597.8047915     
   2614488221.3216505     
   2713189673.4941196     
   2714010418.0453811     
   2724569019.7725577     
   2744865478.6756601     
   2774899794.7546778     
   2675213945.2438216     
   2673944881.8959880     
   2682440013.1111660     
   2700706731.0530276     
   2728750715.1009154     
   2645571157.2541013     
   2640521637.2701325     
   2645394921.0261207     
   2660222594.0022950     
   2685029435.0010557     
   2625074356.2223821     
   2614505067.0998297     
   2614134060.5422015     
   2624037780.2478342     
   2644277732.1183472     
   2614488221.3216505     
   2596646753.6767039     
   2589370680.3946896     
   2592806483.6600919     
   2607075463.5069351     
   2774899794.7546778     
   2767886619.2095876     
   2769627544.0275879     
   2780122569.2086978     
   2799371694.7529116     
   2728750715.1009154     
   2720504670.4344821     
   2721366420.8830237     
   2731339316.9112558     
   2750428191.4182477     
   2685029435.0010557     
   2675546134.2003131     
   2675667103.3042941     
   2685407656.9807777     
   2704788634.4867878     
   2644277732.1183472     
   2633413659.9646096     
   2632810404.5729876     
   2642507070.5300798     
   2662554000.2997050     
   2607075463.5069351     
   2594533653.5982213     
   2593088948.3803821     
   2602819936.9589486     
   2623822483.5200877     
   2799371694.7529116     
   2745695252.7046018     
   2697854601.4101110     
   2655849740.8694496     
   2619680671.0826187     
   2750428191.4182477     
   2697395237.6715293     
   2650000735.3341889     
   2608281257.6086221     
   2572288036.5572491     
   2704788634.4867878     
   2654491980.5126691     
   2609778632.8794370     
   2570795850.5813241     
   2537749852.0699000     
   2662554000.2997050     
   2617086728.7663770     
   2577290190.9471312     
   2543494965.0515046     
   2516162698.7984881     
   2623822483.5200877     
   2585271998.0562119     
   2552622682.8903642     
   2526455510.0011320     
   2507577605.2974758     
   2619680671.0826187     
   2430264106.0629482     
   2236078836.0644526     
   2037124861.0871482     
   1833402181.1310394     
   2572288036.5572491     
   2384755509.8329277     
   2194155317.0453396     
   2000865877.8705730     
   1805491381.8495109     
   2537749852.0699000     
   2357413996.4315491     
   2176823448.1755972     
   1997450487.0156302     
   1821574212.1115401     
   2516162698.7984881     
   2348270752.2348228     
   2183940713.1820111     
   2026274135.9293993     
   1879838271.4879665     
   2507577605.2974758     
   2357222090.8341141     
   2215040217.4459143     
   2086014948.8640912     
   1977026151.6686018     
   2915198720.9250507     
   2878640708.8029342     
   2849644788.3662438     
   2828391097.4122300     
   2815076523.4013090     
   3008143431.0694199     
   2967018289.7379131     
   2931581254.7401910     
   2902051881.5828052     
   2878674537.4715538     
   3142706108.3765092     
   3095903728.1484408     
   3053006660.8621798     
   3014224664.4959798     
   2979800548.5271249     
   3309500483.4969983     
   3257079056.9328666     
   3206906859.3778610     
   3159141772.1445713     
   3113981716.3189087     
   3499984569.2148337     
   3442878997.4133716     
   3386517839.3625326     
   3330981196.3962870     
   3276395508.7180338     
   2815076523.4013090     
   2779850877.4135160     
   2753006148.6083126     
   2734750247.5812025     
   2725301513.2477269     
   2878674537.4715538     
   2833352447.0802016     
   2795526023.2927175     
   2765482633.4144688     
   2743530465.3459339     
   2979800548.5271249     
   2923081911.1124191     
   2872899666.2505331     
   2829598030.9343882     
   2793554835.9546695     
   3113981716.3189087     
   3045335318.4834838     
   2982222591.5321927     
   2925012834.8262506     
   2874120757.5795016     
   3276395508.7180338     
   3195913109.7000694     
   3119961343.7339754     
   3048902711.1256561     
   2983152816.2968478     
   2725301513.2477269     
   2696036404.0852013     
   2674881605.5065761     
   2662023001.0274944     
   2657648157.3742733     
   2743530465.3459339     
   2703226873.7891970     
   2670720714.4348278     
   2646285296.0977397     
   2630203250.4936929     
   2793554835.9546695     
   2740761695.4245925     
   2695334492.7754869     
   2657630749.8019595     
   2628030843.1580968     
   2874120757.5795016     
   2807905423.9530401     
   2748502389.8910508     
   2696336065.5738840     
   2651871672.1623640     
   2983152816.2968478     
   2903076760.4207149     
   2829158792.6855388     
   2761862493.8516369     
   2701711177.8167653     
   2657648157.3742733     
   2633074075.8042274     
   2617566015.5556116     
   2611311597.8047915     
   2614488221.3216505     
   2630203250.4936929     
   2594344898.6525145     
   2567375290.7874441     
   2549590006.0414333     
   2541277630.4892049     
   2628030843.1580968     
   2579090991.8512673     
   2538734590.2894325     
   2507377386.8558774     
   2485440257.0769691     
   2651871672.1623640     
   2588511171.7709951     
   2533256504.5086436     
   2486637861.8727708     
   2449213207.6975698     
   2701711177.8167653     
   2623122761.7481217     
   2551977274.9131494     
   2488892510.6859865     
   2434544913.9122043     
   2614488221.3216505     
   2596646753.6767039     
   2589370680.3946896     
   2592806483.6600919     
   2607075463.5069351     
   2541277630.4892049     
   2512736825.7744465     
   2494411584.5562305     
   2486557696.4877396     
   2489397862.4446955     
   2485440257.0769691     
   2444168484.6493950     
   2412672342.2571888     
   2391343360.7233725     
   2380541300.3112354     
   2449213207.6975698     
   2393570940.4047441     
   2347082320.0500474     
   2310284997.6594291     
   2283701318.0532985     
   2434544913.9122043     
   2363455613.8290644     
   2300648145.3070941     
   2246788089.3650899     
   2202559529.3208694     
   2607075463.5069351     
   2594533653.5982213     
   2593088948.3803821     
   2602819936.9589486     
   2623822483.5200877     
   2489397862.4446955     
   2469904162.2133846     
   2462335743.7656317     
   2466829598.4799843     
   2483520352.9291730     
   2380541300.3112354     
   2351769519.8441567     
   2335903064.2378950     
   2333195642.5458674     
   2343870347.4821205     
   2283701318.0532985     
   2242953737.7139230     
   2216181762.4041209     
   2203843906.7731895     
   2206334157.5466928     
   2202559529.3208694     
   2146842201.8875964     
   2106142257.6601820     
   2081243842.4130945     
   2072838927.4604595     
   2623822483.5200877     
   2585271998.0562119     
   2552622682.8903642     
   2526455510.0011320     
   2507577605.2974758     
   2483520352.9291730     
   2450771887.1215305     
   2426594144.9802208     
   2411932262.3196697     
   2408162091.9695263     
   2343870347.4821205     
   2319378244.4348030     
   2306428070.3145928     
   2306424940.0234265     
   2321457022.4756789     
   2206334157.5466928     
   2191871376.5910625     
   2192407967.5936389     
   2209912088.5886655     
   2247304091.1405892     
   2072838927.4604595     
   2069224866.1399434     
   2084852177.7084501     
   2122350036.9207883     
   2185531787.1571708     
   2507577605.2974758     
   2357222090.8341141     
   2215040217.4459143     
   2086014948.8640912     
   1977026151.6686018     
   2408162091.9695263     
   2282874191.3729138     
   2168094432.6015840     
   2070564296.5529597     
   1999053921.8933070     
   2321457022.4756789     
   2224746433.5741673     
   2141368155.8714485     
   2079687729.6255896     
   2049876904.5112863     
   2247304091.1405892     
   2182629261.3632498     
   2134390664.7907674     
   2112254069.5224376     
   2127152563.1017916     
   2185531787.1571708     
   2156228551.3385172     
   2146514903.1963735     
   2166912180.8890982     
   2228489354.4017577     
   3499984569.2148337     
   3442878997.4133716     
   3386517839.3625326     
   3330981196.3962870     
   3276395508.7180338     
   3789586516.5933475     
   3696129549.2509203     
   3608378323.2512317     
   3526525021.3223968     
   3450847101.7289329     
   4136012968.6492982     
   4001603582.4610891     
   3877771801.3693805     
   3764420635.6176114     
   3661732246.7463188     
   4543632869.2329369     
   4362569808.2833776     
   4196289841.7364650     
   4044202854.0814734     
   3906319896.1713743     
   5015810106.0063772     
   4781137363.0371447     
   4564494330.7814274     
   4364736333.4736023     
   4181750987.1337180     
   3276395508.7180338     
   3195913109.7000694     
   3119961343.7339754     
   3048902711.1256561     
   2983152816.2968478     
   3450847101.7289329     
   3352494128.4087820     
   3258861237.4618745     
   3170328004.5680618     
   3087352807.5304036     
   3661732246.7463188     
   3545144837.2895565     
   3433301405.5065570     
   3326568718.8156281     
   3225420340.9380941     
   3906319896.1713743     
   3770885366.0524354     
   3640085445.6533065     
   3514248718.3151808     
   3393838371.4306407     
   4181750987.1337180     
   4026598531.5933685     
   3875868461.9055543     
   3729831933.1391530     
   3588920763.3854518     
   2983152816.2968478     
   2903076760.4207149     
   2829158792.6855388     
   2761862493.8516369     
   2701711177.8167653     
   3087352807.5304036     
   2992131470.9235096     
   2902117479.4347696     
   2817782914.9603004     
   2739682726.9129066     
   3225420340.9380941     
   3115350894.4780889     
   3009461650.4311447     
   2908185856.5847359     
   2812054115.1444807     
   3393838371.4306407     
   3269593272.3967738     
   3148505948.7877469     
   3030934804.2545171     
   2917338584.0795813     
   3588920763.3854518     
   3451387652.5518546     
   3316059664.2653461     
   3183201018.9350376     
   3053169120.3008337     
   2701711177.8167653     
   2623122761.7481217     
   2551977274.9131494     
   2488892510.6859865     
   2434544913.9122043     
   2739682726.9129066     
   2644139613.8676896     
   2554935690.9411564     
   2472707608.0842071     
   2398184407.5232248     
   2812054115.1444807     
   2700367588.1696811     
   2593809451.5186076     
   2492962595.0479603     
   2398523634.0126953     
   2917338584.0795813     
   2790904665.5000739     
   2668404837.4135404     
   2550310185.7178817     
   2437206263.8652182     
   3053169120.3008337     
   2913742730.7528048     
   2777185801.6961989     
   2643830448.3254566     
   2514105352.5893717     
   2434544913.9122043     
   2363455613.8290644     
   2300648145.3070941     
   2246788089.3650899     
   2202559529.3208694     
   2398184407.5232248     
   2308917259.5288658     
   2227167523.3534832     
   2153715094.1119537     
   2089413767.6159577     
   2398523634.0126953     
   2291250501.4021721     
   2190388318.1541567     
   2096739335.6260960     
   2011239586.6220093     
   2437206263.8652182     
   2312989924.9530716     
   2193868939.1972337     
   2080551800.9178290     
   1973917514.5897253     
   2514105352.5893717     
   2374737325.7905674     
   2239141867.3493371     
   2107842307.1057403     
   1981527681.9975939     
   2202559529.3208694     
   2146842201.8875964     
   2106142257.6601820     
   2081243842.4130945     
   2072838927.4604595     
   2089413767.6159577     
   2013672547.4113586     
   1950371858.4883890     
   1900609644.9828949     
   1865433949.7876265     
   2011239586.6220093     
   1914057815.2712195     
   1825737316.8477237     
   1747497879.3330133     
   1680654179.7179658     
   1973917514.5897253     
   1856883390.2271302     
   1744308278.0256891     
   1637131222.8171515     
   1536505750.5254805     
   1981527681.9975939     
   1849772025.7972100     
   1718140600.0717454     
   1586993867.1180203     
   1456853701.8671906     
   2072838927.4604595     
   2069224866.1399434     
   2084852177.7084501     
   2122350036.9207883     
   2185531787.1571708     
   1865433949.7876265     
   1854893112.7278867     
   1867317846.4412220     
   1904913317.2517760     
   1970711334.7907302     
   1680654179.7179658     
   1652210841.2917097     
   1651473390.0891640     
   1680803568.9715235     
   1742808097.1817958     
   1536505750.5254805     
   1475778994.4903290     
   1447727175.8781977     
   1456302861.2435739     
   1504792025.6053958     
   1456853701.8671906     
   1348056733.1991980     
   1274232747.0764465     
   1243486090.8285606     
   1262834521.5783136     
   2185531787.1571708     
   2156228551.3385172     
   2146514903.1963735     
   2166912180.8890982     
   2228489354.4017577     
   1970711334.7907302     
   1968894888.9650111     
   2003618516.9043384     
   2093552767.5206182     
   2257353889.5888834     
   1742808097.1817958     
   1787652635.9987404     
   1884640935.3496413     
   2060676942.4189348     
   2340985112.8850856     
   1504792025.6053958     
   1613217640.1578012     
   1788841525.4274230     
   2066406588.1763165     
   2476111134.3649673     
   1262834521.5783136     
   1446631974.6222131     
   1715655461.3489683     
   2110474574.8598609     
   2663517102.8996549     
   5015810106.0063772     
   4781137363.0371447     
   4564494330.7814274     
   4364736333.4736023     
   4181750987.1337180     
   5183051821.7108936     
   4992817585.3519058     
   4800790253.0808439     
   4606584523.2041960     
   4409950981.3386469     
   5261228262.1704330     
   5114403107.1275740     
   4968000627.4448633     
   4813782555.8898182     
   4646021126.6731653     
   5176540938.6202135     
   5096615136.5968447     
   5035153984.8025112     
   4968367420.3923244     
   4882149877.4787378     
   4889674164.7887983     
   4911553864.7248735     
   4984216549.0098782     
   5059348348.2031860     
   5112985813.8753157     
   4181750987.1337180     
   4026598531.5933685     
   3875868461.9055543     
   3729831933.1391530     
   3588920763.3854518     
   4409950981.3386469     
   4245220324.6873350     
   4082870739.4642477     
   3923125525.6417632     
   3766290220.4392562     
   4646021126.6731653     
   4474945279.8955278     
   4305348366.2679501     
   4137339727.4929338     
   3971059917.4338017     
   4882149877.4787378     
   4708607098.9260006     
   4536659456.7839222     
   4366251889.2378855     
   4197341545.5988579     
   5112985813.8753157     
   4941073939.1387424     
   4771809113.0548239     
   4604918885.4760122     
   4440153609.5025444     
   3588920763.3854518     
   3451387652.5518546     
   3316059664.2653461     
   3183201018.9350376     
   3053169120.3008337     
   3766290220.4392562     
   3618509560.2152514     
   3471911131.5253210     
   3326675399.1972566     
   3183057564.7464280     
   3971059917.4338017     
   3814012724.8959770     
   3657333357.1917233     
   3501127204.9017105     
   3345554267.7234802     
   4197341545.5988579     
   4032064088.2567573     
   3866543245.9743805     
   3700825608.8810086     
   3534994456.0563850     
   4440153609.5025444     
   4267669864.7429457     
   4094514326.8419828     
   3920692959.2492390     
   3746234555.3914471     
   3053169120.3008337     
   2913742730.7528048     
   2777185801.6961989     
   2643830448.3254566     
   2514105352.5893717     
   3183057564.7464280     
   3033755337.1907883     
   2886703835.6184216     
   2742171279.5296001     
   2600522271.1477180     
   3345554267.7234802     
   3186169208.7354169     
   3028421747.2660518     
   2872514610.3394198     
   2718743283.8585610     
   3534994456.0563850     
   3365185453.3199492     
   3196424174.0600996     
   3028852249.2121391     
   2862698991.0827808     
   3746234555.3914471     
   3565536197.7210937     
   3385326690.1707854     
   3205694034.3631034     
   3026808830.3723216     
   2514105352.5893717     
   2374737325.7905674     
   2239141867.3493371     
   2107842307.1057403     
   1981527681.9975939     
   2600522271.1477180     
   2452245905.1640267     
   2305890538.0525928     
   2161762450.2938108     
   2020274919.2776778     
   2718743283.8585610     
   2564240295.9146714     
   2410296865.7436504     
   2257035654.9194899     
   2104625257.6319990     
   2862698991.0827808     
   2704915356.4351935     
   2546855240.7826328     
   2388538493.8262959     
   2229996426.0513167     
   3026808830.3723216     
   2868683086.2586575     
   2709919331.4619055     
   2550519823.4233284     
   2390497216.8632736     
   1981527681.9975939     
   1849772025.7972100     
   1718140600.0717454     
   1586993867.1180203     
   1456853701.8671906     
   2020274919.2776778     
   1882569709.2381439     
   1745199009.4271660     
   1608290780.8548980     
   1472021556.9540069     
   2104625257.6319990     
   1963705569.6254406     
   1823713907.5043647     
   1684677390.1082537     
   1546650812.2067828     
   2229996426.0513167     
   2086888569.3870912     
   1945396908.4678969     
   1805522781.0826597     
   1667342361.0336902     
   2390497216.8632736     
   2244602930.6894741     
   2100883558.3923166     
   1959347487.3789721     
   1820166193.3501589     
   1456853701.8671906     
   1348056733.1991980     
   1274232747.0764465     
   1243486090.8285606     
   1262834521.5783136     
   1472021556.9540069     
   1327999563.0182173     
   1198449515.5954938     
   1087841782.1212077     
   1002065040.4964398     
   1546650812.2067828     
   1396979213.8662422     
   1243762206.0348413     
   1084728717.3711402     
   917848292.24988961     
   1667342361.0336902     
   1552108917.0969880     
   1427779274.3487580     
   1294710800.2332282     
   1159011521.5073555     
   1820166193.3501589     
   1779647924.1721365     
   1735626041.2142911     
   1696722758.2394307     
   1681396772.6431236     
   1262834521.5783136     
   1446631974.6222131     
   1715655461.3489683     
   2110474574.8598609     
   2663517102.8996549     
   1002065040.4964398     
   1164714758.1631682     
   1425413354.6275260     
   1808732667.2945359     
   2334741731.7364802     
   917848292.24988961     
   963189478.89837420     
   1144943601.6239216     
   1476462920.4265490     
   1957416786.8255858     
   1159011521.5073555     
   1008522200.4766245     
   985251717.24523354     
   1161462944.3817663     
   1544054447.8898537     
   1681396772.6431236     
   1383825805.5231335     
   1129491438.8938110     
   1010101524.3654629     
   1152936376.2878494     
 </DataArray>
 <DataArray  type="Float64" Name="strain" NumberOfComponents="3" format="ascii">
   8.1268262939067970E-002  -8.7961334762844956E-003  -2.8554475268346757E-002
   8.2197678658514794E-002  -1.6920901028202096E-002  -1.9395278719333220E-002
   8.3127094377961508E-002  -2.2411671989485710E-002  -1.3153576058037297E-002
   8.4056510097408277E-002  -2.5268446360135068E-002  -9.8293672844592395E-003
   8.4985925816855046E-002  -2.5491224140150481E-002  -9.4226523985987409E-003
   8.7490239206214238E-002  -1.3397325663596971E-002  -1.6823014502659550E-002
   8.5976433108118699E-002  -1.8858556012746719E-002  -9.4528327852718697E-003
   8.4462627010023272E-002  -2.2466011348185377E-002  -4.0516008152503002E-003
   8.2948820911927762E-002  -2.4219691669912835E-002  -6.1931859259600763E-004
   8.1435014813832252E-002  -2.4119596977928981E-002   8.4401388269172983E-004
   8.9205042769386456E-002  -1.7998517850909390E-002  -2.0379057457429461E-003
   8.6196558994099837E-002  -2.0796210997291231E-002   2.7630395630963700E-003
   8.3188075218813134E-002  -2.2520350706885031E-002   6.5435792649198160E-003
   8.0179591443526432E-002  -2.3170936979690488E-002   9.3037133597279539E-003
   7.7171107668239758E-002  -2.2747969815707647E-002   1.1043441847520152E-002
   8.6412673628584874E-002  -2.2599710038221782E-002   1.5800851002402992E-002
   8.2858056316458026E-002  -2.2733865981835841E-002   1.7252338325770555E-002
   7.9303439004331178E-002  -2.2574690065584636E-002   1.8631964182473881E-002
   7.5748821692204371E-002  -2.2122182289468141E-002   1.9939728572512132E-002
   7.2194204380077523E-002  -2.1376342653486230E-002   2.1175631495886138E-002
   7.9113131783809187E-002  -2.7200902225534229E-002   3.6693255741778341E-002
   7.5960925075193364E-002  -2.4671520966380422E-002   3.4015063502751519E-002
   7.2808718366577485E-002  -2.2629029424284200E-002   3.2213553937410960E-002
   6.9656511657961578E-002  -2.1073427599245759E-002   3.1288727045757067E-002
   6.6504304949345727E-002  -2.0004715491264868E-002   3.1240582827789520E-002
   8.4985925816855046E-002  -2.5491224140150481E-002  -9.4226523985987409E-003
   8.2256220551774450E-002  -2.4442327908483497E-002  -7.3641823627771386E-003
   7.9526515286693800E-002  -2.3484080244085881E-002  -5.5183693043183157E-003
   7.6796810021613149E-002  -2.2616481146959078E-002  -3.8852132232223835E-003
   7.4067104756532554E-002  -2.1839530617101199E-002  -2.4647141194898969E-003
   8.1435014813832252E-002  -2.4119596977928981E-002   8.4401388269172983E-004
   7.8558065958415496E-002  -2.3132015871783540E-002   2.1701757866420535E-003
   7.5681117102998741E-002  -2.2223236951026071E-002   3.4145074872828640E-003
   7.2804168247581957E-002  -2.1393260215656421E-002   4.5770089846145778E-003
   6.9927219392165230E-002  -2.0642085665675047E-002   5.6576802786367786E-003
   7.7171107668239758E-002  -2.2747969815707647E-002   1.1043441847520152E-002
   7.4277741996540650E-002  -2.1821703835083833E-002   1.1649142001480650E-002
   7.1384376324841486E-002  -2.0962393657965928E-002   1.2303838726185262E-002
   6.8491010653142351E-002  -2.0170039284354319E-002   1.3007532021634759E-002
   6.5597644981443243E-002  -1.9444640714248618E-002   1.3760221887828356E-002
   7.2194204380077523E-002  -2.1376342653486230E-002   2.1175631495886138E-002
   6.9415248666149829E-002  -2.0511391798383835E-002   2.1072716281738527E-002
   6.6636292952222093E-002  -1.9701550364905840E-002   2.1149624412388809E-002
   6.3857337238294398E-002  -1.8946818353051939E-002   2.1406355887837920E-002
   6.1078381524366676E-002  -1.8247195762822216E-002   2.1842910708084869E-002
   6.6504304949345727E-002  -2.0004715491264868E-002   3.1240582827789520E-002
   6.3970585967243143E-002  -1.9201079761684003E-002   3.0440898627415919E-002
   6.1436866985140531E-002  -1.8440707071845697E-002   2.9951864545893936E-002
   5.8903148003037920E-002  -1.7723597421749490E-002   2.9773480583224265E-002
   5.6369429020935335E-002  -1.7049750811395925E-002   2.9905746739406325E-002
   7.4067104756532554E-002  -2.1839530617101199E-002  -2.4647141194898969E-003
   7.1167610401662973E-002  -2.1085698891066373E-002  -2.3969224726846372E-003
   6.8268116046793448E-002  -2.0287456205406923E-002  -2.2150319396123108E-003
   6.5368621691923867E-002  -1.9444802560123313E-002  -1.9190425202734451E-003
   6.2469127337054342E-002  -1.8557737955215092E-002  -1.5089542146674573E-003
   6.9927219392165230E-002  -2.0642085665675047E-002   5.6576802786367786E-003
   6.7149395711165627E-002  -1.9908903375542075E-002   5.5869689793479616E-003
   6.4371572030166052E-002  -1.9132903419719099E-002   5.6455001415321449E-003
   6.1593748349166463E-002  -1.8314085798205627E-002   5.8332737651890926E-003
   5.8815924668166875E-002  -1.7452450511002304E-002   6.1502898503196235E-003
   6.5597644981443243E-002  -1.9444640714248618E-002   1.3760221887828356E-002
   6.2956635549519857E-002  -1.8732107860017888E-002   1.3549414348511257E-002
   6.0315626117596499E-002  -1.7978350634031179E-002   1.3482992845873190E-002
   5.7674616685673127E-002  -1.7183369036288389E-002   1.3560957379914508E-002
   5.5033607253749783E-002  -1.6347163066789294E-002   1.3783307950635260E-002
   6.1078381524366676E-002  -1.8247195762822216E-002   2.1842910708084869E-002
   5.8589329916725691E-002  -1.7555312344493756E-002   2.1490413634805118E-002
   5.6100278309084720E-002  -1.6823797848343307E-002   2.1297446173410981E-002
   5.3611226701443734E-002  -1.6052652274370707E-002   2.1264008323902336E-002
   5.1122175093802770E-002  -1.5241875622576284E-002   2.1390100086279062E-002
   5.6369429020935335E-002  -1.7049750811395925E-002   2.9905746739406325E-002
   5.4047478812783045E-002  -1.6378516828969625E-002   2.9409966838229940E-002
   5.1725528604630699E-002  -1.5669245062655171E-002   2.9088860124145438E-002
   4.9403578396478354E-002  -1.4921935512453206E-002   2.8942426597152501E-002
   4.7081628188326063E-002  -1.4136588178363219E-002   2.8970666257251365E-002
   6.2469127337054342E-002  -1.8557737955215092E-002  -1.5089542146674573E-003
   5.9455003164030740E-002  -1.7670751087446868E-002  -1.3513839279556406E-003
   5.6440878991006971E-002  -1.6828330653582468E-002  -1.0070299736668620E-003
   5.3426754817983285E-002  -1.6030476653621589E-002  -4.7589235180112155E-004
   5.0412630644959600E-002  -1.5277189087564702E-002   2.4202893764169175E-004
   5.8815924668166875E-002  -1.7452450511002304E-002   6.1502898503196235E-003
   5.5982684247177394E-002  -1.6587329880035029E-002   6.1326387699254803E-003
   5.3149443826187887E-002  -1.5758056227231226E-002   6.2899715260226752E-003
   5.0316203405198365E-002  -1.4964629552590362E-002   6.6222881186108751E-003
   4.7482962984208843E-002  -1.4207049856111875E-002   7.1295885476909682E-003
   5.5033607253749783E-002  -1.6347163066789294E-002   1.3783307950635260E-002
   5.2369450753708829E-002  -1.5503908672623246E-002   1.3599154958875592E-002
   4.9705294253667778E-002  -1.4687781800879873E-002   1.3578185972521972E-002
   4.7041137753626831E-002  -1.3898782451558581E-002   1.3720400991573539E-002
   4.4376981253585829E-002  -1.3136910624660048E-002   1.4025800016031542E-002
   5.1122175093802770E-002  -1.5241875622576284E-002   2.1390100086279062E-002
   4.8615302683624691E-002  -1.4420487465211546E-002   2.1048164638894855E-002
   4.6108430273446660E-002  -1.3617507374528465E-002   2.0857613365830967E-002
   4.3601557863268636E-002  -1.2832935350527298E-002   2.0818446267087183E-002
   4.1094685453090564E-002  -1.2066771393207720E-002   2.0930663342663303E-002
   4.7081628188326063E-002  -1.4136588178363219E-002   2.8970666257251365E-002
   4.4720240036925318E-002  -1.3337066257799568E-002   2.8479667809983400E-002
   4.2358851885524573E-002  -1.2547232948177375E-002   2.8128253705949874E-002
   3.9997463734123800E-002  -1.1767088249495791E-002   2.7916423945150690E-002
   3.7636075582723083E-002  -1.0996632161755171E-002   2.7844178527586472E-002
   5.0412630644959600E-002  -1.5277189087564702E-002   2.4202893764169175E-004
   4.7768747986577598E-002  -1.4522329142241830E-002   1.8318893004498626E-004
   4.5124865328195429E-002  -1.3719758004482219E-002   1.0867728455588033E-004
   4.2480982669813289E-002  -1.2869475674286618E-002   1.8494001176538877E-005
   3.9837100011431259E-002  -1.1971482151655666E-002  -8.7360920094203820E-005
   4.7482962984208843E-002  -1.4207049856111875E-002   7.1295885476909682E-003
   4.4843578237527604E-002  -1.3451600734113223E-002   6.9542525306345304E-003
   4.2204193490846420E-002  -1.2664565782908893E-002   6.8035839748707971E-003
   3.9564808744165236E-002  -1.1845945002498505E-002   6.6775828804004622E-003
   3.6925423997483942E-002  -1.0995738392883814E-002   6.5762492472229983E-003
   4.4376981253585829E-002  -1.3136910624660048E-002   1.4025800016031542E-002
   4.1782433517789763E-002  -1.2380872325985059E-002   1.3717842626285087E-002
   3.9187885781993601E-002  -1.1609373561335345E-002   1.3474891797015442E-002
   3.6593338046197556E-002  -1.0822414330711058E-002   1.3296947528223704E-002
   3.3998790310401428E-002  -1.0019994634111851E-002   1.3184009819908582E-002
   4.1094685453090564E-002  -1.2066771393207720E-002   2.0930663342663303E-002
   3.8585313827363826E-002  -1.1310143917857007E-002   2.0473959216995900E-002
   3.6075942201637082E-002  -1.0554181339761909E-002   2.0122600750990198E-002
   3.3566570575910330E-002  -9.7988836589232783E-003   1.9876587944645828E-002
   3.1057198950183482E-002  -9.0442508753403872E-003   1.9735920797962728E-002
   3.7636075582723083E-002  -1.0996632161755171E-002   2.7844178527586472E-002
   3.5252219166249932E-002  -1.0239415509728622E-002   2.7222602302767573E-002
   3.2868362749776753E-002  -9.4989891181884167E-003   2.6746710836794307E-002
   3.0484506333303560E-002  -8.7753529871354846E-003   2.6416504129666701E-002
   2.8100649916830422E-002  -8.0685071165685907E-003   2.6231982181385005E-002
   3.9837100011431259E-002  -1.1971482151655666E-002  -8.7360920094203820E-005
   3.7430687798093776E-002  -1.1131811780007439E-002  -3.3143836168858520E-004
   3.5024275584756348E-002  -1.0456498902763067E-002  -4.9904457121663359E-004
   3.2617863371418920E-002  -9.9455435199217040E-003  -5.9017954867879308E-004
   3.0211451158081437E-002  -9.5989456314840016E-003  -6.0484329407572979E-004
   3.6925423997483942E-002  -1.0995738392883814E-002   6.5762492472229983E-003
   3.4579389032327823E-002  -1.0184252400634364E-002   6.1644278694384935E-003
   3.2233354067171677E-002  -9.4817934723230857E-003   5.7968897559509958E-003
   2.9887319102015544E-002  -8.8883616079498823E-003   5.4736349067607271E-003
   2.7541284136859412E-002  -8.4039568075144899E-003   5.1946633218672433E-003
   3.3998790310401428E-002  -1.0019994634111851E-002   1.3184009819908582E-002
   3.1680944625657653E-002  -9.2366930212617326E-003   1.2659774936399082E-002
   2.9363098940913990E-002  -8.5070880418840200E-003   1.2147635349418678E-002
   2.7045253256170271E-002  -7.8311796959785115E-003   1.1647591058965165E-002
   2.4727407571426524E-002  -7.2089679835448672E-003   1.1159642065040054E-002
   3.1057198950183482E-002  -9.0442508753403872E-003   1.9735920797962728E-002
   2.8735354578083364E-002  -8.2891336418886574E-003   1.9154602839194512E-002
   2.6413510205983232E-002  -7.5323826114447184E-003   1.8553192209184895E-002
   2.4091665833882996E-002  -6.7739977840066933E-003   1.7931688907934871E-002
   2.1769821461782871E-002  -6.0139791595757441E-003   1.7290092935444062E-002
   2.8100649916830422E-002  -8.0685071165685907E-003   2.6231982181385005E-002
   2.5742618889604885E-002  -7.3415742625162483E-003   2.5648911577822897E-002
   2.3384587862379319E-002  -6.5576771810049173E-003   2.5013560335251039E-002
   2.1026556835153767E-002  -5.7168158720349721E-003   2.4325928453669349E-002
   1.8668525807928216E-002  -4.8189903356062880E-003   2.3586015933077742E-002
   3.0211451158081437E-002  -9.5989456314840016E-003  -6.0484329407572979E-004
   2.9603931655266980E-002  -9.1310901284337165E-003  -3.6342358820906639E-004
   2.8996412152452522E-002  -8.2563619017556045E-003  -1.8007918650404520E-003
   2.8388892649638064E-002  -6.9747609514511366E-003  -4.9169481245711077E-003
   2.7781373146823607E-002  -5.2862872775165659E-003  -9.7118923668000345E-003
   2.7541284136859412E-002  -8.4039568075144899E-003   5.1946633218672433E-003
   2.5523867758802832E-002  -7.8691130918326913E-003   5.8696534000084455E-003
   2.3506451380746252E-002  -7.1243644817211571E-003   5.4036377103642286E-003
   2.1489035002689616E-002  -6.1697109771792769E-003   3.7966162529346204E-003
   1.9471618624633091E-002  -5.0051525782075501E-003   1.0485890277194265E-003
   2.4727407571426524E-002  -7.2089679835448672E-003   1.1159642065040054E-002
   2.1837876533040868E-002  -6.6071360552320546E-003   1.2071234686258481E-002
   1.8948345494655322E-002  -5.9923670616859881E-003   1.2379603754604313E-002
   1.6058814456269721E-002  -5.3646610029082914E-003   1.2084749270077688E-002
   1.3169283417884065E-002  -4.7240178788975351E-003   1.1186671232678524E-002
   2.1769821461782871E-002  -6.0139791595757441E-003   1.7290092935444062E-002
   1.8545957977981281E-002  -5.3451590186310016E-003   1.8241320270541456E-002
   1.5322094494179740E-002  -4.8603696416510689E-003   1.9127106267679828E-002
   1.2098231010378144E-002  -4.5596110286373129E-003   1.9947450926858380E-002
   8.8743675265766028E-003  -4.4428831795877977E-003   2.0702354248078467E-002
   1.8668525807928216E-002  -4.8189903356062880E-003   2.3586015933077742E-002
   1.5648112093623823E-002  -4.0831819820298931E-003   2.4379910152857009E-002
   1.2627698379319541E-002  -3.7283722216163440E-003   2.5646145249589802E-002
   9.6072846650151478E-003  -3.7545610543656613E-003   2.7384721223276398E-002
   6.5868709507108658E-003  -4.1617484802782823E-003   2.9595638073917074E-002
   2.7781373146823607E-002  -5.2862872775165659E-003  -9.7118923668000345E-003
   2.3354333094088964E-002  -4.2070482616884952E-003  -4.1851463808126876E-003
   1.8927293041354265E-002  -4.7531512856979208E-003   2.6054218653966954E-003
   1.4500252988619539E-002  -6.9245963495442736E-003   1.0659812371828170E-002
   1.0073212935884923E-002  -1.0721383453228484E-002   1.9978025138482458E-002
   1.9471618624633091E-002  -5.0051525782075501E-003   1.0485890277194265E-003
   1.6236077589358799E-002  -4.6913051848119780E-003   6.7420966136775284E-003
   1.3000536554084396E-002  -6.2887846969998940E-003   1.3554779974333853E-002
   9.7649955188102155E-003  -9.7975911147701877E-003   2.1486639109688399E-002
   6.5294544835359236E-003  -1.5217724438123970E-002   3.0537674019743388E-002
   1.3169283417884065E-002  -4.7240178788975351E-003   1.1186671232678524E-002
   1.0980594914547198E-002  -5.1755621079350167E-003   1.6760955552860612E-002
   8.7919064112103457E-003  -7.8244181083016728E-003   2.3309769162218358E-002
   6.6032179078734307E-003  -1.2670585879996331E-002   3.0833112060752024E-002
   4.4145294045365158E-003  -1.9714065423019900E-002   3.9330984248461709E-002
   8.8743675265766028E-003  -4.4428831795877977E-003   2.0702354248078467E-002
   7.5878850696541530E-003  -5.6598190310584995E-003   2.5871430436738507E-002
   6.3014026127316512E-003  -9.3600515196035489E-003   3.1870389429051717E-002
   5.0149201558090783E-003  -1.5543580645222582E-002   3.8699231225017741E-002
   3.7284376988865747E-003  -2.4210406407915608E-002   4.6357955824637365E-002
   6.5868709507108658E-003  -4.1617484802782823E-003   2.9595638073917074E-002
   6.0579480546796849E-003  -6.1440759541820933E-003   3.4073521265310713E-002
   5.5290251586486150E-003  -1.0895684930905258E-002   3.9236640774834242E-002
   5.0001022626174341E-003  -1.8416575410448235E-002   4.5084996602487382E-002
   4.4711793665863642E-003  -2.8706747392811316E-002   5.1618588748270966E-002
   7.9113131783809187E-002  -2.7200902225534229E-002   3.6693255741778341E-002
   7.5960925075193364E-002  -2.4671520966380422E-002   3.4015063502751519E-002
   7.2808718366577485E-002  -2.2629029424284200E-002   3.2213553937410960E-002
   6.9656511657961578E-002  -2.1073427599245759E-002   3.1288727045757067E-002
   6.6504304949345727E-002  -2.0004715491264868E-002   3.1240582827789520E-002
   7.0064632910590563E-002  -2.3880828735031168E-002   4.0547258334157732E-002
   6.7685879484515488E-002  -2.1970430344223413E-002   3.8362755141488875E-002
   6.5307126058440301E-002  -2.0397822655526254E-002   3.6848475840215028E-002
   6.2928372632365170E-002  -1.9163005668939692E-002   3.6004420430336193E-002
   6.0549619206290067E-002  -1.8265979384463837E-002   3.5830588911852257E-002
   6.2025392684460029E-002  -2.0560755244528023E-002   4.3707728550717237E-002
   6.0213633758634116E-002  -1.9269339722066348E-002   4.2166013419353610E-002
   5.8401874832808190E-002  -1.8166615886768246E-002   4.1088063397093484E-002
   5.6590115906982298E-002  -1.7252583738633677E-002   4.0473878483936770E-002
   5.4778356981156379E-002  -1.6527243277662779E-002   4.0323458679883739E-002
   5.4995411105417398E-002  -1.7240681754024892E-002   4.6174666391457439E-002
   5.3544187897549299E-002  -1.6568249099909324E-002   4.5424838336346002E-002
   5.2092964689681082E-002  -1.5935409118010269E-002   4.4932316608046557E-002
   5.0641741481812927E-002  -1.5342161808327721E-002   4.4697101206558988E-002
   4.9190518273944800E-002  -1.4788507170861678E-002   4.4719192131883384E-002
   4.8974688173462788E-002  -1.3920608263521816E-002   4.7948071856377839E-002
   4.7677541901260945E-002  -1.3867158477752217E-002   4.8139229892465552E-002
   4.6380395629058990E-002  -1.3704202349252237E-002   4.8381235473073991E-002
   4.5083249356857105E-002  -1.3431739878021598E-002   4.8674088598202825E-002
   4.3786103084655192E-002  -1.3049771064060689E-002   4.9017789267852052E-002
   6.6504304949345727E-002  -2.0004715491264868E-002   3.1240582827789520E-002
   6.3970585967243143E-002  -1.9201079761684003E-002   3.0440898627415919E-002
   6.1436866985140531E-002  -1.8440707071845697E-002   2.9951864545893936E-002
   5.8903148003037920E-002  -1.7723597421749490E-002   2.9773480583224265E-002
   5.6369429020935335E-002  -1.7049750811395925E-002   2.9905746739406325E-002
   6.0549619206290067E-002  -1.8265979384463837E-002   3.5830588911852257E-002
   5.8307305148635136E-002  -1.7551025216270083E-002   3.5160274749898163E-002
   5.6064991090980135E-002  -1.6862424578529947E-002   3.4762120317987089E-002
   5.3822677033325154E-002  -1.6200177471243252E-002   3.4636125616119770E-002
   5.1580362975670202E-002  -1.5564283894410280E-002   3.4782290644295222E-002
   5.4778356981156379E-002  -1.6527243277662779E-002   4.0323458679883739E-002
   5.2788957459140307E-002  -1.5900970670856024E-002   3.9799424065638023E-002
   5.0799557937124248E-002  -1.5284142085214086E-002   3.9509058792626756E-002
   4.8810158415108190E-002  -1.4676757520736904E-002   3.9452362860849938E-002
   4.6820758893092118E-002  -1.4078816977424635E-002   3.9629336270307888E-002
   4.9190518273944800E-002  -1.4788507170861678E-002   4.4719192131883384E-002
   4.7415542898758850E-002  -1.4250916125441868E-002   4.4358346574635027E-002
   4.5640567523572886E-002  -1.3705859591898364E-002   4.4192679969812278E-002
   4.3865592148386902E-002  -1.3153337570230569E-002   4.4222192317415199E-002
   4.2090616773200973E-002  -1.2593350060439046E-002   4.4446883617444130E-002
   4.3786103084655192E-002  -1.3049771064060689E-002   4.9017789267852052E-002
   4.2187061467490614E-002  -1.2600861580028044E-002   4.8837042276889564E-002
   4.0588019850326035E-002  -1.2127577098582532E-002   4.8812983849544023E-002
   3.8988978233161428E-002  -1.1629917619724331E-002   4.8945613985815734E-002
   3.7389936615996849E-002  -1.1107883143453345E-002   4.9234932685704114E-002
   5.6369429020935335E-002  -1.7049750811395925E-002   2.9905746739406325E-002
   5.4047478812783045E-002  -1.6378516828969625E-002   2.9409966838229940E-002
   5.1725528604630699E-002  -1.5669245062655171E-002   2.9088860124145438E-002
   4.9403578396478354E-002  -1.4921935512453206E-002   2.8942426597152501E-002
   4.7081628188326063E-002  -1.4136588178363219E-002   2.8970666257251365E-002
   5.1580362975670202E-002  -1.5564283894410280E-002   3.4782290644295222E-002
   4.9434243302127756E-002  -1.4927007598416836E-002   3.4350708429655069E-002
   4.7288123628585185E-002  -1.4260612333648837E-002   3.4096114097142888E-002
   4.5142003955042649E-002  -1.3565098100106338E-002   3.4018507646758345E-002
   4.2995884281500113E-002  -1.2840464897789339E-002   3.4117889078502051E-002
   4.6820758893092118E-002  -1.4078816977424635E-002   3.9629336270307888E-002
   4.4852784449195479E-002  -1.3475498367864103E-002   3.9253032927090606E-002
   4.2884810005298896E-002  -1.2851979604642440E-002   3.9056032161037278E-002
   4.0916835561402243E-002  -1.2208260687759468E-002   3.9038333972148009E-002
   3.8948861117505659E-002  -1.1544341617215376E-002   3.9199938360422584E-002
   4.2090616773200973E-002  -1.2593350060439046E-002   4.4446883617444130E-002
   4.0303102253986395E-002  -1.2023989137311397E-002   4.4116940330536432E-002
   3.8515587734771740E-002  -1.1443346875636074E-002   4.3968614315828790E-002
   3.6728073215557107E-002  -1.0851423275412598E-002   4.4001905573321468E-002
   3.4940558696342452E-002  -1.0248218336641454E-002   4.4216814103013868E-002
   3.7389936615996849E-002  -1.1107883143453345E-002   4.9234932685704114E-002
   3.5785196716500323E-002  -1.0572479906758553E-002   4.8942430639992651E-002
   3.4180456817003824E-002  -1.0034714146629597E-002   4.8833860561517339E-002
   3.2575716917507269E-002  -9.4945858630657021E-003   4.8909222450278456E-002
   3.0970977018010770E-002  -8.9520950560675328E-003   4.9168516306275500E-002
   4.7081628188326063E-002  -1.4136588178363219E-002   2.8970666257251365E-002
   4.4720240036925318E-002  -1.3337066257799568E-002   2.8479667809983400E-002
   4.2358851885524573E-002  -1.2547232948177375E-002   2.8128253705949874E-002
   3.9997463734123800E-002  -1.1767088249495791E-002   2.7916423945150690E-002
   3.7636075582723083E-002  -1.0996632161755171E-002   2.7844178527586472E-002
   4.2995884281500113E-002  -1.2840464897789339E-002   3.4117889078502051E-002
   4.0780223898076118E-002  -1.2103386823900109E-002   3.3664795880521792E-002
   3.8564563514652053E-002  -1.1370537975641345E-002   3.3363573875260621E-002
   3.6348903131227968E-002  -1.0641918353012782E-002   3.3214223062718304E-002
   3.4133242747803993E-002  -9.9175279560144713E-003   3.3216743442895047E-002
   3.8948861117505659E-002  -1.1544341617215376E-002   3.9199938360422584E-002
   3.6891215351542717E-002  -1.0869707390000344E-002   3.8790209797041134E-002
   3.4833569585579705E-002  -1.0193843003105267E-002   3.8544639275862887E-002
   3.2775923819616769E-002  -9.5167484565298315E-003   3.8463226796888031E-002
   3.0718278053653736E-002  -8.8384237502738827E-003   3.8545972360116226E-002
   3.4940558696342452E-002  -1.0248218336641454E-002   4.4216814103013868E-002
   3.3053214397325011E-002  -9.6360279561007317E-003   4.3855909559541412E-002
   3.1165870098307485E-002  -9.0171480305693240E-003   4.3671449907757010E-002
   2.9278525799289981E-002  -8.3915785600469084E-003   4.3663435147659829E-002
   2.7391181500272466E-002  -7.7593195445334051E-003   4.3831865279250731E-002
   3.0970977018010770E-002  -8.9520950560675328E-003   4.9168516306275500E-002
   2.9266221035423146E-002  -8.4023485222010086E-003   4.8861895168023084E-002
   2.7561465052835465E-002  -7.8404530580331866E-003   4.8744005770942678E-002
   2.5856709070247771E-002  -7.2664086635639349E-003   4.8814848115034365E-002
   2.4151953087660133E-002  -6.6802153387925944E-003   4.9074422200298007E-002
   3.7636075582723083E-002  -1.0996632161755171E-002   2.7844178527586472E-002
   3.5252219166249932E-002  -1.0239415509728622E-002   2.7222602302767573E-002
   3.2868362749776753E-002  -9.4989891181884167E-003   2.6746710836794307E-002
   3.0484506333303560E-002  -8.7753529871354846E-003   2.6416504129666701E-002
   2.8100649916830422E-002  -8.0685071165685907E-003   2.6231982181385005E-002
   3.4133242747803993E-002  -9.9175279560144713E-003   3.3216743442895047E-002
   3.1897103499152452E-002  -9.2008070904733286E-003   3.2671117718935716E-002
   2.9660964250500910E-002  -8.4951960622158956E-003   3.2275241571774138E-002
   2.7424825001849423E-002  -7.8006948712416764E-003   3.2029115001410507E-002
   2.5188685753197854E-002  -7.1173035175514654E-003   3.1932738007843964E-002
   3.0718278053653736E-002  -8.8384237502738827E-003   3.8545972360116226E-002
   2.8633920790775841E-002  -8.1621986712182015E-003   3.8081977560219873E-002
   2.6549563527897842E-002  -7.4914030062430415E-003   3.7771797155073228E-002
   2.4465206265019867E-002  -6.8260367553485343E-003   3.7615431144675998E-002
   2.2380849002141948E-002  -6.1660999185342846E-003   3.7612879529028115E-002
   2.7391181500272466E-002  -7.7593195445334051E-003   4.3831865279250731E-002
   2.5462671041119982E-002  -7.1235902519632133E-003   4.3455181826620212E-002
   2.3534160581967493E-002  -6.4876099502702983E-003   4.3236377586691209E-002
   2.1605650122815036E-002  -5.8513786394549482E-003   4.3175452559463590E-002
   1.9677139663662472E-002  -5.2148963195171871E-003   4.3272406744937514E-002
   2.4151953087660133E-002  -6.6802153387925944E-003   4.9074422200298007E-002
   2.2383354250185034E-002  -6.0849818327078919E-003   4.8790730518136649E-002
   2.0614755412709920E-002  -5.4838168942976384E-003   4.8668982866628407E-002
   1.8846156575234828E-002  -4.8767205235617436E-003   4.8709179245773837E-002
   1.7077557737759680E-002  -4.2636927204998676E-003   4.8911319655572161E-002
   2.8100649916830422E-002  -8.0685071165685907E-003   2.6231982181385005E-002
   2.5742618889604885E-002  -7.3415742625162483E-003   2.5648911577822897E-002
   2.3384587862379319E-002  -6.5576771810049173E-003   2.5013560335251039E-002
   2.1026556835153767E-002  -5.7168158720349721E-003   2.4325928453669349E-002
   1.8668525807928216E-002  -4.8189903356062880E-003   2.3586015933077742E-002
   2.5188685753197854E-002  -7.1173035175514654E-003   3.1932738007843964E-002
   2.2817204605553809E-002  -6.4324563543931013E-003   3.1528118177289011E-002
   2.0445723457909792E-002  -5.7335877350154774E-003   3.1148878744906405E-002
   1.8074242310265720E-002  -5.0206976594182745E-003   3.0795019710696925E-002
   1.5702761162621731E-002  -4.2937861276016731E-003   3.0466541074660014E-002
   2.2380849002141948E-002  -6.1660999185342846E-003   3.7612879529028115E-002
   2.0073578771261980E-002  -5.5233384462702872E-003   3.7343767700240588E-002
   1.7766308540382060E-002  -4.9094982890261762E-003   3.7177697306808505E-002
   1.5459038309502116E-002  -4.3245794468016949E-003   3.7114668348731880E-002
   1.3151768078622228E-002  -3.7685819195971137E-003   3.7154680826010561E-002
   1.9677139663662472E-002  -5.2148963195171871E-003   4.3272406744937514E-002
   1.7511741386729295E-002  -4.6142205381474177E-003   4.3095860146678516E-002
   1.5346343109796096E-002  -4.0854088430368612E-003   4.3100016020957317E-002
   1.3180944832862879E-002  -3.6284612341850563E-003   4.3284874367774492E-002
   1.1015546555929720E-002  -3.2433777115925821E-003   4.3650435187129639E-002
   1.7077557737759680E-002  -4.2636927204998676E-003   4.8911319655572161E-002
   1.5131692451955836E-002  -3.7051026300243817E-003   4.8784395516602408E-002
   1.3185827166151923E-002  -3.2613193970474075E-003   4.8915834887353349E-002
   1.1239961880348072E-002  -2.9323430215682997E-003   4.9305637767824761E-002
   9.2940965945441656E-003  -2.7181735035878285E-003   4.9953804158016979E-002
   1.8668525807928216E-002  -4.8189903356062880E-003   2.3586015933077742E-002
   1.5648112093623823E-002  -4.0831819820298931E-003   2.4379910152857009E-002
   1.2627698379319541E-002  -3.7283722216163440E-003   2.5646145249589802E-002
   9.6072846650151478E-003  -3.7545610543656613E-003   2.7384721223276398E-002
   6.5868709507108658E-003  -4.1617484802782823E-003   2.9595638073917074E-002
   1.5702761162621731E-002  -4.2937861276016731E-003   3.0466541074660014E-002
   1.3136493413914291E-002  -3.7786191278261771E-003   3.1247757387657449E-002
   1.0570225665206989E-002  -3.7009626483517077E-003   3.2464924754894847E-002
   8.0039579164995697E-003  -4.0608166891785077E-003   3.4118043176372306E-002
   5.4376901677922473E-003  -4.8581812503071253E-003   3.6207112652090312E-002
   1.3151768078622228E-002  -3.7685819195971137E-003   3.7154680826010561E-002
   1.1003256472798234E-002  -3.4740562736222669E-003   3.7866707305087649E-002
   8.8547448669742540E-003  -3.6735530750873074E-003   3.8978295015690959E-002
   6.7062332611503017E-003  -4.3670723239915797E-003   4.0489443957821357E-002
   4.5577216553263356E-003  -5.5546140203360794E-003   4.2400154131478240E-002
   1.1015546555929720E-002  -3.2433777115925821E-003   4.3650435187129639E-002
   9.2484012702755344E-003  -3.1694934194183982E-003   4.4236759905147978E-002
   7.4812559846214842E-003  -3.6461435018224561E-003   4.5186256031979233E-002
   5.7141106989673368E-003  -4.6733279588047610E-003   4.6498923567623716E-002
   3.9469654133132484E-003  -6.2510467903648670E-003   4.8174762512080901E-002
   9.2940965945441656E-003  -2.7181735035878285E-003   4.9953804158016979E-002
   7.8719278063463238E-003  -2.8649305652146406E-003   5.0357915187838054E-002
   6.4497590181485376E-003  -3.6187339285580489E-003   5.1088807803758796E-002
   5.0275902299507097E-003  -4.9795835936174981E-003   5.2146482005778760E-002
   3.6054214417529096E-003  -6.9474795603939876E-003   5.3530937793898725E-002
   6.5868709507108658E-003  -4.1617484802782823E-003   2.9595638073917074E-002
   6.0579480546796849E-003  -6.1440759541820933E-003   3.4073521265310713E-002
   5.5290251586486150E-003  -1.0895684930905258E-002   3.9236640774834242E-002
   5.0001022626174341E-003  -1.8416575410448235E-002   4.5084996602487382E-002
   4.4711793665863642E-003  -2.8706747392811316E-002   5.1618588748270966E-002
   5.4376901677922473E-003  -4.8581812503071253E-003   3.6207112652090312E-002
   5.4901862002602886E-003  -6.9923483714558476E-003   3.8347702673026396E-002
   5.5426822327282049E-003  -1.1362610092343961E-002   4.0965894232830591E-002
   5.5951782651962878E-003  -1.7968966412970827E-002   4.4061687331503896E-002
   5.6476742976641625E-003  -2.6811417333337806E-002   4.7635081969045423E-002
   4.5577216553263356E-003  -5.5546140203360794E-003   4.2400154131478240E-002
   4.9840018370320288E-003  -7.8406207887296575E-003   4.2736637885037010E-002
   5.4102820187377360E-003  -1.1829535253782192E-002   4.3343088398203111E-002
   5.8365622004433598E-003  -1.7521357415493689E-002   4.4219505670976642E-002
   6.2628423821492474E-003  -2.4916087273864074E-002   4.5365889703356199E-002
   3.9469654133132484E-003  -6.2510467903648670E-003   4.8174762512080901E-002
   4.5393949649951866E-003  -8.6888932060036617E-003   4.7240326901343443E-002
   5.1318245166770173E-003  -1.2296460415220659E-002   4.6368223270951574E-002
   5.7242540683589242E-003  -1.7073748418016527E-002   4.5558451620904897E-002
   6.3166836200408416E-003  -2.3020757214390453E-002   4.4811011951203322E-002
   3.6054214417529096E-003  -6.9474795603939876E-003   5.3530937793898725E-002
   4.1563655841495573E-003  -9.5371656232774438E-003   5.1858769721944808E-002
   4.7073097265462049E-003  -1.2763385576659431E-002   5.0041298851074723E-002
   5.2582538689428943E-003  -1.6626139420538942E-002   4.8078525181289050E-002
   5.8091980113396113E-003  -2.1125427154916832E-002   4.5970448712587597E-002
   4.8974688173462788E-002  -1.3920608263521816E-002   4.7948071856377839E-002
   4.7677541901260945E-002  -1.3867158477752217E-002   4.8139229892465552E-002
   4.6380395629058990E-002  -1.3704202349252237E-002   4.8381235473073991E-002
   4.5083249356857105E-002  -1.3431739878021598E-002   4.8674088598202825E-002
   4.3786103084655192E-002  -1.3049771064060689E-002   4.9017789267852052E-002
   4.3349911238563688E-002  -1.2320220741612375E-002   5.1473615193390498E-002
   4.2123329441870583E-002  -1.2223149043821047E-002   5.1563703133809147E-002
   4.0896747645177534E-002  -1.2042424436121080E-002   5.1744072480724823E-002
   3.9670165848484415E-002  -1.1778046918512572E-002   5.2014723234137569E-002
   3.8443584051791324E-002  -1.1430016490995565E-002   5.2375655394047482E-002
   3.7507767650687557E-002  -1.0719833219702962E-002   5.5055707158835898E-002
   3.6391184191479936E-002  -1.0579139609889820E-002   5.5018871570763406E-002
   3.5274600732272204E-002  -1.0380646522990006E-002   5.5111751251164659E-002
   3.4158017273064528E-002  -1.0124353959003574E-002   5.5334346200039589E-002
   3.3041433813856838E-002  -9.8102619179304407E-003   5.5686656417388097E-002
   3.1448257409834583E-002  -9.1194456977935490E-003   5.8694347752714177E-002
   3.0481106150088852E-002  -8.9351301759585666E-003   5.8504735203328662E-002
   2.9513954890343107E-002  -8.7188686098589180E-003   5.8484271784393416E-002
   2.8546803630597396E-002  -8.4706609994944504E-003   5.8632957495908536E-002
   2.7579652370851682E-002  -8.1905073448653443E-003   5.8950792337873842E-002
   2.5171380516004538E-002  -7.5190581758841080E-003   6.2389536975025028E-002
   2.4393095317697372E-002  -7.2911207420273960E-003   6.2021294031504581E-002
   2.3614810119390206E-002  -7.0570906967278024E-003   6.1861634080411121E-002
   2.2836524921083033E-002  -6.8169680399855007E-003   6.1910557121744397E-002
   2.2058239722775874E-002  -6.5707527718002479E-003   6.2168063155504549E-002
   4.3786103084655192E-002  -1.3049771064060689E-002   4.9017789267852052E-002
   4.2187061467490614E-002  -1.2600861580028044E-002   4.8837042276889564E-002
   4.0588019850326035E-002  -1.2127577098582532E-002   4.8812983849544023E-002
   3.8988978233161428E-002  -1.1629917619724331E-002   4.8945613985815734E-002
   3.7389936615996849E-002  -1.1107883143453345E-002   4.9234932685704114E-002
   3.8443584051791324E-002  -1.1430016490995565E-002   5.2375655394047482E-002
   3.7009074179451415E-002  -1.1030429227310859E-002   5.2165038259142024E-002
   3.5574564307111506E-002  -1.0611381201199074E-002   5.2126796050268764E-002
   3.4140054434771590E-002  -1.0172872412660610E-002   5.2260928767427925E-002
   3.2705544562431674E-002  -9.7149028616954070E-003   5.2567436410619478E-002
   3.3041433813856838E-002  -9.8102619179304407E-003   5.5686656417388097E-002
   3.1787142048756961E-002  -9.4599968745935348E-003   5.5441254903553491E-002
   3.0532850283657119E-002  -9.0951853038157282E-003   5.5383914678166640E-002
   2.9278558518557266E-002  -8.7158272055970001E-003   5.5514635741227503E-002
   2.8024266753457427E-002  -8.3219225799374130E-003   5.5833418092736148E-002
   2.7579652370851682E-002  -8.1905073448653443E-003   5.8950792337873842E-002
   2.6521265075407290E-002  -7.8895645218763633E-003   5.8665692210124201E-002
   2.5462877779962888E-002  -7.5789894064324376E-003   5.8584339733237754E-002
   2.4404490484518496E-002  -7.2587819985334180E-003   5.8706734907214370E-002
   2.3346103189074097E-002  -6.9289422981795579E-003   5.9032877732054317E-002
   2.2058239722775874E-002  -6.5707527718002479E-003   6.2168063155504549E-002
   2.1211443259402343E-002  -6.3191321691591362E-003   6.1838350178853918E-002
   2.0364646796028806E-002  -6.0627935090489388E-003   6.1728071215482017E-002
   1.9517850332655257E-002  -5.8017367914697561E-003   6.1837226265388526E-002
   1.8671053869281723E-002  -5.5359620164214807E-003   6.2165815328573681E-002
   3.7389936615996849E-002  -1.1107883143453345E-002   4.9234932685704114E-002
   3.5785196716500323E-002  -1.0572479906758553E-002   4.8942430639992651E-002
   3.4180456817003824E-002  -1.0034714146629597E-002   4.8833860561517339E-002
   3.2575716917507269E-002  -9.4945858630657021E-003   4.8909222450278456E-002
   3.0970977018010770E-002  -8.9520950560675328E-003   4.9168516306275500E-002
   3.2705544562431674E-002  -9.7149028616954070E-003   5.2567436410619478E-002
   3.1287111582810181E-002  -9.2451066923645853E-003   5.2283701061007298E-002
   2.9868678603188654E-002  -8.7711180487291263E-003   5.2188647583909190E-002
   2.8450245623567159E-002  -8.2929369307895642E-003   5.2282275979324826E-002
   2.7031812643945677E-002  -7.8105633385456841E-003   5.2564586247254297E-002
   2.8024266753457427E-002  -8.3219225799374130E-003   5.5833418092736148E-002
   2.6796890598988682E-002  -7.9177334779702985E-003   5.5560279390093087E-002
   2.5569514444519964E-002  -7.5075219508289881E-003   5.5480572465241712E-002
   2.4342138290051205E-002  -7.0912879985134264E-003   5.5594297318181884E-002
   2.3114762135582501E-002  -6.6690316210237244E-003   5.5901453948913743E-002
   2.3346103189074097E-002  -6.9289422981795579E-003   5.9032877732054317E-002
   2.2314533765035883E-002  -6.5903602635760880E-003   5.8772165627250038E-002
   2.1282964340997641E-002  -6.2439258529286001E-003   5.8709635205515337E-002
   2.0251394916959414E-002  -5.8896390662371775E-003   5.8845286466849785E-002
   1.9219825492921214E-002  -5.5274999035018757E-003   5.9179119411253804E-002
   1.8671053869281723E-002  -5.5359620164214807E-003   6.2165815328573681E-002
   1.7840041080951746E-002  -5.2629870491819886E-003   6.1919359772478144E-002
   1.7009028292621770E-002  -4.9803297550283232E-003   6.1875835804729856E-002
   1.6178015504291807E-002  -4.6879901339610813E-003   6.2035243425328596E-002
   1.5347002715961816E-002  -4.3859681859799160E-003   6.2397582634274529E-002
   3.0970977018010770E-002  -8.9520950560675328E-003   4.9168516306275500E-002
   2.9266221035423146E-002  -8.4023485222010086E-003   4.8861895168023084E-002
   2.7561465052835465E-002  -7.8404530580331866E-003   4.8744005770942678E-002
   2.5856709070247771E-002  -7.2664086635639349E-003   4.8814848115034365E-002
   2.4151953087660133E-002  -6.6802153387925944E-003   4.9074422200298007E-002
   2.7031812643945677E-002  -7.8105633385456841E-003   5.2564586247254297E-002
   2.5519070394747975E-002  -7.3206618243265853E-003   5.2294867116895488E-002
   2.4006328145550308E-002  -6.8198969404617837E-003   5.2220443712144404E-002
   2.2493585896352638E-002  -6.3082686869512170E-003   5.2341316033001364E-002
   2.0980843647154968E-002  -5.7857770637949058E-003   5.2657484079466133E-002
   2.3114762135582501E-002  -6.6690316210237244E-003   5.5901453948913743E-002
   2.1800597604210645E-002  -6.2389751264519400E-003   5.5667351265792614E-002
   2.0486433072838817E-002  -5.7993408228902560E-003   5.5635108292715160E-002
   1.9172268541466975E-002  -5.3501287103386065E-003   5.5804725029681472E-002
   1.7858104010095140E-002  -4.8913387887971060E-003   5.6176201476691584E-002
   1.9219825492921214E-002  -5.5274999035018757E-003   5.9179119411253804E-002
   1.8110802663811067E-002  -5.1572884285774612E-003   5.8979347614714468E-002
   1.7001779834700966E-002  -4.7787847053188462E-003   5.8987999512654821E-002
   1.5892757005590848E-002  -4.3919887337260533E-003   5.9205075105074709E-002
   1.4783734176480748E-002  -3.9969005137992508E-003   5.9630574391974313E-002
   1.5347002715961816E-002  -4.3859681859799160E-003   6.2397582634274529E-002
   1.4449685573549309E-002  -4.0756017307028158E-003   6.2230856163661141E-002
   1.3552368431136774E-002  -3.7582285877472144E-003   6.2279117371963455E-002
   1.2655051288724246E-002  -3.4338487571134446E-003   6.2542366259181192E-002
   1.1757734146311732E-002  -3.1024622388015066E-003   6.3020602825314520E-002
   2.4151953087660133E-002  -6.6802153387925944E-003   4.9074422200298007E-002
   2.2383354250185034E-002  -6.0849818327078919E-003   4.8790730518136649E-002
   2.0614755412709920E-002  -5.4838168942976384E-003   4.8668982866628407E-002
   1.8846156575234828E-002  -4.8767205235617436E-003   4.8709179245773837E-002
   1.7077557737759680E-002  -4.2636927204998676E-003   4.8911319655572161E-002
   2.0980843647154968E-002  -5.7857770637949058E-003   5.2657484079466133E-002
   1.9383866379906287E-002  -5.2577145024033656E-003   5.2434944709898290E-002
   1.7786889112657633E-002  -4.7293734341871396E-003   5.2393704450130002E-002
   1.6189911845408980E-002  -4.2007538591461793E-003   5.2533763300161657E-002
   1.4592934578160299E-002  -3.6718557772804639E-003   5.2855121259992366E-002
   1.7858104010095140E-002  -4.8913387887971060E-003   5.6176201476691584E-002
   1.6452103392219135E-002  -4.4304471720987837E-003   5.6009161494216503E-002
   1.5046102774343147E-002  -3.9749299740765437E-003   5.6042775700687233E-002
   1.3640102156467165E-002  -3.5247871947307850E-003   5.6277044096103547E-002
   1.2234101538591162E-002  -3.0800188340611157E-003   5.6711966680465825E-002
   1.4783734176480748E-002  -3.9969005137992508E-003   5.9630574391974313E-002
   1.3588065287123625E-002  -3.6031798417940630E-003   5.9513380871091072E-002
   1.2392396397766486E-002  -3.2204865139661074E-003   5.9616196618299727E-002
   1.1196727508409388E-002  -2.8488205303154168E-003   5.9939021633600237E-002
   1.0001058619052259E-002  -2.4881818908417952E-003   6.0481855916993045E-002
   1.1757734146311732E-002  -3.1024622388015066E-003   6.3020602825314520E-002
   1.0791752064619686E-002  -2.7759125114895644E-003   6.2947602840521755E-002
   9.8257699829276540E-003  -2.4660430538555045E-003   6.3113967202967525E-002
   8.8597879012356079E-003  -2.1728538658998403E-003   6.3519695912651220E-002
   7.8938058195435756E-003  -1.8963449476223637E-003   6.4164788969573339E-002
   1.7077557737759680E-002  -4.2636927204998676E-003   4.8911319655572161E-002
   1.5131692451955836E-002  -3.7051026300243817E-003   4.8784395516602408E-002
   1.3185827166151923E-002  -3.2613193970474075E-003   4.8915834887353349E-002
   1.1239961880348072E-002  -2.9323430215682997E-003   4.9305637767824761E-002
   9.2940965945441656E-003  -2.7181735035878285E-003   4.9953804158016979E-002
   1.4592934578160299E-002  -3.6718557772804639E-003   5.2855121259992366E-002
   1.2904109524186677E-002  -3.1997528862942048E-003   5.2738326090121634E-002
   1.1215284470213027E-002  -2.8415188838906980E-003   5.2877247874191208E-002
   9.5264594162393981E-003  -2.5971537700702693E-003   5.3271886612200295E-002
   7.8376343622657552E-003  -2.4666575448331063E-003   5.3922242304149437E-002
   1.2234101538591162E-002  -3.0800188340611157E-003   5.6711966680465825E-002
   1.0799670160667005E-002  -2.6944031425636672E-003   5.6606238448609819E-002
   9.3652387827428511E-003  -2.4217183707340023E-003   5.6753580614912716E-002
   7.9308074048186922E-003  -2.2619645185722424E-003   5.7153993179374689E-002
   6.4963760268945125E-003  -2.2151415860783286E-003   5.7807476141995884E-002
   1.0001058619052259E-002  -2.4881818908417952E-003   6.0481855916993045E-002
   8.8183743613968225E-003  -2.1890533988333100E-003   6.0388132592066303E-002
   7.6356901037413693E-003  -2.0019178575771887E-003   6.0544833109518081E-002
   6.4530058460859456E-003  -1.9267752670742138E-003   6.0951957469348325E-002
   5.2703215884304794E-003  -1.9636256273236896E-003   6.1609505671556694E-002
   7.8938058195435756E-003  -1.8963449476223637E-003   6.4164788969573339E-002
   6.9602221263761199E-003  -1.6837036551029527E-003   6.4084008520491675E-002
   6.0266384332086365E-003  -1.5821173444206249E-003   6.4251005358007374E-002
   5.0930547400411599E-003  -1.5915860155759146E-003   6.4665779482120850E-002
   4.1594710468736973E-003  -1.7121096685688286E-003   6.5328330892831743E-002
   9.2940965945441656E-003  -2.7181735035878285E-003   4.9953804158016979E-002
   7.8719278063463238E-003  -2.8649305652146406E-003   5.0357915187838054E-002
   6.4497590181485376E-003  -3.6187339285580489E-003   5.1088807803758796E-002
   5.0275902299507097E-003  -4.9795835936174981E-003   5.2146482005778760E-002
   3.6054214417529096E-003  -6.9474795603939876E-003   5.3530937793898725E-002
   7.8376343622657552E-003  -2.4666575448331063E-003   5.3922242304149437E-002
   6.7162932124813501E-003  -2.6498040949168855E-003   5.3855371801303620E-002
   5.5949520626970006E-003  -3.3463673070603939E-003   5.4063374989185453E-002
   4.4736109129126164E-003  -4.5563471812627432E-003   5.4546251867794437E-002
   3.3522697631282738E-003  -6.2797437175243775E-003   5.5304002437130850E-002
   6.4963760268945125E-003  -2.2151415860783286E-003   5.7807476141995884E-002
   5.6239546201514307E-003  -2.4346776246193524E-003   5.7363253746140708E-002
   4.7515332134083765E-003  -3.0740006855625168E-003   5.7141997145640833E-002
   3.8791118066652773E-003  -4.1331107689077662E-003   5.7143706340496134E-002
   3.0066903999222128E-003  -5.6120078746549340E-003   5.7368381330706680E-002
   5.2703215884304794E-003  -1.9636256273236896E-003   6.1609505671556694E-002
   4.5949120293565619E-003  -2.2195511543220414E-003   6.0881561022349068E-002
   3.9195024702826479E-003  -2.8016340640650284E-003   6.0324674273124795E-002
   3.2440929112087314E-003  -3.7098743565530112E-003   5.9938845423883558E-002
   2.5686833521348165E-003  -4.9442720317854072E-003   5.9724074474625154E-002
   4.1594710468736973E-003  -1.7121096685688286E-003   6.5328330892831743E-002
   3.6291654400967682E-003  -2.0044246840241198E-003   6.4410293629929116E-002
   3.0988598333198392E-003  -2.5292674425670680E-003   6.3611406371637425E-002
   2.5685542265429101E-003  -3.2866379441977220E-003   6.2931669117956862E-002
   2.0382486197659810E-003  -4.2765361889159914E-003   6.2371081868886846E-002
   3.6054214417529096E-003  -6.9474795603939876E-003   5.3530937793898725E-002
   4.1563655841495573E-003  -9.5371656232774438E-003   5.1858769721944808E-002
   4.7073097265462049E-003  -1.2763385576659431E-002   5.0041298851074723E-002
   5.2582538689428943E-003  -1.6626139420538942E-002   4.8078525181289050E-002
   5.8091980113396113E-003  -2.1125427154916832E-002   4.5970448712587597E-002
   3.3522697631282738E-003  -6.2797437175243775E-003   5.5304002437130850E-002
   3.7753949957912009E-003  -8.5476470824470407E-003   5.2950825126898082E-002
   4.1985202284541973E-003  -1.1391147442631200E-002   5.0487312796113515E-002
   4.6216454611171312E-003  -1.4810244798077646E-002   4.7913465444777398E-002
   5.0447706937801207E-003  -1.8804939148786337E-002   4.5229283072890203E-002
   3.0066903999222128E-003  -5.6120078746549340E-003   5.7368381330706680E-002
   3.3369645012159832E-003  -7.5581285416163047E-003   5.4395131677430208E-002
   3.6672386025097953E-003  -1.0018909308603760E-002   5.1346514781967514E-002
   3.9975127038036316E-003  -1.2994350175616797E-002   4.8222530644317481E-002
   4.3277868050973778E-003  -1.6484451142656065E-002   4.5023179264480073E-002
   2.5686833521348165E-003  -4.9442720317854072E-003   5.9724074474625154E-002
   2.8410741004239737E-003  -6.5686100007860682E-003   5.6191689373541950E-002
   3.1134648487131482E-003  -8.6466711745758137E-003   5.2618904808636235E-002
   3.3858555970023079E-003  -1.1178455553155947E-002   4.9005720779908495E-002
   3.6582463452915076E-003  -1.4163963136525681E-002   4.5352137287358180E-002
   2.0382486197659810E-003  -4.2765361889159914E-003   6.2371081868886846E-002
   2.2877237934150751E-003  -5.5790914599548325E-003   5.8340498215232572E-002
   2.5371989670641693E-003  -7.2744330405481727E-003   5.4304482876120830E-002
   2.7866741407132495E-003  -9.3625609306946730E-003   5.0263035851550925E-002
   3.0361493143623575E-003  -1.1843475130395298E-002   4.6216157141523162E-002
   2.5171380516004538E-002  -7.5190581758841080E-003   6.2389536975025028E-002
   2.4393095317697372E-002  -7.2911207420273960E-003   6.2021294031504581E-002
   2.3614810119390206E-002  -7.0570906967278024E-003   6.1861634080411121E-002
   2.2836524921083033E-002  -6.8169680399855007E-003   6.1910557121744397E-002
   2.2058239722775874E-002  -6.5707527718002479E-003   6.2168063155504549E-002
   1.8808999066983426E-002  -5.6392936104961988E-003   6.3343791756199641E-002
   1.8235793935344594E-002  -5.4683405335336777E-003   6.3023734466607945E-002
   1.7662588803705762E-002  -5.2928179938292186E-003   6.2905254317926013E-002
   1.7089383672066936E-002  -5.1127259913829534E-003   6.2988351310153901E-002
   1.6516178540428098E-002  -4.9280645261946532E-003   6.3273025443291664E-002
   1.2492975160557168E-002  -3.7595290451082897E-003   6.4241823754830535E-002
   1.2117844244069621E-002  -3.6455603250400564E-003   6.3968428970466368E-002
   1.1742713327582085E-002  -3.5285452909307874E-003   6.3889605475495284E-002
   1.1367582411094540E-002  -3.4084839427804582E-003   6.4005353269916854E-002
   1.0992451494607005E-002  -3.2853762805890863E-003   6.4315672353731188E-002
   6.2233087967256805E-003  -1.8797644797203805E-003   6.5083632970917404E-002
   6.0392462438724117E-003  -1.8227801165463589E-003   6.4855377543080350E-002
   5.8551836910191368E-003  -1.7642725880322244E-003   6.4814687553119116E-002
   5.6711211381658654E-003  -1.7042418941779647E-003   6.4961563001033423E-002
   5.4870585853125870E-003  -1.6426880349835610E-003   6.5296003886823620E-002
  -2.4510962703949701E-011   8.5667528626487410E-011   6.5869219404460500E-002
  -6.5247009184421501E-011   9.1947227609523452E-011   6.5684580184449504E-002
  -1.0598305566489330E-010   1.1486618600731191E-010   6.5680500550797133E-002
  -1.4671909867591815E-010   1.5442453218939001E-010   6.5856980503503484E-002
  -1.8745514862583690E-010   2.1062207533617539E-010   6.6214020042568600E-002
   2.2058239722775874E-002  -6.5707527718002479E-003   6.2168063155504549E-002
   2.1211443259402343E-002  -6.3191321691591362E-003   6.1838350178853918E-002
   2.0364646796028806E-002  -6.0627935090489388E-003   6.1728071215482017E-002
   1.9517850332655257E-002  -5.8017367914697561E-003   6.1837226265388526E-002
   1.8671053869281723E-002  -5.5359620164214807E-003   6.2165815328573681E-002
   1.6516178540428098E-002  -4.9280645261946532E-003   6.3273025443291664E-002
   1.5886882370660639E-002  -4.7393490623561241E-003   6.2963841179509095E-002
   1.5257586200893195E-002  -4.5470950639593249E-003   6.2870223489660093E-002
   1.4628290031125740E-002  -4.3513025310036695E-003   6.2992172373744673E-002
   1.3998993861358271E-002  -4.1519714634898341E-003   6.3329687831763015E-002
   1.0992451494607005E-002  -3.2853762805890863E-003   6.4315672353731188E-002
   1.0576788179100707E-002  -3.1595659555532229E-003   6.4025837279906100E-002
   1.0161124863594414E-002  -3.0313966188695377E-003   6.3947701340669627E-002
   9.7454615480881066E-003  -2.9008682705378031E-003   6.4081264536021962E-002
   9.3297982325818221E-003  -2.7679809105582431E-003   6.4426526865962896E-002
   5.4870585853125870E-003  -1.6426880349835610E-003   6.5296003886823620E-002
   5.2811606847225157E-003  -1.5797828487503218E-003   6.5024338480045282E-002
   5.0752627841324574E-003  -1.5156981737797538E-003   6.4960504768510702E-002
   4.8693648835423896E-003  -1.4504340100718266E-003   6.5104502752219962E-002
   4.6634669829523270E-003  -1.3839903576266244E-003   6.5456332431172840E-002
  -1.8745514862583690E-010   2.1062207533617539E-010   6.6214020042568600E-002
  -1.1247391212831914E-010   2.5805271808287955E-010   6.5959344779926543E-002
  -3.7492672161354434E-011   2.7130990509771635E-010   6.5908633773183373E-002
   3.7488566938248535E-011   2.5039410475602430E-010   6.6061887022339102E-002
   1.1246980430312803E-010   1.9530504991038811E-010   6.6419104527393580E-002
   1.8671053869281723E-002  -5.5359620164214807E-003   6.2165815328573681E-002
   1.7840041080951746E-002  -5.2629870491819886E-003   6.1919359772478144E-002
   1.7009028292621770E-002  -4.9803297550283232E-003   6.1875835804729856E-002
   1.6178015504291807E-002  -4.6879901339610813E-003   6.2035243425328596E-002
   1.5347002715961816E-002  -4.3859681859799160E-003   6.2397582634274529E-002
   1.3998993861358271E-002  -4.1519714634898341E-003   6.3329687831763015E-002
   1.3372118065330660E-002  -3.9472402549599328E-003   6.3095774095963453E-002
   1.2745242269303066E-002  -3.7352472989561486E-003   6.3067202756421525E-002
   1.2118366473275450E-002  -3.5159925954789152E-003   6.3243973813137261E-002
   1.1491490677247848E-002  -3.2894761445279586E-003   6.3626087266110465E-002
   9.3297982325818221E-003  -2.7679809105582431E-003   6.4426526865962896E-002
   8.9094702367670496E-003  -2.6314934607379603E-003   6.4202734371019046E-002
   8.4891422409522702E-003  -2.4901648428840850E-003   6.4186695080243453E-002
   8.0688142451374872E-003  -2.3439950569968601E-003   6.4378408993635866E-002
   7.6484862493227182E-003  -2.1929841030760011E-003   6.4777876111196342E-002
   4.6634669829523270E-003  -1.3839903576266244E-003   6.5456332431172840E-002
   4.4520975952608583E-003  -1.3157466665158629E-003   6.5240240597644897E-002
   4.2407282075693983E-003  -1.2450823868119659E-003   6.5234312776195319E-002
   4.0293588198779340E-003  -1.1719975185145830E-003   6.5438548966824286E-002
   3.8179894321864697E-003  -1.0964920616239326E-003   6.5852949169531966E-002
   1.1246980430312803E-010   1.9530504991038811E-010   6.6419104527393580E-002
   1.4081212584837743E-010   1.2770601243161650E-010   6.6208292775840949E-002
   1.6915444739362684E-010   6.9260111534852342E-011   6.6210055844277416E-002
   1.9749677414304667E-010   1.9967378445118200E-011   6.6424393732702827E-002
   2.2583909048412565E-010  -2.0172086223624319E-011   6.6851306441117253E-002
   1.5347002715961816E-002  -4.3859681859799160E-003   6.2397582634274529E-002
   1.4449685573549309E-002  -4.0756017307028158E-003   6.2230856163661141E-002
   1.3552368431136774E-002  -3.7582285877472144E-003   6.2279117371963455E-002
   1.2655051288724246E-002  -3.4338487571134446E-003   6.2542366259181192E-002
   1.1757734146311732E-002  -3.1024622388015066E-003   6.3020602825314520E-002
   1.1491490677247848E-002  -3.2894761445279586E-003   6.3626087266110465E-002
   1.0811496611598768E-002  -3.0567013099783158E-003   6.3480334657835036E-002
   1.0131502545949710E-002  -2.8186714557047465E-003   6.3554240524170941E-002
   9.4515084803006404E-003  -2.5753865817074589E-003   6.3847804865118277E-002
   8.7715144146515711E-003  -2.3268466879866057E-003   6.4361027680676919E-002
   7.6484862493227182E-003  -2.1929841030760011E-003   6.4777876111196342E-002
   7.1904860561329970E-003  -2.0378008892537325E-003   6.4651345697304158E-002
   6.7324858629432618E-003  -1.8791143236623342E-003   6.4749144553719259E-002
   6.2744856697535250E-003  -1.7169244063015288E-003   6.5071272680441633E-002
   5.8164854765637916E-003  -1.5512311371716492E-003   6.5617730077471237E-002
   3.8179894321864697E-003  -1.0964920616239326E-003   6.5852949169531966E-002
   3.5866539071519512E-003  -1.0189004685293018E-003   6.5743889282068535E-002
   3.3553183821174171E-003  -9.3955719161972762E-004   6.5863829460608286E-002
   3.1239828570828972E-003  -8.5846223089562634E-004   6.6212769705151206E-002
   2.8926473320483644E-003  -7.7561558635672045E-004   6.6790710015697211E-002
   2.2583909048412565E-010  -2.0172086223624319E-011   6.6851306441117253E-002
   1.6465564328660420E-010  -4.7804593616973534E-011   6.6757965412128140E-002
   1.0347219261963581E-010  -5.9577398570098694E-011   6.6898295244838091E-002
   4.2288747156837836E-011  -5.5489432493338597E-011   6.7272295939246912E-002
  -1.8894705244854038E-011  -3.5541791731930061E-011   6.7879967495354854E-002
   1.1757734146311732E-002  -3.1024622388015066E-003   6.3020602825314520E-002
   1.0791752064619686E-002  -2.7759125114895644E-003   6.2947602840521755E-002
   9.8257699829276540E-003  -2.4660430538555045E-003   6.3113967202967525E-002
   8.8597879012356079E-003  -2.1728538658998403E-003   6.3519695912651220E-002
   7.8938058195435756E-003  -1.8963449476223637E-003   6.4164788969573339E-002
   8.7715144146515711E-003  -2.3268466879866057E-003   6.4361027680676919E-002
   8.0454294734613047E-003  -2.0819343865371431E-003   6.4305156045747880E-002
   7.3193445322710451E-003  -1.8495322893546245E-003   6.4489714344584115E-002
   6.5932595910807752E-003  -1.6296403964386579E-003   6.4914702577185679E-002
   5.8671746498905053E-003  -1.4222587077895588E-003   6.5580120743552517E-002
   5.8164854765637916E-003  -1.5512311371716492E-003   6.5617730077471237E-002
   5.3313632624024457E-003  -1.3879562615847774E-003   6.5583156857817057E-002
   4.8462410482410859E-003  -1.2330215248533005E-003   6.5790079158455084E-002
   4.3611188340797330E-003  -1.0864269269772533E-003   6.6238496979385816E-002
   3.8759966199183801E-003  -9.4817246795675381E-004   6.6928410320608783E-002
   2.8926473320483644E-003  -7.7561558635672045E-004   6.6790710015697211E-002
   2.6495534314430781E-003  -6.9397813663260588E-004   6.6781605276729106E-002
   2.4064595308377849E-003  -6.1651076035225405E-004   6.7015061644580626E-002
   2.1633656302324890E-003  -5.4321345751601538E-004   6.7491079119251909E-002
   1.9202717296272053E-003  -4.7408622812394885E-004   6.8209657700742582E-002
  -1.8894705244854038E-011  -3.5541791731930061E-011   6.7879967495354854E-002
  -1.9416794561077921E-011  -1.1680156841720191E-011   6.7900501302484484E-002
  -1.9938869999513997E-011   4.1489034430242100E-012   6.8164661802960713E-002
  -2.0460945437950073E-011   1.1945167077698216E-011   6.8672448996783819E-002
  -2.0983034754173957E-011   1.1708967129209213E-011   6.9423862883953524E-002
   7.8938058195435756E-003  -1.8963449476223637E-003   6.4164788969573339E-002
   6.9602221263761199E-003  -1.6837036551029527E-003   6.4084008520491675E-002
   6.0266384332086365E-003  -1.5821173444206249E-003   6.4251005358007374E-002
   5.0930547400411599E-003  -1.5915860155759146E-003   6.4665779482120850E-002
   4.1594710468736973E-003  -1.7121096685688286E-003   6.5328330892831743E-002
   5.8671746498905053E-003  -1.4222587077895588E-003   6.5580120743552517E-002
   5.1777729027521410E-003  -1.2627777393303119E-003   6.5434024984608208E-002
   4.4883711556137976E-003  -1.1865880069836521E-003   6.5528515831124623E-002
   3.7989694084754437E-003  -1.1936895107496279E-003   6.5863593283101540E-002
   3.1095676613370898E-003  -1.2840822506279270E-003   6.6439257340539182E-002
   3.8759966199183801E-003  -9.4817246795675381E-004   6.6928410320608783E-002
   3.4235861376722097E-003  -8.4185182355778210E-004   6.6744762997526852E-002
   2.9711756554260289E-003  -7.9105866954644333E-004   6.6794511598768522E-002
   2.5187651731798603E-003  -7.9579300592300464E-004   6.7077656124333862E-002
   2.0663546909336916E-003  -8.5605483268735849E-004   6.7594196574223303E-002
   1.9202717296272053E-003  -4.7408622812394885E-004   6.8209657700742582E-002
   1.6976618311362809E-003  -4.2092590778519678E-004   6.8016222559247802E-002
   1.4750519326453644E-003  -3.9552933210935254E-004   6.8048992660939556E-002
   1.2524420341544361E-003  -3.9789650109654968E-004   6.8307968005818148E-002
   1.0298321356635234E-003  -4.2802741474645689E-004   6.8793148593883857E-002
  -2.0983034754173957E-011   1.1708967129209213E-011   6.9423862883953524E-002
  -1.6855634943357956E-011   7.9873330172119950E-012   6.9248403669770808E-002
  -1.2728238601988906E-011   5.3277382505712012E-012   6.9291959017637628E-002
  -8.6008405258963805E-012   3.7302938515892947E-012   6.9554528927554482E-002
  -4.4734424498038550E-012   3.1941116418465754E-012   7.0036113399521205E-002
   4.1594710468736973E-003  -1.7121096685688286E-003   6.5328330892831743E-002
   3.6291654400967682E-003  -2.0044246840241198E-003   6.4410293629929116E-002
   3.0988598333198392E-003  -2.5292674425670680E-003   6.3611406371637425E-002
   2.5685542265429101E-003  -3.2866379441977220E-003   6.2931669117956862E-002
   2.0382486197659810E-003  -4.2765361889159914E-003   6.2371081868886846E-002
   3.1095676613370898E-003  -1.2840822506279270E-003   6.6439257340539182E-002
   2.7017686584757811E-003  -1.5033185122325654E-003   6.5327805316860887E-002
   2.2939696556144584E-003  -1.8969505811767262E-003   6.4342216496403065E-002
   1.8861706527531670E-003  -2.4649784574597849E-003   6.3482490879165340E-002
   1.4783716498918270E-003  -3.2074021410821718E-003   6.2748628465148171E-002
   2.0663546909336916E-003  -8.5605483268735849E-004   6.7594196574223303E-002
   1.7877754905973667E-003  -1.0022123404410943E-003   6.6347461725517587E-002
   1.5091962902610556E-003  -1.2646337197856211E-003   6.5233303278641838E-002
   1.2306170899247376E-003  -1.6433189707215183E-003   6.4251721233595543E-002
   9.5203788958841962E-004  -2.1382680932482967E-003   6.3402715590379161E-002
   1.0298321356635234E-003  -4.2802741474645689E-004   6.8793148593883857E-002
   8.8718593646156755E-004  -5.0110616864930402E-004   6.7469262855899201E-002
   7.4453973725960299E-004  -6.3231685839478663E-004   6.6284666718353896E-002
   6.0189353805765664E-004  -8.2165948398330545E-004   6.5239360181247402E-002
   4.5924733885568253E-004  -1.0691340454144493E-003   6.4333343244580149E-002
  -4.4734424498038550E-012   3.1941116418465754E-012   7.0036113399521205E-002
  -3.9316674915745864E-012   3.1420421819916555E-012   6.8693208708006104E-002
  -3.3898751861105580E-012   2.9958535652241380E-012   6.7496306815539253E-002
  -2.8480915542639096E-012   2.7547478187450736E-012   6.6445407722120903E-002
  -2.3063079224172611E-012   2.4195090375656036E-012   6.5540511427751080E-002
   2.0382486197659810E-003  -4.2765361889159914E-003   6.2371081868886846E-002
   2.2877237934150751E-003  -5.5790914599548325E-003   5.8340498215232572E-002
   2.5371989670641693E-003  -7.2744330405481727E-003   5.4304482876120830E-002
   2.7866741407132495E-003  -9.3625609306946730E-003   5.0263035851550925E-002
   3.0361493143623575E-003  -1.1843475130395298E-002   4.6216157141523162E-002
   1.4783716498918270E-003  -3.2074021410821718E-003   6.2748628465148171E-002
   1.7081808611229682E-003  -4.1843185944036576E-003   5.8393665723298016E-002
   1.9379900723541024E-003  -5.4558247797841797E-003   5.4004802742069813E-002
   2.1677992835852332E-003  -7.0219206972233356E-003   4.9582039521463533E-002
   2.3976084948163778E-003  -8.8826063467211114E-003   4.5125376061479594E-002
   9.5203788958841962E-004  -2.1382680932482967E-003   6.3402715590379161E-002
   1.1337125844813160E-003  -2.7895457288525383E-003   5.8821570337828505E-002
   1.3153872793741916E-003  -3.6372165190202005E-003   5.4178056291979429E-002
   1.4970619742670950E-003  -4.6812804637519460E-003   4.9472173452832273E-002
   1.6787366691599775E-003  -5.9217375630471469E-003   4.4703921820386516E-002
   4.5924733885568253E-004  -1.0691340454144493E-003   6.4333343244580149E-002
   5.6431896349007967E-004  -1.3947728633011691E-003   5.9624212058824066E-002
   6.6939058812446293E-004  -1.8186082582566584E-003   5.4824243525848942E-002
   7.7446221275884620E-004  -2.3406402302802495E-003   4.9933437645655353E-002
   8.7953383739324334E-004  -2.9608687793731825E-003   4.4951794418243124E-002
  -2.3063079224172611E-012   2.4195090375656036E-012   6.5540511427751080E-002
  -1.8507140264745203E-012   2.2503110486127298E-012   6.0801590886284229E-002
  -1.3951235999787315E-012   2.5075774789939942E-012   5.5943364443678256E-002
  -9.3953317348294263E-013   3.1907879116666038E-012   5.0965832099933578E-002
  -4.8393233864629792E-013   4.3010039973978564E-012   4.5868993855050277E-002
  -2.4510962703949701E-011   8.5667528626487410E-011   6.5869219404460500E-002
  -6.5247009184421501E-011   9.1947227609523452E-011   6.5684580184449504E-002
  -1.0598305566489330E-010   1.1486618600731191E-010   6.5680500550797133E-002
  -1.4671909867591815E-010   1.5442453218939001E-010   6.5856980503503484E-002
  -1.8745514862583690E-010   2.1062207533617539E-010   6.6214020042568600E-002
  -6.2233088637950046E-003   1.8797641968142931E-003   6.5083633411131964E-002
  -6.0392463896402557E-003   1.8227799916273879E-003   6.4855377963694533E-002
  -5.8551839154855068E-003   1.7642726152635874E-003   6.4814687959679998E-002
  -5.6711214413307466E-003   1.7042420677227561E-003   6.4961563399088318E-002
  -5.4870589671759951E-003   1.6426883490049948E-003   6.5296004281919479E-002
  -1.2492975281768669E-002   3.7595283079610298E-003   6.4241824800244804E-002
  -1.2117844435658926E-002   3.6455598913075898E-003   6.3968429937564811E-002
  -1.1742713589549213E-002   3.5285451156608985E-003   6.3889606375371777E-002
  -1.1367582743439485E-002   3.4084839810210339E-003   6.4005354113665869E-002
  -1.0992451897329756E-002   3.2853764873879143E-003   6.4315673152447003E-002
  -1.8808999278431920E-002   5.6392924191077803E-003   6.3343793571799284E-002
  -1.8235794203303055E-002   5.4683397909877016E-003   6.3023736106060282E-002
  -1.7662589128174176E-002   5.2928176160582270E-003   6.2905255797872719E-002
  -1.7089384053045283E-002   5.1127258943192847E-003   6.2988352647236262E-002
  -1.6516178977916414E-002   4.9280646257708893E-003   6.3273026654151104E-002
  -2.5171380853784800E-002   7.5190565302545309E-003   6.2389539725795196E-002
  -2.4393095692572572E-002   7.2911196906679243E-003   6.2021296469181142E-002
  -2.3614810531360393E-002   7.0570901164555555E-003   6.1861636227182604E-002
  -2.2836525370148190E-002   6.8169678076175355E-003   6.1910558999799470E-002
  -2.2058240208935990E-002   6.5707527641537533E-003   6.2168064787031685E-002
  -1.8745514862583690E-010   2.1062207533617539E-010   6.6214020042568600E-002
  -1.1247391212831914E-010   2.5805271808287955E-010   6.5959344779926543E-002
  -3.7492672161354434E-011   2.7130990509771635E-010   6.5908633773183373E-002
   3.7488566938248535E-011   2.5039410475602430E-010   6.6061887022339102E-002
   1.1246980430312803E-010   1.9530504991038811E-010   6.6419104527393580E-002
  -5.4870589671759951E-003   1.6426883490049948E-003   6.5296004281919479E-002
  -5.2811609192668502E-003   1.5797832687816649E-003   6.5024338792869979E-002
  -5.0752628713576966E-003   1.5156986367241554E-003   6.4960504993777327E-002
  -4.8693648234485474E-003   1.4504344528322652E-003   6.5104502884641813E-002
  -4.6634667755393981E-003   1.3839907171064314E-003   6.5456332465463174E-002
  -1.0992451897329756E-002   3.2853764873879143E-003   6.4315673152447003E-002
  -1.0576788442434544E-002   3.1595662795107088E-003   6.4025837919328962E-002
  -1.0161124987539348E-002   3.0313970021381906E-003   6.3947701810225993E-002
  -9.7454615326441427E-003   2.9008686552704829E-003   6.4081264825138123E-002
  -9.3297980777489325E-003   2.7679812389076741E-003   6.4426526964065520E-002
  -1.6516178977916414E-002   4.9280646257708893E-003   6.3273026654151104E-002
  -1.5886882681977018E-002   4.7393492902395931E-003   6.2963842159303562E-002
  -1.5257586386037613E-002   4.5470953675522778E-003   6.2870224222529136E-002
  -1.4628290090098209E-002   4.3513028577087274E-003   6.2992172843828090E-002
  -1.3998993794158820E-002   4.1519717607089862E-003   6.3329688023200173E-002
  -2.2058240208935990E-002   6.5707527641537533E-003   6.2168064787031685E-002
  -2.1211443637894230E-002   6.3191323009687272E-003   6.1838351512793571E-002
  -2.0364647066852495E-002   6.0627937329664483E-003   6.1728072230686964E-002
  -1.9517850495810764E-002   5.8017370601468263E-003   6.1837226940711615E-002
  -1.8671053924769011E-002   5.5359622825102983E-003   6.2165815642867772E-002
   1.1246980430312803E-010   1.9530504991038811E-010   6.6419104527393580E-002
   1.4081212584837743E-010   1.2770601243161650E-010   6.6208292775840949E-002
   1.6915444739362684E-010   6.9260111534852342E-011   6.6210055844277416E-002
   1.9749677414304667E-010   1.9967378445118200E-011   6.6424393732702827E-002
   2.2583909048412565E-010  -2.0172086223624319E-011   6.6851306441117253E-002
  -4.6634667755393981E-003   1.3839907171064314E-003   6.5456332465463174E-002
  -4.4520973312573969E-003   1.3157469169079450E-003   6.5240240611682071E-002
  -4.2407278869753921E-003   1.2450825395985965E-003   6.5234312769791414E-002
  -4.0293584426933935E-003   1.1719975851786218E-003   6.5438548939791064E-002
  -3.8179889984113931E-003   1.0964920536479794E-003   6.5852949121680993E-002
  -9.3297980777489325E-003   2.7679812389076741E-003   6.4426526964065520E-002
  -8.9094700256259381E-003   2.6314937061099053E-003   6.4202734421791974E-002
  -8.4891419735029297E-003   2.4901650099372410E-003   6.4186695083310097E-002
  -8.0688139213799265E-003   2.3439951503899745E-003   6.4378408948619834E-002
  -7.6484858692569112E-003   2.1929841274678230E-003   6.4777876017721336E-002
  -1.3998993794158820E-002   4.1519717607089862E-003   6.3329688023200173E-002
  -1.3372117942293494E-002   3.9472404953118517E-003   6.3095774206170394E-002
  -1.2745242090428174E-002   3.7352474802758891E-003   6.3067202784833340E-002
  -1.2118366238562843E-002   3.5159927156011616E-003   6.3243973759189484E-002
  -1.1491490386697535E-002   3.2894762012876111E-003   6.3626087129238382E-002
  -1.8671053924769011E-002   5.5359622825102983E-003   6.2165815642867772E-002
  -1.7840041081260055E-002   5.2629872845138537E-003   6.1919359964817400E-002
  -1.7009028237751106E-002   4.9803299506143150E-003   6.1875835874361296E-002
  -1.6178015394242146E-002   4.6879902808125012E-003   6.2035243371499599E-002
  -1.5347002550733194E-002   4.3859682751076212E-003   6.2397582456232170E-002
   2.2583909048412565E-010  -2.0172086223624319E-011   6.6851306441117253E-002
   1.6465564328660420E-010  -4.7804593616973534E-011   6.6757965412128140E-002
   1.0347219261963581E-010  -5.9577398570098694E-011   6.6898295244838091E-002
   4.2288747156837836E-011  -5.5489432493338597E-011   6.7272295939246912E-002
  -1.8894705244854038E-011  -3.5541791731930061E-011   6.7879967495354854E-002
  -3.8179889984113931E-003   1.0964920536479794E-003   6.5852949121680993E-002
  -3.5866535905474516E-003   1.0189004057145346E-003   6.5743889233527891E-002
  -3.3553181826835102E-003   9.3955710208636078E-004   6.5863829421770770E-002
  -3.1239827748195757E-003   8.5846214276391261E-004   6.6212769686409420E-002
  -2.8926473669556273E-003   7.7561552774674247E-004   6.6790710027443745E-002
  -7.6484858692569112E-003   2.1929841274678230E-003   6.4777876017721336E-002
  -7.1904857776488446E-003   2.0378008592336905E-003   6.4651345598849788E-002
  -6.7324856860407761E-003   1.8791142637501201E-003   6.4749144471070594E-002
  -6.2744855944327112E-003   1.7169243410174242E-003   6.5071272634383948E-002
  -5.8164855028246410E-003   1.5512310910351657E-003   6.5617730088789905E-002
  -1.1491490386697535E-002   3.2894762012876111E-003   6.3626087129238382E-002
  -1.0811496396648577E-002   3.0567013127528325E-003   6.3480334508093345E-002
  -1.0131502406599609E-002   2.8186714254139350E-003   6.3554240392737688E-002
  -9.4515084165506455E-003   2.5753865392709081E-003   6.3847804783171119E-002
  -8.7715144265016823E-003   2.3268466543235888E-003   6.4361027679393890E-002
  -1.5347002550733194E-002   4.3859682751076212E-003   6.2397582456232170E-002
  -1.4449685447546580E-002   4.0756017662720856E-003   6.2230855961258935E-002
  -1.3552368344360004E-002   3.7582285870773890E-003   6.2279117186771760E-002
  -1.2655051241173417E-002   3.4338487375244406E-003   6.2542366132770644E-002
  -1.1757734137986815E-002   3.1024622176121230E-003   6.3020602799255476E-002
  -1.8894705244854038E-011  -3.5541791731930061E-011   6.7879967495354854E-002
  -1.9416794561077921E-011  -1.1680156841720191E-011   6.7900501302484484E-002
  -1.9938869999513997E-011   4.1489034430242100E-012   6.8164661802960713E-002
  -2.0460945437950073E-011   1.1945167077698216E-011   6.8672448996783819E-002
  -2.0983034754173957E-011   1.1708967129209213E-011   6.9423862883953524E-002
  -2.8926473669556273E-003   7.7561552774674247E-004   6.6790710027443745E-002
  -2.6495534675481797E-003   6.9397811540411469E-004   6.6781605279853384E-002
  -2.4064595681407216E-003   6.1651076410490502E-004   6.7015061638775214E-002
  -2.1633656687332732E-003   5.4321347384940488E-004   6.7491079104209387E-002
  -1.9202717693258160E-003   4.7408624463718407E-004   6.8209657676155944E-002
  -5.8164855028246410E-003   1.5512310910351657E-003   6.5617730088789905E-002
  -5.3313632903221331E-003   1.3879562424881364E-003   6.5583156855555880E-002
  -4.8462410778196451E-003   1.2330215240607956E-003   6.5790079141999525E-002
  -4.3611188653171467E-003   1.0864269357533651E-003   6.6238496948120923E-002
  -3.8759966528146492E-003   9.4817247756534551E-004   6.6928410273920463E-002
  -8.7715144265016823E-003   2.3268466543235888E-003   6.4361027679393890E-002
  -8.0454294877386652E-003   2.0819343695724496E-003   6.4305156029592192E-002
  -7.3193445489756134E-003   1.8495322840167416E-003   6.4489714312633964E-002
  -6.5932596102125773E-003   1.6296403976573531E-003   6.4914702528518858E-002
  -5.8671746714495428E-003   1.4222587104933127E-003   6.5580120677246931E-002
  -1.1757734137986815E-002   3.1024622176121230E-003   6.3020602799255476E-002
  -1.0791752059797731E-002   2.7759124966563742E-003   6.2947602801962432E-002
  -9.8257699816086501E-003   2.4660430439729097E-003   6.3113967150678074E-002
  -8.8597879034195571E-003   2.1728538595615077E-003   6.3519695845402568E-002
  -7.8938058252304849E-003   1.8963449434217239E-003   6.4164788886135971E-002
  -2.0983034754173957E-011   1.1708967129209213E-011   6.9423862883953524E-002
  -1.6855634943357956E-011   7.9873330172119950E-012   6.9248403669770808E-002
  -1.2728238601988906E-011   5.3277382505712012E-012   6.9291959017637628E-002
  -8.6008405258963805E-012   3.7302938515892947E-012   6.9554528927554482E-002
  -4.4734424498038550E-012   3.1941116418465754E-012   7.0036113399521205E-002
  -1.9202717693258160E-003   4.7408624463718407E-004   6.8209657676155944E-002
  -1.6976618630248699E-003   4.2092591903669652E-004   6.8016222540571547E-002
  -1.4750519567239238E-003   3.9552933961634062E-004   6.8048992647284395E-002
  -1.2524420504229725E-003   3.9789650637596374E-004   6.8307967996294752E-002
  -1.0298321441220316E-003   4.2802741931513566E-004   6.8793148587601882E-002
  -3.8759966528146492E-003   9.4817247756534551E-004   6.6928410273920463E-002
  -3.4235861640927586E-003   8.4185183008608777E-004   6.6744762962052617E-002
  -2.9711756753708742E-003   7.9105867390483198E-004   6.6794511572729587E-002
  -2.5187651866489798E-003   7.9579300902163363E-004   6.7077656105951081E-002
  -2.0663546979270853E-003   8.5605483543604866E-004   6.7594196561717251E-002
  -5.8671746714495428E-003   1.4222587104933127E-003   6.5580120677246931E-002
  -5.1777729200593071E-003   1.2627777411355762E-003   6.5434024934213894E-002
  -4.4883711686690775E-003   1.1865880081935454E-003   6.5528515793972619E-002
  -3.7989694172788383E-003   1.1936895116673035E-003   6.5863593256523648E-002
  -3.1095676658886126E-003   1.2840822515570172E-003   6.6439257321866230E-002
  -7.8938058252304849E-003   1.8963449434217239E-003   6.4164788886135971E-002
  -6.9602221309245094E-003   1.6837036521848425E-003   6.4084008457055308E-002
  -6.0266384366185477E-003   1.5821173424818147E-003   6.4251005311014131E-002
  -5.0930547423125791E-003   1.5915860143131677E-003   6.4665779448012328E-002
  -4.1594710480066105E-003   1.7121096676778746E-003   6.5328330868049900E-002
  -4.4734424498038550E-012   3.1941116418465754E-012   7.0036113399521205E-002
  -3.9316674915745864E-012   3.1420421819916555E-012   6.8693208708006104E-002
  -3.3898751861105580E-012   2.9958535652241380E-012   6.7496306815539253E-002
  -2.8480915542639096E-012   2.7547478187450736E-012   6.6445407722120903E-002
  -2.3063079224172611E-012   2.4195090375656036E-012   6.5540511427751080E-002
  -1.0298321441220316E-003   4.2802741931513566E-004   6.8793148587601882E-002
  -8.8718594389824296E-004   5.0110617320625606E-004   6.7469262850378242E-002
  -7.4453974367446295E-004   6.3231686282014254E-004   6.6284666713470164E-002
  -6.0189354345067860E-004   8.2165948815737105E-004   6.5239360176877703E-002
  -4.5924734322689426E-004   1.0691340492173795E-003   6.4333343240600693E-002
  -2.0663546979270853E-003   8.5605483543604866E-004   6.7594196561717251E-002
  -1.7877754967541553E-003   1.0022123432700814E-003   6.6347461714602540E-002
  -1.5091962955812235E-003   1.2646337226443066E-003   6.5233303269070356E-002
  -1.2306170944082853E-003   1.6433189735596578E-003   6.4251721225120989E-002
  -9.5203789323534786E-004   2.1382680960151945E-003   6.3402715582754371E-002
  -3.1095676658886126E-003   1.2840822515570172E-003   6.6439257321866230E-002
  -2.7017686624993798E-003   1.5033185133341564E-003   6.5327805300678082E-002
  -2.2939696591101465E-003   1.8969505824684776E-003   6.4342216482339662E-002
  -1.8861706557209029E-003   2.4649784589617797E-003   6.3482490866850969E-002
  -1.4783716523316805E-003   3.2074021428128152E-003   6.2748628454212446E-002
  -4.1594710480066105E-003   1.7121096676778746E-003   6.5328330868049900E-002
  -3.6291654411339386E-003   2.0044246833980095E-003   6.4410293608605618E-002
  -3.0988598342612424E-003   2.5292674422926487E-003   6.3611406353278277E-002
  -2.5685542273885566E-003   3.2866379443644289E-003   6.2931669102068155E-002
  -2.0382486205158742E-003   4.2765361896107690E-003   6.2371081854974864E-002
  -2.3063079224172611E-012   2.4195090375656036E-012   6.5540511427751080E-002
  -1.8507140264745203E-012   2.2503110486127298E-012   6.0801590886284229E-002
  -1.3951235999787315E-012   2.5075774789939942E-012   5.5943364443678256E-002
  -9.3953317348294263E-013   3.1907879116666038E-012   5.0965832099933578E-002
  -4.8393233864629792E-013   4.3010039973978564E-012   4.5868993855050277E-002
  -4.5924734322689426E-004   1.0691340492173795E-003   6.4333343240600693E-002
  -5.6431896701234288E-004   1.3947728670146708E-003   5.9624212056032577E-002
  -6.6939059079777416E-004   1.8186082625628874E-003   5.4824243524121685E-002
  -7.7446221458322452E-004   2.3406402358618975E-003   4.9933437644866990E-002
  -8.7953383836865406E-004   2.9608687869122630E-003   4.4951794418269797E-002
  -9.5203789323534786E-004   2.1382680960151945E-003   6.3402715582754371E-002
  -1.1337125874660535E-003   2.7895457317788641E-003   5.8821570332409590E-002
  -1.3153872816967531E-003   3.6372165226182945E-003   5.4178056288517476E-002
  -1.4970619759274526E-003   4.6812804685330035E-003   4.9472173451078079E-002
  -1.6787366701581583E-003   5.9217375695237440E-003   4.4703921820091419E-002
  -1.4783716523316805E-003   3.2074021428128152E-003   6.2748628454212446E-002
  -1.7081808632118623E-003   4.1843185965432517E-003   5.8393665715415509E-002
  -1.9379900740920306E-003   5.4558247826732090E-003   5.4004802736867377E-002
  -2.1677992849722023E-003   7.0219207012041113E-003   4.9582039518567461E-002
  -2.3976084958523807E-003   8.8826063521350029E-003   4.5125376060515893E-002
  -2.0382486205158742E-003   4.2765361896107690E-003   6.2371081854974864E-002
  -2.2877237942497547E-003   5.5790914613075282E-003   5.8340498205050495E-002
  -2.5371989679836317E-003   7.2744330427288728E-003   5.4304482869170390E-002
  -2.7866741417175156E-003   9.3625609338750734E-003   5.0263035847334353E-002
  -3.0361493154513891E-003   1.1843475134746484E-002   4.6216157139542968E-002
  -2.5171380853784800E-002   7.5190565302545309E-003   6.2389539725795196E-002
  -2.4393095692572572E-002   7.2911196906679243E-003   6.2021296469181142E-002
  -2.3614810531360393E-002   7.0570901164555555E-003   6.1861636227182604E-002
  -2.2836525370148190E-002   6.8169678076175355E-003   6.1910558999799470E-002
  -2.2058240208935990E-002   6.5707527641537533E-003   6.2168064787031685E-002
  -3.1448257880424983E-002   9.1194445637070576E-003   5.8694350341336410E-002
  -3.0481106627447001E-002   8.9351294191490072E-003   5.8504737407713781E-002
  -2.9513955374468989E-002   8.7188681486686515E-003   5.8484273643007262E-002
  -2.8546804121490979E-002   8.4706607522660182E-003   5.8632959047217131E-002
  -2.7579652868512970E-002   8.1905072299409409E-003   5.8950793620343056E-002
  -3.7507768230950297E-002   1.0719832597159612E-002   5.5055709347554604E-002
  -3.6391184731905626E-002   1.0579139147630173E-002   5.5018873345626607E-002
  -3.5274601232861080E-002   1.0380646180881775E-002   5.5111752666915675E-002
  -3.4158017733816451E-002   1.0124353696914445E-002   5.5334347311421700E-002
  -3.3041434234771870E-002   9.8102616957280731E-003   5.5686657279144722E-002
  -4.3349911905360590E-002   1.2320220630612166E-002   5.1473616744449627E-002
  -4.2123330005948603E-002   1.2223148876111256E-002   5.1563704282919759E-002
  -4.0896748106536610E-002   1.2042424213094829E-002   5.1744073298907609E-002
  -3.9670166207124678E-002   1.1778046641562762E-002   5.2014723792413328E-002
  -3.8443584307712705E-002   1.1430016161515205E-002   5.2375655763436758E-002
  -4.8974688903655916E-002   1.3920608664064693E-002   4.7948072532021657E-002
  -4.7677542449575783E-002   1.3867158604592422E-002   4.8139230219593210E-002
  -4.6380395995495705E-002   1.3704202245307995E-002   4.8381235538983325E-002
  -4.5083249541415543E-002   1.3431739586211355E-002   4.8674088490191947E-002
  -4.3786103087335437E-002   1.3049770627302337E-002   4.9017789073219076E-002
  -2.2058240208935990E-002   6.5707527641537533E-003   6.2168064787031685E-002
  -2.1211443637894230E-002   6.3191323009687272E-003   6.1838351512793571E-002
  -2.0364647066852495E-002   6.0627937329664483E-003   6.1728072230686964E-002
  -1.9517850495810764E-002   5.8017370601468263E-003   6.1837226940711615E-002
  -1.8671053924769011E-002   5.5359622825102983E-003   6.2165815642867772E-002
  -2.7579652868512970E-002   8.1905072299409409E-003   5.8950793620343056E-002
  -2.6521265489763451E-002   7.8895644901579715E-003   5.8665693248094078E-002
  -2.5462878111013908E-002   7.5789894413815853E-003   5.8584340499129209E-002
  -2.4404490732264354E-002   7.2587820836114442E-003   5.8706735373448525E-002
  -2.3346103353514846E-002   6.9289424168479941E-003   5.9032877871051992E-002
  -3.3041434234771870E-002   9.8102616957280731E-003   5.5686657279144722E-002
  -3.1787142417161823E-002   9.4599966793472851E-003   5.5441255604708396E-002
  -3.0532850599551745E-002   9.0951851497967223E-003   5.5383915184709073E-002
  -2.9278558781941671E-002   8.7158271070761177E-003   5.5514636019146683E-002
  -2.8024266964331621E-002   8.3219225511857453E-003   5.5833418108021116E-002
  -3.8443584307712705E-002   1.1430016161515205E-002   5.2375655763436758E-002
  -3.7009074420089355E-002   1.1030428868536675E-002   5.2165038582636894E-002
  -3.5574564532465991E-002   1.0611380858211970E-002   5.2126796287426697E-002
  -3.4140054644842634E-002   1.0172872130540874E-002   5.2260928877806201E-002
  -3.2705544757219276E-002   9.7149026855235521E-003   5.2567436353775310E-002
  -4.3786103087335437E-002   1.3049770627302337E-002   4.9017789073219076E-002
  -4.2187061498546036E-002   1.2600861057725898E-002   4.8837042181879287E-002
  -4.0588019909756662E-002   1.2127576566627052E-002   4.8812983807281884E-002
  -3.8988978320967267E-002   1.1629917154005256E-002   4.8945613949426911E-002
  -3.7389936732177886E-002   1.1107882819861192E-002   4.9234932608314241E-002
  -1.8671053924769011E-002   5.5359622825102983E-003   6.2165815642867772E-002
  -1.7840041081260055E-002   5.2629872845138537E-003   6.1919359964817400E-002
  -1.7009028237751106E-002   4.9803299506143150E-003   6.1875835874361296E-002
  -1.6178015394242146E-002   4.6879902808125012E-003   6.2035243371499599E-002
  -1.5347002550733194E-002   4.3859682751076212E-003   6.2397582456232170E-002
  -2.3346103353514846E-002   6.9289424168479941E-003   5.9032877871051992E-002
  -2.2314533879699169E-002   6.5903603994347526E-003   5.8772165689538830E-002
  -2.1282964405883516E-002   6.2439259897155847E-003   5.8709635181044745E-002
  -2.0251394932067866E-002   5.8896391876905908E-003   5.8845286345569847E-002
  -1.9219825458252179E-002   5.5274999933595526E-003   5.9179119183113915E-002
  -2.8024266964331621E-002   8.3219225511857453E-003   5.5833418108021116E-002
  -2.6796890774784431E-002   7.9177335143559013E-003   5.5560279366641860E-002
  -2.5569514585237235E-002   7.5075220288168543E-003   5.5480572383706683E-002
  -2.4342138395690046E-002   7.0912880945687914E-003   5.5594297159215308E-002
  -2.3114762206142850E-002   6.6690317116115394E-003   5.5901453693167902E-002
  -3.2705544757219276E-002   9.7149026855235521E-003   5.2567436353775310E-002
  -3.1287111766515760E-002   9.2451066292770362E-003   5.2283700996126808E-002
  -2.9868678775812195E-002   8.7711180679181516E-003   5.2188647482347174E-002
  -2.8450245785108699E-002   8.2929370014470476E-003   5.2282275812436274E-002
  -2.7031812794405117E-002   7.8105634298634985E-003   5.2564585986394137E-002
  -3.7389936732177886E-002   1.1107882819861192E-002   4.9234932608314241E-002
  -3.5785196854893175E-002   1.0572479744198032E-002   4.8942430577993412E-002
  -3.4180456977608478E-002   1.0034714107019435E-002   4.8833860476966223E-002
  -3.2575717100323753E-002   9.4945859083252031E-003   4.8909222305232550E-002
  -3.0970977223039070E-002   8.9520951481155131E-003   4.9168516062792544E-002
  -1.5347002550733194E-002   4.3859682751076212E-003   6.2397582456232170E-002
  -1.4449685447546580E-002   4.0756017662720856E-003   6.2230855961258935E-002
  -1.3552368344360004E-002   3.7582285870773890E-003   6.2279117186771760E-002
  -1.2655051241173417E-002   3.4338487375244406E-003   6.2542366132770644E-002
  -1.1757734137986815E-002   3.1024622176121230E-003   6.3020602799255476E-002
  -1.9219825458252179E-002   5.5274999933595526E-003   5.9179119183113915E-002
  -1.8110802630967988E-002   5.1572884828371968E-003   5.8979347396163062E-002
  -1.7001779803683760E-002   4.7787847322382782E-003   5.8987999336921310E-002
  -1.5892756976399542E-002   4.3919887415628592E-003   5.9205075005388935E-002
  -1.4783734149115338E-002   3.9969005108106970E-003   5.9630574401565717E-002
  -2.3114762206142850E-002   6.6690317116115394E-003   5.5901453693167902E-002
  -2.1800597647537757E-002   6.2389751994025855E-003   5.5667351044521390E-002
  -2.0486433088932662E-002   5.7993408773991811E-003   5.5635108130807479E-002
  -1.9172268530327566E-002   5.3501287456014478E-003   5.5804724952025937E-002
  -1.7858103971722473E-002   4.8913388040092709E-003   5.6176201508177065E-002
  -2.7031812794405117E-002   7.8105634298634985E-003   5.2564585986394137E-002
  -2.5519070497255936E-002   7.3206619159679465E-003   5.2294866906334232E-002
  -2.4006328200106716E-002   6.8198970225601882E-003   5.2220443568430308E-002
  -2.2493585902957511E-002   6.3082687496400624E-003   5.2341315972681927E-002
  -2.0980843605808316E-002   5.7857770972078448E-003   5.2657484119089423E-002
  -3.0970977223039070E-002   8.9520951481155131E-003   4.9168516062792544E-002
  -2.9266221180122509E-002   8.4023486325330299E-003   4.8861894981601650E-002
  -2.7561465137205934E-002   7.8404531677208206E-003   4.8744005649789784E-002
  -2.5856709094289367E-002   7.2664087536786111E-003   4.8814848067356795E-002
  -2.4151953051372799E-002   6.6802153904064188E-003   4.9074422234302806E-002
  -1.1757734137986815E-002   3.1024622176121230E-003   6.3020602799255476E-002
  -1.0791752059797731E-002   2.7759124966563742E-003   6.2947602801962432E-002
  -9.8257699816086501E-003   2.4660430439729097E-003   6.3113967150678074E-002
  -8.8597879034195571E-003   2.1728538595615077E-003   6.3519695845402568E-002
  -7.8938058252304849E-003   1.8963449434217239E-003   6.4164788886135971E-002
  -1.4783734149115338E-002   3.9969005108106970E-003   5.9630574401565717E-002
  -1.3588065263953824E-002   3.6031798333316933E-003   5.9513380861204834E-002
  -1.2392396378792365E-002   3.2204865024754725E-003   5.9616196588780174E-002
  -1.1196727493630883E-002   2.8488205182419929E-003   5.9939021584291360E-002
  -1.0001058608469393E-002   2.4881818806314904E-003   6.0481855847738519E-002
  -1.7858103971722473E-002   4.8913388040092709E-003   5.6176201508177065E-002
  -1.6452103357661410E-002   4.4304471700067072E-003   5.6009161503099480E-002
  -1.5046102743600340E-002   3.9749299609779243E-003   5.6042775687885044E-002
  -1.3640102129539283E-002   3.5247871769228112E-003   5.6277044062533893E-002
  -1.2234101515478202E-002   3.0800188178413679E-003   5.6711966627045862E-002
  -2.0980843605808316E-002   5.7857770972078448E-003   5.2657484119089423E-002
  -1.9383866340920448E-002   5.2577145066816516E-003   5.2434944727645955E-002
  -1.7786889076032635E-002   4.7293734194805426E-003   5.2393704447992850E-002
  -1.6189911811144795E-002   4.2007538356033519E-003   5.2533763280130125E-002
  -1.4592934546256956E-002   3.6718557550512454E-003   5.2855121224057749E-002
  -2.4151953051372799E-002   6.6802153904064188E-003   4.9074422234302806E-002
  -2.2383354213730999E-002   6.0849818433569847E-003   4.8790730534844340E-002
  -2.0614755376089186E-002   5.4838168779828833E-003   4.8668982869103372E-002
  -1.8846156538447359E-002   4.8767204942841563E-003   4.8709179237080014E-002
  -1.7077557700805573E-002   4.2636926922611229E-003   4.8911319638774042E-002
  -7.8938058252304849E-003   1.8963449434217239E-003   6.4164788886135971E-002
  -6.9602221309245094E-003   1.6837036521848425E-003   6.4084008457055308E-002
  -6.0266384366185477E-003   1.5821173424818147E-003   6.4251005311014131E-002
  -5.0930547423125791E-003   1.5915860143131677E-003   6.4665779448012328E-002
  -4.1594710480066105E-003   1.7121096676778746E-003   6.5328330868049900E-002
  -1.0001058608469393E-002   2.4881818806314904E-003   6.0481855847738519E-002
  -8.8183743528552037E-003   2.1890533913687671E-003   6.0388132538960304E-002
  -7.6356900972409832E-003   2.0019178521789860E-003   6.0544833069759108E-002
  -6.4530058416267851E-003   1.9267752630619875E-003   6.0951957440134680E-002
  -5.2703215860125420E-003   1.9636256240179728E-003   6.1609505650087715E-002
  -1.2234101515478202E-002   3.0800188178413679E-003   5.6711966627045862E-002
  -1.0799670142018150E-002   2.6944031305526916E-003   5.6606238407108878E-002
  -9.3652387685580797E-003   2.4217183618760463E-003   5.6753580583286389E-002
  -7.9308073950980114E-003   2.2619645118110293E-003   5.7153993155578731E-002
  -6.4963760216379569E-003   2.2151415803581265E-003   5.7807476123985679E-002
  -1.4592934546256956E-002   3.6718557550512454E-003   5.2855121224057749E-002
  -1.2904109498413410E-002   3.1997528697367827E-003   5.2738326061500911E-002
  -1.1215284450569862E-002   2.8415188715730511E-003   5.2877247851596476E-002
  -9.5264594027263082E-003   2.5971537605601822E-003   5.3271886594344210E-002
  -7.8376343548827686E-003   2.4666575366981969E-003   5.3922242289744363E-002
  -1.7077557700805573E-002   4.2636926922611229E-003   4.8911319638774042E-002
  -1.5131692422040946E-002   3.7051026089206518E-003   4.8784395502136646E-002
  -1.3185827143276291E-002   3.2613193812701669E-003   4.8915834874689035E-002
  -1.1239961864511656E-002   2.9323430093089742E-003   4.9305637756431098E-002
  -9.2940965857470081E-003   2.7181734930382673E-003   4.9953804147363390E-002
  -4.1594710480066105E-003   1.7121096676778746E-003   6.5328330868049900E-002
  -3.6291654411339386E-003   2.0044246833980095E-003   6.4410293608605618E-002
  -3.0988598342612424E-003   2.5292674422926487E-003   6.3611406353278277E-002
  -2.5685542273885566E-003   3.2866379443644289E-003   6.2931669102068155E-002
  -2.0382486205158742E-003   4.2765361896107690E-003   6.2371081854974864E-002
  -5.2703215860125420E-003   1.9636256240179728E-003   6.1609505650087715E-002
  -4.5949120272999813E-003   2.2195511514606636E-003   6.0881561003784834E-002
  -3.9195024685873946E-003   2.8016340618038094E-003   6.0324674257044741E-002
  -3.2440929098748279E-003   3.7098743550478333E-003   5.9938845409867492E-002
  -2.5686833511622195E-003   4.9442720311921873E-003   5.9724074462252696E-002
  -6.4963760216379569E-003   2.2151415803581265E-003   5.7807476123985679E-002
  -5.6239546156397098E-003   2.4346776195238173E-003   5.7363253730549346E-002
  -4.7515332096414887E-003   3.0740006813149701E-003   5.7141997132121591E-002
  -3.8791118036432528E-003   4.1331107657320149E-003   5.7143706328702457E-002
  -3.0066903976450482E-003   5.6120078727741052E-003   5.7368381320291678E-002
  -7.8376343548827686E-003   2.4666575366981969E-003   5.3922242289744363E-002
  -6.7162932061531379E-003   2.6498040875868323E-003   5.3855371788899438E-002
  -5.5949520574235211E-003   3.3463673008261308E-003   5.4063374978508771E-002
  -4.4736109086938964E-003   4.5563471764158078E-003   5.4546251858572502E-002
  -3.3522697599642735E-003   6.2797437143561063E-003   5.5304002429090483E-002
  -9.2940965857470081E-003   2.7181734930382673E-003   4.9953804147363390E-002
  -7.8719277988402725E-003   2.8649305556496807E-003   5.0357915178835033E-002
  -6.4497590119334952E-003   3.6187339203372082E-003   5.1088807796206448E-002
  -5.0275902250267387E-003   4.9795835870998020E-003   5.2146481999478050E-002
  -3.6054214381199823E-003   6.9474795559376634E-003   5.3530937788649480E-002
  -2.0382486205158742E-003   4.2765361896107690E-003   6.2371081854974864E-002
  -2.2877237942497547E-003   5.5790914613075282E-003   5.8340498205050495E-002
  -2.5371989679836317E-003   7.2744330427288728E-003   5.4304482869170390E-002
  -2.7866741417175156E-003   9.3625609338750734E-003   5.0263035847334353E-002
  -3.0361493154513891E-003   1.1843475134746484E-002   4.6216157139542968E-002
  -2.5686833511622195E-003   4.9442720311921873E-003   5.9724074462252696E-002
  -2.8410740999712455E-003   6.5686100011449478E-003   5.6191689364593067E-002
  -3.1134648487802473E-003   8.6466711758125259E-003   5.2618904802738564E-002
  -3.3858555975892404E-003   1.1178455555195449E-002   4.9005720776689715E-002
  -3.6582463463983028E-003   1.4163963139294022E-002   4.5352137286446048E-002
  -3.0066903976450482E-003   5.6120078727741052E-003   5.7368381320291678E-002
  -3.3369644997678187E-003   7.5581285409823118E-003   5.4395131669886271E-002
  -3.6672386018905892E-003   1.0018909308895749E-002   5.1346514777048033E-002
  -3.9975127040134187E-003   1.2994350176515661E-002   4.8222530641776791E-002
  -4.3277868061361892E-003   1.6484451143841339E-002   4.5023179264072399E-002
  -3.3522697599642735E-003   6.2797437143561063E-003   5.5304002429090483E-002
  -3.7753949936394941E-003   8.5476470808194815E-003   5.2950825120930592E-002
  -4.1985202273146869E-003   1.1391147441979409E-002   5.0487312792099157E-002
  -4.6216454609898459E-003   1.4810244797835844E-002   4.7913465442596358E-002
  -5.0447706946651011E-003   1.8804939148388766E-002   4.5229283072420828E-002
  -3.6054214381199823E-003   6.9474795559376634E-003   5.3530937788649480E-002
  -4.1563655815862188E-003   9.5371656206570954E-003   5.1858769717725739E-002
  -4.7073097250524831E-003   1.2763385575062680E-002   5.0041298847891436E-002
  -5.2582538685187474E-003   1.6626139419156041E-002   4.8078525179146903E-002
  -5.8091980119849840E-003   2.1125427152936194E-002   4.5970448711492029E-002
  -4.8974688903655916E-002   1.3920608664064693E-002   4.7948072532021657E-002
  -4.7677542449575783E-002   1.3867158604592422E-002   4.8139230219593210E-002
  -4.6380395995495705E-002   1.3704202245307995E-002   4.8381235538983325E-002
  -4.5083249541415543E-002   1.3431739586211355E-002   4.8674088490191947E-002
  -4.3786103087335437E-002   1.3049770627302337E-002   4.9017789073219076E-002
  -5.4995411869464383E-002   1.7240683449508243E-002   4.6174666688466703E-002
  -5.3544188405238044E-002   1.6568250014332014E-002   4.5424838413405000E-002
  -5.2092964941011677E-002   1.5935409419328528E-002   4.4932316526817229E-002
  -5.0641741476785324E-002   1.5342161664497866E-002   4.4697101028703445E-002
  -4.9190518012558977E-002   1.4788506749839836E-002   4.4719191919063483E-002
  -6.2025393446414015E-002   2.0560758234951737E-002   4.3707727899215287E-002
  -6.0213634215386100E-002   1.9269341424071496E-002   4.2166012801505337E-002
  -5.8401874984358157E-002   1.8166616593349005E-002   4.1088062848924731E-002
  -5.6590115753330186E-002   1.7252583742784322E-002   4.0473878041473413E-002
  -5.4778356522302209E-002   1.6527242872377362E-002   4.0323458379151356E-002
  -7.0064633634504783E-002   2.3880833020395259E-002   4.0547256164267326E-002
  -6.7685879880019895E-002   2.1970432833810977E-002   3.8362753383894117E-002
  -6.5307126125534992E-002   2.0397823767369497E-002   3.6848474505305658E-002
  -6.2928372371050104E-002   1.9163005821070833E-002   3.6004419528501933E-002
  -6.0549618616565208E-002   1.8265978994914819E-002   3.5830588453482692E-002
  -7.9113132433736799E-002   2.7200907805838781E-002   3.6693251483622846E-002
  -7.5960925399139595E-002   2.4671524243550513E-002   3.4015060160571597E-002
  -7.2808718364542335E-002   2.2629030941390002E-002   3.2213551495960141E-002
  -6.9656511329945131E-002   2.1073427899357341E-002   3.1288725489788907E-002
  -6.6504304295347899E-002   2.0004715117452387E-002   3.1240582142057494E-002
  -4.3786103087335437E-002   1.3049770627302337E-002   4.9017789073219076E-002
  -4.2187061498546036E-002   1.2600861057725898E-002   4.8837042181879287E-002
  -4.0588019909756662E-002   1.2127576566627052E-002   4.8812983807281884E-002
  -3.8988978320967267E-002   1.1629917154005256E-002   4.8945613949426911E-002
  -3.7389936732177886E-002   1.1107882819861192E-002   4.9234932608314241E-002
  -4.9190518012558977E-002   1.4788506749839836E-002   4.4719191919063483E-002
  -4.7415542706516739E-002   1.4250915559519794E-002   4.4358346487204769E-002
  -4.5640567400474522E-002   1.3705858977703197E-002   4.4192679973109356E-002
  -4.3865592094432256E-002   1.3153337004390111E-002   4.4222192376777256E-002
  -4.2090616788390059E-002   1.2593349639580032E-002   4.4446883698208456E-002
  -5.4778356522302209E-002   1.6527242872377362E-002   4.0323458379151356E-002
  -5.2788957097986228E-002   1.5900970061313829E-002   3.9799423936799666E-002
  -5.0799557673670226E-002   1.5284141388779621E-002   3.9509058813232092E-002
  -4.8810158249354252E-002   1.4676756854774521E-002   3.9452363008448843E-002
  -4.6820758825038236E-002   1.4078816459298815E-002   3.9629336522449668E-002
  -6.0549618616565208E-002   1.8265978994914819E-002   3.5830588453482692E-002
  -5.8307304672954578E-002   1.7551024563107823E-002   3.5160274530663879E-002
  -5.6064990729343907E-002   1.6862423799855933E-002   3.4762120327650199E-002
  -5.3822676785733228E-002   1.6200176705159209E-002   3.4636125844441548E-002
  -5.1580362842122598E-002   1.5564283279017710E-002   3.4782291081038155E-002
  -6.6504304295347899E-002   2.0004715117452387E-002   3.1240582142057494E-002
  -6.3970585431421673E-002   1.9201079064901788E-002   3.0440898268797534E-002
  -6.1436866567495474E-002   1.8440706210932217E-002   2.9951864516363641E-002
  -5.8903147703569261E-002   1.7723596555543654E-002   2.9773480884755732E-002
  -5.6369428839643049E-002   1.7049750098736383E-002   2.9905747373973668E-002
  -3.7389936732177886E-002   1.1107882819861192E-002   4.9234932608314241E-002
  -3.5785196854893175E-002   1.0572479744198032E-002   4.8942430577993412E-002
  -3.4180456977608478E-002   1.0034714107019435E-002   4.8833860476966223E-002
  -3.2575717100323753E-002   9.4945859083252031E-003   4.8909222305232550E-002
  -3.0970977223039070E-002   8.9520951481155131E-003   4.9168516062792544E-002
  -4.2090616788390059E-002   1.2593349639580032E-002   4.4446883698208456E-002
  -4.0303102324063235E-002   1.2023988891219556E-002   4.4116940376640101E-002
  -3.8515587859736425E-002   1.1443346767255030E-002   4.3968614299862499E-002
  -3.6728073395409622E-002   1.0851423267686074E-002   4.4001905467875406E-002
  -3.4940558931082846E-002   1.0248218392513164E-002   4.4216813880678829E-002
  -4.6820758825038236E-002   1.4078816459298815E-002   3.9629336522449668E-002
  -4.4852784458172368E-002   1.3475498038241149E-002   3.9253033095545273E-002
  -4.2884810091306465E-002   1.2851979427490744E-002   3.9056032228928499E-002
  -4.0916835724440562E-002   1.2208260627047223E-002   3.9038333922599283E-002
  -3.8948861357574686E-002   1.1544341636910899E-002   3.9199938176557661E-002
  -5.1580362842122598E-002   1.5564283279017710E-002   3.4782291081038155E-002
  -4.9434243257220636E-002   1.4927007185262790E-002   3.4350708734708822E-002
  -4.7288123672318605E-002   1.4260612087726342E-002   3.4096114264164153E-002
  -4.5142004087416622E-002   1.3565097986408179E-002   3.4018507669404195E-002
  -4.2995884502514597E-002   1.2840464881308647E-002   3.4117888950428735E-002
  -5.6369428839643049E-002   1.7049750098736383E-002   2.9905747373973668E-002
  -5.4047478721207964E-002   1.6378516332284293E-002   2.9409967294130868E-002
  -5.1725528602772866E-002   1.5669244747962052E-002   2.9088860405569544E-002
  -4.9403578484337747E-002   1.4921935345769161E-002   2.8942426708290087E-002
  -4.7081628365902684E-002   1.4136588125706229E-002   2.8970666202291995E-002
  -3.0970977223039070E-002   8.9520951481155131E-003   4.9168516062792544E-002
  -2.9266221180122509E-002   8.4023486325330299E-003   4.8861894981601650E-002
  -2.7561465137205934E-002   7.8404531677208206E-003   4.8744005649789784E-002
  -2.5856709094289367E-002   7.2664087536786111E-003   4.8814848067356795E-002
  -2.4151953051372799E-002   6.6802153904064188E-003   4.9074422234302806E-002
  -3.4940558931082846E-002   1.0248218392513164E-002   4.4216813880678829E-002
  -3.3053214566901246E-002   9.6360280456987135E-003   4.3855909394471648E-002
  -3.1165870202719569E-002   9.0171481312053825E-003   4.3671449801415491E-002
  -2.9278525838537951E-002   8.3915786490330949E-003   4.3663435101510453E-002
  -2.7391181474356346E-002   7.7593195991820241E-003   4.3831865294756411E-002
  -3.8948861357574686E-002   1.1544341636910899E-002   3.9199938176557661E-002
  -3.6891215528355815E-002   1.0869707458864147E-002   3.8790209666884984E-002
  -3.4833569699137035E-002   1.0193843094689882E-002   3.8544639194135706E-002
  -3.2775923869918171E-002   9.5167485443875214E-003   3.8463226758309654E-002
  -3.0718278040699321E-002   8.8384238079576294E-003   3.8545972359406877E-002
  -4.2995884502514597E-002   1.2840464881308647E-002   3.4117888950428735E-002
  -4.0780224064486420E-002   1.2103386872029651E-002   3.3664795798841816E-002
  -3.8564563626458180E-002   1.1370538058174191E-002   3.3363573827950431E-002
  -3.6348903188430003E-002   1.0641918439741976E-002   3.3214223037754384E-002
  -3.4133242750401763E-002   9.9175280167332347E-003   3.3216743428254050E-002
  -4.7081628365902684E-002   1.4136588125706229E-002   2.8970666202291995E-002
  -4.4720240175292941E-002   1.3337066285195209E-002   2.8479667790342000E-002
  -4.2358851984683171E-002   1.2547233021658707E-002   2.8128253702859735E-002
  -3.9997463794073415E-002   1.1767088335096428E-002   2.7916423939844795E-002
  -3.7636075603463659E-002   1.0996632225508840E-002   2.7844178501297723E-002
  -2.4151953051372799E-002   6.6802153904064188E-003   4.9074422234302806E-002
  -2.2383354213730999E-002   6.0849818433569847E-003   4.8790730534844340E-002
  -2.0614755376089186E-002   5.4838168779828833E-003   4.8668982869103372E-002
  -1.8846156538447359E-002   4.8767204942841563E-003   4.8709179237080014E-002
  -1.7077557700805573E-002   4.2636926922611229E-003   4.8911319638774042E-002
  -2.7391181474356346E-002   7.7593195991820241E-003   4.3831865294756411E-002
  -2.5462671012110950E-002   7.1235902674318674E-003   4.3455181835602819E-002
  -2.3534160549865561E-002   6.4876099395628911E-003   4.3236377591938741E-002
  -2.1605650087620165E-002   5.8513786155748627E-003   4.3175452563764358E-002
  -1.9677139625374776E-002   5.2148962954680078E-003   4.3272406751079351E-002
  -3.0718278040699321E-002   8.8384238079576294E-003   3.8545972359406877E-002
  -2.8633920772078304E-002   8.1621986915069999E-003   3.8081977562763616E-002
  -2.6549563503457260E-002   7.4914030011430099E-003   3.7771797163382081E-002
  -2.4465206234836175E-002   6.8260367368655692E-003   3.7615431161262022E-002
  -2.2380848966215186E-002   6.1660998986747262E-003   3.7612879556403911E-002
  -3.4133242750401763E-002   9.9175280167332347E-003   3.3216743428254050E-002
  -3.1897103493633019E-002   9.2008071155820631E-003   3.2671117716326609E-002
  -2.9660964236864294E-002   8.4951960627231843E-003   3.2275241583433006E-002
  -2.7424824980095561E-002   7.8006948581563311E-003   3.2029115029573174E-002
  -2.5188685723326824E-002   7.1173035018815833E-003   3.1932738054746973E-002
  -3.7636075603463659E-002   1.0996632225508840E-002   2.7844178501297723E-002
  -3.5252219176775151E-002   1.0239415539657126E-002   2.7222602296291920E-002
  -3.2868362750086644E-002   9.4989891243031366E-003   2.6746710852091793E-002
  -3.0484506323398136E-002   8.7753529794470930E-003   2.6416504168697647E-002
  -2.8100649896709656E-002   8.0685071050883295E-003   2.6231982246109231E-002
  -1.7077557700805573E-002   4.2636926922611229E-003   4.8911319638774042E-002
  -1.5131692422040946E-002   3.7051026089206518E-003   4.8784395502136646E-002
  -1.3185827143276291E-002   3.2613193812701669E-003   4.8915834874689035E-002
  -1.1239961864511656E-002   2.9323430093089742E-003   4.9305637756431098E-002
  -9.2940965857470081E-003   2.7181734930382673E-003   4.9953804147363390E-002
  -1.9677139625374776E-002   5.2148962954680078E-003   4.3272406751079351E-002
  -1.7511741355737742E-002   4.6142205197677311E-003   4.3095860150164311E-002
  -1.5346343086100674E-002   4.0854088289997981E-003   4.3100016021804077E-002
  -1.3180944816463605E-002   3.6284612231637439E-003   4.3284874365998705E-002
  -1.1015546546826571E-002   3.2433777022604637E-003   4.3650435182748193E-002
  -2.2380848966215186E-002   6.1660998986747262E-003   3.7612879556403911E-002
  -2.0073578742340739E-002   5.5233384306146438E-003   3.7343767720453419E-002
  -1.7766308518466261E-002   4.9094982767290962E-003   3.7177697320422864E-002
  -1.5459038294591798E-002   4.3245794370181806E-003   3.7114668356312261E-002
  -1.3151768070717336E-002   3.7685819114820496E-003   3.7154680828121539E-002
  -2.5188685723326824E-002   7.1173035018815833E-003   3.1932738054746973E-002
  -2.2817204581849913E-002   6.4324563414616398E-003   3.1528118213003754E-002
  -2.0445723440373004E-002   5.7335877244586164E-003   3.1148878770545466E-002
  -1.8074242298896093E-002   5.0206976508728393E-003   3.0795019727372010E-002
  -1.5702761157419240E-002   4.2937861207040517E-003   3.0466541083483685E-002
  -2.8100649896709656E-002   8.0685071050883295E-003   2.6231982246109231E-002
  -2.5742618874265349E-002   7.3415742523085803E-003   2.5648911627815574E-002
  -2.3384587851820973E-002   6.5576771721880256E-003   2.5013560372171895E-002
  -2.1026556829376632E-002   5.7168158647273315E-003   2.4325928479178111E-002
  -1.8668525806932290E-002   4.8189903299257209E-003   2.3586015948834582E-002
  -9.2940965857470081E-003   2.7181734930382673E-003   4.9953804147363390E-002
  -7.8719277988402725E-003   2.8649305556496807E-003   5.0357915178835033E-002
  -6.4497590119334952E-003   3.6187339203372082E-003   5.1088807796206448E-002
  -5.0275902250267387E-003   4.9795835870998020E-003   5.2146481999478050E-002
  -3.6054214381199823E-003   6.9474795559376634E-003   5.3530937788649480E-002
  -1.1015546546826571E-002   3.2433777022604637E-003   4.3650435182748193E-002
  -9.2484012625184547E-003   3.1694934111968776E-003   4.4236759901321809E-002
  -7.4812559782103938E-003   3.6461434948821814E-003   4.5186256028798027E-002
  -5.7141106939023016E-003   4.6733279533155841E-003   4.6498923565176778E-002
  -3.9469654095942164E-003   6.2510467864969055E-003   4.8174762510458269E-002
  -1.3151768070717336E-002   3.7685819114820496E-003   3.7154680828121539E-002
  -1.1003256466005272E-002   3.4740562667439356E-003   3.7866707306470015E-002
  -8.8547448612932046E-003   3.6735530694269186E-003   3.8978295016723660E-002
  -6.7062332565811390E-003   4.3670723195306967E-003   4.0489443958882605E-002
  -4.5577216518690733E-003   5.5546140170560365E-003   4.2400154132946899E-002
  -1.5702761157419240E-002   4.2937861207040517E-003   3.0466541083483685E-002
  -1.3136493409300514E-002   3.7786191222907300E-003   3.1247757394279763E-002
  -1.0570225661181896E-002   3.7009626439715518E-003   3.2464924759983749E-002
  -8.0039579130632525E-003   4.0608166857464770E-003   3.4118043180595678E-002
  -5.4376901649446086E-003   4.8581812476152231E-003   3.6207112656115550E-002
  -1.8668525806932290E-002   4.8189903299257209E-003   2.3586015948834582E-002
  -1.5648112092404437E-002   4.0831819778378575E-003   2.4379910164750829E-002
  -1.2627698377876501E-002   3.7283722185165735E-003   2.5646145258578168E-002
  -9.6072846633485781E-003   3.7545610519617995E-003   2.7384721230315878E-002
  -6.5868709488207111E-003   4.1617484781742986E-003   2.9595638079964126E-002
  -3.6054214381199823E-003   6.9474795559376634E-003   5.3530937788649480E-002
  -4.1563655815862188E-003   9.5371656206570954E-003   5.1858769717725739E-002
  -4.7073097250524831E-003   1.2763385575062680E-002   5.0041298847891436E-002
  -5.2582538685187474E-003   1.6626139419156041E-002   4.8078525179146903E-002
  -5.8091980119849840E-003   2.1125427152936194E-002   4.5970448711492029E-002
  -3.9469654095942164E-003   6.2510467864969055E-003   4.8174762510458269E-002
  -4.5393949623069446E-003   8.6888932035481536E-003   4.7240326899736562E-002
  -5.1318245150195757E-003   1.2296460413590171E-002   4.6368223269432074E-002
  -5.7242540677322935E-003   1.7073748416622611E-002   4.5558451619545304E-002
  -6.3166836204449350E-003   2.3020757212646625E-002   4.4811011950076418E-002
  -4.5577216518690733E-003   5.5546140170560365E-003   4.2400154132946899E-002
  -4.9840018345002970E-003   7.8406207864392119E-003   4.2736637885731260E-002
  -5.4102820171315763E-003   1.1829535252116968E-002   4.3343088398260843E-002
  -5.8365621997628625E-003   1.7521357414089452E-002   4.4219505670536216E-002
  -6.2628423823940793E-003   2.4916087272356613E-002   4.5365889702556839E-002
  -5.4376901649446086E-003   4.8581812476152231E-003   3.6207112656115550E-002
  -5.4901861981664860E-003   6.9923483693302702E-003   3.8347702675709833E-002
  -5.5426822313884468E-003   1.1362610090644001E-002   4.0965894234377485E-002
  -5.5951782646103676E-003   1.7968966411556157E-002   4.4061687332118307E-002
  -5.6476742978322850E-003   2.6811417332066712E-002   4.7635081968932291E-002
  -6.5868709488207111E-003   4.1617484781742986E-003   2.9595638079964126E-002
  -6.0579480533054231E-003   6.1440759522214394E-003   3.4073521269672224E-002
  -5.5290251577901628E-003   1.0895684929171062E-002   3.9236640777781828E-002
  -5.0001022622748609E-003   1.8416575409022647E-002   4.5084996604292021E-002
  -4.4711793667595590E-003   2.8706747391777032E-002   5.1618588749203553E-002
  -7.9113132433736799E-002   2.7200907805838781E-002   3.6693251483622846E-002
  -7.5960925399139595E-002   2.4671524243550513E-002   3.4015060160571597E-002
  -7.2808718364542335E-002   2.2629030941390002E-002   3.2213551495960141E-002
  -6.9656511329945131E-002   2.1073427899357341E-002   3.1288725489788907E-002
  -6.6504304295347899E-002   2.0004715117452387E-002   3.1240582142057494E-002
  -8.6412674254303462E-002   2.2599714369097412E-002   1.5800845887387172E-002
  -8.2858056650042866E-002   2.2733868565850773E-002   1.7252334447621920E-002
  -7.9303439045782284E-002   2.2574691309658321E-002   1.8631961488743409E-002
  -7.5748821441521758E-002   2.2122182600520273E-002   1.9939727010751654E-002
  -7.2194203837261189E-002   2.1376342438436530E-002   2.1175631013646501E-002
  -8.9205043506398324E-002   1.7998520932356071E-002  -2.0379110932705752E-003
  -8.6196559510027665E-002   2.0796212888150839E-002   2.7630356371771275E-003
  -8.3188075513657089E-002   2.2520351677926480E-002   6.5435766709579998E-003
  -8.0179591517286430E-002   2.3170937301683209E-002   9.3037120080723783E-003
  -7.7171107520915799E-002   2.2747969759420783E-002   1.1043441648520239E-002
  -8.7490240190021412E-002   1.3397327495614716E-002  -1.6823019458349898E-002
  -8.5976433979094088E-002   1.8858557210451113E-002  -9.4528362707630327E-003
  -8.4462627768166626E-002   2.2466012046194996E-002  -4.0516029573959261E-003
  -8.2948821557239233E-002   2.4219692002846224E-002  -6.1931951824890658E-004
  -8.1435015346311784E-002   2.4119597080404981E-002   8.4401404667852620E-004
  -8.1268264305172755E-002   8.7961340588733616E-003  -2.8554479207851036E-002
  -8.2197680057241929E-002   1.6920901532751165E-002  -1.9395281276198273E-002
  -8.3127095809310991E-002   2.2411672414463069E-002  -1.3153577396318644E-002
  -8.4056511561380109E-002   2.5268446704008990E-002  -9.8293675682121287E-003
  -8.4985927313449228E-002   2.5491224401389290E-002  -9.4226517918787334E-003
  -6.6504304295347899E-002   2.0004715117452387E-002   3.1240582142057494E-002
  -6.3970585431421673E-002   1.9201079064901788E-002   3.0440898268797534E-002
  -6.1436866567495474E-002   1.8440706210932217E-002   2.9951864516363641E-002
  -5.8903147703569261E-002   1.7723596555543654E-002   2.9773480884755732E-002
  -5.6369428839643049E-002   1.7049750098736383E-002   2.9905747373973668E-002
  -7.2194203837261189E-002   2.1376342438436530E-002   2.1175631013646501E-002
  -6.9415248208900715E-002   2.0511391321426764E-002   2.1072716013090909E-002
  -6.6636292580540255E-002   1.9701549747511031E-002   2.1149624420577537E-002
  -6.3857336952179794E-002   1.8946817716688838E-002   2.1406356236106899E-002
  -6.1078381323819389E-002   1.8247195228960511E-002   2.1842911459678510E-002
  -7.7171107520915799E-002   2.2747969759420783E-002   1.1043441648520239E-002
  -7.4277741840904701E-002   2.1821703577952170E-002   1.1649141865181546E-002
  -7.1384376160893576E-002   2.0962393284089900E-002   1.2303838777101547E-002
  -6.8491010480882422E-002   2.0170038877834352E-002   1.3007532384280658E-002
  -6.5597644800871352E-002   1.9444640359184889E-002   1.3760222686718532E-002
  -8.1435015346311784E-002   2.4119597080404981E-002   8.4401404667852620E-004
  -7.8558066327433562E-002   2.3132015834477195E-002   2.1701758250692645E-003
  -7.5681117308555396E-002   2.2223236820668825E-002   3.4145075859357867E-003
  -7.2804168289677201E-002   2.1393260038979088E-002   4.5770093292771003E-003
  -6.9927219270799007E-002   2.0642085489409198E-002   5.6576810550941596E-003
  -8.4985927313449228E-002   2.5491224401389290E-002  -9.4226517918787334E-003
  -8.2256221668487506E-002   2.4442328091002385E-002  -7.3641821072456537E-003
  -7.9526516023525728E-002   2.3484080357247611E-002  -5.5183691529203660E-003
  -7.6796810378563951E-002   2.2616481200124723E-002  -3.8852129289035087E-003
  -7.4067104733602229E-002   2.1839530619633285E-002  -2.4647134351948319E-003
  -5.6369428839643049E-002   1.7049750098736383E-002   2.9905747373973668E-002
  -5.4047478721207964E-002   1.6378516332284293E-002   2.9409967294130868E-002
  -5.1725528602772866E-002   1.5669244747962052E-002   2.9088860405569544E-002
  -4.9403578484337747E-002   1.4921935345769161E-002   2.8942426708290087E-002
  -4.7081628365902684E-002   1.4136588125706229E-002   2.8970666202291995E-002
  -6.1078381323819389E-002   1.8247195228960511E-002   2.1842911459678510E-002
  -5.8589329792584785E-002   1.7555311963080328E-002   2.1490414149843845E-002
  -5.6100278261350313E-002   1.6823797597802920E-002   2.1297446474326534E-002
  -5.3611226730115799E-002   1.6052652133127586E-002   2.1264008433126459E-002
  -5.1122175198881237E-002   1.5241875569054819E-002   2.1390100026243530E-002
  -6.5597644800871352E-002   1.9444640359184889E-002   1.3760222686718532E-002
  -6.2956635413801712E-002   1.8732107593876460E-002   1.3549414865365095E-002
  -6.0315626026732086E-002   1.7978350447643621E-002   1.3482993121364514E-002
  -5.7674616639662467E-002   1.7183368920485956E-002   1.3560957454716881E-002
  -5.5033607252592875E-002   1.6347163012403659E-002   1.3783307865422187E-002
  -6.9927219270799007E-002   2.0642085489409198E-002   5.6576810550941596E-003
  -6.7149395584858620E-002   1.9908903224672848E-002   5.5869694406946516E-003
  -6.4371571898918220E-002   1.9132903297484460E-002   5.6455003466837142E-003
  -6.1593748212977834E-002   1.8314085707844298E-002   5.8332737730609416E-003
  -5.8815924527037447E-002   1.7452450455752264E-002   6.1502897198274752E-003
  -7.4067104733602229E-002   2.1839530619633285E-002  -2.4647134351948319E-003
  -7.1167610305755413E-002   2.1085698855468626E-002  -2.3969221241675887E-003
  -6.8268115877908653E-002   2.0287456147325300E-002  -2.2150318497161092E-003
  -6.5368621450061837E-002   1.9444802495202779E-002  -1.9190426118404630E-003
  -6.2469127022215076E-002   1.8557737899100868E-002  -1.5089544105406638E-003
  -4.7081628365902684E-002   1.4136588125706229E-002   2.8970666202291995E-002
  -4.4720240175292941E-002   1.3337066285195209E-002   2.8479667790342000E-002
  -4.2358851984683171E-002   1.2547233021658707E-002   2.8128253702859735E-002
  -3.9997463794073415E-002   1.1767088335096428E-002   2.7916423939844795E-002
  -3.7636075603463659E-002   1.0996632225508840E-002   2.7844178501297723E-002
  -5.1122175198881237E-002   1.5241875569054819E-002   2.1390100026243530E-002
  -4.8615302771538957E-002   1.4420487475782867E-002   2.1048164614812320E-002
  -4.6108430344196621E-002   1.3617507423510075E-002   2.0857613352378429E-002
  -4.3601557916854258E-002   1.2832935412236120E-002   2.0818446238942259E-002
  -4.1094685489512006E-002   1.2066771441961333E-002   2.0930663274503325E-002
  -5.5033607252592875E-002   1.6347163012403659E-002   1.3783307865422187E-002
  -5.2369450763988065E-002   1.5503908666370830E-002   1.3599154918534043E-002
  -4.9705294275383317E-002   1.4687781825361339E-002   1.3578185945173397E-002
  -4.7041137786778500E-002   1.3898782489376036E-002   1.3720400945340088E-002
  -4.4376981298173759E-002   1.3136910658413825E-002   1.4025799919034271E-002
  -5.8815924527037447E-002   1.7452450455752264E-002   6.1502897198274752E-003
  -5.5982684152640391E-002   1.6587329856958530E-002   6.1326387015074001E-003
  -5.3149443778243238E-002   1.5758056227212876E-002   6.2899714812441141E-003
  -5.0316203403846134E-002   1.4964629566515897E-002   6.6222880590384647E-003
  -4.7482963029449030E-002   1.4207049874866651E-002   7.1295884348901786E-003
  -6.2469127022215076E-002   1.8557737899100868E-002  -1.5089544105406638E-003
  -5.9455002937495727E-002   1.7670751047546229E-002  -1.3513840362682772E-003
  -5.6440878852776433E-002   1.6828330629063915E-002  -1.0070300394089127E-003
  -5.3426754768057111E-002   1.6030476643655298E-002  -4.7589241996236903E-004
  -5.0412630683337789E-002   1.5277189091319032E-002   2.4202882207147169E-004
  -3.7636075603463659E-002   1.0996632225508840E-002   2.7844178501297723E-002
  -3.5252219176775151E-002   1.0239415539657126E-002   2.7222602296291920E-002
  -3.2868362750086644E-002   9.4989891243031366E-003   2.6746710852091793E-002
  -3.0484506323398136E-002   8.7753529794470930E-003   2.6416504168697647E-002
  -2.8100649896709656E-002   8.0685071050883295E-003   2.6231982246109231E-002
  -4.1094685489512006E-002   1.2066771441961333E-002   2.0930663274503325E-002
  -3.8585313853028380E-002   1.1310143943940587E-002   2.0473959182876811E-002
  -3.6075942216544879E-002   1.0554181349428871E-002   2.0122600750034358E-002
  -3.3566570580061336E-002   9.7988836584262939E-003   1.9876587975976565E-002
  -3.1057198943577752E-002   9.0442508709327463E-003   1.9735920860702694E-002
  -4.4376981298173759E-002   1.3136910658413825E-002   1.4025799919034271E-002
  -4.1782433553916656E-002   1.2380872348224214E-002   1.3717842573798128E-002
  -3.9187885809659463E-002   1.1609373574554605E-002   1.3474891785325016E-002
  -3.6593338065402312E-002   1.0822414337405439E-002   1.3296947553614540E-002
  -3.3998790321145160E-002   1.0019994636776941E-002   1.3184009878667080E-002
  -4.7482963029449030E-002   1.4207049874866651E-002   7.1295884348901786E-003
  -4.4843578279439716E-002   1.3451600752507314E-002   6.9542524690559687E-003
  -4.2204193529430431E-002   1.2664565799680783E-002   6.8035839579632905E-003
  -3.9564808779421132E-002   1.1845945016384501E-002   6.6775829016117831E-003
  -3.6925424029411832E-002   1.0995738402620636E-002   6.5762493000020503E-003
  -5.0412630683337789E-002   1.5277189091319032E-002   2.4202882207147169E-004
  -4.7768748029597852E-002   1.4522329156790970E-002   1.8318886865054118E-004
  -4.5124865375857803E-002   1.3719758024806461E-002   1.0867726794958066E-004
  -4.2480982722117783E-002   1.2869475695363772E-002   1.8494019968416653E-005
  -3.9837100068377818E-002   1.1971482168465553E-002  -8.7360875292485929E-005
  -2.8100649896709656E-002   8.0685071050883295E-003   2.6231982246109231E-002
  -2.5742618874265349E-002   7.3415742523085803E-003   2.5648911627815574E-002
  -2.3384587851820973E-002   6.5576771721880256E-003   2.5013560372171895E-002
  -2.1026556829376632E-002   5.7168158647273315E-003   2.4325928479178111E-002
  -1.8668525806932290E-002   4.8189903299257209E-003   2.3586015948834582E-002
  -3.1057198943577752E-002   9.0442508709327463E-003   1.9735920860702694E-002
  -2.8735354573827476E-002   8.2891336369496083E-003   1.9154602884451533E-002
  -2.6413510204077173E-002   7.5323826064786492E-003   1.8553192240162553E-002
  -2.4091665834326842E-002   6.7739977795198275E-003   1.7931688927835462E-002
  -2.1769821464576539E-002   6.0139791560728240E-003   1.7290092947470193E-002
  -3.3998790321145160E-002   1.0019994636776941E-002   1.3184009878667080E-002
  -3.1680944634776893E-002   9.2366930215905529E-003   1.2659774975311178E-002
  -2.9363098948408672E-002   8.5070880407691618E-003   1.2147635373228785E-002
  -2.7045253262040429E-002   7.8311796943122125E-003   1.1647591072420763E-002
  -2.4727407575672128E-002   7.2089679822202046E-003   1.1159642072886694E-002
  -3.6925424029411832E-002   1.0995738402620636E-002   6.5762493000020503E-003
  -3.4579389057113587E-002   1.0184252406231872E-002   6.1644279003934613E-003
  -3.2233354084815362E-002   9.4817934750593968E-003   5.7968897713713413E-003
  -2.9887319112517186E-002   8.8883616091046530E-003   5.4736349129344067E-003
  -2.7541284140218895E-002   8.4039568083671135E-003   5.1946633250843158E-003
  -3.9837100068377818E-002   1.1971482168465553E-002  -8.7360875292485929E-005
  -3.7430687840837584E-002   1.1131811790872748E-002  -3.3143834030069375E-004
  -3.5024275613297406E-002   1.0456498909350409E-002  -4.9904456541113862E-004
  -3.2617863385757173E-002   9.9455435238975654E-003  -5.9017955062328625E-004
  -3.0211451158216995E-002   9.5989456345144664E-003  -6.0484329593768482E-004
  -1.8668525806932290E-002   4.8189903299257209E-003   2.3586015948834582E-002
  -1.5648112092404437E-002   4.0831819778378575E-003   2.4379910164750829E-002
  -1.2627698377876501E-002   3.7283722185165735E-003   2.5646145258578168E-002
  -9.6072846633485781E-003   3.7545610519617995E-003   2.7384721230315878E-002
  -6.5868709488207111E-003   4.1617484781742986E-003   2.9595638079964126E-002
  -2.1769821464576539E-002   6.0139791560728240E-003   1.7290092947470193E-002
  -1.8545957979905617E-002   5.3451590161954776E-003   1.8241320280364570E-002
  -1.5322094495234737E-002   4.8603696399442398E-003   1.9127106275634798E-002
  -1.2098231010563724E-002   4.5596110273194851E-003   1.9947450933280098E-002
  -8.8743675258928234E-003   4.4428831783204226E-003   2.0702354253301469E-002
  -2.4727407575672128E-002   7.2089679822202046E-003   1.1159642072886694E-002
  -2.1837876536393075E-002   6.6071360545531532E-003   1.2071234693618371E-002
  -1.8948345497114057E-002   5.9923670613717117E-003   1.2379603761190600E-002
  -1.6058814457835077E-002   5.3646610026766225E-003   1.2084749275603518E-002
  -1.3169283418555985E-002   4.7240178784666020E-003   1.1186671236856932E-002
  -2.7541284140218895E-002   8.4039568083671135E-003   5.1946633250843158E-003
  -2.5523867761866853E-002   7.8691130929110231E-003   5.8696534045123983E-003
  -2.3506451383514725E-002   7.1243644827995029E-003   5.4036377152466356E-003
  -2.1489035005162655E-002   6.1697109780333680E-003   3.7966162572859348E-003
  -1.9471618626810554E-002   5.0051525786123097E-003   1.0485890306310211E-003
  -3.0211451158216995E-002   9.5989456345144664E-003  -6.0484329593768482E-004
  -2.9603931656326798E-002   9.1310901312686710E-003  -3.6342358695296006E-004
  -2.8996412154436602E-002   8.2563619042270719E-003  -1.8007918621978647E-003
  -2.8388892652546377E-002   6.9747609533910571E-003  -4.9169481216721558E-003
  -2.7781373150656208E-002   5.2862872787586834E-003  -9.7118923653761735E-003
  -6.5868709488207111E-003   4.1617484781742986E-003   2.9595638079964126E-002
  -6.0579480533054231E-003   6.1440759522214394E-003   3.4073521269672224E-002
  -5.5290251577901628E-003   1.0895684929171062E-002   3.9236640777781828E-002
  -5.0001022622748609E-003   1.8416575409022647E-002   4.5084996604292021E-002
  -4.4711793667595590E-003   2.8706747391777032E-002   5.1618588749203553E-002
  -8.8743675258928234E-003   4.4428831783204226E-003   2.0702354253301469E-002
  -7.5878850691658839E-003   5.6598190297429407E-003   2.5871430440288112E-002
  -6.3014026124388611E-003   9.3600515183818456E-003   3.1870389431297053E-002
  -5.0149201557119355E-003   1.5543580644236672E-002   3.8699231226327763E-002
  -3.7284376989848989E-003   2.4210406407308094E-002   4.6357955825380603E-002
  -1.3169283418555985E-002   4.7240178784666020E-003   1.1186671236856932E-002
  -1.0980594914996457E-002   5.1755621072642755E-003   1.6760955555436219E-002
  -8.7919064114369908E-003   7.8244181075925040E-003   2.3309769163658692E-002
  -6.6032179078773894E-003   1.2670585879450583E-002   3.0833112061524247E-002
  -4.4145294043178851E-003   1.9714065422839377E-002   3.9330984249032919E-002
  -1.9471618626810554E-002   5.0051525786123097E-003   1.0485890306310211E-003
  -1.6236077590797392E-002   4.6913051847856935E-003   6.7420966151168701E-003
  -1.3000536554784290E-002   6.2887846968036690E-003   1.3554779974866416E-002
  -9.7649955187711600E-003   9.7975911146648848E-003   2.1486639109880155E-002
  -6.5294544827580250E-003   1.5217724438370217E-002   3.0537674020158334E-002
  -2.7781373150656208E-002   5.2862872787586834E-003  -9.7118923653761735E-003
  -2.3354333096568536E-002   4.2070482623075556E-003  -4.1851463806698574E-003
  -1.8927293042480753E-002   4.7531512860141123E-003   2.6054218649208538E-003
  -1.4500252988392998E-002   6.9245963498783397E-003   1.0659812371396404E-002
  -1.0073212934305298E-002   1.0721383453901723E-002   1.9978025138757793E-002
 </DataArray>
 </PointData>
 </Piece>
 </UnstructuredGrid>
 </VTKFile>
