 <VTKFile type="UnstructuredGrid"  version="0.1"   >
 <UnstructuredGrid>
 <Piece  NumberOfPoints="          1600 "  NumberOfCells="         1024 ">
 <Points>
 <DataArray  type="Float64" NumberOfComponents="3"  format="ascii" >
   0.0000000000000000        0.0000000000000000        0.0000000000000000     
   3.1250000000000000E-002   0.0000000000000000        0.0000000000000000     
   6.2500000000000000E-002   0.0000000000000000        0.0000000000000000     
   9.3750000000000000E-002   0.0000000000000000        0.0000000000000000     
  0.12500000000000000        0.0000000000000000        0.0000000000000000     
   0.0000000000000000        3.1250000000000000E-002   0.0000000000000000     
   3.1250000000000000E-002   3.1250000000000000E-002   0.0000000000000000     
   6.2500000000000000E-002   3.1250000000000000E-002   0.0000000000000000     
   9.3750000000000000E-002   3.1250000000000000E-002   0.0000000000000000     
  0.12500000000000000        3.1250000000000000E-002   0.0000000000000000     
   0.0000000000000000        6.2500000000000000E-002   0.0000000000000000     
   3.1250000000000000E-002   6.2500000000000000E-002   0.0000000000000000     
   6.2500000000000000E-002   6.2500000000000000E-002   0.0000000000000000     
   9.3750000000000000E-002   6.2500000000000000E-002   0.0000000000000000     
  0.12500000000000000        6.2500000000000000E-002   0.0000000000000000     
   0.0000000000000000        9.3750000000000000E-002   0.0000000000000000     
   3.1250000000000000E-002   9.3750000000000000E-002   0.0000000000000000     
   6.2500000000000000E-002   9.3750000000000000E-002   0.0000000000000000     
   9.3750000000000000E-002   9.3750000000000000E-002   0.0000000000000000     
  0.12500000000000000        9.3750000000000000E-002   0.0000000000000000     
   0.0000000000000000       0.12500000000000000        0.0000000000000000     
   3.1250000000000000E-002  0.12500000000000000        0.0000000000000000     
   6.2500000000000000E-002  0.12500000000000000        0.0000000000000000     
   9.3750000000000000E-002  0.12500000000000000        0.0000000000000000     
  0.12500000000000000       0.12500000000000000        0.0000000000000000     
  0.12500000000000000        0.0000000000000000        0.0000000000000000     
  0.15625000000000000        0.0000000000000000        0.0000000000000000     
  0.18750000000000000        0.0000000000000000        0.0000000000000000     
  0.21875000000000000        0.0000000000000000        0.0000000000000000     
  0.25000000000000000        0.0000000000000000        0.0000000000000000     
  0.12500000000000000        3.1250000000000000E-002   0.0000000000000000     
  0.15625000000000000        3.1250000000000000E-002   0.0000000000000000     
  0.18750000000000000        3.1250000000000000E-002   0.0000000000000000     
  0.21875000000000000        3.1250000000000000E-002   0.0000000000000000     
  0.25000000000000000        3.1250000000000000E-002   0.0000000000000000     
  0.12500000000000000        6.2500000000000000E-002   0.0000000000000000     
  0.15625000000000000        6.2500000000000000E-002   0.0000000000000000     
  0.18750000000000000        6.2500000000000000E-002   0.0000000000000000     
  0.21875000000000000        6.2500000000000000E-002   0.0000000000000000     
  0.25000000000000000        6.2500000000000000E-002   0.0000000000000000     
  0.12500000000000000        9.3750000000000000E-002   0.0000000000000000     
  0.15625000000000000        9.3750000000000000E-002   0.0000000000000000     
  0.18750000000000000        9.3750000000000000E-002   0.0000000000000000     
  0.21875000000000000        9.3750000000000000E-002   0.0000000000000000     
  0.25000000000000000        9.3750000000000000E-002   0.0000000000000000     
  0.12500000000000000       0.12500000000000000        0.0000000000000000     
  0.15625000000000000       0.12500000000000000        0.0000000000000000     
  0.18750000000000000       0.12500000000000000        0.0000000000000000     
  0.21875000000000000       0.12500000000000000        0.0000000000000000     
  0.25000000000000000       0.12500000000000000        0.0000000000000000     
  0.25000000000000000        0.0000000000000000        0.0000000000000000     
  0.28125000000000000        0.0000000000000000        0.0000000000000000     
  0.31250000000000000        0.0000000000000000        0.0000000000000000     
  0.34375000000000000        0.0000000000000000        0.0000000000000000     
  0.37500000000000000        0.0000000000000000        0.0000000000000000     
  0.25000000000000000        3.1250000000000000E-002   0.0000000000000000     
  0.28125000000000000        3.1250000000000000E-002   0.0000000000000000     
  0.31250000000000000        3.1250000000000000E-002   0.0000000000000000     
  0.34375000000000000        3.1250000000000000E-002   0.0000000000000000     
  0.37500000000000000        3.1250000000000000E-002   0.0000000000000000     
  0.25000000000000000        6.2500000000000000E-002   0.0000000000000000     
  0.28125000000000000        6.2500000000000000E-002   0.0000000000000000     
  0.31250000000000000        6.2500000000000000E-002   0.0000000000000000     
  0.34375000000000000        6.2500000000000000E-002   0.0000000000000000     
  0.37500000000000000        6.2500000000000000E-002   0.0000000000000000     
  0.25000000000000000        9.3750000000000000E-002   0.0000000000000000     
  0.28125000000000000        9.3750000000000000E-002   0.0000000000000000     
  0.31250000000000000        9.3750000000000000E-002   0.0000000000000000     
  0.34375000000000000        9.3750000000000000E-002   0.0000000000000000     
  0.37500000000000000        9.3750000000000000E-002   0.0000000000000000     
  0.25000000000000000       0.12500000000000000        0.0000000000000000     
  0.28125000000000000       0.12500000000000000        0.0000000000000000     
  0.31250000000000000       0.12500000000000000        0.0000000000000000     
  0.34375000000000000       0.12500000000000000        0.0000000000000000     
  0.37500000000000000       0.12500000000000000        0.0000000000000000     
  0.37500000000000000        0.0000000000000000        0.0000000000000000     
  0.40625000000000000        0.0000000000000000        0.0000000000000000     
  0.43750000000000000        0.0000000000000000        0.0000000000000000     
  0.46875000000000000        0.0000000000000000        0.0000000000000000     
  0.50000000000000000        0.0000000000000000        0.0000000000000000     
  0.37500000000000000        3.1250000000000000E-002   0.0000000000000000     
  0.40625000000000000        3.1250000000000000E-002   0.0000000000000000     
  0.43750000000000000        3.1250000000000000E-002   0.0000000000000000     
  0.46875000000000000        3.1250000000000000E-002   0.0000000000000000     
  0.50000000000000000        3.1250000000000000E-002   0.0000000000000000     
  0.37500000000000000        6.2500000000000000E-002   0.0000000000000000     
  0.40625000000000000        6.2500000000000000E-002   0.0000000000000000     
  0.43750000000000000        6.2500000000000000E-002   0.0000000000000000     
  0.46875000000000000        6.2500000000000000E-002   0.0000000000000000     
  0.50000000000000000        6.2500000000000000E-002   0.0000000000000000     
  0.37500000000000000        9.3750000000000000E-002   0.0000000000000000     
  0.40625000000000000        9.3750000000000000E-002   0.0000000000000000     
  0.43750000000000000        9.3750000000000000E-002   0.0000000000000000     
  0.46875000000000000        9.3750000000000000E-002   0.0000000000000000     
  0.50000000000000000        9.3750000000000000E-002   0.0000000000000000     
  0.37500000000000000       0.12500000000000000        0.0000000000000000     
  0.40625000000000000       0.12500000000000000        0.0000000000000000     
  0.43750000000000000       0.12500000000000000        0.0000000000000000     
  0.46875000000000000       0.12500000000000000        0.0000000000000000     
  0.50000000000000000       0.12500000000000000        0.0000000000000000     
  0.50000000000000000        0.0000000000000000        0.0000000000000000     
  0.53125000000000000        0.0000000000000000        0.0000000000000000     
  0.56250000000000000        0.0000000000000000        0.0000000000000000     
  0.59375000000000000        0.0000000000000000        0.0000000000000000     
  0.62500000000000000        0.0000000000000000        0.0000000000000000     
  0.50000000000000000        3.1250000000000000E-002   0.0000000000000000     
  0.53125000000000000        3.1250000000000000E-002   0.0000000000000000     
  0.56250000000000000        3.1250000000000000E-002   0.0000000000000000     
  0.59375000000000000        3.1250000000000000E-002   0.0000000000000000     
  0.62500000000000000        3.1250000000000000E-002   0.0000000000000000     
  0.50000000000000000        6.2500000000000000E-002   0.0000000000000000     
  0.53125000000000000        6.2500000000000000E-002   0.0000000000000000     
  0.56250000000000000        6.2500000000000000E-002   0.0000000000000000     
  0.59375000000000000        6.2500000000000000E-002   0.0000000000000000     
  0.62500000000000000        6.2500000000000000E-002   0.0000000000000000     
  0.50000000000000000        9.3750000000000000E-002   0.0000000000000000     
  0.53125000000000000        9.3750000000000000E-002   0.0000000000000000     
  0.56250000000000000        9.3750000000000000E-002   0.0000000000000000     
  0.59375000000000000        9.3750000000000000E-002   0.0000000000000000     
  0.62500000000000000        9.3750000000000000E-002   0.0000000000000000     
  0.50000000000000000       0.12500000000000000        0.0000000000000000     
  0.53125000000000000       0.12500000000000000        0.0000000000000000     
  0.56250000000000000       0.12500000000000000        0.0000000000000000     
  0.59375000000000000       0.12500000000000000        0.0000000000000000     
  0.62500000000000000       0.12500000000000000        0.0000000000000000     
  0.62500000000000000        0.0000000000000000        0.0000000000000000     
  0.65625000000000000        0.0000000000000000        0.0000000000000000     
  0.68750000000000000        0.0000000000000000        0.0000000000000000     
  0.71875000000000000        0.0000000000000000        0.0000000000000000     
  0.75000000000000000        0.0000000000000000        0.0000000000000000     
  0.62500000000000000        3.1250000000000000E-002   0.0000000000000000     
  0.65625000000000000        3.1250000000000000E-002   0.0000000000000000     
  0.68750000000000000        3.1250000000000000E-002   0.0000000000000000     
  0.71875000000000000        3.1250000000000000E-002   0.0000000000000000     
  0.75000000000000000        3.1250000000000000E-002   0.0000000000000000     
  0.62500000000000000        6.2500000000000000E-002   0.0000000000000000     
  0.65625000000000000        6.2500000000000000E-002   0.0000000000000000     
  0.68750000000000000        6.2500000000000000E-002   0.0000000000000000     
  0.71875000000000000        6.2500000000000000E-002   0.0000000000000000     
  0.75000000000000000        6.2500000000000000E-002   0.0000000000000000     
  0.62500000000000000        9.3750000000000000E-002   0.0000000000000000     
  0.65625000000000000        9.3750000000000000E-002   0.0000000000000000     
  0.68750000000000000        9.3750000000000000E-002   0.0000000000000000     
  0.71875000000000000        9.3750000000000000E-002   0.0000000000000000     
  0.75000000000000000        9.3750000000000000E-002   0.0000000000000000     
  0.62500000000000000       0.12500000000000000        0.0000000000000000     
  0.65625000000000000       0.12500000000000000        0.0000000000000000     
  0.68750000000000000       0.12500000000000000        0.0000000000000000     
  0.71875000000000000       0.12500000000000000        0.0000000000000000     
  0.75000000000000000       0.12500000000000000        0.0000000000000000     
  0.75000000000000000        0.0000000000000000        0.0000000000000000     
  0.78125000000000000        0.0000000000000000        0.0000000000000000     
  0.81250000000000000        0.0000000000000000        0.0000000000000000     
  0.84375000000000000        0.0000000000000000        0.0000000000000000     
  0.87500000000000000        0.0000000000000000        0.0000000000000000     
  0.75000000000000000        3.1250000000000000E-002   0.0000000000000000     
  0.78125000000000000        3.1250000000000000E-002   0.0000000000000000     
  0.81250000000000000        3.1250000000000000E-002   0.0000000000000000     
  0.84375000000000000        3.1250000000000000E-002   0.0000000000000000     
  0.87500000000000000        3.1250000000000000E-002   0.0000000000000000     
  0.75000000000000000        6.2500000000000000E-002   0.0000000000000000     
  0.78125000000000000        6.2500000000000000E-002   0.0000000000000000     
  0.81250000000000000        6.2500000000000000E-002   0.0000000000000000     
  0.84375000000000000        6.2500000000000000E-002   0.0000000000000000     
  0.87500000000000000        6.2500000000000000E-002   0.0000000000000000     
  0.75000000000000000        9.3750000000000000E-002   0.0000000000000000     
  0.78125000000000000        9.3750000000000000E-002   0.0000000000000000     
  0.81250000000000000        9.3750000000000000E-002   0.0000000000000000     
  0.84375000000000000        9.3750000000000000E-002   0.0000000000000000     
  0.87500000000000000        9.3750000000000000E-002   0.0000000000000000     
  0.75000000000000000       0.12500000000000000        0.0000000000000000     
  0.78125000000000000       0.12500000000000000        0.0000000000000000     
  0.81250000000000000       0.12500000000000000        0.0000000000000000     
  0.84375000000000000       0.12500000000000000        0.0000000000000000     
  0.87500000000000000       0.12500000000000000        0.0000000000000000     
  0.87500000000000000        0.0000000000000000        0.0000000000000000     
  0.90625000000000000        0.0000000000000000        0.0000000000000000     
  0.93750000000000000        0.0000000000000000        0.0000000000000000     
  0.96875000000000000        0.0000000000000000        0.0000000000000000     
   1.0000000000000000        0.0000000000000000        0.0000000000000000     
  0.87500000000000000        3.1250000000000000E-002   0.0000000000000000     
  0.90625000000000000        3.1250000000000000E-002   0.0000000000000000     
  0.93750000000000000        3.1250000000000000E-002   0.0000000000000000     
  0.96875000000000000        3.1250000000000000E-002   0.0000000000000000     
   1.0000000000000000        3.1250000000000000E-002   0.0000000000000000     
  0.87500000000000000        6.2500000000000000E-002   0.0000000000000000     
  0.90625000000000000        6.2500000000000000E-002   0.0000000000000000     
  0.93750000000000000        6.2500000000000000E-002   0.0000000000000000     
  0.96875000000000000        6.2500000000000000E-002   0.0000000000000000     
   1.0000000000000000        6.2500000000000000E-002   0.0000000000000000     
  0.87500000000000000        9.3750000000000000E-002   0.0000000000000000     
  0.90625000000000000        9.3750000000000000E-002   0.0000000000000000     
  0.93750000000000000        9.3750000000000000E-002   0.0000000000000000     
  0.96875000000000000        9.3750000000000000E-002   0.0000000000000000     
   1.0000000000000000        9.3750000000000000E-002   0.0000000000000000     
  0.87500000000000000       0.12500000000000000        0.0000000000000000     
  0.90625000000000000       0.12500000000000000        0.0000000000000000     
  0.93750000000000000       0.12500000000000000        0.0000000000000000     
  0.96875000000000000       0.12500000000000000        0.0000000000000000     
   1.0000000000000000       0.12500000000000000        0.0000000000000000     
   0.0000000000000000       0.12500000000000000        0.0000000000000000     
   3.1250000000000000E-002  0.12500000000000000        0.0000000000000000     
   6.2500000000000000E-002  0.12500000000000000        0.0000000000000000     
   9.3750000000000000E-002  0.12500000000000000        0.0000000000000000     
  0.12500000000000000       0.12500000000000000        0.0000000000000000     
   0.0000000000000000       0.15625000000000000        0.0000000000000000     
   3.1250000000000000E-002  0.15625000000000000        0.0000000000000000     
   6.2500000000000000E-002  0.15625000000000000        0.0000000000000000     
   9.3750000000000000E-002  0.15625000000000000        0.0000000000000000     
  0.12500000000000000       0.15625000000000000        0.0000000000000000     
   0.0000000000000000       0.18750000000000000        0.0000000000000000     
   3.1250000000000000E-002  0.18750000000000000        0.0000000000000000     
   6.2500000000000000E-002  0.18750000000000000        0.0000000000000000     
   9.3750000000000000E-002  0.18750000000000000        0.0000000000000000     
  0.12500000000000000       0.18750000000000000        0.0000000000000000     
   0.0000000000000000       0.21875000000000000        0.0000000000000000     
   3.1250000000000000E-002  0.21875000000000000        0.0000000000000000     
   6.2500000000000000E-002  0.21875000000000000        0.0000000000000000     
   9.3750000000000000E-002  0.21875000000000000        0.0000000000000000     
  0.12500000000000000       0.21875000000000000        0.0000000000000000     
   0.0000000000000000       0.25000000000000000        0.0000000000000000     
   3.1250000000000000E-002  0.25000000000000000        0.0000000000000000     
   6.2500000000000000E-002  0.25000000000000000        0.0000000000000000     
   9.3750000000000000E-002  0.25000000000000000        0.0000000000000000     
  0.12500000000000000       0.25000000000000000        0.0000000000000000     
  0.12500000000000000       0.12500000000000000        0.0000000000000000     
  0.15625000000000000       0.12500000000000000        0.0000000000000000     
  0.18750000000000000       0.12500000000000000        0.0000000000000000     
  0.21875000000000000       0.12500000000000000        0.0000000000000000     
  0.25000000000000000       0.12500000000000000        0.0000000000000000     
  0.12500000000000000       0.15625000000000000        0.0000000000000000     
  0.15625000000000000       0.15625000000000000        0.0000000000000000     
  0.18750000000000000       0.15625000000000000        0.0000000000000000     
  0.21875000000000000       0.15625000000000000        0.0000000000000000     
  0.25000000000000000       0.15625000000000000        0.0000000000000000     
  0.12500000000000000       0.18750000000000000        0.0000000000000000     
  0.15625000000000000       0.18750000000000000        0.0000000000000000     
  0.18750000000000000       0.18750000000000000        0.0000000000000000     
  0.21875000000000000       0.18750000000000000        0.0000000000000000     
  0.25000000000000000       0.18750000000000000        0.0000000000000000     
  0.12500000000000000       0.21875000000000000        0.0000000000000000     
  0.15625000000000000       0.21875000000000000        0.0000000000000000     
  0.18750000000000000       0.21875000000000000        0.0000000000000000     
  0.21875000000000000       0.21875000000000000        0.0000000000000000     
  0.25000000000000000       0.21875000000000000        0.0000000000000000     
  0.12500000000000000       0.25000000000000000        0.0000000000000000     
  0.15625000000000000       0.25000000000000000        0.0000000000000000     
  0.18750000000000000       0.25000000000000000        0.0000000000000000     
  0.21875000000000000       0.25000000000000000        0.0000000000000000     
  0.25000000000000000       0.25000000000000000        0.0000000000000000     
  0.25000000000000000       0.12500000000000000        0.0000000000000000     
  0.28125000000000000       0.12500000000000000        0.0000000000000000     
  0.31250000000000000       0.12500000000000000        0.0000000000000000     
  0.34375000000000000       0.12500000000000000        0.0000000000000000     
  0.37500000000000000       0.12500000000000000        0.0000000000000000     
  0.25000000000000000       0.15625000000000000        0.0000000000000000     
  0.28125000000000000       0.15625000000000000        0.0000000000000000     
  0.31250000000000000       0.15625000000000000        0.0000000000000000     
  0.34375000000000000       0.15625000000000000        0.0000000000000000     
  0.37500000000000000       0.15625000000000000        0.0000000000000000     
  0.25000000000000000       0.18750000000000000        0.0000000000000000     
  0.28125000000000000       0.18750000000000000        0.0000000000000000     
  0.31250000000000000       0.18750000000000000        0.0000000000000000     
  0.34375000000000000       0.18750000000000000        0.0000000000000000     
  0.37500000000000000       0.18750000000000000        0.0000000000000000     
  0.25000000000000000       0.21875000000000000        0.0000000000000000     
  0.28125000000000000       0.21875000000000000        0.0000000000000000     
  0.31250000000000000       0.21875000000000000        0.0000000000000000     
  0.34375000000000000       0.21875000000000000        0.0000000000000000     
  0.37500000000000000       0.21875000000000000        0.0000000000000000     
  0.25000000000000000       0.25000000000000000        0.0000000000000000     
  0.28125000000000000       0.25000000000000000        0.0000000000000000     
  0.31250000000000000       0.25000000000000000        0.0000000000000000     
  0.34375000000000000       0.25000000000000000        0.0000000000000000     
  0.37500000000000000       0.25000000000000000        0.0000000000000000     
  0.37500000000000000       0.12500000000000000        0.0000000000000000     
  0.40625000000000000       0.12500000000000000        0.0000000000000000     
  0.43750000000000000       0.12500000000000000        0.0000000000000000     
  0.46875000000000000       0.12500000000000000        0.0000000000000000     
  0.50000000000000000       0.12500000000000000        0.0000000000000000     
  0.37500000000000000       0.15625000000000000        0.0000000000000000     
  0.40625000000000000       0.15625000000000000        0.0000000000000000     
  0.43750000000000000       0.15625000000000000        0.0000000000000000     
  0.46875000000000000       0.15625000000000000        0.0000000000000000     
  0.50000000000000000       0.15625000000000000        0.0000000000000000     
  0.37500000000000000       0.18750000000000000        0.0000000000000000     
  0.40625000000000000       0.18750000000000000        0.0000000000000000     
  0.43750000000000000       0.18750000000000000        0.0000000000000000     
  0.46875000000000000       0.18750000000000000        0.0000000000000000     
  0.50000000000000000       0.18750000000000000        0.0000000000000000     
  0.37500000000000000       0.21875000000000000        0.0000000000000000     
  0.40625000000000000       0.21875000000000000        0.0000000000000000     
  0.43750000000000000       0.21875000000000000        0.0000000000000000     
  0.46875000000000000       0.21875000000000000        0.0000000000000000     
  0.50000000000000000       0.21875000000000000        0.0000000000000000     
  0.37500000000000000       0.25000000000000000        0.0000000000000000     
  0.40625000000000000       0.25000000000000000        0.0000000000000000     
  0.43750000000000000       0.25000000000000000        0.0000000000000000     
  0.46875000000000000       0.25000000000000000        0.0000000000000000     
  0.50000000000000000       0.25000000000000000        0.0000000000000000     
  0.50000000000000000       0.12500000000000000        0.0000000000000000     
  0.53125000000000000       0.12500000000000000        0.0000000000000000     
  0.56250000000000000       0.12500000000000000        0.0000000000000000     
  0.59375000000000000       0.12500000000000000        0.0000000000000000     
  0.62500000000000000       0.12500000000000000        0.0000000000000000     
  0.50000000000000000       0.15625000000000000        0.0000000000000000     
  0.53125000000000000       0.15625000000000000        0.0000000000000000     
  0.56250000000000000       0.15625000000000000        0.0000000000000000     
  0.59375000000000000       0.15625000000000000        0.0000000000000000     
  0.62500000000000000       0.15625000000000000        0.0000000000000000     
  0.50000000000000000       0.18750000000000000        0.0000000000000000     
  0.53125000000000000       0.18750000000000000        0.0000000000000000     
  0.56250000000000000       0.18750000000000000        0.0000000000000000     
  0.59375000000000000       0.18750000000000000        0.0000000000000000     
  0.62500000000000000       0.18750000000000000        0.0000000000000000     
  0.50000000000000000       0.21875000000000000        0.0000000000000000     
  0.53125000000000000       0.21875000000000000        0.0000000000000000     
  0.56250000000000000       0.21875000000000000        0.0000000000000000     
  0.59375000000000000       0.21875000000000000        0.0000000000000000     
  0.62500000000000000       0.21875000000000000        0.0000000000000000     
  0.50000000000000000       0.25000000000000000        0.0000000000000000     
  0.53125000000000000       0.25000000000000000        0.0000000000000000     
  0.56250000000000000       0.25000000000000000        0.0000000000000000     
  0.59375000000000000       0.25000000000000000        0.0000000000000000     
  0.62500000000000000       0.25000000000000000        0.0000000000000000     
  0.62500000000000000       0.12500000000000000        0.0000000000000000     
  0.65625000000000000       0.12500000000000000        0.0000000000000000     
  0.68750000000000000       0.12500000000000000        0.0000000000000000     
  0.71875000000000000       0.12500000000000000        0.0000000000000000     
  0.75000000000000000       0.12500000000000000        0.0000000000000000     
  0.62500000000000000       0.15625000000000000        0.0000000000000000     
  0.65625000000000000       0.15625000000000000        0.0000000000000000     
  0.68750000000000000       0.15625000000000000        0.0000000000000000     
  0.71875000000000000       0.15625000000000000        0.0000000000000000     
  0.75000000000000000       0.15625000000000000        0.0000000000000000     
  0.62500000000000000       0.18750000000000000        0.0000000000000000     
  0.65625000000000000       0.18750000000000000        0.0000000000000000     
  0.68750000000000000       0.18750000000000000        0.0000000000000000     
  0.71875000000000000       0.18750000000000000        0.0000000000000000     
  0.75000000000000000       0.18750000000000000        0.0000000000000000     
  0.62500000000000000       0.21875000000000000        0.0000000000000000     
  0.65625000000000000       0.21875000000000000        0.0000000000000000     
  0.68750000000000000       0.21875000000000000        0.0000000000000000     
  0.71875000000000000       0.21875000000000000        0.0000000000000000     
  0.75000000000000000       0.21875000000000000        0.0000000000000000     
  0.62500000000000000       0.25000000000000000        0.0000000000000000     
  0.65625000000000000       0.25000000000000000        0.0000000000000000     
  0.68750000000000000       0.25000000000000000        0.0000000000000000     
  0.71875000000000000       0.25000000000000000        0.0000000000000000     
  0.75000000000000000       0.25000000000000000        0.0000000000000000     
  0.75000000000000000       0.12500000000000000        0.0000000000000000     
  0.78125000000000000       0.12500000000000000        0.0000000000000000     
  0.81250000000000000       0.12500000000000000        0.0000000000000000     
  0.84375000000000000       0.12500000000000000        0.0000000000000000     
  0.87500000000000000       0.12500000000000000        0.0000000000000000     
  0.75000000000000000       0.15625000000000000        0.0000000000000000     
  0.78125000000000000       0.15625000000000000        0.0000000000000000     
  0.81250000000000000       0.15625000000000000        0.0000000000000000     
  0.84375000000000000       0.15625000000000000        0.0000000000000000     
  0.87500000000000000       0.15625000000000000        0.0000000000000000     
  0.75000000000000000       0.18750000000000000        0.0000000000000000     
  0.78125000000000000       0.18750000000000000        0.0000000000000000     
  0.81250000000000000       0.18750000000000000        0.0000000000000000     
  0.84375000000000000       0.18750000000000000        0.0000000000000000     
  0.87500000000000000       0.18750000000000000        0.0000000000000000     
  0.75000000000000000       0.21875000000000000        0.0000000000000000     
  0.78125000000000000       0.21875000000000000        0.0000000000000000     
  0.81250000000000000       0.21875000000000000        0.0000000000000000     
  0.84375000000000000       0.21875000000000000        0.0000000000000000     
  0.87500000000000000       0.21875000000000000        0.0000000000000000     
  0.75000000000000000       0.25000000000000000        0.0000000000000000     
  0.78125000000000000       0.25000000000000000        0.0000000000000000     
  0.81250000000000000       0.25000000000000000        0.0000000000000000     
  0.84375000000000000       0.25000000000000000        0.0000000000000000     
  0.87500000000000000       0.25000000000000000        0.0000000000000000     
  0.87500000000000000       0.12500000000000000        0.0000000000000000     
  0.90625000000000000       0.12500000000000000        0.0000000000000000     
  0.93750000000000000       0.12500000000000000        0.0000000000000000     
  0.96875000000000000       0.12500000000000000        0.0000000000000000     
   1.0000000000000000       0.12500000000000000        0.0000000000000000     
  0.87500000000000000       0.15625000000000000        0.0000000000000000     
  0.90625000000000000       0.15625000000000000        0.0000000000000000     
  0.93750000000000000       0.15625000000000000        0.0000000000000000     
  0.96875000000000000       0.15625000000000000        0.0000000000000000     
   1.0000000000000000       0.15625000000000000        0.0000000000000000     
  0.87500000000000000       0.18750000000000000        0.0000000000000000     
  0.90625000000000000       0.18750000000000000        0.0000000000000000     
  0.93750000000000000       0.18750000000000000        0.0000000000000000     
  0.96875000000000000       0.18750000000000000        0.0000000000000000     
   1.0000000000000000       0.18750000000000000        0.0000000000000000     
  0.87500000000000000       0.21875000000000000        0.0000000000000000     
  0.90625000000000000       0.21875000000000000        0.0000000000000000     
  0.93750000000000000       0.21875000000000000        0.0000000000000000     
  0.96875000000000000       0.21875000000000000        0.0000000000000000     
   1.0000000000000000       0.21875000000000000        0.0000000000000000     
  0.87500000000000000       0.25000000000000000        0.0000000000000000     
  0.90625000000000000       0.25000000000000000        0.0000000000000000     
  0.93750000000000000       0.25000000000000000        0.0000000000000000     
  0.96875000000000000       0.25000000000000000        0.0000000000000000     
   1.0000000000000000       0.25000000000000000        0.0000000000000000     
   0.0000000000000000       0.25000000000000000        0.0000000000000000     
   3.1250000000000000E-002  0.25000000000000000        0.0000000000000000     
   6.2500000000000000E-002  0.25000000000000000        0.0000000000000000     
   9.3750000000000000E-002  0.25000000000000000        0.0000000000000000     
  0.12500000000000000       0.25000000000000000        0.0000000000000000     
   0.0000000000000000       0.28125000000000000        0.0000000000000000     
   3.1250000000000000E-002  0.28125000000000000        0.0000000000000000     
   6.2500000000000000E-002  0.28125000000000000        0.0000000000000000     
   9.3750000000000000E-002  0.28125000000000000        0.0000000000000000     
  0.12500000000000000       0.28125000000000000        0.0000000000000000     
   0.0000000000000000       0.31250000000000000        0.0000000000000000     
   3.1250000000000000E-002  0.31250000000000000        0.0000000000000000     
   6.2500000000000000E-002  0.31250000000000000        0.0000000000000000     
   9.3750000000000000E-002  0.31250000000000000        0.0000000000000000     
  0.12500000000000000       0.31250000000000000        0.0000000000000000     
   0.0000000000000000       0.34375000000000000        0.0000000000000000     
   3.1250000000000000E-002  0.34375000000000000        0.0000000000000000     
   6.2500000000000000E-002  0.34375000000000000        0.0000000000000000     
   9.3750000000000000E-002  0.34375000000000000        0.0000000000000000     
  0.12500000000000000       0.34375000000000000        0.0000000000000000     
   0.0000000000000000       0.37500000000000000        0.0000000000000000     
   3.1250000000000000E-002  0.37500000000000000        0.0000000000000000     
   6.2500000000000000E-002  0.37500000000000000        0.0000000000000000     
   9.3750000000000000E-002  0.37500000000000000        0.0000000000000000     
  0.12500000000000000       0.37500000000000000        0.0000000000000000     
  0.12500000000000000       0.25000000000000000        0.0000000000000000     
  0.15625000000000000       0.25000000000000000        0.0000000000000000     
  0.18750000000000000       0.25000000000000000        0.0000000000000000     
  0.21875000000000000       0.25000000000000000        0.0000000000000000     
  0.25000000000000000       0.25000000000000000        0.0000000000000000     
  0.12500000000000000       0.28125000000000000        0.0000000000000000     
  0.15625000000000000       0.28125000000000000        0.0000000000000000     
  0.18750000000000000       0.28125000000000000        0.0000000000000000     
  0.21875000000000000       0.28125000000000000        0.0000000000000000     
  0.25000000000000000       0.28125000000000000        0.0000000000000000     
  0.12500000000000000       0.31250000000000000        0.0000000000000000     
  0.15625000000000000       0.31250000000000000        0.0000000000000000     
  0.18750000000000000       0.31250000000000000        0.0000000000000000     
  0.21875000000000000       0.31250000000000000        0.0000000000000000     
  0.25000000000000000       0.31250000000000000        0.0000000000000000     
  0.12500000000000000       0.34375000000000000        0.0000000000000000     
  0.15625000000000000       0.34375000000000000        0.0000000000000000     
  0.18750000000000000       0.34375000000000000        0.0000000000000000     
  0.21875000000000000       0.34375000000000000        0.0000000000000000     
  0.25000000000000000       0.34375000000000000        0.0000000000000000     
  0.12500000000000000       0.37500000000000000        0.0000000000000000     
  0.15625000000000000       0.37500000000000000        0.0000000000000000     
  0.18750000000000000       0.37500000000000000        0.0000000000000000     
  0.21875000000000000       0.37500000000000000        0.0000000000000000     
  0.25000000000000000       0.37500000000000000        0.0000000000000000     
  0.25000000000000000       0.25000000000000000        0.0000000000000000     
  0.28125000000000000       0.25000000000000000        0.0000000000000000     
  0.31250000000000000       0.25000000000000000        0.0000000000000000     
  0.34375000000000000       0.25000000000000000        0.0000000000000000     
  0.37500000000000000       0.25000000000000000        0.0000000000000000     
  0.25000000000000000       0.28125000000000000        0.0000000000000000     
  0.28125000000000000       0.28125000000000000        0.0000000000000000     
  0.31250000000000000       0.28125000000000000        0.0000000000000000     
  0.34375000000000000       0.28125000000000000        0.0000000000000000     
  0.37500000000000000       0.28125000000000000        0.0000000000000000     
  0.25000000000000000       0.31250000000000000        0.0000000000000000     
  0.28125000000000000       0.31250000000000000        0.0000000000000000     
  0.31250000000000000       0.31250000000000000        0.0000000000000000     
  0.34375000000000000       0.31250000000000000        0.0000000000000000     
  0.37500000000000000       0.31250000000000000        0.0000000000000000     
  0.25000000000000000       0.34375000000000000        0.0000000000000000     
  0.28125000000000000       0.34375000000000000        0.0000000000000000     
  0.31250000000000000       0.34375000000000000        0.0000000000000000     
  0.34375000000000000       0.34375000000000000        0.0000000000000000     
  0.37500000000000000       0.34375000000000000        0.0000000000000000     
  0.25000000000000000       0.37500000000000000        0.0000000000000000     
  0.28125000000000000       0.37500000000000000        0.0000000000000000     
  0.31250000000000000       0.37500000000000000        0.0000000000000000     
  0.34375000000000000       0.37500000000000000        0.0000000000000000     
  0.37500000000000000       0.37500000000000000        0.0000000000000000     
  0.37500000000000000       0.25000000000000000        0.0000000000000000     
  0.40625000000000000       0.25000000000000000        0.0000000000000000     
  0.43750000000000000       0.25000000000000000        0.0000000000000000     
  0.46875000000000000       0.25000000000000000        0.0000000000000000     
  0.50000000000000000       0.25000000000000000        0.0000000000000000     
  0.37500000000000000       0.28125000000000000        0.0000000000000000     
  0.40625000000000000       0.28125000000000000        0.0000000000000000     
  0.43750000000000000       0.28125000000000000        0.0000000000000000     
  0.46875000000000000       0.28125000000000000        0.0000000000000000     
  0.50000000000000000       0.28125000000000000        0.0000000000000000     
  0.37500000000000000       0.31250000000000000        0.0000000000000000     
  0.40625000000000000       0.31250000000000000        0.0000000000000000     
  0.43750000000000000       0.31250000000000000        0.0000000000000000     
  0.46875000000000000       0.31250000000000000        0.0000000000000000     
  0.50000000000000000       0.31250000000000000        0.0000000000000000     
  0.37500000000000000       0.34375000000000000        0.0000000000000000     
  0.40625000000000000       0.34375000000000000        0.0000000000000000     
  0.43750000000000000       0.34375000000000000        0.0000000000000000     
  0.46875000000000000       0.34375000000000000        0.0000000000000000     
  0.50000000000000000       0.34375000000000000        0.0000000000000000     
  0.37500000000000000       0.37500000000000000        0.0000000000000000     
  0.40625000000000000       0.37500000000000000        0.0000000000000000     
  0.43750000000000000       0.37500000000000000        0.0000000000000000     
  0.46875000000000000       0.37500000000000000        0.0000000000000000     
  0.50000000000000000       0.37500000000000000        0.0000000000000000     
  0.50000000000000000       0.25000000000000000        0.0000000000000000     
  0.53125000000000000       0.25000000000000000        0.0000000000000000     
  0.56250000000000000       0.25000000000000000        0.0000000000000000     
  0.59375000000000000       0.25000000000000000        0.0000000000000000     
  0.62500000000000000       0.25000000000000000        0.0000000000000000     
  0.50000000000000000       0.28125000000000000        0.0000000000000000     
  0.53125000000000000       0.28125000000000000        0.0000000000000000     
  0.56250000000000000       0.28125000000000000        0.0000000000000000     
  0.59375000000000000       0.28125000000000000        0.0000000000000000     
  0.62500000000000000       0.28125000000000000        0.0000000000000000     
  0.50000000000000000       0.31250000000000000        0.0000000000000000     
  0.53125000000000000       0.31250000000000000        0.0000000000000000     
  0.56250000000000000       0.31250000000000000        0.0000000000000000     
  0.59375000000000000       0.31250000000000000        0.0000000000000000     
  0.62500000000000000       0.31250000000000000        0.0000000000000000     
  0.50000000000000000       0.34375000000000000        0.0000000000000000     
  0.53125000000000000       0.34375000000000000        0.0000000000000000     
  0.56250000000000000       0.34375000000000000        0.0000000000000000     
  0.59375000000000000       0.34375000000000000        0.0000000000000000     
  0.62500000000000000       0.34375000000000000        0.0000000000000000     
  0.50000000000000000       0.37500000000000000        0.0000000000000000     
  0.53125000000000000       0.37500000000000000        0.0000000000000000     
  0.56250000000000000       0.37500000000000000        0.0000000000000000     
  0.59375000000000000       0.37500000000000000        0.0000000000000000     
  0.62500000000000000       0.37500000000000000        0.0000000000000000     
  0.62500000000000000       0.25000000000000000        0.0000000000000000     
  0.65625000000000000       0.25000000000000000        0.0000000000000000     
  0.68750000000000000       0.25000000000000000        0.0000000000000000     
  0.71875000000000000       0.25000000000000000        0.0000000000000000     
  0.75000000000000000       0.25000000000000000        0.0000000000000000     
  0.62500000000000000       0.28125000000000000        0.0000000000000000     
  0.65625000000000000       0.28125000000000000        0.0000000000000000     
  0.68750000000000000       0.28125000000000000        0.0000000000000000     
  0.71875000000000000       0.28125000000000000        0.0000000000000000     
  0.75000000000000000       0.28125000000000000        0.0000000000000000     
  0.62500000000000000       0.31250000000000000        0.0000000000000000     
  0.65625000000000000       0.31250000000000000        0.0000000000000000     
  0.68750000000000000       0.31250000000000000        0.0000000000000000     
  0.71875000000000000       0.31250000000000000        0.0000000000000000     
  0.75000000000000000       0.31250000000000000        0.0000000000000000     
  0.62500000000000000       0.34375000000000000        0.0000000000000000     
  0.65625000000000000       0.34375000000000000        0.0000000000000000     
  0.68750000000000000       0.34375000000000000        0.0000000000000000     
  0.71875000000000000       0.34375000000000000        0.0000000000000000     
  0.75000000000000000       0.34375000000000000        0.0000000000000000     
  0.62500000000000000       0.37500000000000000        0.0000000000000000     
  0.65625000000000000       0.37500000000000000        0.0000000000000000     
  0.68750000000000000       0.37500000000000000        0.0000000000000000     
  0.71875000000000000       0.37500000000000000        0.0000000000000000     
  0.75000000000000000       0.37500000000000000        0.0000000000000000     
  0.75000000000000000       0.25000000000000000        0.0000000000000000     
  0.78125000000000000       0.25000000000000000        0.0000000000000000     
  0.81250000000000000       0.25000000000000000        0.0000000000000000     
  0.84375000000000000       0.25000000000000000        0.0000000000000000     
  0.87500000000000000       0.25000000000000000        0.0000000000000000     
  0.75000000000000000       0.28125000000000000        0.0000000000000000     
  0.78125000000000000       0.28125000000000000        0.0000000000000000     
  0.81250000000000000       0.28125000000000000        0.0000000000000000     
  0.84375000000000000       0.28125000000000000        0.0000000000000000     
  0.87500000000000000       0.28125000000000000        0.0000000000000000     
  0.75000000000000000       0.31250000000000000        0.0000000000000000     
  0.78125000000000000       0.31250000000000000        0.0000000000000000     
  0.81250000000000000       0.31250000000000000        0.0000000000000000     
  0.84375000000000000       0.31250000000000000        0.0000000000000000     
  0.87500000000000000       0.31250000000000000        0.0000000000000000     
  0.75000000000000000       0.34375000000000000        0.0000000000000000     
  0.78125000000000000       0.34375000000000000        0.0000000000000000     
  0.81250000000000000       0.34375000000000000        0.0000000000000000     
  0.84375000000000000       0.34375000000000000        0.0000000000000000     
  0.87500000000000000       0.34375000000000000        0.0000000000000000     
  0.75000000000000000       0.37500000000000000        0.0000000000000000     
  0.78125000000000000       0.37500000000000000        0.0000000000000000     
  0.81250000000000000       0.37500000000000000        0.0000000000000000     
  0.84375000000000000       0.37500000000000000        0.0000000000000000     
  0.87500000000000000       0.37500000000000000        0.0000000000000000     
  0.87500000000000000       0.25000000000000000        0.0000000000000000     
  0.90625000000000000       0.25000000000000000        0.0000000000000000     
  0.93750000000000000       0.25000000000000000        0.0000000000000000     
  0.96875000000000000       0.25000000000000000        0.0000000000000000     
   1.0000000000000000       0.25000000000000000        0.0000000000000000     
  0.87500000000000000       0.28125000000000000        0.0000000000000000     
  0.90625000000000000       0.28125000000000000        0.0000000000000000     
  0.93750000000000000       0.28125000000000000        0.0000000000000000     
  0.96875000000000000       0.28125000000000000        0.0000000000000000     
   1.0000000000000000       0.28125000000000000        0.0000000000000000     
  0.87500000000000000       0.31250000000000000        0.0000000000000000     
  0.90625000000000000       0.31250000000000000        0.0000000000000000     
  0.93750000000000000       0.31250000000000000        0.0000000000000000     
  0.96875000000000000       0.31250000000000000        0.0000000000000000     
   1.0000000000000000       0.31250000000000000        0.0000000000000000     
  0.87500000000000000       0.34375000000000000        0.0000000000000000     
  0.90625000000000000       0.34375000000000000        0.0000000000000000     
  0.93750000000000000       0.34375000000000000        0.0000000000000000     
  0.96875000000000000       0.34375000000000000        0.0000000000000000     
   1.0000000000000000       0.34375000000000000        0.0000000000000000     
  0.87500000000000000       0.37500000000000000        0.0000000000000000     
  0.90625000000000000       0.37500000000000000        0.0000000000000000     
  0.93750000000000000       0.37500000000000000        0.0000000000000000     
  0.96875000000000000       0.37500000000000000        0.0000000000000000     
   1.0000000000000000       0.37500000000000000        0.0000000000000000     
   0.0000000000000000       0.37500000000000000        0.0000000000000000     
   3.1250000000000000E-002  0.37500000000000000        0.0000000000000000     
   6.2500000000000000E-002  0.37500000000000000        0.0000000000000000     
   9.3750000000000000E-002  0.37500000000000000        0.0000000000000000     
  0.12500000000000000       0.37500000000000000        0.0000000000000000     
   0.0000000000000000       0.40625000000000000        0.0000000000000000     
   3.1250000000000000E-002  0.40625000000000000        0.0000000000000000     
   6.2500000000000000E-002  0.40625000000000000        0.0000000000000000     
   9.3750000000000000E-002  0.40625000000000000        0.0000000000000000     
  0.12500000000000000       0.40625000000000000        0.0000000000000000     
   0.0000000000000000       0.43750000000000000        0.0000000000000000     
   3.1250000000000000E-002  0.43750000000000000        0.0000000000000000     
   6.2500000000000000E-002  0.43750000000000000        0.0000000000000000     
   9.3750000000000000E-002  0.43750000000000000        0.0000000000000000     
  0.12500000000000000       0.43750000000000000        0.0000000000000000     
   0.0000000000000000       0.46875000000000000        0.0000000000000000     
   3.1250000000000000E-002  0.46875000000000000        0.0000000000000000     
   6.2500000000000000E-002  0.46875000000000000        0.0000000000000000     
   9.3750000000000000E-002  0.46875000000000000        0.0000000000000000     
  0.12500000000000000       0.46875000000000000        0.0000000000000000     
   0.0000000000000000       0.50000000000000000        0.0000000000000000     
   3.1250000000000000E-002  0.50000000000000000        0.0000000000000000     
   6.2500000000000000E-002  0.50000000000000000        0.0000000000000000     
   9.3750000000000000E-002  0.50000000000000000        0.0000000000000000     
  0.12500000000000000       0.50000000000000000        0.0000000000000000     
  0.12500000000000000       0.37500000000000000        0.0000000000000000     
  0.15625000000000000       0.37500000000000000        0.0000000000000000     
  0.18750000000000000       0.37500000000000000        0.0000000000000000     
  0.21875000000000000       0.37500000000000000        0.0000000000000000     
  0.25000000000000000       0.37500000000000000        0.0000000000000000     
  0.12500000000000000       0.40625000000000000        0.0000000000000000     
  0.15625000000000000       0.40625000000000000        0.0000000000000000     
  0.18750000000000000       0.40625000000000000        0.0000000000000000     
  0.21875000000000000       0.40625000000000000        0.0000000000000000     
  0.25000000000000000       0.40625000000000000        0.0000000000000000     
  0.12500000000000000       0.43750000000000000        0.0000000000000000     
  0.15625000000000000       0.43750000000000000        0.0000000000000000     
  0.18750000000000000       0.43750000000000000        0.0000000000000000     
  0.21875000000000000       0.43750000000000000        0.0000000000000000     
  0.25000000000000000       0.43750000000000000        0.0000000000000000     
  0.12500000000000000       0.46875000000000000        0.0000000000000000     
  0.15625000000000000       0.46875000000000000        0.0000000000000000     
  0.18750000000000000       0.46875000000000000        0.0000000000000000     
  0.21875000000000000       0.46875000000000000        0.0000000000000000     
  0.25000000000000000       0.46875000000000000        0.0000000000000000     
  0.12500000000000000       0.50000000000000000        0.0000000000000000     
  0.15625000000000000       0.50000000000000000        0.0000000000000000     
  0.18750000000000000       0.50000000000000000        0.0000000000000000     
  0.21875000000000000       0.50000000000000000        0.0000000000000000     
  0.25000000000000000       0.50000000000000000        0.0000000000000000     
  0.25000000000000000       0.37500000000000000        0.0000000000000000     
  0.28125000000000000       0.37500000000000000        0.0000000000000000     
  0.31250000000000000       0.37500000000000000        0.0000000000000000     
  0.34375000000000000       0.37500000000000000        0.0000000000000000     
  0.37500000000000000       0.37500000000000000        0.0000000000000000     
  0.25000000000000000       0.40625000000000000        0.0000000000000000     
  0.28125000000000000       0.40625000000000000        0.0000000000000000     
  0.31250000000000000       0.40625000000000000        0.0000000000000000     
  0.34375000000000000       0.40625000000000000        0.0000000000000000     
  0.37500000000000000       0.40625000000000000        0.0000000000000000     
  0.25000000000000000       0.43750000000000000        0.0000000000000000     
  0.28125000000000000       0.43750000000000000        0.0000000000000000     
  0.31250000000000000       0.43750000000000000        0.0000000000000000     
  0.34375000000000000       0.43750000000000000        0.0000000000000000     
  0.37500000000000000       0.43750000000000000        0.0000000000000000     
  0.25000000000000000       0.46875000000000000        0.0000000000000000     
  0.28125000000000000       0.46875000000000000        0.0000000000000000     
  0.31250000000000000       0.46875000000000000        0.0000000000000000     
  0.34375000000000000       0.46875000000000000        0.0000000000000000     
  0.37500000000000000       0.46875000000000000        0.0000000000000000     
  0.25000000000000000       0.50000000000000000        0.0000000000000000     
  0.28125000000000000       0.50000000000000000        0.0000000000000000     
  0.31250000000000000       0.50000000000000000        0.0000000000000000     
  0.34375000000000000       0.50000000000000000        0.0000000000000000     
  0.37500000000000000       0.50000000000000000        0.0000000000000000     
  0.37500000000000000       0.37500000000000000        0.0000000000000000     
  0.40625000000000000       0.37500000000000000        0.0000000000000000     
  0.43750000000000000       0.37500000000000000        0.0000000000000000     
  0.46875000000000000       0.37500000000000000        0.0000000000000000     
  0.50000000000000000       0.37500000000000000        0.0000000000000000     
  0.37500000000000000       0.40625000000000000        0.0000000000000000     
  0.40625000000000000       0.40625000000000000        0.0000000000000000     
  0.43750000000000000       0.40625000000000000        0.0000000000000000     
  0.46875000000000000       0.40625000000000000        0.0000000000000000     
  0.50000000000000000       0.40625000000000000        0.0000000000000000     
  0.37500000000000000       0.43750000000000000        0.0000000000000000     
  0.40625000000000000       0.43750000000000000        0.0000000000000000     
  0.43750000000000000       0.43750000000000000        0.0000000000000000     
  0.46875000000000000       0.43750000000000000        0.0000000000000000     
  0.50000000000000000       0.43750000000000000        0.0000000000000000     
  0.37500000000000000       0.46875000000000000        0.0000000000000000     
  0.40625000000000000       0.46875000000000000        0.0000000000000000     
  0.43750000000000000       0.46875000000000000        0.0000000000000000     
  0.46875000000000000       0.46875000000000000        0.0000000000000000     
  0.50000000000000000       0.46875000000000000        0.0000000000000000     
  0.37500000000000000       0.50000000000000000        0.0000000000000000     
  0.40625000000000000       0.50000000000000000        0.0000000000000000     
  0.43750000000000000       0.50000000000000000        0.0000000000000000     
  0.46875000000000000       0.50000000000000000        0.0000000000000000     
  0.50000000000000000       0.50000000000000000        0.0000000000000000     
  0.50000000000000000       0.37500000000000000        0.0000000000000000     
  0.53125000000000000       0.37500000000000000        0.0000000000000000     
  0.56250000000000000       0.37500000000000000        0.0000000000000000     
  0.59375000000000000       0.37500000000000000        0.0000000000000000     
  0.62500000000000000       0.37500000000000000        0.0000000000000000     
  0.50000000000000000       0.40625000000000000        0.0000000000000000     
  0.53125000000000000       0.40625000000000000        0.0000000000000000     
  0.56250000000000000       0.40625000000000000        0.0000000000000000     
  0.59375000000000000       0.40625000000000000        0.0000000000000000     
  0.62500000000000000       0.40625000000000000        0.0000000000000000     
  0.50000000000000000       0.43750000000000000        0.0000000000000000     
  0.53125000000000000       0.43750000000000000        0.0000000000000000     
  0.56250000000000000       0.43750000000000000        0.0000000000000000     
  0.59375000000000000       0.43750000000000000        0.0000000000000000     
  0.62500000000000000       0.43750000000000000        0.0000000000000000     
  0.50000000000000000       0.46875000000000000        0.0000000000000000     
  0.53125000000000000       0.46875000000000000        0.0000000000000000     
  0.56250000000000000       0.46875000000000000        0.0000000000000000     
  0.59375000000000000       0.46875000000000000        0.0000000000000000     
  0.62500000000000000       0.46875000000000000        0.0000000000000000     
  0.50000000000000000       0.50000000000000000        0.0000000000000000     
  0.53125000000000000       0.50000000000000000        0.0000000000000000     
  0.56250000000000000       0.50000000000000000        0.0000000000000000     
  0.59375000000000000       0.50000000000000000        0.0000000000000000     
  0.62500000000000000       0.50000000000000000        0.0000000000000000     
  0.62500000000000000       0.37500000000000000        0.0000000000000000     
  0.65625000000000000       0.37500000000000000        0.0000000000000000     
  0.68750000000000000       0.37500000000000000        0.0000000000000000     
  0.71875000000000000       0.37500000000000000        0.0000000000000000     
  0.75000000000000000       0.37500000000000000        0.0000000000000000     
  0.62500000000000000       0.40625000000000000        0.0000000000000000     
  0.65625000000000000       0.40625000000000000        0.0000000000000000     
  0.68750000000000000       0.40625000000000000        0.0000000000000000     
  0.71875000000000000       0.40625000000000000        0.0000000000000000     
  0.75000000000000000       0.40625000000000000        0.0000000000000000     
  0.62500000000000000       0.43750000000000000        0.0000000000000000     
  0.65625000000000000       0.43750000000000000        0.0000000000000000     
  0.68750000000000000       0.43750000000000000        0.0000000000000000     
  0.71875000000000000       0.43750000000000000        0.0000000000000000     
  0.75000000000000000       0.43750000000000000        0.0000000000000000     
  0.62500000000000000       0.46875000000000000        0.0000000000000000     
  0.65625000000000000       0.46875000000000000        0.0000000000000000     
  0.68750000000000000       0.46875000000000000        0.0000000000000000     
  0.71875000000000000       0.46875000000000000        0.0000000000000000     
  0.75000000000000000       0.46875000000000000        0.0000000000000000     
  0.62500000000000000       0.50000000000000000        0.0000000000000000     
  0.65625000000000000       0.50000000000000000        0.0000000000000000     
  0.68750000000000000       0.50000000000000000        0.0000000000000000     
  0.71875000000000000       0.50000000000000000        0.0000000000000000     
  0.75000000000000000       0.50000000000000000        0.0000000000000000     
  0.75000000000000000       0.37500000000000000        0.0000000000000000     
  0.78125000000000000       0.37500000000000000        0.0000000000000000     
  0.81250000000000000       0.37500000000000000        0.0000000000000000     
  0.84375000000000000       0.37500000000000000        0.0000000000000000     
  0.87500000000000000       0.37500000000000000        0.0000000000000000     
  0.75000000000000000       0.40625000000000000        0.0000000000000000     
  0.78125000000000000       0.40625000000000000        0.0000000000000000     
  0.81250000000000000       0.40625000000000000        0.0000000000000000     
  0.84375000000000000       0.40625000000000000        0.0000000000000000     
  0.87500000000000000       0.40625000000000000        0.0000000000000000     
  0.75000000000000000       0.43750000000000000        0.0000000000000000     
  0.78125000000000000       0.43750000000000000        0.0000000000000000     
  0.81250000000000000       0.43750000000000000        0.0000000000000000     
  0.84375000000000000       0.43750000000000000        0.0000000000000000     
  0.87500000000000000       0.43750000000000000        0.0000000000000000     
  0.75000000000000000       0.46875000000000000        0.0000000000000000     
  0.78125000000000000       0.46875000000000000        0.0000000000000000     
  0.81250000000000000       0.46875000000000000        0.0000000000000000     
  0.84375000000000000       0.46875000000000000        0.0000000000000000     
  0.87500000000000000       0.46875000000000000        0.0000000000000000     
  0.75000000000000000       0.50000000000000000        0.0000000000000000     
  0.78125000000000000       0.50000000000000000        0.0000000000000000     
  0.81250000000000000       0.50000000000000000        0.0000000000000000     
  0.84375000000000000       0.50000000000000000        0.0000000000000000     
  0.87500000000000000       0.50000000000000000        0.0000000000000000     
  0.87500000000000000       0.37500000000000000        0.0000000000000000     
  0.90625000000000000       0.37500000000000000        0.0000000000000000     
  0.93750000000000000       0.37500000000000000        0.0000000000000000     
  0.96875000000000000       0.37500000000000000        0.0000000000000000     
   1.0000000000000000       0.37500000000000000        0.0000000000000000     
  0.87500000000000000       0.40625000000000000        0.0000000000000000     
  0.90625000000000000       0.40625000000000000        0.0000000000000000     
  0.93750000000000000       0.40625000000000000        0.0000000000000000     
  0.96875000000000000       0.40625000000000000        0.0000000000000000     
   1.0000000000000000       0.40625000000000000        0.0000000000000000     
  0.87500000000000000       0.43750000000000000        0.0000000000000000     
  0.90625000000000000       0.43750000000000000        0.0000000000000000     
  0.93750000000000000       0.43750000000000000        0.0000000000000000     
  0.96875000000000000       0.43750000000000000        0.0000000000000000     
   1.0000000000000000       0.43750000000000000        0.0000000000000000     
  0.87500000000000000       0.46875000000000000        0.0000000000000000     
  0.90625000000000000       0.46875000000000000        0.0000000000000000     
  0.93750000000000000       0.46875000000000000        0.0000000000000000     
  0.96875000000000000       0.46875000000000000        0.0000000000000000     
   1.0000000000000000       0.46875000000000000        0.0000000000000000     
  0.87500000000000000       0.50000000000000000        0.0000000000000000     
  0.90625000000000000       0.50000000000000000        0.0000000000000000     
  0.93750000000000000       0.50000000000000000        0.0000000000000000     
  0.96875000000000000       0.50000000000000000        0.0000000000000000     
   1.0000000000000000       0.50000000000000000        0.0000000000000000     
   0.0000000000000000       0.50000000000000000        0.0000000000000000     
   3.1250000000000000E-002  0.50000000000000000        0.0000000000000000     
   6.2500000000000000E-002  0.50000000000000000        0.0000000000000000     
   9.3750000000000000E-002  0.50000000000000000        0.0000000000000000     
  0.12500000000000000       0.50000000000000000        0.0000000000000000     
   0.0000000000000000       0.53125000000000000        0.0000000000000000     
   3.1250000000000000E-002  0.53125000000000000        0.0000000000000000     
   6.2500000000000000E-002  0.53125000000000000        0.0000000000000000     
   9.3750000000000000E-002  0.53125000000000000        0.0000000000000000     
  0.12500000000000000       0.53125000000000000        0.0000000000000000     
   0.0000000000000000       0.56250000000000000        0.0000000000000000     
   3.1250000000000000E-002  0.56250000000000000        0.0000000000000000     
   6.2500000000000000E-002  0.56250000000000000        0.0000000000000000     
   9.3750000000000000E-002  0.56250000000000000        0.0000000000000000     
  0.12500000000000000       0.56250000000000000        0.0000000000000000     
   0.0000000000000000       0.59375000000000000        0.0000000000000000     
   3.1250000000000000E-002  0.59375000000000000        0.0000000000000000     
   6.2500000000000000E-002  0.59375000000000000        0.0000000000000000     
   9.3750000000000000E-002  0.59375000000000000        0.0000000000000000     
  0.12500000000000000       0.59375000000000000        0.0000000000000000     
   0.0000000000000000       0.62500000000000000        0.0000000000000000     
   3.1250000000000000E-002  0.62500000000000000        0.0000000000000000     
   6.2500000000000000E-002  0.62500000000000000        0.0000000000000000     
   9.3750000000000000E-002  0.62500000000000000        0.0000000000000000     
  0.12500000000000000       0.62500000000000000        0.0000000000000000     
  0.12500000000000000       0.50000000000000000        0.0000000000000000     
  0.15625000000000000       0.50000000000000000        0.0000000000000000     
  0.18750000000000000       0.50000000000000000        0.0000000000000000     
  0.21875000000000000       0.50000000000000000        0.0000000000000000     
  0.25000000000000000       0.50000000000000000        0.0000000000000000     
  0.12500000000000000       0.53125000000000000        0.0000000000000000     
  0.15625000000000000       0.53125000000000000        0.0000000000000000     
  0.18750000000000000       0.53125000000000000        0.0000000000000000     
  0.21875000000000000       0.53125000000000000        0.0000000000000000     
  0.25000000000000000       0.53125000000000000        0.0000000000000000     
  0.12500000000000000       0.56250000000000000        0.0000000000000000     
  0.15625000000000000       0.56250000000000000        0.0000000000000000     
  0.18750000000000000       0.56250000000000000        0.0000000000000000     
  0.21875000000000000       0.56250000000000000        0.0000000000000000     
  0.25000000000000000       0.56250000000000000        0.0000000000000000     
  0.12500000000000000       0.59375000000000000        0.0000000000000000     
  0.15625000000000000       0.59375000000000000        0.0000000000000000     
  0.18750000000000000       0.59375000000000000        0.0000000000000000     
  0.21875000000000000       0.59375000000000000        0.0000000000000000     
  0.25000000000000000       0.59375000000000000        0.0000000000000000     
  0.12500000000000000       0.62500000000000000        0.0000000000000000     
  0.15625000000000000       0.62500000000000000        0.0000000000000000     
  0.18750000000000000       0.62500000000000000        0.0000000000000000     
  0.21875000000000000       0.62500000000000000        0.0000000000000000     
  0.25000000000000000       0.62500000000000000        0.0000000000000000     
  0.25000000000000000       0.50000000000000000        0.0000000000000000     
  0.28125000000000000       0.50000000000000000        0.0000000000000000     
  0.31250000000000000       0.50000000000000000        0.0000000000000000     
  0.34375000000000000       0.50000000000000000        0.0000000000000000     
  0.37500000000000000       0.50000000000000000        0.0000000000000000     
  0.25000000000000000       0.53125000000000000        0.0000000000000000     
  0.28125000000000000       0.53125000000000000        0.0000000000000000     
  0.31250000000000000       0.53125000000000000        0.0000000000000000     
  0.34375000000000000       0.53125000000000000        0.0000000000000000     
  0.37500000000000000       0.53125000000000000        0.0000000000000000     
  0.25000000000000000       0.56250000000000000        0.0000000000000000     
  0.28125000000000000       0.56250000000000000        0.0000000000000000     
  0.31250000000000000       0.56250000000000000        0.0000000000000000     
  0.34375000000000000       0.56250000000000000        0.0000000000000000     
  0.37500000000000000       0.56250000000000000        0.0000000000000000     
  0.25000000000000000       0.59375000000000000        0.0000000000000000     
  0.28125000000000000       0.59375000000000000        0.0000000000000000     
  0.31250000000000000       0.59375000000000000        0.0000000000000000     
  0.34375000000000000       0.59375000000000000        0.0000000000000000     
  0.37500000000000000       0.59375000000000000        0.0000000000000000     
  0.25000000000000000       0.62500000000000000        0.0000000000000000     
  0.28125000000000000       0.62500000000000000        0.0000000000000000     
  0.31250000000000000       0.62500000000000000        0.0000000000000000     
  0.34375000000000000       0.62500000000000000        0.0000000000000000     
  0.37500000000000000       0.62500000000000000        0.0000000000000000     
  0.37500000000000000       0.50000000000000000        0.0000000000000000     
  0.40625000000000000       0.50000000000000000        0.0000000000000000     
  0.43750000000000000       0.50000000000000000        0.0000000000000000     
  0.46875000000000000       0.50000000000000000        0.0000000000000000     
  0.50000000000000000       0.50000000000000000        0.0000000000000000     
  0.37500000000000000       0.53125000000000000        0.0000000000000000     
  0.40625000000000000       0.53125000000000000        0.0000000000000000     
  0.43750000000000000       0.53125000000000000        0.0000000000000000     
  0.46875000000000000       0.53125000000000000        0.0000000000000000     
  0.50000000000000000       0.53125000000000000        0.0000000000000000     
  0.37500000000000000       0.56250000000000000        0.0000000000000000     
  0.40625000000000000       0.56250000000000000        0.0000000000000000     
  0.43750000000000000       0.56250000000000000        0.0000000000000000     
  0.46875000000000000       0.56250000000000000        0.0000000000000000     
  0.50000000000000000       0.56250000000000000        0.0000000000000000     
  0.37500000000000000       0.59375000000000000        0.0000000000000000     
  0.40625000000000000       0.59375000000000000        0.0000000000000000     
  0.43750000000000000       0.59375000000000000        0.0000000000000000     
  0.46875000000000000       0.59375000000000000        0.0000000000000000     
  0.50000000000000000       0.59375000000000000        0.0000000000000000     
  0.37500000000000000       0.62500000000000000        0.0000000000000000     
  0.40625000000000000       0.62500000000000000        0.0000000000000000     
  0.43750000000000000       0.62500000000000000        0.0000000000000000     
  0.46875000000000000       0.62500000000000000        0.0000000000000000     
  0.50000000000000000       0.62500000000000000        0.0000000000000000     
  0.50000000000000000       0.50000000000000000        0.0000000000000000     
  0.53125000000000000       0.50000000000000000        0.0000000000000000     
  0.56250000000000000       0.50000000000000000        0.0000000000000000     
  0.59375000000000000       0.50000000000000000        0.0000000000000000     
  0.62500000000000000       0.50000000000000000        0.0000000000000000     
  0.50000000000000000       0.53125000000000000        0.0000000000000000     
  0.53125000000000000       0.53125000000000000        0.0000000000000000     
  0.56250000000000000       0.53125000000000000        0.0000000000000000     
  0.59375000000000000       0.53125000000000000        0.0000000000000000     
  0.62500000000000000       0.53125000000000000        0.0000000000000000     
  0.50000000000000000       0.56250000000000000        0.0000000000000000     
  0.53125000000000000       0.56250000000000000        0.0000000000000000     
  0.56250000000000000       0.56250000000000000        0.0000000000000000     
  0.59375000000000000       0.56250000000000000        0.0000000000000000     
  0.62500000000000000       0.56250000000000000        0.0000000000000000     
  0.50000000000000000       0.59375000000000000        0.0000000000000000     
  0.53125000000000000       0.59375000000000000        0.0000000000000000     
  0.56250000000000000       0.59375000000000000        0.0000000000000000     
  0.59375000000000000       0.59375000000000000        0.0000000000000000     
  0.62500000000000000       0.59375000000000000        0.0000000000000000     
  0.50000000000000000       0.62500000000000000        0.0000000000000000     
  0.53125000000000000       0.62500000000000000        0.0000000000000000     
  0.56250000000000000       0.62500000000000000        0.0000000000000000     
  0.59375000000000000       0.62500000000000000        0.0000000000000000     
  0.62500000000000000       0.62500000000000000        0.0000000000000000     
  0.62500000000000000       0.50000000000000000        0.0000000000000000     
  0.65625000000000000       0.50000000000000000        0.0000000000000000     
  0.68750000000000000       0.50000000000000000        0.0000000000000000     
  0.71875000000000000       0.50000000000000000        0.0000000000000000     
  0.75000000000000000       0.50000000000000000        0.0000000000000000     
  0.62500000000000000       0.53125000000000000        0.0000000000000000     
  0.65625000000000000       0.53125000000000000        0.0000000000000000     
  0.68750000000000000       0.53125000000000000        0.0000000000000000     
  0.71875000000000000       0.53125000000000000        0.0000000000000000     
  0.75000000000000000       0.53125000000000000        0.0000000000000000     
  0.62500000000000000       0.56250000000000000        0.0000000000000000     
  0.65625000000000000       0.56250000000000000        0.0000000000000000     
  0.68750000000000000       0.56250000000000000        0.0000000000000000     
  0.71875000000000000       0.56250000000000000        0.0000000000000000     
  0.75000000000000000       0.56250000000000000        0.0000000000000000     
  0.62500000000000000       0.59375000000000000        0.0000000000000000     
  0.65625000000000000       0.59375000000000000        0.0000000000000000     
  0.68750000000000000       0.59375000000000000        0.0000000000000000     
  0.71875000000000000       0.59375000000000000        0.0000000000000000     
  0.75000000000000000       0.59375000000000000        0.0000000000000000     
  0.62500000000000000       0.62500000000000000        0.0000000000000000     
  0.65625000000000000       0.62500000000000000        0.0000000000000000     
  0.68750000000000000       0.62500000000000000        0.0000000000000000     
  0.71875000000000000       0.62500000000000000        0.0000000000000000     
  0.75000000000000000       0.62500000000000000        0.0000000000000000     
  0.75000000000000000       0.50000000000000000        0.0000000000000000     
  0.78125000000000000       0.50000000000000000        0.0000000000000000     
  0.81250000000000000       0.50000000000000000        0.0000000000000000     
  0.84375000000000000       0.50000000000000000        0.0000000000000000     
  0.87500000000000000       0.50000000000000000        0.0000000000000000     
  0.75000000000000000       0.53125000000000000        0.0000000000000000     
  0.78125000000000000       0.53125000000000000        0.0000000000000000     
  0.81250000000000000       0.53125000000000000        0.0000000000000000     
  0.84375000000000000       0.53125000000000000        0.0000000000000000     
  0.87500000000000000       0.53125000000000000        0.0000000000000000     
  0.75000000000000000       0.56250000000000000        0.0000000000000000     
  0.78125000000000000       0.56250000000000000        0.0000000000000000     
  0.81250000000000000       0.56250000000000000        0.0000000000000000     
  0.84375000000000000       0.56250000000000000        0.0000000000000000     
  0.87500000000000000       0.56250000000000000        0.0000000000000000     
  0.75000000000000000       0.59375000000000000        0.0000000000000000     
  0.78125000000000000       0.59375000000000000        0.0000000000000000     
  0.81250000000000000       0.59375000000000000        0.0000000000000000     
  0.84375000000000000       0.59375000000000000        0.0000000000000000     
  0.87500000000000000       0.59375000000000000        0.0000000000000000     
  0.75000000000000000       0.62500000000000000        0.0000000000000000     
  0.78125000000000000       0.62500000000000000        0.0000000000000000     
  0.81250000000000000       0.62500000000000000        0.0000000000000000     
  0.84375000000000000       0.62500000000000000        0.0000000000000000     
  0.87500000000000000       0.62500000000000000        0.0000000000000000     
  0.87500000000000000       0.50000000000000000        0.0000000000000000     
  0.90625000000000000       0.50000000000000000        0.0000000000000000     
  0.93750000000000000       0.50000000000000000        0.0000000000000000     
  0.96875000000000000       0.50000000000000000        0.0000000000000000     
   1.0000000000000000       0.50000000000000000        0.0000000000000000     
  0.87500000000000000       0.53125000000000000        0.0000000000000000     
  0.90625000000000000       0.53125000000000000        0.0000000000000000     
  0.93750000000000000       0.53125000000000000        0.0000000000000000     
  0.96875000000000000       0.53125000000000000        0.0000000000000000     
   1.0000000000000000       0.53125000000000000        0.0000000000000000     
  0.87500000000000000       0.56250000000000000        0.0000000000000000     
  0.90625000000000000       0.56250000000000000        0.0000000000000000     
  0.93750000000000000       0.56250000000000000        0.0000000000000000     
  0.96875000000000000       0.56250000000000000        0.0000000000000000     
   1.0000000000000000       0.56250000000000000        0.0000000000000000     
  0.87500000000000000       0.59375000000000000        0.0000000000000000     
  0.90625000000000000       0.59375000000000000        0.0000000000000000     
  0.93750000000000000       0.59375000000000000        0.0000000000000000     
  0.96875000000000000       0.59375000000000000        0.0000000000000000     
   1.0000000000000000       0.59375000000000000        0.0000000000000000     
  0.87500000000000000       0.62500000000000000        0.0000000000000000     
  0.90625000000000000       0.62500000000000000        0.0000000000000000     
  0.93750000000000000       0.62500000000000000        0.0000000000000000     
  0.96875000000000000       0.62500000000000000        0.0000000000000000     
   1.0000000000000000       0.62500000000000000        0.0000000000000000     
   0.0000000000000000       0.62500000000000000        0.0000000000000000     
   3.1250000000000000E-002  0.62500000000000000        0.0000000000000000     
   6.2500000000000000E-002  0.62500000000000000        0.0000000000000000     
   9.3750000000000000E-002  0.62500000000000000        0.0000000000000000     
  0.12500000000000000       0.62500000000000000        0.0000000000000000     
   0.0000000000000000       0.65625000000000000        0.0000000000000000     
   3.1250000000000000E-002  0.65625000000000000        0.0000000000000000     
   6.2500000000000000E-002  0.65625000000000000        0.0000000000000000     
   9.3750000000000000E-002  0.65625000000000000        0.0000000000000000     
  0.12500000000000000       0.65625000000000000        0.0000000000000000     
   0.0000000000000000       0.68750000000000000        0.0000000000000000     
   3.1250000000000000E-002  0.68750000000000000        0.0000000000000000     
   6.2500000000000000E-002  0.68750000000000000        0.0000000000000000     
   9.3750000000000000E-002  0.68750000000000000        0.0000000000000000     
  0.12500000000000000       0.68750000000000000        0.0000000000000000     
   0.0000000000000000       0.71875000000000000        0.0000000000000000     
   3.1250000000000000E-002  0.71875000000000000        0.0000000000000000     
   6.2500000000000000E-002  0.71875000000000000        0.0000000000000000     
   9.3750000000000000E-002  0.71875000000000000        0.0000000000000000     
  0.12500000000000000       0.71875000000000000        0.0000000000000000     
   0.0000000000000000       0.75000000000000000        0.0000000000000000     
   3.1250000000000000E-002  0.75000000000000000        0.0000000000000000     
   6.2500000000000000E-002  0.75000000000000000        0.0000000000000000     
   9.3750000000000000E-002  0.75000000000000000        0.0000000000000000     
  0.12500000000000000       0.75000000000000000        0.0000000000000000     
  0.12500000000000000       0.62500000000000000        0.0000000000000000     
  0.15625000000000000       0.62500000000000000        0.0000000000000000     
  0.18750000000000000       0.62500000000000000        0.0000000000000000     
  0.21875000000000000       0.62500000000000000        0.0000000000000000     
  0.25000000000000000       0.62500000000000000        0.0000000000000000     
  0.12500000000000000       0.65625000000000000        0.0000000000000000     
  0.15625000000000000       0.65625000000000000        0.0000000000000000     
  0.18750000000000000       0.65625000000000000        0.0000000000000000     
  0.21875000000000000       0.65625000000000000        0.0000000000000000     
  0.25000000000000000       0.65625000000000000        0.0000000000000000     
  0.12500000000000000       0.68750000000000000        0.0000000000000000     
  0.15625000000000000       0.68750000000000000        0.0000000000000000     
  0.18750000000000000       0.68750000000000000        0.0000000000000000     
  0.21875000000000000       0.68750000000000000        0.0000000000000000     
  0.25000000000000000       0.68750000000000000        0.0000000000000000     
  0.12500000000000000       0.71875000000000000        0.0000000000000000     
  0.15625000000000000       0.71875000000000000        0.0000000000000000     
  0.18750000000000000       0.71875000000000000        0.0000000000000000     
  0.21875000000000000       0.71875000000000000        0.0000000000000000     
  0.25000000000000000       0.71875000000000000        0.0000000000000000     
  0.12500000000000000       0.75000000000000000        0.0000000000000000     
  0.15625000000000000       0.75000000000000000        0.0000000000000000     
  0.18750000000000000       0.75000000000000000        0.0000000000000000     
  0.21875000000000000       0.75000000000000000        0.0000000000000000     
  0.25000000000000000       0.75000000000000000        0.0000000000000000     
  0.25000000000000000       0.62500000000000000        0.0000000000000000     
  0.28125000000000000       0.62500000000000000        0.0000000000000000     
  0.31250000000000000       0.62500000000000000        0.0000000000000000     
  0.34375000000000000       0.62500000000000000        0.0000000000000000     
  0.37500000000000000       0.62500000000000000        0.0000000000000000     
  0.25000000000000000       0.65625000000000000        0.0000000000000000     
  0.28125000000000000       0.65625000000000000        0.0000000000000000     
  0.31250000000000000       0.65625000000000000        0.0000000000000000     
  0.34375000000000000       0.65625000000000000        0.0000000000000000     
  0.37500000000000000       0.65625000000000000        0.0000000000000000     
  0.25000000000000000       0.68750000000000000        0.0000000000000000     
  0.28125000000000000       0.68750000000000000        0.0000000000000000     
  0.31250000000000000       0.68750000000000000        0.0000000000000000     
  0.34375000000000000       0.68750000000000000        0.0000000000000000     
  0.37500000000000000       0.68750000000000000        0.0000000000000000     
  0.25000000000000000       0.71875000000000000        0.0000000000000000     
  0.28125000000000000       0.71875000000000000        0.0000000000000000     
  0.31250000000000000       0.71875000000000000        0.0000000000000000     
  0.34375000000000000       0.71875000000000000        0.0000000000000000     
  0.37500000000000000       0.71875000000000000        0.0000000000000000     
  0.25000000000000000       0.75000000000000000        0.0000000000000000     
  0.28125000000000000       0.75000000000000000        0.0000000000000000     
  0.31250000000000000       0.75000000000000000        0.0000000000000000     
  0.34375000000000000       0.75000000000000000        0.0000000000000000     
  0.37500000000000000       0.75000000000000000        0.0000000000000000     
  0.37500000000000000       0.62500000000000000        0.0000000000000000     
  0.40625000000000000       0.62500000000000000        0.0000000000000000     
  0.43750000000000000       0.62500000000000000        0.0000000000000000     
  0.46875000000000000       0.62500000000000000        0.0000000000000000     
  0.50000000000000000       0.62500000000000000        0.0000000000000000     
  0.37500000000000000       0.65625000000000000        0.0000000000000000     
  0.40625000000000000       0.65625000000000000        0.0000000000000000     
  0.43750000000000000       0.65625000000000000        0.0000000000000000     
  0.46875000000000000       0.65625000000000000        0.0000000000000000     
  0.50000000000000000       0.65625000000000000        0.0000000000000000     
  0.37500000000000000       0.68750000000000000        0.0000000000000000     
  0.40625000000000000       0.68750000000000000        0.0000000000000000     
  0.43750000000000000       0.68750000000000000        0.0000000000000000     
  0.46875000000000000       0.68750000000000000        0.0000000000000000     
  0.50000000000000000       0.68750000000000000        0.0000000000000000     
  0.37500000000000000       0.71875000000000000        0.0000000000000000     
  0.40625000000000000       0.71875000000000000        0.0000000000000000     
  0.43750000000000000       0.71875000000000000        0.0000000000000000     
  0.46875000000000000       0.71875000000000000        0.0000000000000000     
  0.50000000000000000       0.71875000000000000        0.0000000000000000     
  0.37500000000000000       0.75000000000000000        0.0000000000000000     
  0.40625000000000000       0.75000000000000000        0.0000000000000000     
  0.43750000000000000       0.75000000000000000        0.0000000000000000     
  0.46875000000000000       0.75000000000000000        0.0000000000000000     
  0.50000000000000000       0.75000000000000000        0.0000000000000000     
  0.50000000000000000       0.62500000000000000        0.0000000000000000     
  0.53125000000000000       0.62500000000000000        0.0000000000000000     
  0.56250000000000000       0.62500000000000000        0.0000000000000000     
  0.59375000000000000       0.62500000000000000        0.0000000000000000     
  0.62500000000000000       0.62500000000000000        0.0000000000000000     
  0.50000000000000000       0.65625000000000000        0.0000000000000000     
  0.53125000000000000       0.65625000000000000        0.0000000000000000     
  0.56250000000000000       0.65625000000000000        0.0000000000000000     
  0.59375000000000000       0.65625000000000000        0.0000000000000000     
  0.62500000000000000       0.65625000000000000        0.0000000000000000     
  0.50000000000000000       0.68750000000000000        0.0000000000000000     
  0.53125000000000000       0.68750000000000000        0.0000000000000000     
  0.56250000000000000       0.68750000000000000        0.0000000000000000     
  0.59375000000000000       0.68750000000000000        0.0000000000000000     
  0.62500000000000000       0.68750000000000000        0.0000000000000000     
  0.50000000000000000       0.71875000000000000        0.0000000000000000     
  0.53125000000000000       0.71875000000000000        0.0000000000000000     
  0.56250000000000000       0.71875000000000000        0.0000000000000000     
  0.59375000000000000       0.71875000000000000        0.0000000000000000     
  0.62500000000000000       0.71875000000000000        0.0000000000000000     
  0.50000000000000000       0.75000000000000000        0.0000000000000000     
  0.53125000000000000       0.75000000000000000        0.0000000000000000     
  0.56250000000000000       0.75000000000000000        0.0000000000000000     
  0.59375000000000000       0.75000000000000000        0.0000000000000000     
  0.62500000000000000       0.75000000000000000        0.0000000000000000     
  0.62500000000000000       0.62500000000000000        0.0000000000000000     
  0.65625000000000000       0.62500000000000000        0.0000000000000000     
  0.68750000000000000       0.62500000000000000        0.0000000000000000     
  0.71875000000000000       0.62500000000000000        0.0000000000000000     
  0.75000000000000000       0.62500000000000000        0.0000000000000000     
  0.62500000000000000       0.65625000000000000        0.0000000000000000     
  0.65625000000000000       0.65625000000000000        0.0000000000000000     
  0.68750000000000000       0.65625000000000000        0.0000000000000000     
  0.71875000000000000       0.65625000000000000        0.0000000000000000     
  0.75000000000000000       0.65625000000000000        0.0000000000000000     
  0.62500000000000000       0.68750000000000000        0.0000000000000000     
  0.65625000000000000       0.68750000000000000        0.0000000000000000     
  0.68750000000000000       0.68750000000000000        0.0000000000000000     
  0.71875000000000000       0.68750000000000000        0.0000000000000000     
  0.75000000000000000       0.68750000000000000        0.0000000000000000     
  0.62500000000000000       0.71875000000000000        0.0000000000000000     
  0.65625000000000000       0.71875000000000000        0.0000000000000000     
  0.68750000000000000       0.71875000000000000        0.0000000000000000     
  0.71875000000000000       0.71875000000000000        0.0000000000000000     
  0.75000000000000000       0.71875000000000000        0.0000000000000000     
  0.62500000000000000       0.75000000000000000        0.0000000000000000     
  0.65625000000000000       0.75000000000000000        0.0000000000000000     
  0.68750000000000000       0.75000000000000000        0.0000000000000000     
  0.71875000000000000       0.75000000000000000        0.0000000000000000     
  0.75000000000000000       0.75000000000000000        0.0000000000000000     
  0.75000000000000000       0.62500000000000000        0.0000000000000000     
  0.78125000000000000       0.62500000000000000        0.0000000000000000     
  0.81250000000000000       0.62500000000000000        0.0000000000000000     
  0.84375000000000000       0.62500000000000000        0.0000000000000000     
  0.87500000000000000       0.62500000000000000        0.0000000000000000     
  0.75000000000000000       0.65625000000000000        0.0000000000000000     
  0.78125000000000000       0.65625000000000000        0.0000000000000000     
  0.81250000000000000       0.65625000000000000        0.0000000000000000     
  0.84375000000000000       0.65625000000000000        0.0000000000000000     
  0.87500000000000000       0.65625000000000000        0.0000000000000000     
  0.75000000000000000       0.68750000000000000        0.0000000000000000     
  0.78125000000000000       0.68750000000000000        0.0000000000000000     
  0.81250000000000000       0.68750000000000000        0.0000000000000000     
  0.84375000000000000       0.68750000000000000        0.0000000000000000     
  0.87500000000000000       0.68750000000000000        0.0000000000000000     
  0.75000000000000000       0.71875000000000000        0.0000000000000000     
  0.78125000000000000       0.71875000000000000        0.0000000000000000     
  0.81250000000000000       0.71875000000000000        0.0000000000000000     
  0.84375000000000000       0.71875000000000000        0.0000000000000000     
  0.87500000000000000       0.71875000000000000        0.0000000000000000     
  0.75000000000000000       0.75000000000000000        0.0000000000000000     
  0.78125000000000000       0.75000000000000000        0.0000000000000000     
  0.81250000000000000       0.75000000000000000        0.0000000000000000     
  0.84375000000000000       0.75000000000000000        0.0000000000000000     
  0.87500000000000000       0.75000000000000000        0.0000000000000000     
  0.87500000000000000       0.62500000000000000        0.0000000000000000     
  0.90625000000000000       0.62500000000000000        0.0000000000000000     
  0.93750000000000000       0.62500000000000000        0.0000000000000000     
  0.96875000000000000       0.62500000000000000        0.0000000000000000     
   1.0000000000000000       0.62500000000000000        0.0000000000000000     
  0.87500000000000000       0.65625000000000000        0.0000000000000000     
  0.90625000000000000       0.65625000000000000        0.0000000000000000     
  0.93750000000000000       0.65625000000000000        0.0000000000000000     
  0.96875000000000000       0.65625000000000000        0.0000000000000000     
   1.0000000000000000       0.65625000000000000        0.0000000000000000     
  0.87500000000000000       0.68750000000000000        0.0000000000000000     
  0.90625000000000000       0.68750000000000000        0.0000000000000000     
  0.93750000000000000       0.68750000000000000        0.0000000000000000     
  0.96875000000000000       0.68750000000000000        0.0000000000000000     
   1.0000000000000000       0.68750000000000000        0.0000000000000000     
  0.87500000000000000       0.71875000000000000        0.0000000000000000     
  0.90625000000000000       0.71875000000000000        0.0000000000000000     
  0.93750000000000000       0.71875000000000000        0.0000000000000000     
  0.96875000000000000       0.71875000000000000        0.0000000000000000     
   1.0000000000000000       0.71875000000000000        0.0000000000000000     
  0.87500000000000000       0.75000000000000000        0.0000000000000000     
  0.90625000000000000       0.75000000000000000        0.0000000000000000     
  0.93750000000000000       0.75000000000000000        0.0000000000000000     
  0.96875000000000000       0.75000000000000000        0.0000000000000000     
   1.0000000000000000       0.75000000000000000        0.0000000000000000     
   0.0000000000000000       0.75000000000000000        0.0000000000000000     
   3.1250000000000000E-002  0.75000000000000000        0.0000000000000000     
   6.2500000000000000E-002  0.75000000000000000        0.0000000000000000     
   9.3750000000000000E-002  0.75000000000000000        0.0000000000000000     
  0.12500000000000000       0.75000000000000000        0.0000000000000000     
   0.0000000000000000       0.78125000000000000        0.0000000000000000     
   3.1250000000000000E-002  0.78125000000000000        0.0000000000000000     
   6.2500000000000000E-002  0.78125000000000000        0.0000000000000000     
   9.3750000000000000E-002  0.78125000000000000        0.0000000000000000     
  0.12500000000000000       0.78125000000000000        0.0000000000000000     
   0.0000000000000000       0.81250000000000000        0.0000000000000000     
   3.1250000000000000E-002  0.81250000000000000        0.0000000000000000     
   6.2500000000000000E-002  0.81250000000000000        0.0000000000000000     
   9.3750000000000000E-002  0.81250000000000000        0.0000000000000000     
  0.12500000000000000       0.81250000000000000        0.0000000000000000     
   0.0000000000000000       0.84375000000000000        0.0000000000000000     
   3.1250000000000000E-002  0.84375000000000000        0.0000000000000000     
   6.2500000000000000E-002  0.84375000000000000        0.0000000000000000     
   9.3750000000000000E-002  0.84375000000000000        0.0000000000000000     
  0.12500000000000000       0.84375000000000000        0.0000000000000000     
   0.0000000000000000       0.87500000000000000        0.0000000000000000     
   3.1250000000000000E-002  0.87500000000000000        0.0000000000000000     
   6.2500000000000000E-002  0.87500000000000000        0.0000000000000000     
   9.3750000000000000E-002  0.87500000000000000        0.0000000000000000     
  0.12500000000000000       0.87500000000000000        0.0000000000000000     
  0.12500000000000000       0.75000000000000000        0.0000000000000000     
  0.15625000000000000       0.75000000000000000        0.0000000000000000     
  0.18750000000000000       0.75000000000000000        0.0000000000000000     
  0.21875000000000000       0.75000000000000000        0.0000000000000000     
  0.25000000000000000       0.75000000000000000        0.0000000000000000     
  0.12500000000000000       0.78125000000000000        0.0000000000000000     
  0.15625000000000000       0.78125000000000000        0.0000000000000000     
  0.18750000000000000       0.78125000000000000        0.0000000000000000     
  0.21875000000000000       0.78125000000000000        0.0000000000000000     
  0.25000000000000000       0.78125000000000000        0.0000000000000000     
  0.12500000000000000       0.81250000000000000        0.0000000000000000     
  0.15625000000000000       0.81250000000000000        0.0000000000000000     
  0.18750000000000000       0.81250000000000000        0.0000000000000000     
  0.21875000000000000       0.81250000000000000        0.0000000000000000     
  0.25000000000000000       0.81250000000000000        0.0000000000000000     
  0.12500000000000000       0.84375000000000000        0.0000000000000000     
  0.15625000000000000       0.84375000000000000        0.0000000000000000     
  0.18750000000000000       0.84375000000000000        0.0000000000000000     
  0.21875000000000000       0.84375000000000000        0.0000000000000000     
  0.25000000000000000       0.84375000000000000        0.0000000000000000     
  0.12500000000000000       0.87500000000000000        0.0000000000000000     
  0.15625000000000000       0.87500000000000000        0.0000000000000000     
  0.18750000000000000       0.87500000000000000        0.0000000000000000     
  0.21875000000000000       0.87500000000000000        0.0000000000000000     
  0.25000000000000000       0.87500000000000000        0.0000000000000000     
  0.25000000000000000       0.75000000000000000        0.0000000000000000     
  0.28125000000000000       0.75000000000000000        0.0000000000000000     
  0.31250000000000000       0.75000000000000000        0.0000000000000000     
  0.34375000000000000       0.75000000000000000        0.0000000000000000     
  0.37500000000000000       0.75000000000000000        0.0000000000000000     
  0.25000000000000000       0.78125000000000000        0.0000000000000000     
  0.28125000000000000       0.78125000000000000        0.0000000000000000     
  0.31250000000000000       0.78125000000000000        0.0000000000000000     
  0.34375000000000000       0.78125000000000000        0.0000000000000000     
  0.37500000000000000       0.78125000000000000        0.0000000000000000     
  0.25000000000000000       0.81250000000000000        0.0000000000000000     
  0.28125000000000000       0.81250000000000000        0.0000000000000000     
  0.31250000000000000       0.81250000000000000        0.0000000000000000     
  0.34375000000000000       0.81250000000000000        0.0000000000000000     
  0.37500000000000000       0.81250000000000000        0.0000000000000000     
  0.25000000000000000       0.84375000000000000        0.0000000000000000     
  0.28125000000000000       0.84375000000000000        0.0000000000000000     
  0.31250000000000000       0.84375000000000000        0.0000000000000000     
  0.34375000000000000       0.84375000000000000        0.0000000000000000     
  0.37500000000000000       0.84375000000000000        0.0000000000000000     
  0.25000000000000000       0.87500000000000000        0.0000000000000000     
  0.28125000000000000       0.87500000000000000        0.0000000000000000     
  0.31250000000000000       0.87500000000000000        0.0000000000000000     
  0.34375000000000000       0.87500000000000000        0.0000000000000000     
  0.37500000000000000       0.87500000000000000        0.0000000000000000     
  0.37500000000000000       0.75000000000000000        0.0000000000000000     
  0.40625000000000000       0.75000000000000000        0.0000000000000000     
  0.43750000000000000       0.75000000000000000        0.0000000000000000     
  0.46875000000000000       0.75000000000000000        0.0000000000000000     
  0.50000000000000000       0.75000000000000000        0.0000000000000000     
  0.37500000000000000       0.78125000000000000        0.0000000000000000     
  0.40625000000000000       0.78125000000000000        0.0000000000000000     
  0.43750000000000000       0.78125000000000000        0.0000000000000000     
  0.46875000000000000       0.78125000000000000        0.0000000000000000     
  0.50000000000000000       0.78125000000000000        0.0000000000000000     
  0.37500000000000000       0.81250000000000000        0.0000000000000000     
  0.40625000000000000       0.81250000000000000        0.0000000000000000     
  0.43750000000000000       0.81250000000000000        0.0000000000000000     
  0.46875000000000000       0.81250000000000000        0.0000000000000000     
  0.50000000000000000       0.81250000000000000        0.0000000000000000     
  0.37500000000000000       0.84375000000000000        0.0000000000000000     
  0.40625000000000000       0.84375000000000000        0.0000000000000000     
  0.43750000000000000       0.84375000000000000        0.0000000000000000     
  0.46875000000000000       0.84375000000000000        0.0000000000000000     
  0.50000000000000000       0.84375000000000000        0.0000000000000000     
  0.37500000000000000       0.87500000000000000        0.0000000000000000     
  0.40625000000000000       0.87500000000000000        0.0000000000000000     
  0.43750000000000000       0.87500000000000000        0.0000000000000000     
  0.46875000000000000       0.87500000000000000        0.0000000000000000     
  0.50000000000000000       0.87500000000000000        0.0000000000000000     
  0.50000000000000000       0.75000000000000000        0.0000000000000000     
  0.53125000000000000       0.75000000000000000        0.0000000000000000     
  0.56250000000000000       0.75000000000000000        0.0000000000000000     
  0.59375000000000000       0.75000000000000000        0.0000000000000000     
  0.62500000000000000       0.75000000000000000        0.0000000000000000     
  0.50000000000000000       0.78125000000000000        0.0000000000000000     
  0.53125000000000000       0.78125000000000000        0.0000000000000000     
  0.56250000000000000       0.78125000000000000        0.0000000000000000     
  0.59375000000000000       0.78125000000000000        0.0000000000000000     
  0.62500000000000000       0.78125000000000000        0.0000000000000000     
  0.50000000000000000       0.81250000000000000        0.0000000000000000     
  0.53125000000000000       0.81250000000000000        0.0000000000000000     
  0.56250000000000000       0.81250000000000000        0.0000000000000000     
  0.59375000000000000       0.81250000000000000        0.0000000000000000     
  0.62500000000000000       0.81250000000000000        0.0000000000000000     
  0.50000000000000000       0.84375000000000000        0.0000000000000000     
  0.53125000000000000       0.84375000000000000        0.0000000000000000     
  0.56250000000000000       0.84375000000000000        0.0000000000000000     
  0.59375000000000000       0.84375000000000000        0.0000000000000000     
  0.62500000000000000       0.84375000000000000        0.0000000000000000     
  0.50000000000000000       0.87500000000000000        0.0000000000000000     
  0.53125000000000000       0.87500000000000000        0.0000000000000000     
  0.56250000000000000       0.87500000000000000        0.0000000000000000     
  0.59375000000000000       0.87500000000000000        0.0000000000000000     
  0.62500000000000000       0.87500000000000000        0.0000000000000000     
  0.62500000000000000       0.75000000000000000        0.0000000000000000     
  0.65625000000000000       0.75000000000000000        0.0000000000000000     
  0.68750000000000000       0.75000000000000000        0.0000000000000000     
  0.71875000000000000       0.75000000000000000        0.0000000000000000     
  0.75000000000000000       0.75000000000000000        0.0000000000000000     
  0.62500000000000000       0.78125000000000000        0.0000000000000000     
  0.65625000000000000       0.78125000000000000        0.0000000000000000     
  0.68750000000000000       0.78125000000000000        0.0000000000000000     
  0.71875000000000000       0.78125000000000000        0.0000000000000000     
  0.75000000000000000       0.78125000000000000        0.0000000000000000     
  0.62500000000000000       0.81250000000000000        0.0000000000000000     
  0.65625000000000000       0.81250000000000000        0.0000000000000000     
  0.68750000000000000       0.81250000000000000        0.0000000000000000     
  0.71875000000000000       0.81250000000000000        0.0000000000000000     
  0.75000000000000000       0.81250000000000000        0.0000000000000000     
  0.62500000000000000       0.84375000000000000        0.0000000000000000     
  0.65625000000000000       0.84375000000000000        0.0000000000000000     
  0.68750000000000000       0.84375000000000000        0.0000000000000000     
  0.71875000000000000       0.84375000000000000        0.0000000000000000     
  0.75000000000000000       0.84375000000000000        0.0000000000000000     
  0.62500000000000000       0.87500000000000000        0.0000000000000000     
  0.65625000000000000       0.87500000000000000        0.0000000000000000     
  0.68750000000000000       0.87500000000000000        0.0000000000000000     
  0.71875000000000000       0.87500000000000000        0.0000000000000000     
  0.75000000000000000       0.87500000000000000        0.0000000000000000     
  0.75000000000000000       0.75000000000000000        0.0000000000000000     
  0.78125000000000000       0.75000000000000000        0.0000000000000000     
  0.81250000000000000       0.75000000000000000        0.0000000000000000     
  0.84375000000000000       0.75000000000000000        0.0000000000000000     
  0.87500000000000000       0.75000000000000000        0.0000000000000000     
  0.75000000000000000       0.78125000000000000        0.0000000000000000     
  0.78125000000000000       0.78125000000000000        0.0000000000000000     
  0.81250000000000000       0.78125000000000000        0.0000000000000000     
  0.84375000000000000       0.78125000000000000        0.0000000000000000     
  0.87500000000000000       0.78125000000000000        0.0000000000000000     
  0.75000000000000000       0.81250000000000000        0.0000000000000000     
  0.78125000000000000       0.81250000000000000        0.0000000000000000     
  0.81250000000000000       0.81250000000000000        0.0000000000000000     
  0.84375000000000000       0.81250000000000000        0.0000000000000000     
  0.87500000000000000       0.81250000000000000        0.0000000000000000     
  0.75000000000000000       0.84375000000000000        0.0000000000000000     
  0.78125000000000000       0.84375000000000000        0.0000000000000000     
  0.81250000000000000       0.84375000000000000        0.0000000000000000     
  0.84375000000000000       0.84375000000000000        0.0000000000000000     
  0.87500000000000000       0.84375000000000000        0.0000000000000000     
  0.75000000000000000       0.87500000000000000        0.0000000000000000     
  0.78125000000000000       0.87500000000000000        0.0000000000000000     
  0.81250000000000000       0.87500000000000000        0.0000000000000000     
  0.84375000000000000       0.87500000000000000        0.0000000000000000     
  0.87500000000000000       0.87500000000000000        0.0000000000000000     
  0.87500000000000000       0.75000000000000000        0.0000000000000000     
  0.90625000000000000       0.75000000000000000        0.0000000000000000     
  0.93750000000000000       0.75000000000000000        0.0000000000000000     
  0.96875000000000000       0.75000000000000000        0.0000000000000000     
   1.0000000000000000       0.75000000000000000        0.0000000000000000     
  0.87500000000000000       0.78125000000000000        0.0000000000000000     
  0.90625000000000000       0.78125000000000000        0.0000000000000000     
  0.93750000000000000       0.78125000000000000        0.0000000000000000     
  0.96875000000000000       0.78125000000000000        0.0000000000000000     
   1.0000000000000000       0.78125000000000000        0.0000000000000000     
  0.87500000000000000       0.81250000000000000        0.0000000000000000     
  0.90625000000000000       0.81250000000000000        0.0000000000000000     
  0.93750000000000000       0.81250000000000000        0.0000000000000000     
  0.96875000000000000       0.81250000000000000        0.0000000000000000     
   1.0000000000000000       0.81250000000000000        0.0000000000000000     
  0.87500000000000000       0.84375000000000000        0.0000000000000000     
  0.90625000000000000       0.84375000000000000        0.0000000000000000     
  0.93750000000000000       0.84375000000000000        0.0000000000000000     
  0.96875000000000000       0.84375000000000000        0.0000000000000000     
   1.0000000000000000       0.84375000000000000        0.0000000000000000     
  0.87500000000000000       0.87500000000000000        0.0000000000000000     
  0.90625000000000000       0.87500000000000000        0.0000000000000000     
  0.93750000000000000       0.87500000000000000        0.0000000000000000     
  0.96875000000000000       0.87500000000000000        0.0000000000000000     
   1.0000000000000000       0.87500000000000000        0.0000000000000000     
   0.0000000000000000       0.87500000000000000        0.0000000000000000     
   3.1250000000000000E-002  0.87500000000000000        0.0000000000000000     
   6.2500000000000000E-002  0.87500000000000000        0.0000000000000000     
   9.3750000000000000E-002  0.87500000000000000        0.0000000000000000     
  0.12500000000000000       0.87500000000000000        0.0000000000000000     
   0.0000000000000000       0.90625000000000000        0.0000000000000000     
   3.1250000000000000E-002  0.90625000000000000        0.0000000000000000     
   6.2500000000000000E-002  0.90625000000000000        0.0000000000000000     
   9.3750000000000000E-002  0.90625000000000000        0.0000000000000000     
  0.12500000000000000       0.90625000000000000        0.0000000000000000     
   0.0000000000000000       0.93750000000000000        0.0000000000000000     
   3.1250000000000000E-002  0.93750000000000000        0.0000000000000000     
   6.2500000000000000E-002  0.93750000000000000        0.0000000000000000     
   9.3750000000000000E-002  0.93750000000000000        0.0000000000000000     
  0.12500000000000000       0.93750000000000000        0.0000000000000000     
   0.0000000000000000       0.96875000000000000        0.0000000000000000     
   3.1250000000000000E-002  0.96875000000000000        0.0000000000000000     
   6.2500000000000000E-002  0.96875000000000000        0.0000000000000000     
   9.3750000000000000E-002  0.96875000000000000        0.0000000000000000     
  0.12500000000000000       0.96875000000000000        0.0000000000000000     
   0.0000000000000000        1.0000000000000000        0.0000000000000000     
   3.1250000000000000E-002   1.0000000000000000        0.0000000000000000     
   6.2500000000000000E-002   1.0000000000000000        0.0000000000000000     
   9.3750000000000000E-002   1.0000000000000000        0.0000000000000000     
  0.12500000000000000        1.0000000000000000        0.0000000000000000     
  0.12500000000000000       0.87500000000000000        0.0000000000000000     
  0.15625000000000000       0.87500000000000000        0.0000000000000000     
  0.18750000000000000       0.87500000000000000        0.0000000000000000     
  0.21875000000000000       0.87500000000000000        0.0000000000000000     
  0.25000000000000000       0.87500000000000000        0.0000000000000000     
  0.12500000000000000       0.90625000000000000        0.0000000000000000     
  0.15625000000000000       0.90625000000000000        0.0000000000000000     
  0.18750000000000000       0.90625000000000000        0.0000000000000000     
  0.21875000000000000       0.90625000000000000        0.0000000000000000     
  0.25000000000000000       0.90625000000000000        0.0000000000000000     
  0.12500000000000000       0.93750000000000000        0.0000000000000000     
  0.15625000000000000       0.93750000000000000        0.0000000000000000     
  0.18750000000000000       0.93750000000000000        0.0000000000000000     
  0.21875000000000000       0.93750000000000000        0.0000000000000000     
  0.25000000000000000       0.93750000000000000        0.0000000000000000     
  0.12500000000000000       0.96875000000000000        0.0000000000000000     
  0.15625000000000000       0.96875000000000000        0.0000000000000000     
  0.18750000000000000       0.96875000000000000        0.0000000000000000     
  0.21875000000000000       0.96875000000000000        0.0000000000000000     
  0.25000000000000000       0.96875000000000000        0.0000000000000000     
  0.12500000000000000        1.0000000000000000        0.0000000000000000     
  0.15625000000000000        1.0000000000000000        0.0000000000000000     
  0.18750000000000000        1.0000000000000000        0.0000000000000000     
  0.21875000000000000        1.0000000000000000        0.0000000000000000     
  0.25000000000000000        1.0000000000000000        0.0000000000000000     
  0.25000000000000000       0.87500000000000000        0.0000000000000000     
  0.28125000000000000       0.87500000000000000        0.0000000000000000     
  0.31250000000000000       0.87500000000000000        0.0000000000000000     
  0.34375000000000000       0.87500000000000000        0.0000000000000000     
  0.37500000000000000       0.87500000000000000        0.0000000000000000     
  0.25000000000000000       0.90625000000000000        0.0000000000000000     
  0.28125000000000000       0.90625000000000000        0.0000000000000000     
  0.31250000000000000       0.90625000000000000        0.0000000000000000     
  0.34375000000000000       0.90625000000000000        0.0000000000000000     
  0.37500000000000000       0.90625000000000000        0.0000000000000000     
  0.25000000000000000       0.93750000000000000        0.0000000000000000     
  0.28125000000000000       0.93750000000000000        0.0000000000000000     
  0.31250000000000000       0.93750000000000000        0.0000000000000000     
  0.34375000000000000       0.93750000000000000        0.0000000000000000     
  0.37500000000000000       0.93750000000000000        0.0000000000000000     
  0.25000000000000000       0.96875000000000000        0.0000000000000000     
  0.28125000000000000       0.96875000000000000        0.0000000000000000     
  0.31250000000000000       0.96875000000000000        0.0000000000000000     
  0.34375000000000000       0.96875000000000000        0.0000000000000000     
  0.37500000000000000       0.96875000000000000        0.0000000000000000     
  0.25000000000000000        1.0000000000000000        0.0000000000000000     
  0.28125000000000000        1.0000000000000000        0.0000000000000000     
  0.31250000000000000        1.0000000000000000        0.0000000000000000     
  0.34375000000000000        1.0000000000000000        0.0000000000000000     
  0.37500000000000000        1.0000000000000000        0.0000000000000000     
  0.37500000000000000       0.87500000000000000        0.0000000000000000     
  0.40625000000000000       0.87500000000000000        0.0000000000000000     
  0.43750000000000000       0.87500000000000000        0.0000000000000000     
  0.46875000000000000       0.87500000000000000        0.0000000000000000     
  0.50000000000000000       0.87500000000000000        0.0000000000000000     
  0.37500000000000000       0.90625000000000000        0.0000000000000000     
  0.40625000000000000       0.90625000000000000        0.0000000000000000     
  0.43750000000000000       0.90625000000000000        0.0000000000000000     
  0.46875000000000000       0.90625000000000000        0.0000000000000000     
  0.50000000000000000       0.90625000000000000        0.0000000000000000     
  0.37500000000000000       0.93750000000000000        0.0000000000000000     
  0.40625000000000000       0.93750000000000000        0.0000000000000000     
  0.43750000000000000       0.93750000000000000        0.0000000000000000     
  0.46875000000000000       0.93750000000000000        0.0000000000000000     
  0.50000000000000000       0.93750000000000000        0.0000000000000000     
  0.37500000000000000       0.96875000000000000        0.0000000000000000     
  0.40625000000000000       0.96875000000000000        0.0000000000000000     
  0.43750000000000000       0.96875000000000000        0.0000000000000000     
  0.46875000000000000       0.96875000000000000        0.0000000000000000     
  0.50000000000000000       0.96875000000000000        0.0000000000000000     
  0.37500000000000000        1.0000000000000000        0.0000000000000000     
  0.40625000000000000        1.0000000000000000        0.0000000000000000     
  0.43750000000000000        1.0000000000000000        0.0000000000000000     
  0.46875000000000000        1.0000000000000000        0.0000000000000000     
  0.50000000000000000        1.0000000000000000        0.0000000000000000     
  0.50000000000000000       0.87500000000000000        0.0000000000000000     
  0.53125000000000000       0.87500000000000000        0.0000000000000000     
  0.56250000000000000       0.87500000000000000        0.0000000000000000     
  0.59375000000000000       0.87500000000000000        0.0000000000000000     
  0.62500000000000000       0.87500000000000000        0.0000000000000000     
  0.50000000000000000       0.90625000000000000        0.0000000000000000     
  0.53125000000000000       0.90625000000000000        0.0000000000000000     
  0.56250000000000000       0.90625000000000000        0.0000000000000000     
  0.59375000000000000       0.90625000000000000        0.0000000000000000     
  0.62500000000000000       0.90625000000000000        0.0000000000000000     
  0.50000000000000000       0.93750000000000000        0.0000000000000000     
  0.53125000000000000       0.93750000000000000        0.0000000000000000     
  0.56250000000000000       0.93750000000000000        0.0000000000000000     
  0.59375000000000000       0.93750000000000000        0.0000000000000000     
  0.62500000000000000       0.93750000000000000        0.0000000000000000     
  0.50000000000000000       0.96875000000000000        0.0000000000000000     
  0.53125000000000000       0.96875000000000000        0.0000000000000000     
  0.56250000000000000       0.96875000000000000        0.0000000000000000     
  0.59375000000000000       0.96875000000000000        0.0000000000000000     
  0.62500000000000000       0.96875000000000000        0.0000000000000000     
  0.50000000000000000        1.0000000000000000        0.0000000000000000     
  0.53125000000000000        1.0000000000000000        0.0000000000000000     
  0.56250000000000000        1.0000000000000000        0.0000000000000000     
  0.59375000000000000        1.0000000000000000        0.0000000000000000     
  0.62500000000000000        1.0000000000000000        0.0000000000000000     
  0.62500000000000000       0.87500000000000000        0.0000000000000000     
  0.65625000000000000       0.87500000000000000        0.0000000000000000     
  0.68750000000000000       0.87500000000000000        0.0000000000000000     
  0.71875000000000000       0.87500000000000000        0.0000000000000000     
  0.75000000000000000       0.87500000000000000        0.0000000000000000     
  0.62500000000000000       0.90625000000000000        0.0000000000000000     
  0.65625000000000000       0.90625000000000000        0.0000000000000000     
  0.68750000000000000       0.90625000000000000        0.0000000000000000     
  0.71875000000000000       0.90625000000000000        0.0000000000000000     
  0.75000000000000000       0.90625000000000000        0.0000000000000000     
  0.62500000000000000       0.93750000000000000        0.0000000000000000     
  0.65625000000000000       0.93750000000000000        0.0000000000000000     
  0.68750000000000000       0.93750000000000000        0.0000000000000000     
  0.71875000000000000       0.93750000000000000        0.0000000000000000     
  0.75000000000000000       0.93750000000000000        0.0000000000000000     
  0.62500000000000000       0.96875000000000000        0.0000000000000000     
  0.65625000000000000       0.96875000000000000        0.0000000000000000     
  0.68750000000000000       0.96875000000000000        0.0000000000000000     
  0.71875000000000000       0.96875000000000000        0.0000000000000000     
  0.75000000000000000       0.96875000000000000        0.0000000000000000     
  0.62500000000000000        1.0000000000000000        0.0000000000000000     
  0.65625000000000000        1.0000000000000000        0.0000000000000000     
  0.68750000000000000        1.0000000000000000        0.0000000000000000     
  0.71875000000000000        1.0000000000000000        0.0000000000000000     
  0.75000000000000000        1.0000000000000000        0.0000000000000000     
  0.75000000000000000       0.87500000000000000        0.0000000000000000     
  0.78125000000000000       0.87500000000000000        0.0000000000000000     
  0.81250000000000000       0.87500000000000000        0.0000000000000000     
  0.84375000000000000       0.87500000000000000        0.0000000000000000     
  0.87500000000000000       0.87500000000000000        0.0000000000000000     
  0.75000000000000000       0.90625000000000000        0.0000000000000000     
  0.78125000000000000       0.90625000000000000        0.0000000000000000     
  0.81250000000000000       0.90625000000000000        0.0000000000000000     
  0.84375000000000000       0.90625000000000000        0.0000000000000000     
  0.87500000000000000       0.90625000000000000        0.0000000000000000     
  0.75000000000000000       0.93750000000000000        0.0000000000000000     
  0.78125000000000000       0.93750000000000000        0.0000000000000000     
  0.81250000000000000       0.93750000000000000        0.0000000000000000     
  0.84375000000000000       0.93750000000000000        0.0000000000000000     
  0.87500000000000000       0.93750000000000000        0.0000000000000000     
  0.75000000000000000       0.96875000000000000        0.0000000000000000     
  0.78125000000000000       0.96875000000000000        0.0000000000000000     
  0.81250000000000000       0.96875000000000000        0.0000000000000000     
  0.84375000000000000       0.96875000000000000        0.0000000000000000     
  0.87500000000000000       0.96875000000000000        0.0000000000000000     
  0.75000000000000000        1.0000000000000000        0.0000000000000000     
  0.78125000000000000        1.0000000000000000        0.0000000000000000     
  0.81250000000000000        1.0000000000000000        0.0000000000000000     
  0.84375000000000000        1.0000000000000000        0.0000000000000000     
  0.87500000000000000        1.0000000000000000        0.0000000000000000     
  0.87500000000000000       0.87500000000000000        0.0000000000000000     
  0.90625000000000000       0.87500000000000000        0.0000000000000000     
  0.93750000000000000       0.87500000000000000        0.0000000000000000     
  0.96875000000000000       0.87500000000000000        0.0000000000000000     
   1.0000000000000000       0.87500000000000000        0.0000000000000000     
  0.87500000000000000       0.90625000000000000        0.0000000000000000     
  0.90625000000000000       0.90625000000000000        0.0000000000000000     
  0.93750000000000000       0.90625000000000000        0.0000000000000000     
  0.96875000000000000       0.90625000000000000        0.0000000000000000     
   1.0000000000000000       0.90625000000000000        0.0000000000000000     
  0.87500000000000000       0.93750000000000000        0.0000000000000000     
  0.90625000000000000       0.93750000000000000        0.0000000000000000     
  0.93750000000000000       0.93750000000000000        0.0000000000000000     
  0.96875000000000000       0.93750000000000000        0.0000000000000000     
   1.0000000000000000       0.93750000000000000        0.0000000000000000     
  0.87500000000000000       0.96875000000000000        0.0000000000000000     
  0.90625000000000000       0.96875000000000000        0.0000000000000000     
  0.93750000000000000       0.96875000000000000        0.0000000000000000     
  0.96875000000000000       0.96875000000000000        0.0000000000000000     
   1.0000000000000000       0.96875000000000000        0.0000000000000000     
  0.87500000000000000        1.0000000000000000        0.0000000000000000     
  0.90625000000000000        1.0000000000000000        0.0000000000000000     
  0.93750000000000000        1.0000000000000000        0.0000000000000000     
  0.96875000000000000        1.0000000000000000        0.0000000000000000     
   1.0000000000000000        1.0000000000000000        0.0000000000000000     
 </DataArray>
 </Points>
 <Cells>
 <DataArray  type="Int32"  Name="connectivity"  format="ascii">
           0           1           6           5
           1           2           7           6
           2           3           8           7
           3           4           9           8
           5           6          11          10
           6           7          12          11
           7           8          13          12
           8           9          14          13
          10          11          16          15
          11          12          17          16
          12          13          18          17
          13          14          19          18
          15          16          21          20
          16          17          22          21
          17          18          23          22
          18          19          24          23
          25          26          31          30
          26          27          32          31
          27          28          33          32
          28          29          34          33
          30          31          36          35
          31          32          37          36
          32          33          38          37
          33          34          39          38
          35          36          41          40
          36          37          42          41
          37          38          43          42
          38          39          44          43
          40          41          46          45
          41          42          47          46
          42          43          48          47
          43          44          49          48
          50          51          56          55
          51          52          57          56
          52          53          58          57
          53          54          59          58
          55          56          61          60
          56          57          62          61
          57          58          63          62
          58          59          64          63
          60          61          66          65
          61          62          67          66
          62          63          68          67
          63          64          69          68
          65          66          71          70
          66          67          72          71
          67          68          73          72
          68          69          74          73
          75          76          81          80
          76          77          82          81
          77          78          83          82
          78          79          84          83
          80          81          86          85
          81          82          87          86
          82          83          88          87
          83          84          89          88
          85          86          91          90
          86          87          92          91
          87          88          93          92
          88          89          94          93
          90          91          96          95
          91          92          97          96
          92          93          98          97
          93          94          99          98
         100         101         106         105
         101         102         107         106
         102         103         108         107
         103         104         109         108
         105         106         111         110
         106         107         112         111
         107         108         113         112
         108         109         114         113
         110         111         116         115
         111         112         117         116
         112         113         118         117
         113         114         119         118
         115         116         121         120
         116         117         122         121
         117         118         123         122
         118         119         124         123
         125         126         131         130
         126         127         132         131
         127         128         133         132
         128         129         134         133
         130         131         136         135
         131         132         137         136
         132         133         138         137
         133         134         139         138
         135         136         141         140
         136         137         142         141
         137         138         143         142
         138         139         144         143
         140         141         146         145
         141         142         147         146
         142         143         148         147
         143         144         149         148
         150         151         156         155
         151         152         157         156
         152         153         158         157
         153         154         159         158
         155         156         161         160
         156         157         162         161
         157         158         163         162
         158         159         164         163
         160         161         166         165
         161         162         167         166
         162         163         168         167
         163         164         169         168
         165         166         171         170
         166         167         172         171
         167         168         173         172
         168         169         174         173
         175         176         181         180
         176         177         182         181
         177         178         183         182
         178         179         184         183
         180         181         186         185
         181         182         187         186
         182         183         188         187
         183         184         189         188
         185         186         191         190
         186         187         192         191
         187         188         193         192
         188         189         194         193
         190         191         196         195
         191         192         197         196
         192         193         198         197
         193         194         199         198
         200         201         206         205
         201         202         207         206
         202         203         208         207
         203         204         209         208
         205         206         211         210
         206         207         212         211
         207         208         213         212
         208         209         214         213
         210         211         216         215
         211         212         217         216
         212         213         218         217
         213         214         219         218
         215         216         221         220
         216         217         222         221
         217         218         223         222
         218         219         224         223
         225         226         231         230
         226         227         232         231
         227         228         233         232
         228         229         234         233
         230         231         236         235
         231         232         237         236
         232         233         238         237
         233         234         239         238
         235         236         241         240
         236         237         242         241
         237         238         243         242
         238         239         244         243
         240         241         246         245
         241         242         247         246
         242         243         248         247
         243         244         249         248
         250         251         256         255
         251         252         257         256
         252         253         258         257
         253         254         259         258
         255         256         261         260
         256         257         262         261
         257         258         263         262
         258         259         264         263
         260         261         266         265
         261         262         267         266
         262         263         268         267
         263         264         269         268
         265         266         271         270
         266         267         272         271
         267         268         273         272
         268         269         274         273
         275         276         281         280
         276         277         282         281
         277         278         283         282
         278         279         284         283
         280         281         286         285
         281         282         287         286
         282         283         288         287
         283         284         289         288
         285         286         291         290
         286         287         292         291
         287         288         293         292
         288         289         294         293
         290         291         296         295
         291         292         297         296
         292         293         298         297
         293         294         299         298
         300         301         306         305
         301         302         307         306
         302         303         308         307
         303         304         309         308
         305         306         311         310
         306         307         312         311
         307         308         313         312
         308         309         314         313
         310         311         316         315
         311         312         317         316
         312         313         318         317
         313         314         319         318
         315         316         321         320
         316         317         322         321
         317         318         323         322
         318         319         324         323
         325         326         331         330
         326         327         332         331
         327         328         333         332
         328         329         334         333
         330         331         336         335
         331         332         337         336
         332         333         338         337
         333         334         339         338
         335         336         341         340
         336         337         342         341
         337         338         343         342
         338         339         344         343
         340         341         346         345
         341         342         347         346
         342         343         348         347
         343         344         349         348
         350         351         356         355
         351         352         357         356
         352         353         358         357
         353         354         359         358
         355         356         361         360
         356         357         362         361
         357         358         363         362
         358         359         364         363
         360         361         366         365
         361         362         367         366
         362         363         368         367
         363         364         369         368
         365         366         371         370
         366         367         372         371
         367         368         373         372
         368         369         374         373
         375         376         381         380
         376         377         382         381
         377         378         383         382
         378         379         384         383
         380         381         386         385
         381         382         387         386
         382         383         388         387
         383         384         389         388
         385         386         391         390
         386         387         392         391
         387         388         393         392
         388         389         394         393
         390         391         396         395
         391         392         397         396
         392         393         398         397
         393         394         399         398
         400         401         406         405
         401         402         407         406
         402         403         408         407
         403         404         409         408
         405         406         411         410
         406         407         412         411
         407         408         413         412
         408         409         414         413
         410         411         416         415
         411         412         417         416
         412         413         418         417
         413         414         419         418
         415         416         421         420
         416         417         422         421
         417         418         423         422
         418         419         424         423
         425         426         431         430
         426         427         432         431
         427         428         433         432
         428         429         434         433
         430         431         436         435
         431         432         437         436
         432         433         438         437
         433         434         439         438
         435         436         441         440
         436         437         442         441
         437         438         443         442
         438         439         444         443
         440         441         446         445
         441         442         447         446
         442         443         448         447
         443         444         449         448
         450         451         456         455
         451         452         457         456
         452         453         458         457
         453         454         459         458
         455         456         461         460
         456         457         462         461
         457         458         463         462
         458         459         464         463
         460         461         466         465
         461         462         467         466
         462         463         468         467
         463         464         469         468
         465         466         471         470
         466         467         472         471
         467         468         473         472
         468         469         474         473
         475         476         481         480
         476         477         482         481
         477         478         483         482
         478         479         484         483
         480         481         486         485
         481         482         487         486
         482         483         488         487
         483         484         489         488
         485         486         491         490
         486         487         492         491
         487         488         493         492
         488         489         494         493
         490         491         496         495
         491         492         497         496
         492         493         498         497
         493         494         499         498
         500         501         506         505
         501         502         507         506
         502         503         508         507
         503         504         509         508
         505         506         511         510
         506         507         512         511
         507         508         513         512
         508         509         514         513
         510         511         516         515
         511         512         517         516
         512         513         518         517
         513         514         519         518
         515         516         521         520
         516         517         522         521
         517         518         523         522
         518         519         524         523
         525         526         531         530
         526         527         532         531
         527         528         533         532
         528         529         534         533
         530         531         536         535
         531         532         537         536
         532         533         538         537
         533         534         539         538
         535         536         541         540
         536         537         542         541
         537         538         543         542
         538         539         544         543
         540         541         546         545
         541         542         547         546
         542         543         548         547
         543         544         549         548
         550         551         556         555
         551         552         557         556
         552         553         558         557
         553         554         559         558
         555         556         561         560
         556         557         562         561
         557         558         563         562
         558         559         564         563
         560         561         566         565
         561         562         567         566
         562         563         568         567
         563         564         569         568
         565         566         571         570
         566         567         572         571
         567         568         573         572
         568         569         574         573
         575         576         581         580
         576         577         582         581
         577         578         583         582
         578         579         584         583
         580         581         586         585
         581         582         587         586
         582         583         588         587
         583         584         589         588
         585         586         591         590
         586         587         592         591
         587         588         593         592
         588         589         594         593
         590         591         596         595
         591         592         597         596
         592         593         598         597
         593         594         599         598
         600         601         606         605
         601         602         607         606
         602         603         608         607
         603         604         609         608
         605         606         611         610
         606         607         612         611
         607         608         613         612
         608         609         614         613
         610         611         616         615
         611         612         617         616
         612         613         618         617
         613         614         619         618
         615         616         621         620
         616         617         622         621
         617         618         623         622
         618         619         624         623
         625         626         631         630
         626         627         632         631
         627         628         633         632
         628         629         634         633
         630         631         636         635
         631         632         637         636
         632         633         638         637
         633         634         639         638
         635         636         641         640
         636         637         642         641
         637         638         643         642
         638         639         644         643
         640         641         646         645
         641         642         647         646
         642         643         648         647
         643         644         649         648
         650         651         656         655
         651         652         657         656
         652         653         658         657
         653         654         659         658
         655         656         661         660
         656         657         662         661
         657         658         663         662
         658         659         664         663
         660         661         666         665
         661         662         667         666
         662         663         668         667
         663         664         669         668
         665         666         671         670
         666         667         672         671
         667         668         673         672
         668         669         674         673
         675         676         681         680
         676         677         682         681
         677         678         683         682
         678         679         684         683
         680         681         686         685
         681         682         687         686
         682         683         688         687
         683         684         689         688
         685         686         691         690
         686         687         692         691
         687         688         693         692
         688         689         694         693
         690         691         696         695
         691         692         697         696
         692         693         698         697
         693         694         699         698
         700         701         706         705
         701         702         707         706
         702         703         708         707
         703         704         709         708
         705         706         711         710
         706         707         712         711
         707         708         713         712
         708         709         714         713
         710         711         716         715
         711         712         717         716
         712         713         718         717
         713         714         719         718
         715         716         721         720
         716         717         722         721
         717         718         723         722
         718         719         724         723
         725         726         731         730
         726         727         732         731
         727         728         733         732
         728         729         734         733
         730         731         736         735
         731         732         737         736
         732         733         738         737
         733         734         739         738
         735         736         741         740
         736         737         742         741
         737         738         743         742
         738         739         744         743
         740         741         746         745
         741         742         747         746
         742         743         748         747
         743         744         749         748
         750         751         756         755
         751         752         757         756
         752         753         758         757
         753         754         759         758
         755         756         761         760
         756         757         762         761
         757         758         763         762
         758         759         764         763
         760         761         766         765
         761         762         767         766
         762         763         768         767
         763         764         769         768
         765         766         771         770
         766         767         772         771
         767         768         773         772
         768         769         774         773
         775         776         781         780
         776         777         782         781
         777         778         783         782
         778         779         784         783
         780         781         786         785
         781         782         787         786
         782         783         788         787
         783         784         789         788
         785         786         791         790
         786         787         792         791
         787         788         793         792
         788         789         794         793
         790         791         796         795
         791         792         797         796
         792         793         798         797
         793         794         799         798
         800         801         806         805
         801         802         807         806
         802         803         808         807
         803         804         809         808
         805         806         811         810
         806         807         812         811
         807         808         813         812
         808         809         814         813
         810         811         816         815
         811         812         817         816
         812         813         818         817
         813         814         819         818
         815         816         821         820
         816         817         822         821
         817         818         823         822
         818         819         824         823
         825         826         831         830
         826         827         832         831
         827         828         833         832
         828         829         834         833
         830         831         836         835
         831         832         837         836
         832         833         838         837
         833         834         839         838
         835         836         841         840
         836         837         842         841
         837         838         843         842
         838         839         844         843
         840         841         846         845
         841         842         847         846
         842         843         848         847
         843         844         849         848
         850         851         856         855
         851         852         857         856
         852         853         858         857
         853         854         859         858
         855         856         861         860
         856         857         862         861
         857         858         863         862
         858         859         864         863
         860         861         866         865
         861         862         867         866
         862         863         868         867
         863         864         869         868
         865         866         871         870
         866         867         872         871
         867         868         873         872
         868         869         874         873
         875         876         881         880
         876         877         882         881
         877         878         883         882
         878         879         884         883
         880         881         886         885
         881         882         887         886
         882         883         888         887
         883         884         889         888
         885         886         891         890
         886         887         892         891
         887         888         893         892
         888         889         894         893
         890         891         896         895
         891         892         897         896
         892         893         898         897
         893         894         899         898
         900         901         906         905
         901         902         907         906
         902         903         908         907
         903         904         909         908
         905         906         911         910
         906         907         912         911
         907         908         913         912
         908         909         914         913
         910         911         916         915
         911         912         917         916
         912         913         918         917
         913         914         919         918
         915         916         921         920
         916         917         922         921
         917         918         923         922
         918         919         924         923
         925         926         931         930
         926         927         932         931
         927         928         933         932
         928         929         934         933
         930         931         936         935
         931         932         937         936
         932         933         938         937
         933         934         939         938
         935         936         941         940
         936         937         942         941
         937         938         943         942
         938         939         944         943
         940         941         946         945
         941         942         947         946
         942         943         948         947
         943         944         949         948
         950         951         956         955
         951         952         957         956
         952         953         958         957
         953         954         959         958
         955         956         961         960
         956         957         962         961
         957         958         963         962
         958         959         964         963
         960         961         966         965
         961         962         967         966
         962         963         968         967
         963         964         969         968
         965         966         971         970
         966         967         972         971
         967         968         973         972
         968         969         974         973
         975         976         981         980
         976         977         982         981
         977         978         983         982
         978         979         984         983
         980         981         986         985
         981         982         987         986
         982         983         988         987
         983         984         989         988
         985         986         991         990
         986         987         992         991
         987         988         993         992
         988         989         994         993
         990         991         996         995
         991         992         997         996
         992         993         998         997
         993         994         999         998
        1000        1001        1006        1005
        1001        1002        1007        1006
        1002        1003        1008        1007
        1003        1004        1009        1008
        1005        1006        1011        1010
        1006        1007        1012        1011
        1007        1008        1013        1012
        1008        1009        1014        1013
        1010        1011        1016        1015
        1011        1012        1017        1016
        1012        1013        1018        1017
        1013        1014        1019        1018
        1015        1016        1021        1020
        1016        1017        1022        1021
        1017        1018        1023        1022
        1018        1019        1024        1023
        1025        1026        1031        1030
        1026        1027        1032        1031
        1027        1028        1033        1032
        1028        1029        1034        1033
        1030        1031        1036        1035
        1031        1032        1037        1036
        1032        1033        1038        1037
        1033        1034        1039        1038
        1035        1036        1041        1040
        1036        1037        1042        1041
        1037        1038        1043        1042
        1038        1039        1044        1043
        1040        1041        1046        1045
        1041        1042        1047        1046
        1042        1043        1048        1047
        1043        1044        1049        1048
        1050        1051        1056        1055
        1051        1052        1057        1056
        1052        1053        1058        1057
        1053        1054        1059        1058
        1055        1056        1061        1060
        1056        1057        1062        1061
        1057        1058        1063        1062
        1058        1059        1064        1063
        1060        1061        1066        1065
        1061        1062        1067        1066
        1062        1063        1068        1067
        1063        1064        1069        1068
        1065        1066        1071        1070
        1066        1067        1072        1071
        1067        1068        1073        1072
        1068        1069        1074        1073
        1075        1076        1081        1080
        1076        1077        1082        1081
        1077        1078        1083        1082
        1078        1079        1084        1083
        1080        1081        1086        1085
        1081        1082        1087        1086
        1082        1083        1088        1087
        1083        1084        1089        1088
        1085        1086        1091        1090
        1086        1087        1092        1091
        1087        1088        1093        1092
        1088        1089        1094        1093
        1090        1091        1096        1095
        1091        1092        1097        1096
        1092        1093        1098        1097
        1093        1094        1099        1098
        1100        1101        1106        1105
        1101        1102        1107        1106
        1102        1103        1108        1107
        1103        1104        1109        1108
        1105        1106        1111        1110
        1106        1107        1112        1111
        1107        1108        1113        1112
        1108        1109        1114        1113
        1110        1111        1116        1115
        1111        1112        1117        1116
        1112        1113        1118        1117
        1113        1114        1119        1118
        1115        1116        1121        1120
        1116        1117        1122        1121
        1117        1118        1123        1122
        1118        1119        1124        1123
        1125        1126        1131        1130
        1126        1127        1132        1131
        1127        1128        1133        1132
        1128        1129        1134        1133
        1130        1131        1136        1135
        1131        1132        1137        1136
        1132        1133        1138        1137
        1133        1134        1139        1138
        1135        1136        1141        1140
        1136        1137        1142        1141
        1137        1138        1143        1142
        1138        1139        1144        1143
        1140        1141        1146        1145
        1141        1142        1147        1146
        1142        1143        1148        1147
        1143        1144        1149        1148
        1150        1151        1156        1155
        1151        1152        1157        1156
        1152        1153        1158        1157
        1153        1154        1159        1158
        1155        1156        1161        1160
        1156        1157        1162        1161
        1157        1158        1163        1162
        1158        1159        1164        1163
        1160        1161        1166        1165
        1161        1162        1167        1166
        1162        1163        1168        1167
        1163        1164        1169        1168
        1165        1166        1171        1170
        1166        1167        1172        1171
        1167        1168        1173        1172
        1168        1169        1174        1173
        1175        1176        1181        1180
        1176        1177        1182        1181
        1177        1178        1183        1182
        1178        1179        1184        1183
        1180        1181        1186        1185
        1181        1182        1187        1186
        1182        1183        1188        1187
        1183        1184        1189        1188
        1185        1186        1191        1190
        1186        1187        1192        1191
        1187        1188        1193        1192
        1188        1189        1194        1193
        1190        1191        1196        1195
        1191        1192        1197        1196
        1192        1193        1198        1197
        1193        1194        1199        1198
        1200        1201        1206        1205
        1201        1202        1207        1206
        1202        1203        1208        1207
        1203        1204        1209        1208
        1205        1206        1211        1210
        1206        1207        1212        1211
        1207        1208        1213        1212
        1208        1209        1214        1213
        1210        1211        1216        1215
        1211        1212        1217        1216
        1212        1213        1218        1217
        1213        1214        1219        1218
        1215        1216        1221        1220
        1216        1217        1222        1221
        1217        1218        1223        1222
        1218        1219        1224        1223
        1225        1226        1231        1230
        1226        1227        1232        1231
        1227        1228        1233        1232
        1228        1229        1234        1233
        1230        1231        1236        1235
        1231        1232        1237        1236
        1232        1233        1238        1237
        1233        1234        1239        1238
        1235        1236        1241        1240
        1236        1237        1242        1241
        1237        1238        1243        1242
        1238        1239        1244        1243
        1240        1241        1246        1245
        1241        1242        1247        1246
        1242        1243        1248        1247
        1243        1244        1249        1248
        1250        1251        1256        1255
        1251        1252        1257        1256
        1252        1253        1258        1257
        1253        1254        1259        1258
        1255        1256        1261        1260
        1256        1257        1262        1261
        1257        1258        1263        1262
        1258        1259        1264        1263
        1260        1261        1266        1265
        1261        1262        1267        1266
        1262        1263        1268        1267
        1263        1264        1269        1268
        1265        1266        1271        1270
        1266        1267        1272        1271
        1267        1268        1273        1272
        1268        1269        1274        1273
        1275        1276        1281        1280
        1276        1277        1282        1281
        1277        1278        1283        1282
        1278        1279        1284        1283
        1280        1281        1286        1285
        1281        1282        1287        1286
        1282        1283        1288        1287
        1283        1284        1289        1288
        1285        1286        1291        1290
        1286        1287        1292        1291
        1287        1288        1293        1292
        1288        1289        1294        1293
        1290        1291        1296        1295
        1291        1292        1297        1296
        1292        1293        1298        1297
        1293        1294        1299        1298
        1300        1301        1306        1305
        1301        1302        1307        1306
        1302        1303        1308        1307
        1303        1304        1309        1308
        1305        1306        1311        1310
        1306        1307        1312        1311
        1307        1308        1313        1312
        1308        1309        1314        1313
        1310        1311        1316        1315
        1311        1312        1317        1316
        1312        1313        1318        1317
        1313        1314        1319        1318
        1315        1316        1321        1320
        1316        1317        1322        1321
        1317        1318        1323        1322
        1318        1319        1324        1323
        1325        1326        1331        1330
        1326        1327        1332        1331
        1327        1328        1333        1332
        1328        1329        1334        1333
        1330        1331        1336        1335
        1331        1332        1337        1336
        1332        1333        1338        1337
        1333        1334        1339        1338
        1335        1336        1341        1340
        1336        1337        1342        1341
        1337        1338        1343        1342
        1338        1339        1344        1343
        1340        1341        1346        1345
        1341        1342        1347        1346
        1342        1343        1348        1347
        1343        1344        1349        1348
        1350        1351        1356        1355
        1351        1352        1357        1356
        1352        1353        1358        1357
        1353        1354        1359        1358
        1355        1356        1361        1360
        1356        1357        1362        1361
        1357        1358        1363        1362
        1358        1359        1364        1363
        1360        1361        1366        1365
        1361        1362        1367        1366
        1362        1363        1368        1367
        1363        1364        1369        1368
        1365        1366        1371        1370
        1366        1367        1372        1371
        1367        1368        1373        1372
        1368        1369        1374        1373
        1375        1376        1381        1380
        1376        1377        1382        1381
        1377        1378        1383        1382
        1378        1379        1384        1383
        1380        1381        1386        1385
        1381        1382        1387        1386
        1382        1383        1388        1387
        1383        1384        1389        1388
        1385        1386        1391        1390
        1386        1387        1392        1391
        1387        1388        1393        1392
        1388        1389        1394        1393
        1390        1391        1396        1395
        1391        1392        1397        1396
        1392        1393        1398        1397
        1393        1394        1399        1398
        1400        1401        1406        1405
        1401        1402        1407        1406
        1402        1403        1408        1407
        1403        1404        1409        1408
        1405        1406        1411        1410
        1406        1407        1412        1411
        1407        1408        1413        1412
        1408        1409        1414        1413
        1410        1411        1416        1415
        1411        1412        1417        1416
        1412        1413        1418        1417
        1413        1414        1419        1418
        1415        1416        1421        1420
        1416        1417        1422        1421
        1417        1418        1423        1422
        1418        1419        1424        1423
        1425        1426        1431        1430
        1426        1427        1432        1431
        1427        1428        1433        1432
        1428        1429        1434        1433
        1430        1431        1436        1435
        1431        1432        1437        1436
        1432        1433        1438        1437
        1433        1434        1439        1438
        1435        1436        1441        1440
        1436        1437        1442        1441
        1437        1438        1443        1442
        1438        1439        1444        1443
        1440        1441        1446        1445
        1441        1442        1447        1446
        1442        1443        1448        1447
        1443        1444        1449        1448
        1450        1451        1456        1455
        1451        1452        1457        1456
        1452        1453        1458        1457
        1453        1454        1459        1458
        1455        1456        1461        1460
        1456        1457        1462        1461
        1457        1458        1463        1462
        1458        1459        1464        1463
        1460        1461        1466        1465
        1461        1462        1467        1466
        1462        1463        1468        1467
        1463        1464        1469        1468
        1465        1466        1471        1470
        1466        1467        1472        1471
        1467        1468        1473        1472
        1468        1469        1474        1473
        1475        1476        1481        1480
        1476        1477        1482        1481
        1477        1478        1483        1482
        1478        1479        1484        1483
        1480        1481        1486        1485
        1481        1482        1487        1486
        1482        1483        1488        1487
        1483        1484        1489        1488
        1485        1486        1491        1490
        1486        1487        1492        1491
        1487        1488        1493        1492
        1488        1489        1494        1493
        1490        1491        1496        1495
        1491        1492        1497        1496
        1492        1493        1498        1497
        1493        1494        1499        1498
        1500        1501        1506        1505
        1501        1502        1507        1506
        1502        1503        1508        1507
        1503        1504        1509        1508
        1505        1506        1511        1510
        1506        1507        1512        1511
        1507        1508        1513        1512
        1508        1509        1514        1513
        1510        1511        1516        1515
        1511        1512        1517        1516
        1512        1513        1518        1517
        1513        1514        1519        1518
        1515        1516        1521        1520
        1516        1517        1522        1521
        1517        1518        1523        1522
        1518        1519        1524        1523
        1525        1526        1531        1530
        1526        1527        1532        1531
        1527        1528        1533        1532
        1528        1529        1534        1533
        1530        1531        1536        1535
        1531        1532        1537        1536
        1532        1533        1538        1537
        1533        1534        1539        1538
        1535        1536        1541        1540
        1536        1537        1542        1541
        1537        1538        1543        1542
        1538        1539        1544        1543
        1540        1541        1546        1545
        1541        1542        1547        1546
        1542        1543        1548        1547
        1543        1544        1549        1548
        1550        1551        1556        1555
        1551        1552        1557        1556
        1552        1553        1558        1557
        1553        1554        1559        1558
        1555        1556        1561        1560
        1556        1557        1562        1561
        1557        1558        1563        1562
        1558        1559        1564        1563
        1560        1561        1566        1565
        1561        1562        1567        1566
        1562        1563        1568        1567
        1563        1564        1569        1568
        1565        1566        1571        1570
        1566        1567        1572        1571
        1567        1568        1573        1572
        1568        1569        1574        1573
        1575        1576        1581        1580
        1576        1577        1582        1581
        1577        1578        1583        1582
        1578        1579        1584        1583
        1580        1581        1586        1585
        1581        1582        1587        1586
        1582        1583        1588        1587
        1583        1584        1589        1588
        1585        1586        1591        1590
        1586        1587        1592        1591
        1587        1588        1593        1592
        1588        1589        1594        1593
        1590        1591        1596        1595
        1591        1592        1597        1596
        1592        1593        1598        1597
        1593        1594        1599        1598
 </DataArray>
 <DataArray  type="Int32"  Name="offsets"  format="ascii"> 
           4
           8
          12
          16
          20
          24
          28
          32
          36
          40
          44
          48
          52
          56
          60
          64
          68
          72
          76
          80
          84
          88
          92
          96
         100
         104
         108
         112
         116
         120
         124
         128
         132
         136
         140
         144
         148
         152
         156
         160
         164
         168
         172
         176
         180
         184
         188
         192
         196
         200
         204
         208
         212
         216
         220
         224
         228
         232
         236
         240
         244
         248
         252
         256
         260
         264
         268
         272
         276
         280
         284
         288
         292
         296
         300
         304
         308
         312
         316
         320
         324
         328
         332
         336
         340
         344
         348
         352
         356
         360
         364
         368
         372
         376
         380
         384
         388
         392
         396
         400
         404
         408
         412
         416
         420
         424
         428
         432
         436
         440
         444
         448
         452
         456
         460
         464
         468
         472
         476
         480
         484
         488
         492
         496
         500
         504
         508
         512
         516
         520
         524
         528
         532
         536
         540
         544
         548
         552
         556
         560
         564
         568
         572
         576
         580
         584
         588
         592
         596
         600
         604
         608
         612
         616
         620
         624
         628
         632
         636
         640
         644
         648
         652
         656
         660
         664
         668
         672
         676
         680
         684
         688
         692
         696
         700
         704
         708
         712
         716
         720
         724
         728
         732
         736
         740
         744
         748
         752
         756
         760
         764
         768
         772
         776
         780
         784
         788
         792
         796
         800
         804
         808
         812
         816
         820
         824
         828
         832
         836
         840
         844
         848
         852
         856
         860
         864
         868
         872
         876
         880
         884
         888
         892
         896
         900
         904
         908
         912
         916
         920
         924
         928
         932
         936
         940
         944
         948
         952
         956
         960
         964
         968
         972
         976
         980
         984
         988
         992
         996
        1000
        1004
        1008
        1012
        1016
        1020
        1024
        1028
        1032
        1036
        1040
        1044
        1048
        1052
        1056
        1060
        1064
        1068
        1072
        1076
        1080
        1084
        1088
        1092
        1096
        1100
        1104
        1108
        1112
        1116
        1120
        1124
        1128
        1132
        1136
        1140
        1144
        1148
        1152
        1156
        1160
        1164
        1168
        1172
        1176
        1180
        1184
        1188
        1192
        1196
        1200
        1204
        1208
        1212
        1216
        1220
        1224
        1228
        1232
        1236
        1240
        1244
        1248
        1252
        1256
        1260
        1264
        1268
        1272
        1276
        1280
        1284
        1288
        1292
        1296
        1300
        1304
        1308
        1312
        1316
        1320
        1324
        1328
        1332
        1336
        1340
        1344
        1348
        1352
        1356
        1360
        1364
        1368
        1372
        1376
        1380
        1384
        1388
        1392
        1396
        1400
        1404
        1408
        1412
        1416
        1420
        1424
        1428
        1432
        1436
        1440
        1444
        1448
        1452
        1456
        1460
        1464
        1468
        1472
        1476
        1480
        1484
        1488
        1492
        1496
        1500
        1504
        1508
        1512
        1516
        1520
        1524
        1528
        1532
        1536
        1540
        1544
        1548
        1552
        1556
        1560
        1564
        1568
        1572
        1576
        1580
        1584
        1588
        1592
        1596
        1600
        1604
        1608
        1612
        1616
        1620
        1624
        1628
        1632
        1636
        1640
        1644
        1648
        1652
        1656
        1660
        1664
        1668
        1672
        1676
        1680
        1684
        1688
        1692
        1696
        1700
        1704
        1708
        1712
        1716
        1720
        1724
        1728
        1732
        1736
        1740
        1744
        1748
        1752
        1756
        1760
        1764
        1768
        1772
        1776
        1780
        1784
        1788
        1792
        1796
        1800
        1804
        1808
        1812
        1816
        1820
        1824
        1828
        1832
        1836
        1840
        1844
        1848
        1852
        1856
        1860
        1864
        1868
        1872
        1876
        1880
        1884
        1888
        1892
        1896
        1900
        1904
        1908
        1912
        1916
        1920
        1924
        1928
        1932
        1936
        1940
        1944
        1948
        1952
        1956
        1960
        1964
        1968
        1972
        1976
        1980
        1984
        1988
        1992
        1996
        2000
        2004
        2008
        2012
        2016
        2020
        2024
        2028
        2032
        2036
        2040
        2044
        2048
        2052
        2056
        2060
        2064
        2068
        2072
        2076
        2080
        2084
        2088
        2092
        2096
        2100
        2104
        2108
        2112
        2116
        2120
        2124
        2128
        2132
        2136
        2140
        2144
        2148
        2152
        2156
        2160
        2164
        2168
        2172
        2176
        2180
        2184
        2188
        2192
        2196
        2200
        2204
        2208
        2212
        2216
        2220
        2224
        2228
        2232
        2236
        2240
        2244
        2248
        2252
        2256
        2260
        2264
        2268
        2272
        2276
        2280
        2284
        2288
        2292
        2296
        2300
        2304
        2308
        2312
        2316
        2320
        2324
        2328
        2332
        2336
        2340
        2344
        2348
        2352
        2356
        2360
        2364
        2368
        2372
        2376
        2380
        2384
        2388
        2392
        2396
        2400
        2404
        2408
        2412
        2416
        2420
        2424
        2428
        2432
        2436
        2440
        2444
        2448
        2452
        2456
        2460
        2464
        2468
        2472
        2476
        2480
        2484
        2488
        2492
        2496
        2500
        2504
        2508
        2512
        2516
        2520
        2524
        2528
        2532
        2536
        2540
        2544
        2548
        2552
        2556
        2560
        2564
        2568
        2572
        2576
        2580
        2584
        2588
        2592
        2596
        2600
        2604
        2608
        2612
        2616
        2620
        2624
        2628
        2632
        2636
        2640
        2644
        2648
        2652
        2656
        2660
        2664
        2668
        2672
        2676
        2680
        2684
        2688
        2692
        2696
        2700
        2704
        2708
        2712
        2716
        2720
        2724
        2728
        2732
        2736
        2740
        2744
        2748
        2752
        2756
        2760
        2764
        2768
        2772
        2776
        2780
        2784
        2788
        2792
        2796
        2800
        2804
        2808
        2812
        2816
        2820
        2824
        2828
        2832
        2836
        2840
        2844
        2848
        2852
        2856
        2860
        2864
        2868
        2872
        2876
        2880
        2884
        2888
        2892
        2896
        2900
        2904
        2908
        2912
        2916
        2920
        2924
        2928
        2932
        2936
        2940
        2944
        2948
        2952
        2956
        2960
        2964
        2968
        2972
        2976
        2980
        2984
        2988
        2992
        2996
        3000
        3004
        3008
        3012
        3016
        3020
        3024
        3028
        3032
        3036
        3040
        3044
        3048
        3052
        3056
        3060
        3064
        3068
        3072
        3076
        3080
        3084
        3088
        3092
        3096
        3100
        3104
        3108
        3112
        3116
        3120
        3124
        3128
        3132
        3136
        3140
        3144
        3148
        3152
        3156
        3160
        3164
        3168
        3172
        3176
        3180
        3184
        3188
        3192
        3196
        3200
        3204
        3208
        3212
        3216
        3220
        3224
        3228
        3232
        3236
        3240
        3244
        3248
        3252
        3256
        3260
        3264
        3268
        3272
        3276
        3280
        3284
        3288
        3292
        3296
        3300
        3304
        3308
        3312
        3316
        3320
        3324
        3328
        3332
        3336
        3340
        3344
        3348
        3352
        3356
        3360
        3364
        3368
        3372
        3376
        3380
        3384
        3388
        3392
        3396
        3400
        3404
        3408
        3412
        3416
        3420
        3424
        3428
        3432
        3436
        3440
        3444
        3448
        3452
        3456
        3460
        3464
        3468
        3472
        3476
        3480
        3484
        3488
        3492
        3496
        3500
        3504
        3508
        3512
        3516
        3520
        3524
        3528
        3532
        3536
        3540
        3544
        3548
        3552
        3556
        3560
        3564
        3568
        3572
        3576
        3580
        3584
        3588
        3592
        3596
        3600
        3604
        3608
        3612
        3616
        3620
        3624
        3628
        3632
        3636
        3640
        3644
        3648
        3652
        3656
        3660
        3664
        3668
        3672
        3676
        3680
        3684
        3688
        3692
        3696
        3700
        3704
        3708
        3712
        3716
        3720
        3724
        3728
        3732
        3736
        3740
        3744
        3748
        3752
        3756
        3760
        3764
        3768
        3772
        3776
        3780
        3784
        3788
        3792
        3796
        3800
        3804
        3808
        3812
        3816
        3820
        3824
        3828
        3832
        3836
        3840
        3844
        3848
        3852
        3856
        3860
        3864
        3868
        3872
        3876
        3880
        3884
        3888
        3892
        3896
        3900
        3904
        3908
        3912
        3916
        3920
        3924
        3928
        3932
        3936
        3940
        3944
        3948
        3952
        3956
        3960
        3964
        3968
        3972
        3976
        3980
        3984
        3988
        3992
        3996
        4000
        4004
        4008
        4012
        4016
        4020
        4024
        4028
        4032
        4036
        4040
        4044
        4048
        4052
        4056
        4060
        4064
        4068
        4072
        4076
        4080
        4084
        4088
        4092
        4096
 </DataArray>
 <DataArray  type="UInt8"  Name="types"  format="ascii">
 9
 9
 9
 9
 9
 9
 9
 9
 9
 9
 9
 9
 9
 9
 9
 9
 9
 9
 9
 9
 9
 9
 9
 9
 9
 9
 9
 9
 9
 9
 9
 9
 9
 9
 9
 9
 9
 9
 9
 9
 9
 9
 9
 9
 9
 9
 9
 9
 9
 9
 9
 9
 9
 9
 9
 9
 9
 9
 9
 9
 9
 9
 9
 9
 9
 9
 9
 9
 9
 9
 9
 9
 9
 9
 9
 9
 9
 9
 9
 9
 9
 9
 9
 9
 9
 9
 9
 9
 9
 9
 9
 9
 9
 9
 9
 9
 9
 9
 9
 9
 9
 9
 9
 9
 9
 9
 9
 9
 9
 9
 9
 9
 9
 9
 9
 9
 9
 9
 9
 9
 9
 9
 9
 9
 9
 9
 9
 9
 9
 9
 9
 9
 9
 9
 9
 9
 9
 9
 9
 9
 9
 9
 9
 9
 9
 9
 9
 9
 9
 9
 9
 9
 9
 9
 9
 9
 9
 9
 9
 9
 9
 9
 9
 9
 9
 9
 9
 9
 9
 9
 9
 9
 9
 9
 9
 9
 9
 9
 9
 9
 9
 9
 9
 9
 9
 9
 9
 9
 9
 9
 9
 9
 9
 9
 9
 9
 9
 9
 9
 9
 9
 9
 9
 9
 9
 9
 9
 9
 9
 9
 9
 9
 9
 9
 9
 9
 9
 9
 9
 9
 9
 9
 9
 9
 9
 9
 9
 9
 9
 9
 9
 9
 9
 9
 9
 9
 9
 9
 9
 9
 9
 9
 9
 9
 9
 9
 9
 9
 9
 9
 9
 9
 9
 9
 9
 9
 9
 9
 9
 9
 9
 9
 9
 9
 9
 9
 9
 9
 9
 9
 9
 9
 9
 9
 9
 9
 9
 9
 9
 9
 9
 9
 9
 9
 9
 9
 9
 9
 9
 9
 9
 9
 9
 9
 9
 9
 9
 9
 9
 9
 9
 9
 9
 9
 9
 9
 9
 9
 9
 9
 9
 9
 9
 9
 9
 9
 9
 9
 9
 9
 9
 9
 9
 9
 9
 9
 9
 9
 9
 9
 9
 9
 9
 9
 9
 9
 9
 9
 9
 9
 9
 9
 9
 9
 9
 9
 9
 9
 9
 9
 9
 9
 9
 9
 9
 9
 9
 9
 9
 9
 9
 9
 9
 9
 9
 9
 9
 9
 9
 9
 9
 9
 9
 9
 9
 9
 9
 9
 9
 9
 9
 9
 9
 9
 9
 9
 9
 9
 9
 9
 9
 9
 9
 9
 9
 9
 9
 9
 9
 9
 9
 9
 9
 9
 9
 9
 9
 9
 9
 9
 9
 9
 9
 9
 9
 9
 9
 9
 9
 9
 9
 9
 9
 9
 9
 9
 9
 9
 9
 9
 9
 9
 9
 9
 9
 9
 9
 9
 9
 9
 9
 9
 9
 9
 9
 9
 9
 9
 9
 9
 9
 9
 9
 9
 9
 9
 9
 9
 9
 9
 9
 9
 9
 9
 9
 9
 9
 9
 9
 9
 9
 9
 9
 9
 9
 9
 9
 9
 9
 9
 9
 9
 9
 9
 9
 9
 9
 9
 9
 9
 9
 9
 9
 9
 9
 9
 9
 9
 9
 9
 9
 9
 9
 9
 9
 9
 9
 9
 9
 9
 9
 9
 9
 9
 9
 9
 9
 9
 9
 9
 9
 9
 9
 9
 9
 9
 9
 9
 9
 9
 9
 9
 9
 9
 9
 9
 9
 9
 9
 9
 9
 9
 9
 9
 9
 9
 9
 9
 9
 9
 9
 9
 9
 9
 9
 9
 9
 9
 9
 9
 9
 9
 9
 9
 9
 9
 9
 9
 9
 9
 9
 9
 9
 9
 9
 9
 9
 9
 9
 9
 9
 9
 9
 9
 9
 9
 9
 9
 9
 9
 9
 9
 9
 9
 9
 9
 9
 9
 9
 9
 9
 9
 9
 9
 9
 9
 9
 9
 9
 9
 9
 9
 9
 9
 9
 9
 9
 9
 9
 9
 9
 9
 9
 9
 9
 9
 9
 9
 9
 9
 9
 9
 9
 9
 9
 9
 9
 9
 9
 9
 9
 9
 9
 9
 9
 9
 9
 9
 9
 9
 9
 9
 9
 9
 9
 9
 9
 9
 9
 9
 9
 9
 9
 9
 9
 9
 9
 9
 9
 9
 9
 9
 9
 9
 9
 9
 9
 9
 9
 9
 9
 9
 9
 9
 9
 9
 9
 9
 9
 9
 9
 9
 9
 9
 9
 9
 9
 9
 9
 9
 9
 9
 9
 9
 9
 9
 9
 9
 9
 9
 9
 9
 9
 9
 9
 9
 9
 9
 9
 9
 9
 9
 9
 9
 9
 9
 9
 9
 9
 9
 9
 9
 9
 9
 9
 9
 9
 9
 9
 9
 9
 9
 9
 9
 9
 9
 9
 9
 9
 9
 9
 9
 9
 9
 9
 9
 9
 9
 9
 9
 9
 9
 9
 9
 9
 9
 9
 9
 9
 9
 9
 9
 9
 9
 9
 9
 9
 9
 9
 9
 9
 9
 9
 9
 9
 9
 9
 9
 9
 9
 9
 9
 9
 9
 9
 9
 9
 9
 9
 9
 9
 9
 9
 9
 9
 9
 9
 9
 9
 9
 9
 9
 9
 9
 9
 9
 9
 9
 9
 9
 9
 9
 9
 9
 9
 9
 9
 9
 9
 9
 9
 9
 9
 9
 9
 9
 9
 9
 9
 9
 9
 9
 9
 9
 9
 9
 9
 9
 9
 9
 9
 9
 9
 9
 9
 9
 9
 9
 9
 9
 9
 9
 9
 9
 9
 9
 9
 9
 9
 9
 9
 9
 9
 9
 9
 9
 9
 9
 9
 9
 9
 9
 9
 9
 9
 9
 9
 9
 9
 9
 9
 9
 9
 9
 9
 9
 9
 9
 9
 9
 9
 9
 9
 9
 9
 9
 9
 9
 9
 9
 9
 9
 9
 9
 9
 9
 9
 9
 9
 9
 9
 9
 9
 9
 9
 9
 9
 9
 9
 9
 9
 9
 9
 9
 9
 9
 9
 9
 9
 9
 9
 9
 9
 9
 9
 9
 9
 9
 9
 9
 9
 9
 9
 9
 9
 9
 9
 9
 9
 9
 9
 9
 9
 9
 9
 9
 9
 9
 9
 9
 9
 9
 9
 9
 9
 9
 9
 9
 9
 9
 9
 9
 9
 9
 9
 9
 9
 9
 9
 9
 9
 9
 9
 9
 9
 9
 9
 9
 9
 9
 9
 9
 9
 9
 9
 9
 9
 9
 9
 9
 9
 9
 9
 9
 9
 9
 9
 9
 9
 9
 9
 9
 9
 9
 </DataArray>
 </Cells> 
 <PointData>
 <DataArray  type="Float64" Name="disp" NumberOfComponents="3" format="ascii">
   0.0000000000000000        0.0000000000000000        0.0000000000000000     
   6.0959821328232444E-003   3.7904210542738640E-003   0.0000000000000000     
   1.1666029942844963E-002   7.3238479533175565E-003   0.0000000000000000     
   1.6710143430065157E-002   1.0600280697131075E-002   0.0000000000000000     
   2.1228322594483828E-002   1.3619719285714423E-002   0.0000000000000000     
   0.0000000000000000        0.0000000000000000        0.0000000000000000     
   4.8911565841333075E-003   3.0221527297394023E-003   0.0000000000000000     
   9.5736455929397238E-003   6.0605569553937094E-003   0.0000000000000000     
   1.4047467026419246E-002   9.1152126769629208E-003   0.0000000000000000     
   1.8312620884571883E-002   1.2186119894447038E-002   0.0000000000000000     
   0.0000000000000000        0.0000000000000000        0.0000000000000000     
   3.9535652112099549E-003   2.4251355870142659E-003   0.0000000000000000     
   7.9106248842498034E-003   5.0629278925455202E-003   0.0000000000000000     
   1.1871179019119547E-002   7.9133769165937624E-003   0.0000000000000000     
   1.5835227615819184E-002   1.0976482659158996E-002   0.0000000000000000     
   0.0000000000000000        0.0000000000000000        0.0000000000000000     
   3.2832080140531854E-003   1.9993696260984547E-003   0.0000000000000000     
   6.6769678167752037E-003   4.3309607647729897E-003   0.0000000000000000     
   1.0181279408166054E-002   6.9947734160236037E-003   0.0000000000000000     
   1.3796142788225736E-002   9.9908075798502936E-003   0.0000000000000000     
   0.0000000000000000        0.0000000000000000        0.0000000000000000     
   2.8800849926629997E-003   1.7448548469919689E-003   0.0000000000000000     
   5.8726743905159230E-003   3.8646555720761155E-003   0.0000000000000000     
   8.9777681935587685E-003   6.3594021752524394E-003   0.0000000000000000     
   1.2195366401791538E-002   9.2290946565209420E-003   0.0000000000000000     
   2.1228322594483828E-002   1.3619719285714423E-002   0.0000000000000000     
   2.5433443497029678E-002   1.6612732451767219E-002   0.0000000000000000     
   2.9538382198631412E-002   1.9809888927989083E-002   0.0000000000000000     
   3.3543138699289030E-002   2.3211188714380014E-002   0.0000000000000000     
   3.7447712999002535E-002   2.6816631810940017E-002   0.0000000000000000     
   1.8312620884571883E-002   1.2186119894447038E-002   0.0000000000000000     
   2.2407312158539434E-002   1.5341618771392236E-002   0.0000000000000000     
   2.6369745839463721E-002   1.8650049471344691E-002   0.0000000000000000     
   3.0199921927344737E-002   2.2111411994304404E-002   0.0000000000000000     
   3.3897840422182489E-002   2.5725706340271368E-002   0.0000000000000000     
   1.5835227615819184E-002   1.0976482659158996E-002   0.0000000000000000     
   1.9730984888721340E-002   1.4211070534949433E-002   0.0000000000000000     
   2.3486665052198631E-002   1.7575965958673296E-002   0.0000000000000000     
   2.7102268106251059E-002   2.1071168930330588E-002   0.0000000000000000     
   3.0577794050878633E-002   2.4696679449921304E-002   0.0000000000000000     
   1.3796142788225736E-002   9.9908075798502936E-003   0.0000000000000000     
   1.7404461687575389E-002   1.3221087742438818E-002   0.0000000000000000     
   2.0889139836836147E-002   1.6587638389974912E-002   0.0000000000000000     
   2.4250177236008010E-002   2.0090459522458574E-002   0.0000000000000000     
   2.7487573885090981E-002   2.3729551139889817E-002   0.0000000000000000     
   1.2195366401791538E-002   9.2290946565209420E-003   0.0000000000000000     
   1.5427742555101586E-002   1.2371670393860381E-002   0.0000000000000000     
   1.8577170193376263E-002   1.5685066765249524E-002   0.0000000000000000     
   2.1643649316615575E-002   1.9169283770688363E-002   0.0000000000000000     
   2.4627179924819519E-002   2.2824321410176904E-002   0.0000000000000000     
   3.7447712999002535E-002   2.6816631810940017E-002   0.0000000000000000     
   4.1256399716461306E-002   3.0621666167013548E-002   0.0000000000000000     
   4.4973493470354724E-002   3.4621739731945059E-002   0.0000000000000000     
   4.8598994260682794E-002   3.8816852505734564E-002   0.0000000000000000     
   5.2132902087445511E-002   4.3207004488382057E-002   0.0000000000000000     
   3.3897840422182489E-002   2.5725706340271368E-002   0.0000000000000000     
   3.7486620390498111E-002   2.9521825560054844E-002   0.0000000000000000     
   4.0989380898812745E-002   3.3528662704464078E-002   0.0000000000000000     
   4.4406121947126398E-002   3.7746217773499055E-002   0.0000000000000000     
   4.7736843535439069E-002   4.2174490767159789E-002   0.0000000000000000     
   3.0577794050878633E-002   2.4696679449921304E-002   0.0000000000000000     
   3.3942617114099932E-002   2.8497085798296479E-002   0.0000000000000000     
   3.7226111523933549E-002   3.2516976256307145E-002   0.0000000000000000     
   4.0428277280379475E-002   3.6756350823953315E-002   0.0000000000000000     
   4.3549114383437719E-002   4.1215209501234959E-002   0.0000000000000000     
   2.7487573885090981E-002   2.3729551139889817E-002   0.0000000000000000     
   3.0624389887266776E-002   2.7547446881738449E-002   0.0000000000000000     
   3.3683685345717120E-002   3.1586680387474281E-002   0.0000000000000000     
   3.6665460260442012E-002   3.5847251657097325E-002   0.0000000000000000     
   3.9569714631441467E-002   4.0329160690607574E-002   0.0000000000000000     
   2.4627179924819519E-002   2.2824321410176904E-002   0.0000000000000000     
   2.7531938709998642E-002   2.6672908810380747E-002   0.0000000000000000     
   3.0362102364163479E-002   3.0737775097965478E-002   0.0000000000000000     
   3.3117670887314037E-002   3.5018920272931110E-002   0.0000000000000000     
   3.5798644279450301E-002   3.9516344335277627E-002   0.0000000000000000     
   5.2132902087445511E-002   4.3207004488382057E-002   0.0000000000000000     
   5.5572725383870876E-002   4.7796481297329795E-002   0.0000000000000000     
   5.8915972583186892E-002   5.2589568550020019E-002   0.0000000000000000     
   6.2162643685393565E-002   5.7586266246452751E-002   0.0000000000000000     
   6.5312738690490896E-002   6.2786574386627977E-002   0.0000000000000000     
   4.7736843535439069E-002   4.2174490767159789E-002   0.0000000000000000     
   5.0977598063522547E-002   4.6806803045599317E-002   0.0000000000000000     
   5.4124437931148586E-002   5.1636475968970676E-002   0.0000000000000000     
   5.7177363138317214E-002   5.6663509537273844E-002   0.0000000000000000     
   6.0136373685028430E-002   6.1887903750508858E-002   0.0000000000000000     
   4.3549114383437719E-002   4.1215209501234959E-002   0.0000000000000000     
   4.6584584057581029E-002   4.5880935076626071E-002   0.0000000000000000     
   4.9530647527282111E-002   5.0740910338600599E-002   0.0000000000000000     
   5.2387304792540980E-002   5.5795135287158536E-002   0.0000000000000000     
   5.5154555853357649E-002   6.1043609922299888E-002   0.0000000000000000     
   3.9569714631441467E-002   4.0329160690607574E-002   0.0000000000000000     
   4.2393683366046327E-002   4.5018877390410064E-002   0.0000000000000000     
   4.5134601371587466E-002   4.9902871658909803E-002   0.0000000000000000     
   4.7792468648064870E-002   5.4981143496106798E-002   0.0000000000000000     
   5.0367285195478555E-002   6.0253692902001055E-002   0.0000000000000000     
   3.5798644279450301E-002   3.9516344335277627E-002   0.0000000000000000     
   3.8404895988918455E-002   4.4220629986951275E-002   0.0000000000000000     
   4.0936299464064643E-002   4.9122359929898281E-002   0.0000000000000000     
   4.3392854704888885E-002   5.4221534164118651E-002   0.0000000000000000     
   4.5774561711391160E-002   5.9518152689612372E-002   0.0000000000000000     
   6.5312738690490896E-002   6.2786574386627977E-002   0.0000000000000000     
   6.8368724511768189E-002   6.8177369479567818E-002   0.0000000000000000     
   7.1333068062514826E-002   7.3745528034294391E-002   0.0000000000000000     
   7.4205769342730751E-002   7.9491050050807699E-002   0.0000000000000000     
   7.6986828352415992E-002   8.5413935529107754E-002   0.0000000000000000     
   6.0136373685028430E-002   6.1887903750508858E-002   0.0000000000000000     
   6.3005230845845875E-002   6.7300978867436731E-002   0.0000000000000000     
   6.5787695895333217E-002   7.2894055146818501E-002   0.0000000000000000     
   6.8483768833490472E-002   7.8667132588654196E-002   0.0000000000000000     
   7.1093449660317637E-002   8.4620211192943787E-002   0.0000000000000000     
   5.5154555853357649E-002   6.1043609922299888E-002   0.0000000000000000     
   5.7836429700198588E-002   6.6479941132975978E-002   0.0000000000000000     
   6.0436955323530300E-002   7.2097735808138150E-002   0.0000000000000000     
   6.2956132723352792E-002   7.7896993947786389E-002   0.0000000000000000     
   6.5393961899666064E-002   8.3877715551920681E-002   0.0000000000000000     
   5.0367285195478555E-002   6.0253692902001055E-002   0.0000000000000000     
   5.2862321074826336E-002   6.5714256276185559E-002   0.0000000000000000     
   5.5280846347106061E-002   7.1356570018253310E-002   0.0000000000000000     
   5.7622861012317721E-002   7.7180634128204265E-002   0.0000000000000000     
   5.9888365070461323E-002   8.3186448606038452E-002   0.0000000000000000     
   4.5774561711391160E-002   5.9518152689612372E-002   0.0000000000000000     
   4.8082904969729140E-002   6.5003924297065474E-002   0.0000000000000000     
   5.0319368966060506E-002   7.0670557777163953E-002   0.0000000000000000     
   5.2483953700385257E-002   7.6518053129907837E-002   0.0000000000000000     
   5.4576659172703386E-002   8.2546410355297084E-002   0.0000000000000000     
   7.6986828352415992E-002   8.5413935529107754E-002   0.0000000000000000     
   7.9671461097983842E-002   9.1505644479091666E-002   0.0000000000000000     
   8.2254883585847594E-002   9.7757636910656628E-002   0.0000000000000000     
   8.4737095816007191E-002  0.10416991282380259        0.0000000000000000     
   8.7118097788462689E-002  0.11074247221852959        0.0000000000000000     
   7.1093449660317637E-002   8.4620211192943787E-002   0.0000000000000000     
   7.3611999886739166E-002   9.0742524681616851E-002   0.0000000000000000     
   7.6034681023679537E-002   9.7023306776602924E-002   0.0000000000000000     
   7.8361493071138766E-002  0.10346255747790206        0.0000000000000000     
   8.0592436029116837E-002  0.11006027678551421        0.0000000000000000     
   6.5393961899666064E-002   8.3877715551920681E-002   0.0000000000000000     
   6.7746031128053510E-002   9.0027860959244990E-002   0.0000000000000000     
   7.0007928684098511E-002   9.6335390508463264E-002   0.0000000000000000     
   7.2179654567801052E-002  0.10280030419957546        0.0000000000000000     
   7.4261208779161161E-002  0.10942260203258161        0.0000000000000000     
   5.9888365070461323E-002   8.3186448606038452E-002   0.0000000000000000     
   6.2073554821926891E-002   8.9361653311976139E-002   0.0000000000000000     
   6.4174626567104473E-002   9.5693888106237593E-002   0.0000000000000000     
   6.6191580305994063E-002  0.10218315298882280        0.0000000000000000     
   6.8124416038595662E-002  0.10882944795973179        0.0000000000000000     
   5.4576659172703386E-002   8.2546410355297084E-002   0.0000000000000000     
   5.6594570968359313E-002   8.8743901739810283E-002   0.0000000000000000     
   5.8534774672697451E-002   9.5098799569925965E-002   0.0000000000000000     
   6.0397270285717793E-002  0.10161110384564412        0.0000000000000000     
   6.2182057807420345E-002  0.10828081456696476        0.0000000000000000     
   8.7118097788462689E-002  0.11074247221852959        0.0000000000000000     
   8.9403535076714766E-002  0.11745987068112956        0.0000000000000000     
   9.1599053254264096E-002  0.12430666379789442        0.0000000000000000     
   9.3704652321110665E-002  0.13128285156882413        0.0000000000000000     
   9.5720332277254475E-002  0.13838843399391881        0.0000000000000000     
   8.0592436029116837E-002  0.11006027678551421        0.0000000000000000     
   8.2734472531846848E-002  0.11680323398937764        0.0000000000000000     
   8.4794565213561907E-002  0.12367819837943066        0.0000000000000000     
   8.6772714074262014E-002  0.13068516995567320        0.0000000000000000     
   8.8668919113947142E-002  0.13782414871810528        0.0000000000000000     
   7.4261208779161161E-002  0.10942260203258161        0.0000000000000000     
   7.6260069121557805E-002  0.11619042052193100        0.0000000000000000     
   7.8183713398370047E-002  0.12309189618207300        0.0000000000000000     
   8.0032141609597832E-002  0.13012702901300757        0.0000000000000000     
   8.1805353755241200E-002  0.13729581901473470        0.0000000000000000     
   6.8124416038595662E-002  0.10882944795973179        0.0000000000000000     
   6.9980324845847666E-002  0.11562143027878963        0.0000000000000000     
   7.1766497808688504E-002  0.12254775720582146        0.0000000000000000     
   7.3482934927118132E-002  0.12960842874082726        0.0000000000000000     
   7.5129636201136621E-002  0.13680344488380708        0.0000000000000000     
   6.2182057807420345E-002  0.10828081456696476        0.0000000000000000     
   6.3895239704716403E-002  0.11509626325995349        0.0000000000000000     
   6.5542918444517290E-002  0.12204578145067603        0.0000000000000000     
   6.7125094026822943E-002  0.12912936913913234        0.0000000000000000     
   6.8641766451633446E-002  0.13634702632532242        0.0000000000000000     
   9.5720332277254475E-002  0.13838843399391881        0.0000000000000000     
   9.7644339154016102E-002  0.14561971206907426        0.0000000000000000     
   9.9474918982716126E-002  0.15297298679018634        0.0000000000000000     
  0.10121207176335452       0.16044825815725514        0.0000000000000000     
  0.10285579749593132       0.16804552617028060        0.0000000000000000     
   8.8668919113947142E-002  0.13782414871810528        0.0000000000000000     
   9.0475498261332249E-002  0.14508514969181727        0.0000000000000000     
   9.2184769445132222E-002  0.15245818790189938        0.0000000000000000     
   9.3796732665347077E-002  0.15994326334835177        0.0000000000000000     
   9.5311387921976826E-002  0.16754037603117433        0.0000000000000000     
   8.1805353755241200E-002  0.13729581901473470        0.0000000000000000     
   8.3492388752993640E-002  0.14458461651703303        0.0000000000000000     
   8.5082285520548626E-002  0.15197977184968120        0.0000000000000000     
   8.6575044057906253E-002  0.15948128501267919        0.0000000000000000     
   8.7970664365066426E-002  0.16708915600602697        0.0000000000000000     
   7.5129636201136621E-002  0.13680344488380708        0.0000000000000000     
   7.6695010629000263E-002  0.14411811254472165        0.0000000000000000     
   7.8167467208965405E-002  0.15153773863353173        0.0000000000000000     
   7.9547005941032034E-002  0.15906232315023733        0.0000000000000000     
   8.0833626825200205E-002  0.16669186609483849        0.0000000000000000     
   6.8641766451633446E-002  0.13634702632532242        0.0000000000000000     
   7.0083363889352157E-002  0.14368563777488305        0.0000000000000000     
   7.1440314510382505E-002  0.15113208825345101        0.0000000000000000     
   7.2712618314724461E-002  0.15868637776102631        0.0000000000000000     
   7.3900275302378082E-002  0.16634850629760892        0.0000000000000000     
   0.0000000000000000        0.0000000000000000        0.0000000000000000     
   2.8800849926629997E-003   1.7448548469919689E-003   0.0000000000000000     
   5.8726743905159230E-003   3.8646555720761155E-003   0.0000000000000000     
   8.9777681935587685E-003   6.3594021752524394E-003   0.0000000000000000     
   1.2195366401791538E-002   9.2290946565209420E-003   0.0000000000000000     
   0.0000000000000000        0.0000000000000000        0.0000000000000000     
   2.6103462542980561E-003   1.5889360126109420E-003   0.0000000000000000     
   5.2897580576218312E-003   3.5567050946791507E-003   0.0000000000000000     
   8.0382354099713289E-003   5.9033072462046253E-003   0.0000000000000000     
   1.0855778311346544E-002   8.6287424671873652E-003   0.0000000000000000     
   0.0000000000000000        0.0000000000000000        0.0000000000000000     
   2.3401419062170125E-003   1.4589578858715084E-003   0.0000000000000000     
   4.7202322702428008E-003   3.2998021128063451E-003   0.0000000000000000     
   7.1402710920773658E-003   5.5225326808045119E-003   0.0000000000000000     
   9.6002583717207067E-003   8.1271495898660052E-003   0.0000000000000000     
   0.0000000000000000        0.0000000000000000        0.0000000000000000     
   2.0694719484198689E-003   1.3549204667736678E-003   0.0000000000000000     
   4.1640970283788308E-003   3.0939466264576997E-003   0.0000000000000000     
   6.2838752398768852E-003   5.2170784790520975E-003   0.0000000000000000     
   8.4288065829140300E-003   7.7243160245568585E-003   0.0000000000000000     
   0.0000000000000000        0.0000000000000000        0.0000000000000000     
   1.7983363809066255E-003   1.2768237553174204E-003   0.0000000000000000     
   3.6213523320299196E-003   2.9391386356332149E-003   0.0000000000000000     
   5.4690478533698820E-003   4.9869446409473829E-003   0.0000000000000000     
   7.3414229449265140E-003   7.4202417712599259E-003   0.0000000000000000     
   1.2195366401791538E-002   9.2290946565209420E-003   0.0000000000000000     
   1.5427742555101586E-002   1.2371670393860381E-002   0.0000000000000000     
   1.8577170193376263E-002   1.5685066765249524E-002   0.0000000000000000     
   2.1643649316615575E-002   1.9169283770688363E-002   0.0000000000000000     
   2.4627179924819519E-002   2.2824321410176904E-002   0.0000000000000000     
   1.0855778311346544E-002   8.6287424671873652E-003   0.0000000000000000     
   1.3689072060785189E-002   1.1650752788636575E-002   0.0000000000000000     
   1.6484801957324983E-002   1.4887080241561450E-002   0.0000000000000000     
   1.9242968000965921E-002   1.8337724825961993E-002   0.0000000000000000     
   2.1963570191708009E-002   2.2002686541838207E-002   0.0000000000000000     
   9.6002583717207067E-003   8.1271495898660052E-003   0.0000000000000000     
   1.2076694774111474E-002   1.1046269226189832E-002   0.0000000000000000     
   1.4546080964188303E-002   1.4212507975974996E-002   0.0000000000000000     
   1.7008416941951210E-002   1.7625865839221502E-002   0.0000000000000000     
   1.9463702707400179E-002   2.1286342815929341E-002   0.0000000000000000     
   8.4288065829140300E-003   7.7243160245568585E-003   0.0000000000000000     
   1.0590610695080424E-002   1.0558219706520156E-002   0.0000000000000000     
   1.2761007213966230E-002   1.3661349968490166E-002   0.0000000000000000     
   1.4939996139571437E-002   1.7033706810466884E-002   0.0000000000000000     
   1.7127577471896051E-002   2.0675290232450315E-002   0.0000000000000000     
   7.3414229449265140E-003   7.4202417712599259E-003   0.0000000000000000     
   9.2308198236920568E-003   1.0186604229627548E-002   0.0000000000000000     
   1.1129580706658754E-002   1.3233606219106957E-002   0.0000000000000000     
   1.3037705593826604E-002   1.6561247739698148E-002   0.0000000000000000     
   1.4955194485195607E-002   2.0169528791401128E-002   0.0000000000000000     
   2.4627179924819519E-002   2.2824321410176904E-002   0.0000000000000000     
   2.7531938709998642E-002   2.6672908810380747E-002   0.0000000000000000     
   3.0362102364163479E-002   3.0737775097965478E-002   0.0000000000000000     
   3.3117670887314037E-002   3.5018920272931110E-002   0.0000000000000000     
   3.5798644279450301E-002   3.9516344335277627E-002   0.0000000000000000     
   2.1963570191708009E-002   2.2002686541838207E-002   0.0000000000000000     
   2.4630064194097717E-002   2.5879980113747082E-002   0.0000000000000000     
   2.7225905672681527E-002   2.9967620266245595E-002   0.0000000000000000     
   2.9751094627459448E-002   3.4265606999333773E-002   0.0000000000000000     
   3.2205631058431473E-002   3.8773940313011589E-002   0.0000000000000000     
   1.9463702707400179E-002   2.1286342815929341E-002   0.0000000000000000     
   2.1883566951366191E-002   2.5175169321361136E-002   0.0000000000000000     
   2.4239638364680197E-002   2.9273575770779495E-002   0.0000000000000000     
   2.6531916947342200E-002   3.3581562164184425E-002   0.0000000000000000     
   2.8760402699352199E-002   3.8099128501575923E-002   0.0000000000000000     
   1.7127577471896051E-002   2.0675290232450315E-002   0.0000000000000000     
   1.9292446981804066E-002   2.4558476433222922E-002   0.0000000000000000     
   2.1403300440159482E-002   2.8655641611567181E-002   0.0000000000000000     
   2.3460137846962291E-002   3.2966785767483089E-002   0.0000000000000000     
   2.5462959202212497E-002   3.7491908900970643E-002   0.0000000000000000     
   1.4955194485195607E-002   2.0169528791401128E-002   0.0000000000000000     
   1.6856704285411337E-002   2.4029901449332442E-002   0.0000000000000000     
   1.8716891899119376E-002   2.8113817788608650E-002   0.0000000000000000     
   2.0535757326319716E-002   3.2421277809229751E-002   0.0000000000000000     
   2.2313300567012369E-002   3.6952281511195742E-002   0.0000000000000000     
   3.5798644279450301E-002   3.9516344335277627E-002   0.0000000000000000     
   3.8404895988918455E-002   4.4220629986951275E-002   0.0000000000000000     
   4.0936299464064643E-002   4.9122359929898281E-002   0.0000000000000000     
   4.3392854704888885E-002   5.4221534164118651E-002   0.0000000000000000     
   4.5774561711391160E-002   5.9518152689612372E-002   0.0000000000000000     
   3.2205631058431473E-002   3.8773940313011589E-002   0.0000000000000000     
   3.4591713632790962E-002   4.3488214004923871E-002   0.0000000000000000     
   3.6911541017731302E-002   4.8404021872715447E-002   0.0000000000000000     
   3.9165113213252473E-002   5.3521363916386323E-002   0.0000000000000000     
   4.1352430219354488E-002   5.8840240135936472E-002   0.0000000000000000     
   2.8760402699352199E-002   3.8099128501575923E-002   0.0000000000000000     
   3.0927628004257416E-002   4.2823650583002013E-002   0.0000000000000000     
   3.3036125245605057E-002   4.7752504208510724E-002   0.0000000000000000     
   3.5085894423395117E-002   5.2885689378102049E-002   0.0000000000000000     
   3.7076935537627607E-002   5.8223206091776003E-002   0.0000000000000000     
   2.5462959202212497E-002   3.7491908900970643E-002   0.0000000000000000     
   2.7412639103317808E-002   4.2226939721185699E-002   0.0000000000000000     
   2.9310052147685912E-002   4.7167806937284097E-002   0.0000000000000000     
   3.1155198335316808E-002   5.2314510549265857E-002   0.0000000000000000     
   3.2948077666210503E-002   5.7667050557130957E-002   0.0000000000000000     
   2.2313300567012369E-002   3.6952281511195742E-002   0.0000000000000000     
   2.4046746929972142E-002   4.1698081419474911E-002   0.0000000000000000     
   2.5733321723973874E-002   4.6649930059035574E-002   0.0000000000000000     
   2.7373024949017558E-002   5.1807827429877704E-002   0.0000000000000000     
   2.8965856605103195E-002   5.7171773532001327E-002   0.0000000000000000     
   4.5774561711391160E-002   5.9518152689612372E-002   0.0000000000000000     
   4.8082904969729140E-002   6.5003924297065474E-002   0.0000000000000000     
   5.0319368966060506E-002   7.0670557777163953E-002   0.0000000000000000     
   5.2483953700385257E-002   7.6518053129907837E-002   0.0000000000000000     
   5.4576659172703386E-002   8.2546410355297084E-002   0.0000000000000000     
   4.1352430219354488E-002   5.8840240135936472E-002   0.0000000000000000     
   4.3473107176170422E-002   6.4349782068325756E-002   0.0000000000000000     
   4.5526759223833334E-002   7.0039121250514008E-002   0.0000000000000000     
   4.7513386362343216E-002   7.5908257682501187E-002   0.0000000000000000     
   4.9432988591700089E-002   8.1957191364287363E-002   0.0000000000000000     
   3.7076935537627607E-002   5.8223206091776003E-002   0.0000000000000000     
   3.9007853485413614E-002   6.3752666462676438E-002   0.0000000000000000     
   4.0877253163864230E-002   6.9461682603947264E-002   0.0000000000000000     
   4.2685134572979441E-002   7.5350254515588466E-002   0.0000000000000000     
   4.4431497712759276E-002   8.1418382197600045E-002   0.0000000000000000     
   3.2948077666210503E-002   5.7667050557130957E-002   0.0000000000000000     
   3.4687143897458736E-002   6.3212577480117549E-002   0.0000000000000000     
   3.6370850786153208E-002   6.8938241837463790E-002   0.0000000000000000     
   3.7999198332293947E-002   7.4844043629169604E-002   0.0000000000000000     
   3.9572186535880946E-002   8.0929982855235102E-002   0.0000000000000000     
   2.8965856605103195E-002   5.7171773532001327E-002   0.0000000000000000     
   3.0510978412305767E-002   6.2729515120649060E-002   0.0000000000000000     
   3.2007552090700275E-002   6.8468798951063503E-002   0.0000000000000000     
   3.3455577640286720E-002   7.4389625023244685E-002   0.0000000000000000     
   3.4855055061065093E-002   8.0491993337192577E-002   0.0000000000000000     
   5.4576659172703386E-002   8.2546410355297084E-002   0.0000000000000000     
   5.6594570968359313E-002   8.8743901739810283E-002   0.0000000000000000     
   5.8534774672697451E-002   9.5098799569925965E-002   0.0000000000000000     
   6.0397270285717793E-002  0.10161110384564412        0.0000000000000000     
   6.2182057807420345E-002  0.10828081456696476        0.0000000000000000     
   4.9432988591700089E-002   8.1957191364287363E-002   0.0000000000000000     
   5.1283462378356487E-002   8.8175027051943078E-002   0.0000000000000000     
   5.3062704188764916E-002   9.4550869501538959E-002   0.0000000000000000     
   5.4770714022925403E-002  0.10108471871307498        0.0000000000000000     
   5.6407491880837921E-002  0.10777657468655116        0.0000000000000000     
   4.4431497712759276E-002   8.1418382197600045E-002   0.0000000000000000     
   4.6114611862924121E-002   8.7655450057570194E-002   0.0000000000000000     
   4.7732746303194379E-002   9.4050842503087193E-002   0.0000000000000000     
   4.9285901033570043E-002  0.10060455953415104        0.0000000000000000     
   5.0774076054051133E-002  0.10731660115076171        0.0000000000000000     
   3.9572186535880946E-002   8.0929982855235102E-002   0.0000000000000000     
   4.1088019422062222E-002   8.7185170756691646E-002   0.0000000000000000     
   4.2544901015985820E-002   9.3598718574570694E-002   0.0000000000000000     
   4.3942831317651740E-002  0.10017062630887226        0.0000000000000000     
   4.5281810327059954E-002  0.10690089395959634        0.0000000000000000     
   3.4855055061065093E-002   8.0491993337192577E-002   0.0000000000000000     
   3.6203685055770797E-002   8.6764189149307419E-002   0.0000000000000000     
   3.7499168327139260E-002   9.3194497715989477E-002   0.0000000000000000     
   3.8741504875170453E-002   9.9782919037238696E-002   0.0000000000000000     
   3.9930694699864398E-002  0.10652945311305512        0.0000000000000000     
   6.2182057807420345E-002  0.10828081456696476        0.0000000000000000     
   6.3895239704716403E-002  0.11509626325995349        0.0000000000000000     
   6.5542918444517290E-002  0.12204578145067603        0.0000000000000000     
   6.7125094026822943E-002  0.12912936913913234        0.0000000000000000     
   6.8641766451633446E-002  0.13634702632532242        0.0000000000000000     
   5.6407491880837921E-002  0.10777657468655116        0.0000000000000000     
   5.7977860468114671E-002  0.11461418670660593        0.0000000000000000     
   5.9486642490367780E-002  0.12158530405787772        0.0000000000000000     
   6.0933837947597255E-002  0.12868992674036647        0.0000000000000000     
   6.2319446839803110E-002  0.13592805475407227        0.0000000000000000     
   5.0774076054051133E-002  0.10731660115076171        0.0000000000000000     
   5.2201233905993100E-002  0.11417446785993017        0.0000000000000000     
   5.3571337130751420E-002  0.12116566016866739        0.0000000000000000     
   5.4884385728326081E-002  0.12829017807697340        0.0000000000000000     
   5.6140379698717074E-002  0.13554802158484816        0.0000000000000000     
   4.5281810327059954E-002  0.10690089395959634        0.0000000000000000     
   4.6565360018351709E-002  0.11377710671992620        0.0000000000000000     
   4.7797002365668195E-002  0.12078684978304514        0.0000000000000000     
   4.8976737369009399E-002  0.12793012314895311        0.0000000000000000     
   5.0104565028375340E-002  0.13520692681765017        0.0000000000000000     
   3.9930694699864398E-002  0.10652945311305512        0.0000000000000000     
   4.1070238805190486E-002  0.11342210328659406        0.0000000000000000     
   4.2163638195118092E-002  0.12044887290101090        0.0000000000000000     
   4.3210892869647230E-002  0.12760976195630561        0.0000000000000000     
   4.4212002828777908E-002  0.13490477045247817        0.0000000000000000     
   6.8641766451633446E-002  0.13634702632532242        0.0000000000000000     
   7.0083363889352157E-002  0.14368563777488305        0.0000000000000000     
   7.1440314510382505E-002  0.15113208825345101        0.0000000000000000     
   7.2712618314724461E-002  0.15868637776102631        0.0000000000000000     
   7.3900275302378082E-002  0.16634850629760892        0.0000000000000000     
   6.2319446839803110E-002  0.13592805475407227        0.0000000000000000     
   6.3636590954749481E-002  0.14328883988731006        0.0000000000000000     
   6.4878392080200492E-002  0.15076143392839494        0.0000000000000000     
   6.6044850216156178E-002  0.15834583687732684        0.0000000000000000     
   6.7135965362616512E-002  0.16604204873410577        0.0000000000000000     
   5.6140379698717074E-002  0.13554802158484816        0.0000000000000000     
   5.7333834245892376E-002  0.14292936656179558        0.0000000000000000     
   5.8459264573819954E-002  0.15042438887731946        0.0000000000000000     
   5.9516670682499793E-002  0.15803308853141981        0.0000000000000000     
   6.0506052571931895E-002  0.16575546552409667        0.0000000000000000     
   5.0104565028375340E-002  0.13520692681765017        0.0000000000000000     
   5.1175093762780871E-002  0.14260721779833954        0.0000000000000000     
   5.2182931991240869E-002  0.15012095310022458        0.0000000000000000     
   5.3128079713755320E-002  0.15774813272330523        0.0000000000000000     
   5.4010536930324232E-002  0.16548875666758156        0.0000000000000000     
   4.4212002828777908E-002  0.13490477045247817        0.0000000000000000     
   4.5160369505414959E-002  0.14232239359694199        0.0000000000000000     
   4.6049394332463245E-002  0.14985112659711025        0.0000000000000000     
   4.6879077309922759E-002  0.15749096945298308        0.0000000000000000     
   4.7649418437793523E-002  0.16524192216456043        0.0000000000000000     
   0.0000000000000000        0.0000000000000000        0.0000000000000000     
   1.7983363809066255E-003   1.2768237553174204E-003   0.0000000000000000     
   3.6213523320299196E-003   2.9391386356332149E-003   0.0000000000000000     
   5.4690478533698820E-003   4.9869446409473829E-003   0.0000000000000000     
   7.3414229449265140E-003   7.4202417712599259E-003   0.0000000000000000     
   0.0000000000000000        0.0000000000000000        0.0000000000000000     
   1.5350177191905518E-003   1.2175524750517885E-003   0.0000000000000000     
   3.0993617464831987E-003   2.8208637636631824E-003   0.0000000000000000     
   4.6930320818779417E-003   4.8099338658341819E-003   0.0000000000000000     
   6.3160287253747789E-003   7.1847627815647859E-003   0.0000000000000000     
   0.0000000000000000        0.0000000000000000        0.0000000000000000     
   1.2877984787849179E-003   1.1699913495257937E-003   0.0000000000000000     
   2.6054888370257985E-003   2.7246076338778950E-003   0.0000000000000000     
   3.9530710747226420E-003   4.6638488530563035E-003   0.0000000000000000     
   5.3305451918754486E-003   6.9877150070610195E-003   0.0000000000000000     
   0.0000000000000000        0.0000000000000000        0.0000000000000000     
   1.0566786596897238E-003   1.1341403787394366E-003   0.0000000000000000     
   2.1397336036577189E-003   2.6503702462773531E-003   0.0000000000000000     
   3.2491648319039842E-003   4.5486896026137487E-003   0.0000000000000000     
   4.3849723444285213E-003   6.8290984477486251E-003   0.0000000000000000     
   0.0000000000000000        0.0000000000000000        0.0000000000000000     
   8.4165826190496951E-004   1.1099995626927168E-003   0.0000000000000000     
   1.7020960463789590E-003   2.5981516008615562E-003   0.0000000000000000     
   2.5813133534219688E-003   4.4644561145065183E-003   0.0000000000000000     
   3.4793101830339979E-003   6.7089131036276017E-003   0.0000000000000000     
   7.3414229449265140E-003   7.4202417712599259E-003   0.0000000000000000     
   9.2308198236920568E-003   1.0186604229627548E-002   0.0000000000000000     
   1.1129580706658754E-002   1.3233606219106957E-002   0.0000000000000000     
   1.3037705593826604E-002   1.6561247739698148E-002   0.0000000000000000     
   1.4955194485195607E-002   2.0169528791401128E-002   0.0000000000000000     
   6.3160287253747789E-003   7.1847627815647859E-003   0.0000000000000000     
   7.9556498039990847E-003   9.8957800024400359E-003   0.0000000000000000     
   9.5991934447762269E-003   1.2893415020044971E-002   0.0000000000000000     
   1.1246659647706209E-002   1.6177667834379586E-002   0.0000000000000000     
   1.2898048412789031E-002   1.9748538445443883E-002   0.0000000000000000     
   5.3305451918754486E-003   6.9877150070610195E-003   0.0000000000000000     
   6.7234282800542307E-003   9.6501042318856492E-003   0.0000000000000000     
   8.1172374308289968E-003   1.2604914663523807E-002   0.0000000000000000     
   9.5119726441997548E-003   1.5852146301975487E-002   0.0000000000000000     
   1.0907633920166498E-002   1.9391799147240690E-002   0.0000000000000000     
   4.3849723444285213E-003   6.8290984477486251E-003   0.0000000000000000     
   5.5341552518574930E-003   9.4495769179643949E-003   0.0000000000000000     
   6.6837126648170648E-003   1.2368105149543472E-002   0.0000000000000000     
   7.8336445833072331E-003   1.5584683142485855E-002   0.0000000000000000     
   8.9839510073280050E-003   1.9099310896791549E-002   0.0000000000000000     
   3.4793101830339979E-003   6.7089131036276017E-003   0.0000000000000000     
   4.3878307194088750E-003   9.2941980606762627E-003   0.0000000000000000     
   5.2986191467404280E-003   1.2182986478103962E-002   0.0000000000000000     
   6.2116754650286543E-003   1.5375278355910694E-002   0.0000000000000000     
   7.1269996742735573E-003   1.8871073694096463E-002   0.0000000000000000     
   1.4955194485195607E-002   2.0169528791401128E-002   0.0000000000000000     
   1.6856704285411337E-002   2.4029901449332442E-002   0.0000000000000000     
   1.8716891899119376E-002   2.8113817788608650E-002   0.0000000000000000     
   2.0535757326319716E-002   3.2421277809229751E-002   0.0000000000000000     
   2.2313300567012369E-002   3.6952281511195742E-002   0.0000000000000000     
   1.2898048412789031E-002   1.9748538445443883E-002   0.0000000000000000     
   1.4536996320702048E-002   2.3579924815374898E-002   0.0000000000000000     
   1.6147139952122618E-002   2.7645724906309659E-002   0.0000000000000000     
   1.7728479307050748E-002   3.1945938718248169E-002   0.0000000000000000     
   1.9281014385486423E-002   3.6480566251190436E-002   0.0000000000000000     
   1.0907633920166498E-002   1.9391799147240690E-002   0.0000000000000000     
   1.2293980546190224E-002   2.3199026977035488E-002   0.0000000000000000     
   1.3660771809731933E-002   2.7248983569075964E-002   0.0000000000000000     
   1.5008007710791624E-002   3.1541668923362104E-002   0.0000000000000000     
   1.6335688249369297E-002   3.6077083039893924E-002   0.0000000000000000     
   8.9839510073280050E-003   1.9099310896791549E-002   0.0000000000000000     
   1.0127656961875869E-002   2.2887207934314226E-002   0.0000000000000000     
   1.1257787471947320E-002   2.6923593776907565E-002   0.0000000000000000     
   1.2374342537542358E-002   3.1208468424571569E-002   0.0000000000000000     
   1.3477322158660982E-002   3.5741831877306229E-002   0.0000000000000000     
   7.1269996742735573E-003   1.8871073694096463E-002   0.0000000000000000     
   8.0380255677589829E-003   2.2644467687211102E-002   0.0000000000000000     
   8.9381869387687770E-003   2.6669555529804465E-002   0.0000000000000000     
   9.8274837873029465E-003   3.0946337221876546E-002   0.0000000000000000     
   1.0705916113361483E-002   3.5474812763427344E-002   0.0000000000000000     
   2.2313300567012369E-002   3.6952281511195742E-002   0.0000000000000000     
   2.4046746929972142E-002   4.1698081419474911E-002   0.0000000000000000     
   2.5733321723973874E-002   4.6649930059035574E-002   0.0000000000000000     
   2.7373024949017558E-002   5.1807827429877704E-002   0.0000000000000000     
   2.8965856605103195E-002   5.7171773532001327E-002   0.0000000000000000     
   1.9281014385486423E-002   3.6480566251190436E-002   0.0000000000000000     
   2.0798300420674484E-002   4.1235428966661193E-002   0.0000000000000000     
   2.2273892645859741E-002   4.6196348326185223E-002   0.0000000000000000     
   2.3707791061042208E-002   5.1363324329762525E-002   0.0000000000000000     
   2.5099995666221869E-002   5.6736356977393078E-002   0.0000000000000000     
   1.6335688249369297E-002   3.6077083039893924E-002   0.0000000000000000     
   1.7635648511878887E-002   4.0837335651536050E-002   0.0000000000000000     
   1.8899723584734324E-002   4.5804536491153139E-002   0.0000000000000000     
   2.0127913467935615E-002   5.0978685558745157E-002   0.0000000000000000     
   2.1320218161482753E-002   5.6359782854312139E-002   0.0000000000000000     
   1.3477322158660982E-002   3.5741831877306229E-002   0.0000000000000000     
   1.4558791203585351E-002   4.0503801474099495E-002   0.0000000000000000     
   1.5610814540597618E-002   4.5474494553939294E-002   0.0000000000000000     
   1.6633392169697787E-002   5.0653911116825628E-002   0.0000000000000000     
   1.7626524090885849E-002   5.6042051162758504E-002   0.0000000000000000     
   1.0705916113361483E-002   3.5474812763427344E-002   0.0000000000000000     
   1.1567728495793879E-002   4.0234826434351514E-002   0.0000000000000000     
   1.2407165513449621E-002   4.5206222514543710E-002   0.0000000000000000     
   1.3224227166328715E-002   5.0389001004003939E-002   0.0000000000000000     
   1.4018913454431150E-002   5.5783161902732178E-002   0.0000000000000000     
   2.8965856605103195E-002   5.7171773532001327E-002   0.0000000000000000     
   3.0510978412305767E-002   6.2729515120649060E-002   0.0000000000000000     
   3.2007552090700275E-002   6.8468798951063503E-002   0.0000000000000000     
   3.3455577640286720E-002   7.4389625023244685E-002   0.0000000000000000     
   3.4855055061065093E-002   8.0491993337192577E-002   0.0000000000000000     
   2.5099995666221869E-002   5.6736356977393078E-002   0.0000000000000000     
   2.6450530864445643E-002   6.2303978296553354E-002   0.0000000000000000     
   2.7759421058760451E-002   6.8054720314719763E-002   0.0000000000000000     
   2.9026666249166271E-002   7.3988583031892333E-002   0.0000000000000000     
   3.0252266435663113E-002   8.0105566448071042E-002   0.0000000000000000     
   2.1320218161482753E-002   5.6359782854312139E-002   0.0000000000000000     
   2.2476975088369284E-002   6.1936465920112795E-002   0.0000000000000000     
   2.3598521671588737E-002   6.7697372298405820E-002   0.0000000000000000     
   2.4684857911141108E-002   7.3642501989191256E-002   0.0000000000000000     
   2.5735983807026408E-002   7.9771854992469082E-002   0.0000000000000000     
   1.7626524090885849E-002   5.6042051162758504E-002   0.0000000000000000     
   1.8590311084076681E-002   6.1626977991327374E-002   0.0000000000000000     
   1.9524853929185140E-002   6.7396754902121700E-002   0.0000000000000000     
   2.0430152626211243E-002   7.3351381895141482E-002   0.0000000000000000     
   2.1306207175154974E-002   7.9490858970386713E-002   0.0000000000000000     
   1.4018913454431150E-002   5.5783161902732178E-002   0.0000000000000000     
   1.4790538851567836E-002   6.1375514510197113E-002   0.0000000000000000     
   1.5538417831549677E-002   6.7152868125867363E-002   0.0000000000000000     
   1.6262550394376667E-002   7.3115222749742970E-002   0.0000000000000000     
   1.6962936540048816E-002   7.9262578381823920E-002   0.0000000000000000     
   3.4855055061065093E-002   8.0491993337192577E-002   0.0000000000000000     
   3.6203685055770797E-002   8.6764189149307419E-002   0.0000000000000000     
   3.7499168327139260E-002   9.3194497715989477E-002   0.0000000000000000     
   3.8741504875170453E-002   9.9782919037238696E-002   0.0000000000000000     
   3.9930694699864398E-002  0.10652945311305512        0.0000000000000000     
   3.0252266435663113E-002   8.0105566448071042E-002   0.0000000000000000     
   3.1433419499017554E-002   8.6393038306353254E-002   0.0000000000000000     
   3.2567323319996157E-002   9.2838366349836221E-002   0.0000000000000000     
   3.3653977898598933E-002   9.9441550578520041E-002   0.0000000000000000     
   3.4693383234825875E-002  0.10620259099240464        0.0000000000000000     
   2.5735983807026408E-002   7.9771854992469082E-002   0.0000000000000000     
   2.6749033486770185E-002   8.6072251298764751E-002   0.0000000000000000     
   2.7721141077898012E-002   9.2530510898603743E-002   0.0000000000000000     
   2.8652306580409882E-002   9.9146633791986044E-002   0.0000000000000000     
   2.9542529994305802E-002  0.10592061997891163        0.0000000000000000     
   2.1306207175154974E-002   7.9490858970386713E-002   0.0000000000000000     
   2.2150527019028712E-002   8.5801828126542024E-002   0.0000000000000000     
   2.2960621600844819E-002   9.2270931362292016E-002   0.0000000000000000     
   2.3736490920603311E-002   9.8898168677636691E-002   0.0000000000000000     
   2.4478134978304169E-002  0.10568354007257605        0.0000000000000000     
   1.6962936540048816E-002   7.9262578381823920E-002   0.0000000000000000     
   1.7637900095793118E-002   8.5581768789684987E-002   0.0000000000000000     
   1.8285764888836584E-002   9.2059627740901012E-002   0.0000000000000000     
   1.8906530919179199E-002   9.8696155235471969E-002   0.0000000000000000     
   1.9500198186820986E-002  0.10549135127339790        0.0000000000000000     
   3.9930694699864398E-002  0.10652945311305512        0.0000000000000000     
   4.1070238805190486E-002  0.11342210328659406        0.0000000000000000     
   4.2163638195118092E-002  0.12044887290101090        0.0000000000000000     
   4.3210892869647230E-002  0.12760976195630561        0.0000000000000000     
   4.4212002828777908E-002  0.13490477045247817        0.0000000000000000     
   3.4693383234825875E-002  0.10620259099240464        0.0000000000000000     
   3.5689076944100936E-002  0.11310998782002493        0.0000000000000000     
   3.6644596641848048E-002  0.12015224128991571        0.0000000000000000     
   3.7559942328067225E-002  0.12732935140207702        0.0000000000000000     
   3.8435114002758460E-002  0.13464131815650882        0.0000000000000000     
   2.9542529994305802E-002  0.10592061997891163        0.0000000000000000     
   3.0395081112674555E-002  0.11284129058030999        0.0000000000000000     
   3.1213229728604960E-002  0.11989746671711060        0.0000000000000000     
   3.1996975842097021E-002  0.12708914838931346        0.0000000000000000     
   3.2746319453150721E-002  0.13441633559691854        0.0000000000000000     
   2.4478134978304169E-002  0.10568354007257605        0.0000000000000000     
   2.5188251310911361E-002  0.11261601156744927        0.0000000000000000     
   2.5869537455388839E-002  0.11968454918259559        0.0000000000000000     
   2.6521993411736607E-002  0.12688915291801495        0.0000000000000000     
   2.7145619179954665E-002  0.13422982277370740        0.0000000000000000     
   1.9500198186820986E-002  0.10549135127339790        0.0000000000000000     
   2.0068587538811342E-002  0.11243415078144277        0.0000000000000000     
   2.0613519822199677E-002  0.11951348868637064        0.0000000000000000     
   2.1134995036986001E-002  0.12672936498818152        0.0000000000000000     
   2.1633013183170305E-002  0.13408177968687537        0.0000000000000000     
   4.4212002828777908E-002  0.13490477045247817        0.0000000000000000     
   4.5160369505414959E-002  0.14232239359694199        0.0000000000000000     
   4.6049394332463245E-002  0.14985112659711025        0.0000000000000000     
   4.6879077309922759E-002  0.15749096945298308        0.0000000000000000     
   4.7649418437793523E-002  0.16524192216456043        0.0000000000000000     
   3.8435114002758460E-002  0.13464131815650882        0.0000000000000000     
   3.9262281523174569E-002  0.14207501154973262        0.0000000000000000     
   4.0033614746568344E-002  0.14961730157826991        0.0000000000000000     
   4.0749113672939798E-002  0.15726818824212069        0.0000000000000000     
   4.1408778302288916E-002  0.16502767154128498        0.0000000000000000     
   3.2746319453150721E-002  0.13441633559691854        0.0000000000000000     
   3.3453449865439661E-002  0.14186518924884123        0.0000000000000000     
   3.4110556382637450E-002  0.14942187025399684        0.0000000000000000     
   3.4717639004744075E-002  0.15708637861238539        0.0000000000000000     
   3.5274697731759543E-002  0.16485871432400684        0.0000000000000000     
   2.7145619179954665E-002  0.13422982277370740        0.0000000000000000     
   2.7733874532210236E-002  0.14169292669426781        0.0000000000000000     
   2.8280219240670552E-002  0.14926483262429105        0.0000000000000000     
   2.8784653305335604E-002  0.15694554056377710        0.0000000000000000     
   2.9247176726205405E-002  0.16473505051272597        0.0000000000000000     
   2.1633013183170305E-002  0.13408177968687537        0.0000000000000000     
   2.2103555523486289E-002  0.14155822388601236        0.0000000000000000     
   2.2542603320667653E-002  0.14914618868915250        0.0000000000000000     
   2.2950156574714390E-002  0.15684567409629588        0.0000000000000000     
   2.3326215285626506E-002  0.16465668010744244        0.0000000000000000     
   0.0000000000000000        0.0000000000000000        0.0000000000000000     
   8.4165826190496951E-004   1.1099995626927168E-003   0.0000000000000000     
   1.7020960463789590E-003   2.5981516008615562E-003   0.0000000000000000     
   2.5813133534219688E-003   4.4644561145065183E-003   0.0000000000000000     
   3.4793101830339979E-003   6.7089131036276017E-003   0.0000000000000000     
   0.0000000000000000        0.0000000000000000        0.0000000000000000     
   6.3382653949705433E-004   1.0939979337387181E-003   0.0000000000000000     
   1.2780303522776605E-003   2.5620922283936657E-003   0.0000000000000000     
   1.9326114383418182E-003   4.4042828839648430E-003   0.0000000000000000     
   2.5975697976895278E-003   6.6205699004522516E-003   0.0000000000000000     
   0.0000000000000000        0.0000000000000000        0.0000000000000000     
   4.2427274653237775E-004   1.0825645242305236E-003   0.0000000000000000     
   8.5299070844196371E-004   2.5363326596368435E-003   0.0000000000000000     
   1.2861538857287581E-003   4.3613044062189603E-003   0.0000000000000000     
   1.7237622783927604E-003   6.5574797639768702E-003   0.0000000000000000     
   0.0000000000000000        0.0000000000000000        0.0000000000000000     
   2.1299688301093959E-004   1.0756993341681335E-003   0.0000000000000000     
   4.2697711487186879E-004   2.5208728945910882E-003   0.0000000000000000     
   6.4194069558278736E-004   4.3355206812688641E-003   0.0000000000000000     
   8.5788762514369581E-004   6.5196426942014619E-003   0.0000000000000000     
   0.0000000000000000        0.0000000000000000        0.0000000000000000     
  -1.0510672600555580E-009   1.0734023635515480E-003   0.0000000000000000     
  -1.0428432624441739E-008   2.5157129332564012E-003   0.0000000000000000     
  -2.8132096093131439E-008   4.3269317091145596E-003   0.0000000000000000     
  -5.4162057666178867E-008   6.5070586911260249E-003   0.0000000000000000     
   3.4793101830339979E-003   6.7089131036276017E-003   0.0000000000000000     
   4.3878307194088750E-003   9.2941980606762627E-003   0.0000000000000000     
   5.2986191467404280E-003   1.2182986478103962E-002   0.0000000000000000     
   6.2116754650286543E-003   1.5375278355910694E-002   0.0000000000000000     
   7.1269996742735573E-003   1.8871073694096463E-002   0.0000000000000000     
   2.5975697976895278E-003   6.6205699004522516E-003   0.0000000000000000     
   3.2699485573780673E-003   9.1780023863557800E-003   0.0000000000000000     
   3.9467908444647155E-003   1.2043629450175326E-002   0.0000000000000000     
   4.6280966589494713E-003   1.5217451091910890E-002   0.0000000000000000     
   5.3138660008323364E-003   1.8699467311562464E-002   0.0000000000000000     
   1.7237622783927604E-003   6.5574797639768702E-003   0.0000000000000000     
   2.1660026404347636E-003   9.0950246213374625E-003   0.0000000000000000     
   2.6130617258555595E-003   1.1944104866727616E-002   0.0000000000000000     
   3.0649395346551479E-003   1.5104720500147330E-002   0.0000000000000000     
   3.5216360668335290E-003   1.8576871521596611E-002   0.0000000000000000     
   8.5788762514369581E-004   6.5196426942014619E-003   0.0000000000000000     
   1.0759929685789634E-003   9.0452647656213067E-003   0.0000000000000000     
   1.2974317909129590E-003   1.1884412727760826E-002   0.0000000000000000     
   1.5222040921456835E-003   1.5037086580620021E-002   0.0000000000000000     
   1.7503098722771366E-003   1.8503286324198887E-002   0.0000000000000000     
  -5.4162057666178867E-008   6.5070586911260249E-003   0.0000000000000000     
  -8.0458189333451635E-008   9.0287228192073195E-003   0.0000000000000000     
  -9.8960363085759254E-008   1.1864553033274961E-002   0.0000000000000000     
  -1.0966857892178544E-007   1.5014549333328958E-002   0.0000000000000000     
  -1.1258283684283631E-007   1.8478711719369306E-002   0.0000000000000000     
   7.1269996742735573E-003   1.8871073694096463E-002   0.0000000000000000     
   8.0380255677589829E-003   2.2644467687211102E-002   0.0000000000000000     
   8.9381869387687770E-003   2.6669555529804465E-002   0.0000000000000000     
   9.8274837873029465E-003   3.0946337221876546E-002   0.0000000000000000     
   1.0705916113361483E-002   3.5474812763427344E-002   0.0000000000000000     
   5.3138660008323364E-003   1.8699467311562464E-002   0.0000000000000000     
   5.9971766838115498E-003   2.2462277656216278E-002   0.0000000000000000     
   6.6711065215853535E-003   2.6478481672958552E-002   0.0000000000000000     
   7.3356555141537482E-003   3.0748079361789287E-002   0.0000000000000000     
   7.9908236615167331E-003   3.5271070722708478E-002   0.0000000000000000     
   3.5216360668335290E-003   1.8576871521596611E-002   0.0000000000000000     
   3.9772006300055583E-003   2.2332109261819912E-002   0.0000000000000000     
   4.4256825317860920E-003   2.6341985051561729E-002   0.0000000000000000     
   4.8670817721751291E-003   3.0606498890822044E-002   0.0000000000000000     
   5.3013983511726696E-003   3.5125650779600857E-002   0.0000000000000000     
   1.7503098722771366E-003   1.8503286324198887E-002   0.0000000000000000     
   1.9780974063410084E-003   2.2253962504022010E-002   0.0000000000000000     
   2.2019149693709920E-003   2.6260065665613994E-002   0.0000000000000000     
   2.4217625613670857E-003   3.0521595808974806E-002   0.0000000000000000     
   2.6376401823292902E-003   3.5038552934104475E-002   0.0000000000000000     
  -1.1258283684283631E-007   1.8478711719369306E-002   0.0000000000000000     
  -1.3298718210008088E-007   2.2227837382822576E-002   0.0000000000000000     
  -1.9616565994615186E-007   2.6232723515115335E-002   0.0000000000000000     
  -3.0211827038035806E-007   3.0493370116247583E-002   0.0000000000000000     
  -4.5084501340314671E-007   3.5009777186219324E-002   0.0000000000000000     
   1.0705916113361483E-002   3.5474812763427344E-002   0.0000000000000000     
   1.1567728495793879E-002   4.0234826434351514E-002   0.0000000000000000     
   1.2407165513449621E-002   4.5206222514543710E-002   0.0000000000000000     
   1.3224227166328715E-002   5.0389001004003939E-002   0.0000000000000000     
   1.4018913454431150E-002   5.5783161902732178E-002   0.0000000000000000     
   7.9908236615167331E-003   3.5271070722708478E-002   0.0000000000000000     
   8.6335827566888807E-003   4.0027778651436585E-002   0.0000000000000000     
   9.2609045926847593E-003   4.4998526043694052E-002   0.0000000000000000     
   9.8727891695043705E-003   5.0183312899480893E-002   0.0000000000000000     
   1.0469236487147718E-002   5.5582139218797094E-002   0.0000000000000000     
   5.3013983511726696E-003   3.5125650779600857E-002   0.0000000000000000     
   5.7274763544547603E-003   3.9880026244499170E-002   0.0000000000000000     
   6.1441598676974475E-003   4.4850210812118006E-002   0.0000000000000000     
   6.5514488909007296E-003   5.0036204482457325E-002   0.0000000000000000     
   6.9493434240646100E-003   5.5438007255517160E-002   0.0000000000000000     
   2.6376401823292902E-003   3.5038552934104475E-002   0.0000000000000000     
   2.8494092890915187E-003   3.9791569213539275E-002   0.0000000000000000     
   3.0569313384876846E-003   4.4761276819815538E-002   0.0000000000000000     
   3.2602063305177871E-003   4.9947675752933240E-002   0.0000000000000000     
   3.4592342651818277E-003   5.5350766012892391E-002   0.0000000000000000     
  -4.5084501340314671E-007   3.5009777186219324E-002   0.0000000000000000     
  -6.1843940084283216E-007   3.9762407558556909E-002   0.0000000000000000     
  -7.8099494452653611E-007   4.4731724066786674E-002   0.0000000000000000     
  -9.3851164445585777E-007   4.9917726710908626E-002   0.0000000000000000     
  -1.0909895006290353E-006   5.5320415490922766E-002   0.0000000000000000     
   1.4018913454431150E-002   5.5783161902732178E-002   0.0000000000000000     
   1.4790538851567836E-002   6.1375514510197113E-002   0.0000000000000000     
   1.5538417831549677E-002   6.7152868125867363E-002   0.0000000000000000     
   1.6262550394376667E-002   7.3115222749742970E-002   0.0000000000000000     
   1.6962936540048816E-002   7.9262578381823920E-002   0.0000000000000000     
   1.0469236487147718E-002   5.5582139218797094E-002   0.0000000000000000     
   1.1048808682616172E-002   6.1180465660417349E-002   0.0000000000000000     
   1.1610067892911115E-002   6.6963752883116373E-002   0.0000000000000000     
   1.2153014118032544E-002   7.2932000886894166E-002   0.0000000000000000     
   1.2677647357980460E-002   7.9085209671750728E-002   0.0000000000000000     
   6.9493434240646100E-003   5.5438007255517160E-002   0.0000000000000000     
   7.3362708689951074E-003   6.1040221625683469E-002   0.0000000000000000     
   7.7106586274982430E-003   6.6827450087342241E-002   0.0000000000000000     
   8.0725066995740169E-003   7.2799692640493463E-002   0.0000000000000000     
   8.4218150852224324E-003   7.8956949285137148E-002   0.0000000000000000     
   3.4592342651818277E-003   5.5350766012892391E-002   0.0000000000000000     
   3.6529254107046409E-003   6.0954782405995452E-002   0.0000000000000000     
   3.8401900353110634E-003   6.6743959738544953E-002   0.0000000000000000     
   4.0210281390010956E-003   7.2718298010540874E-002   0.0000000000000000     
   4.1954397217747377E-003   7.8877797221983195E-002   0.0000000000000000     
  -1.0909895006290353E-006   5.5320415490922766E-002   0.0000000000000000     
  -1.2276922552260363E-006   6.0924148001353325E-002   0.0000000000000000     
  -1.3378836504237385E-006   6.6713281836724536E-002   0.0000000000000000     
  -1.4215636862241341E-006   7.2687816997036386E-002   0.0000000000000000     
  -1.4787323626261253E-006   7.8847753482288882E-002   0.0000000000000000     
   1.6962936540048816E-002   7.9262578381823920E-002   0.0000000000000000     
   1.7637900095793118E-002   8.5581768789684987E-002   0.0000000000000000     
   1.8285764888836584E-002   9.2059627740901012E-002   0.0000000000000000     
   1.8906530919179199E-002   9.8696155235471969E-002   0.0000000000000000     
   1.9500198186820986E-002  0.10549135127339790        0.0000000000000000     
   1.2677647357980460E-002   7.9085209671750728E-002   0.0000000000000000     
   1.3183168533910371E-002   8.5410519116361591E-002   0.0000000000000000     
   1.3668778566977796E-002   9.1895069099402343E-002   0.0000000000000000     
   1.4134477457182729E-002   9.8538859620872943E-002   0.0000000000000000     
   1.4580265204525170E-002  0.10534189068077343        0.0000000000000000     
   8.4218150852224324E-003   7.8956949285137148E-002   0.0000000000000000     
   8.7583481502274321E-003   8.5286524934739705E-002   0.0000000000000000     
   9.0818702603729685E-003   9.1775724502767497E-002   0.0000000000000000     
   9.3923814156590384E-003   9.8424547989220568E-002   0.0000000000000000     
   9.6898816160856400E-003  0.10523299539409890        0.0000000000000000     
   4.1954397217747377E-003   7.8877797221983195E-002   0.0000000000000000     
   4.3634389447443009E-003   8.5209786244819327E-002   0.0000000000000000     
   4.5250399690220993E-003   9.1701593950996529E-002   0.0000000000000000     
   4.6802427946081313E-003   9.8353220340514871E-002   0.0000000000000000     
   4.8290474215023985E-003  0.10516466541337430        0.0000000000000000     
  -1.4787323626261253E-006   7.8847753482288882E-002   0.0000000000000000     
  -1.5590825390241619E-006   8.5180303046600431E-002   0.0000000000000000     
  -1.7123070748117724E-006   9.1672677444089384E-002   0.0000000000000000     
  -1.9384059699882383E-006   9.8324876674755812E-002   0.0000000000000000     
  -2.2373792245558230E-006  0.10513690073859966        0.0000000000000000     
   1.9500198186820986E-002  0.10549135127339790        0.0000000000000000     
   2.0068587538811342E-002  0.11243415078144277        0.0000000000000000     
   2.0613519822199677E-002  0.11951348868637064        0.0000000000000000     
   2.1134995036986001E-002  0.12672936498818152        0.0000000000000000     
   2.1633013183170305E-002  0.13408177968687537        0.0000000000000000     
   1.4580265204525170E-002  0.10534189068077343        0.0000000000000000     
   1.5007073149280452E-002  0.11229292794680162        0.0000000000000000     
   1.5415832631723901E-002  0.11938073708665535        0.0000000000000000     
   1.5806543651855520E-002  0.12660531810033465        0.0000000000000000     
   1.6179206209675313E-002  0.13396667098783949        0.0000000000000000     
   9.6898816160856400E-003  0.10523299539409890        0.0000000000000000     
   9.9746914952246520E-003  0.11218956278803699        0.0000000000000000     
   1.0247131686647943E-002  0.11928274624166932        0.0000000000000000     
   1.0507202190355515E-002  0.12651254575499590        0.0000000000000000     
   1.0754903006347367E-002  0.13387896132801674        0.0000000000000000     
   4.8290474215023985E-003  0.10516466541337430        0.0000000000000000     
   4.9714425766439413E-003  0.11212405530514886        0.0000000000000000     
   5.1074169869718003E-003  0.11921951615141251        0.0000000000000000     
   5.2369706524859738E-003  0.12645104795216530        0.0000000000000000     
   5.3601035731864650E-003  0.13381865070740717        0.0000000000000000     
  -2.2373792245558230E-006  0.10513690073859966        0.0000000000000000     
  -2.6736064616802654E-006  0.11209640549813726        0.0000000000000000     
  -3.3114673045270878E-006  0.11919104681588498        0.0000000000000000     
  -4.1509617530973201E-006  0.12642082469184282        0.0000000000000000     
  -5.1920898073922091E-006  0.13378573912601074        0.0000000000000000     
   2.1633013183170305E-002  0.13408177968687537        0.0000000000000000     
   2.2103555523486289E-002  0.14155822388601236        0.0000000000000000     
   2.2542603320667653E-002  0.14914618868915250        0.0000000000000000     
   2.2950156574714390E-002  0.15684567409629588        0.0000000000000000     
   2.3326215285626506E-002  0.16465668010744244        0.0000000000000000     
   1.6179206209675313E-002  0.13396667098783949        0.0000000000000000     
   1.6532401887043725E-002  0.14145354726478188        0.0000000000000000     
   1.6864712265821213E-002  0.14905469844677394        0.0000000000000000     
   1.7176137346007776E-002  0.15677012453381556        0.0000000000000000     
   1.7466677127603407E-002  0.16459982552590685        0.0000000000000000     
   1.0754903006347367E-002  0.13387896132801674        0.0000000000000000     
   1.0990322670658442E-002  0.14137136327128352        0.0000000000000000     
   1.1213549719323689E-002  0.14897912189534804        0.0000000000000000     
   1.1424584152343103E-002  0.15670223720021015        0.0000000000000000     
   1.1623425969716685E-002  0.16454070918586999        0.0000000000000000     
   5.3601035731864650E-003  0.13381865070740717        0.0000000000000000     
   5.4773178743304412E-003  0.14131167190551727        0.0000000000000000     
   5.5891156811750803E-003  0.14891945903487475        0.0000000000000000     
   5.6954969937203807E-003  0.15664201209547954        0.0000000000000000     
   5.7964618119663407E-003  0.16447933108733176        0.0000000000000000     
  -5.1920898073922091E-006  0.13378573912601074        0.0000000000000000     
  -6.6125019402745247E-006  0.14127447316748309        0.0000000000000000     
  -8.5898486246087716E-006  0.14887570986535412        0.0000000000000000     
  -1.1124129860393323E-005  0.15658944921962381        0.0000000000000000     
  -1.4215345647630891E-005  0.16441569123029220        0.0000000000000000     
   0.0000000000000000        0.0000000000000000        0.0000000000000000     
  -1.0510672600555580E-009   1.0734023635515480E-003   0.0000000000000000     
  -1.0428432624441739E-008   2.5157129332564012E-003   0.0000000000000000     
  -2.8132096093131439E-008   4.3269317091145596E-003   0.0000000000000000     
  -5.4162057666178867E-008   6.5070586911260249E-003   0.0000000000000000     
   0.0000000000000000        0.0000000000000000        0.0000000000000000     
  -2.1299998829078882E-004   1.0756805027244958E-003   0.0000000000000000     
  -4.2699839954186042E-004   2.5208591433192916E-003   0.0000000000000000     
  -6.4199523375321462E-004   4.3355359217843873E-003   0.0000000000000000     
  -8.5799049092485154E-004   6.5197108381197843E-003   0.0000000000000000     
   0.0000000000000000        0.0000000000000000        0.0000000000000000     
  -4.2427886124821439E-004   1.0825406420307063E-003   0.0000000000000000     
  -8.5301327652618358E-004   2.5363178924662695E-003   0.0000000000000000     
  -1.2862032458339074E-003   4.3613317513066900E-003   0.0000000000000000     
  -1.7238487691713861E-003   6.5575822185519666E-003   0.0000000000000000     
   0.0000000000000000        0.0000000000000000        0.0000000000000000     
  -6.3383766993953673E-004   1.0939827814701790E-003   0.0000000000000000     
  -1.2780550593855938E-003   2.5620891806973347E-003   0.0000000000000000     
  -1.9326521683381717E-003   4.4043191976814661E-003   0.0000000000000000     
  -2.5976289967972700E-003   6.6206728324225764E-003   0.0000000000000000     
   0.0000000000000000        0.0000000000000000        0.0000000000000000     
  -8.4167641436475569E-004   1.1100069210429146E-003   0.0000000000000000     
  -1.7021237481200913E-003   2.5981730080124874E-003   0.0000000000000000     
  -2.5813420012660072E-003   4.4644982609087173E-003   0.0000000000000000     
  -3.4793311738025023E-003   6.7089826797316057E-003   0.0000000000000000     
  -5.4162057666178867E-008   6.5070586911260249E-003   0.0000000000000000     
  -8.0458189333451635E-008   9.0287228192073195E-003   0.0000000000000000     
  -9.8960363085759254E-008   1.1864553033274961E-002   0.0000000000000000     
  -1.0966857892178544E-007   1.5014549333328958E-002   0.0000000000000000     
  -1.1258283684283631E-007   1.8478711719369306E-002   0.0000000000000000     
  -8.5799049092485154E-004   6.5197108381197843E-003   0.0000000000000000     
  -1.0761448852214125E-003   9.0453709400058983E-003   0.0000000000000000     
  -1.2976191308075398E-003   1.1884503275123153E-002   0.0000000000000000     
  -1.5224132276832334E-003   1.5037107843471544E-002   0.0000000000000000     
  -1.7505271758484914E-003   1.8503184645051070E-002   0.0000000000000000     
  -1.7238487691713861E-003   6.5575822185519666E-003   0.0000000000000000     
  -2.1661275578685603E-003   9.0951812859274613E-003   0.0000000000000000     
  -2.6132173232553692E-003   1.1944240945158531E-002   0.0000000000000000     
  -3.0651180653318137E-003   1.5104761196245176E-002   0.0000000000000000     
  -3.5218297840978940E-003   1.8576742039187397E-002   0.0000000000000000     
  -2.5976289967972700E-003   6.6206728324225764E-003   0.0000000000000000     
  -3.2700284761307749E-003   9.1781538569720017E-003   0.0000000000000000     
  -3.9468935377065736E-003   1.2043766043381095E-002   0.0000000000000000     
  -4.6282241815246653E-003   1.5217509391649849E-002   0.0000000000000000     
  -5.3140204075850499E-003   1.8699383901778270E-002   0.0000000000000000     
  -3.4793311738025023E-003   6.7089826797316057E-003   0.0000000000000000     
  -4.3878476400080581E-003   9.2942886531395246E-003   0.0000000000000000     
  -5.2986477741611528E-003   1.2183078569790845E-002   0.0000000000000000     
  -6.2117315762617864E-003   1.5375352429685572E-002   0.0000000000000000     
  -7.1270990463099589E-003   1.8871110232823701E-002   0.0000000000000000     
  -1.1258283684283631E-007   1.8478711719369306E-002   0.0000000000000000     
  -1.3298718210008088E-007   2.2227837382822576E-002   0.0000000000000000     
  -1.9616565994615186E-007   2.6232723515115335E-002   0.0000000000000000     
  -3.0211827038035806E-007   3.0493370116247583E-002   0.0000000000000000     
  -4.5084501340314671E-007   3.5009777186219324E-002   0.0000000000000000     
  -1.7505271758484914E-003   1.8503184645051070E-002   0.0000000000000000     
  -1.9783547439244306E-003   2.2253792568221357E-002   0.0000000000000000     
  -2.2022897005321640E-003   2.6259990501342013E-002   0.0000000000000000     
  -2.4223320456716918E-003   3.0521778444413047E-002   0.0000000000000000     
  -2.6384817793430144E-003   3.5039156397434455E-002   0.0000000000000000     
  -3.5218297840978940E-003   1.8576742039187397E-002   0.0000000000000000     
  -3.9774320572466453E-003   2.2331886730218114E-002   0.0000000000000000     
  -4.4260044624711038E-003   2.6341898525570267E-002   0.0000000000000000     
  -4.8675469997712705E-003   3.0606777425243852E-002   0.0000000000000000     
  -5.3020596691471427E-003   3.5126523429238866E-002   0.0000000000000000     
  -5.3140204075850499E-003   1.8699383901778270E-002   0.0000000000000000     
  -5.9973649271487448E-003   2.2462119868812847E-002   0.0000000000000000     
  -6.6713404514767679E-003   2.6478447587800099E-002   0.0000000000000000     
  -7.3359469805691149E-003   3.0748367058740005E-002   0.0000000000000000     
  -7.9911845144257938E-003   3.5271878281632585E-002   0.0000000000000000     
  -7.1270990463099589E-003   1.8871110232823701E-002   0.0000000000000000     
  -8.0381533536307299E-003   2.2644491984005571E-002   0.0000000000000000     
  -8.9382976675491527E-003   2.6669637688031506E-002   0.0000000000000000     
  -9.8275319880652291E-003   3.0946547344901515E-002   0.0000000000000000     
  -1.0705856315178961E-002   3.5475220954615590E-002   0.0000000000000000     
  -4.5084501340314671E-007   3.5009777186219324E-002   0.0000000000000000     
  -6.1843940084283216E-007   3.9762407558556909E-002   0.0000000000000000     
  -7.8099494452653611E-007   4.4731724066786674E-002   0.0000000000000000     
  -9.3851164445585777E-007   4.9917726710908626E-002   0.0000000000000000     
  -1.0909895006290353E-006   5.5320415490922766E-002   0.0000000000000000     
  -2.6384817793430144E-003   3.5039156397434455E-002   0.0000000000000000     
  -2.8505572371337593E-003   3.9792328064267933E-002   0.0000000000000000     
  -3.0583767546315554E-003   4.4761497148775191E-002   0.0000000000000000     
  -3.2619403318364013E-003   4.9946663650956243E-002   0.0000000000000000     
  -3.4612479687483001E-003   5.5347827570811067E-002   0.0000000000000000     
  -5.3020596691471427E-003   3.5126523429238866E-002   0.0000000000000000     
  -5.7283575102186624E-003   3.9881117515388240E-002   0.0000000000000000     
  -6.1452555626057672E-003   4.4850540661524892E-002   0.0000000000000000     
  -6.5527538263084545E-003   5.0034792867648829E-002   0.0000000000000000     
  -6.9508523013267261E-003   5.5433874133760067E-002   0.0000000000000000     
  -7.9911845144257938E-003   3.5271878281632585E-002   0.0000000000000000     
  -8.6340192586555550E-003   4.0028775911917835E-002   0.0000000000000000     
  -9.2614174188671624E-003   4.4998854605035783E-002   0.0000000000000000     
  -9.8733789950606124E-003   5.0182114360986414E-002   0.0000000000000000     
  -1.0469903987235907E-002   5.5578555179769749E-002   0.0000000000000000     
  -1.0705856315178961E-002   3.5475220954615590E-002   0.0000000000000000     
  -1.1567542482444435E-002   4.0235303253856713E-002   0.0000000000000000     
  -1.2406862323415740E-002   4.5206438979307845E-002   0.0000000000000000     
  -1.3223815838092876E-002   5.0388628130968977E-002   0.0000000000000000     
  -1.4018403026475841E-002   5.5781870708840123E-002   0.0000000000000000     
  -1.0909895006290353E-006   5.5320415490922766E-002   0.0000000000000000     
  -1.2276922552260363E-006   6.0924148001353325E-002   0.0000000000000000     
  -1.3378836504237385E-006   6.6713281836724536E-002   0.0000000000000000     
  -1.4215636862241341E-006   7.2687816997036386E-002   0.0000000000000000     
  -1.4787323626261253E-006   7.8847753482288882E-002   0.0000000000000000     
  -3.4612479687483001E-003   5.5347827570811067E-002   0.0000000000000000     
  -3.6551904398885292E-003   6.0949790582184811E-002   0.0000000000000000     
  -3.8426585197783628E-003   6.6737354358922585E-002   0.0000000000000000     
  -4.0236522084178029E-003   7.2710518901024382E-002   0.0000000000000000     
  -4.1981715058068535E-003   7.8869284208490237E-002   0.0000000000000000     
  -6.9508523013267261E-003   5.5433874133760067E-002   0.0000000000000000     
  -7.3379648321992997E-003   6.1033182318917668E-002   0.0000000000000000     
  -7.7125052634648946E-003   6.6818115282180734E-002   0.0000000000000000     
  -8.0744735951235064E-003   7.2788673023549258E-002   0.0000000000000000     
  -8.4238698271751379E-003   7.8944855543023246E-002   0.0000000000000000     
  -1.0469903987235907E-002   5.5578555179769749E-002   0.0000000000000000     
  -1.1049550869187543E-002   6.1174323211551897E-002   0.0000000000000000     
  -1.1610878114710017E-002   6.6955564606498971E-002   0.0000000000000000     
  -1.2153885723803328E-002   7.2922279364611015E-002   0.0000000000000000     
  -1.2678573696467479E-002   7.9074467485888006E-002   0.0000000000000000     
  -1.4018403026475841E-002   5.5781870708840123E-002   0.0000000000000000     
  -1.4789948550853256E-002   6.1373213260087503E-002   0.0000000000000000     
  -1.5537777073513732E-002   6.7149702331877351E-002   0.0000000000000000     
  -1.6261888594457277E-002   7.3111337924209652E-002   0.0000000000000000     
  -1.6962283113683880E-002   7.9258120037084434E-002   0.0000000000000000     
  -1.4787323626261253E-006   7.8847753482288882E-002   0.0000000000000000     
  -1.5590825390241619E-006   8.5180303046600431E-002   0.0000000000000000     
  -1.7123070748117724E-006   9.1672677444089384E-002   0.0000000000000000     
  -1.9384059699882383E-006   9.8324876674755812E-002   0.0000000000000000     
  -2.2373792245558230E-006  0.10513690073859966        0.0000000000000000     
  -4.1981715058068535E-003   7.8869284208490237E-002   0.0000000000000000     
  -4.3663217123501991E-003   8.5200693230549907E-002   0.0000000000000000     
  -4.5282081284525330E-003   9.1691788916433259E-002   0.0000000000000000     
  -4.6838307541138529E-003   9.8342571266140252E-002   0.0000000000000000     
  -4.8331895893341621E-003  0.10515304027967091        0.0000000000000000     
  -8.4238698271751379E-003   7.8944855543023246E-002   0.0000000000000000     
  -8.7605247254168798E-003   8.5273574687134604E-002   0.0000000000000000     
  -9.0842690556458324E-003   9.1761742302415183E-002   0.0000000000000000     
  -9.3951028178619889E-003   9.8409358388864998E-002   0.0000000000000000     
  -9.6930260120653543E-003  0.10521642294648408        0.0000000000000000     
  -1.2678573696467479E-002   7.9074467485888006E-002   0.0000000000000000     
  -1.3184168121739072E-002   8.5398947416354523E-002   0.0000000000000000     
  -1.3669895088654712E-002   9.1882537602035214E-002   0.0000000000000000     
  -1.4135754597214402E-002   9.8525238042930105E-002   0.0000000000000000     
  -1.4581746647418136E-002  0.10532704873903913        0.0000000000000000     
  -1.6962283113683880E-002   7.9258120037084434E-002   0.0000000000000000     
  -1.7637251901316771E-002   8.5576811418209678E-002   0.0000000000000000     
  -1.8285086227479173E-002   9.2054174815293349E-002   0.0000000000000000     
  -1.8905786092171084E-002   9.8690210228335490E-002   0.0000000000000000     
  -1.9499351495392506E-002  0.10548491765733609        0.0000000000000000     
  -2.2373792245558230E-006  0.10513690073859966        0.0000000000000000     
  -2.6736064616802654E-006  0.11209640549813726        0.0000000000000000     
  -3.3114673045270878E-006  0.11919104681588498        0.0000000000000000     
  -4.1509617530973201E-006  0.12642082469184282        0.0000000000000000     
  -5.1920898073922091E-006  0.13378573912601074        0.0000000000000000     
  -4.8331895893341621E-003  0.10515304027967091        0.0000000000000000     
  -4.9763925826943195E-003  0.11211050728720721        0.0000000000000000     
  -5.1135476827751918E-003  0.11920228361893108        0.0000000000000000     
  -5.2446548895767782E-003  0.12642836927484255        0.0000000000000000     
  -5.3697142030990786E-003  0.13378876425494160        0.0000000000000000     
  -9.6930260120653543E-003  0.10521642294648408        0.0000000000000000     
  -9.9784498806560866E-003  0.11217025459256370        0.0000000000000000     
  -1.0251785666034352E-002  0.11925817194439517        0.0000000000000000     
  -1.0513033368200142E-002  0.12648017500197856        0.0000000000000000     
  -1.0762192987153469E-002  0.13383626376531380        0.0000000000000000     
  -1.4581746647418136E-002  0.10532704873903913        0.0000000000000000     
  -1.5008845500346981E-002  0.11227564741420674        0.0000000000000000     
  -1.5418025417082001E-002  0.11935871179227729        0.0000000000000000     
  -1.5809286397623190E-002  0.12657624187325081        0.0000000000000000     
  -1.6182628441970562E-002  0.13392823765712730        0.0000000000000000     
  -1.9499351495392506E-002  0.10548491765733609        0.0000000000000000     
  -2.0067579441767004E-002  0.11242668575213634        0.0000000000000000     
  -2.0612266935918142E-002  0.11950390316257743        0.0000000000000000     
  -2.1133413977845929E-002  0.12671656988865940        0.0000000000000000     
  -2.1631020567550362E-002  0.13406468593038218        0.0000000000000000     
  -5.1920898073922091E-006  0.13378573912601074        0.0000000000000000     
  -6.6125019402745247E-006  0.14127447316748309        0.0000000000000000     
  -8.5898486246087716E-006  0.14887570986535412        0.0000000000000000     
  -1.1124129860393323E-005  0.15658944921962381        0.0000000000000000     
  -1.4215345647630891E-005  0.16441569123029220        0.0000000000000000     
  -5.3697142030990786E-003  0.13378876425494160        0.0000000000000000     
  -5.4895422315650935E-003  0.14127139498308264        0.0000000000000000     
  -5.6049555831978234E-003  0.14886418788312009        0.0000000000000000     
  -5.7159542579972725E-003  0.15656714295505389        0.0000000000000000     
  -5.8225382559634331E-003  0.16438026019888416        0.0000000000000000     
  -1.0762192987153469E-002  0.13383626376531380        0.0000000000000000     
  -1.0999545087955398E-002  0.14131406527821758        0.0000000000000000     
  -1.1225370235667010E-002  0.14890120658450662        0.0000000000000000     
  -1.1439668430288302E-002  0.15659768768418086        0.0000000000000000     
  -1.1642439671819277E-002  0.16440350857724040        0.0000000000000000     
  -1.6182628441970562E-002  0.13392823765712730        0.0000000000000000     
  -1.6536621071111191E-002  0.14140248405288786        0.0000000000000000     
  -1.6869833806032165E-002  0.14898676596951371        0.0000000000000000     
  -1.7182266646733491E-002  0.15668108340700465        0.0000000000000000     
  -1.7473919593215155E-002  0.16448543636536092        0.0000000000000000     
  -2.1631020567550362E-002  0.13406468593038218        0.0000000000000000     
  -2.2100770181032466E-002  0.14153665130709356        0.0000000000000000     
  -2.2538346294293285E-002  0.14912086603814129        0.0000000000000000     
  -2.2943748907332823E-002  0.15681733012352536        0.0000000000000000     
  -2.3316978020151077E-002  0.16462604356324578        0.0000000000000000     
   0.0000000000000000        0.0000000000000000        0.0000000000000000     
  -8.4167641436475569E-004   1.1100069210429146E-003   0.0000000000000000     
  -1.7021237481200913E-003   2.5981730080124874E-003   0.0000000000000000     
  -2.5813420012660072E-003   4.4644982609087173E-003   0.0000000000000000     
  -3.4793311738025023E-003   6.7089826797316057E-003   0.0000000000000000     
   0.0000000000000000        0.0000000000000000        0.0000000000000000     
  -1.0567012322881841E-003   1.1341708384450628E-003   0.0000000000000000     
  -2.1397613233557085E-003   2.6504155891292520E-003   0.0000000000000000     
  -3.2491802732025729E-003   4.5487342520525668E-003   0.0000000000000000     
  -4.3849580818287777E-003   6.8291268272150070E-003   0.0000000000000000     
   0.0000000000000000        0.0000000000000000        0.0000000000000000     
  -1.2878182614741347E-003   1.1700323113727740E-003   0.0000000000000000     
  -2.6055097657184780E-003   2.7246631387651534E-003   0.0000000000000000     
  -3.9530745127330288E-003   4.6638924821771378E-003   0.0000000000000000     
  -5.3305125025177877E-003   6.9877203416087268E-003   0.0000000000000000     
   0.0000000000000000        0.0000000000000000        0.0000000000000000     
  -1.5350275019226074E-003   1.2175913398260480E-003   0.0000000000000000     
  -3.0993690752083984E-003   2.8209156569201912E-003   0.0000000000000000     
  -4.6930247198573730E-003   4.8099729512824296E-003   0.0000000000000000     
  -6.3159944358695333E-003   7.1847632229127640E-003   0.0000000000000000     
   0.0000000000000000        0.0000000000000000        0.0000000000000000     
  -1.7983289536336019E-003   1.2768479238048848E-003   0.0000000000000000     
  -3.6213392518254714E-003   2.9391731435943658E-003   0.0000000000000000     
  -5.4690308945756095E-003   4.9869756593684438E-003   0.0000000000000000     
  -7.3414038818840127E-003   7.4202554711271188E-003   0.0000000000000000     
  -3.4793311738025023E-003   6.7089826797316057E-003   0.0000000000000000     
  -4.3878476400080581E-003   9.2942886531395246E-003   0.0000000000000000     
  -5.2986477741611528E-003   1.2183078569790845E-002   0.0000000000000000     
  -6.2117315762617864E-003   1.5375352429685572E-002   0.0000000000000000     
  -7.1270990463099589E-003   1.8871110232823701E-002   0.0000000000000000     
  -4.3849580818287777E-003   6.8291268272150070E-003   0.0000000000000000     
  -5.5341155859122641E-003   9.4495954079908961E-003   0.0000000000000000     
  -6.6836736221309702E-003   1.2368142087754556E-002   0.0000000000000000     
  -7.8336321904849005E-003   1.5584766866505987E-002   0.0000000000000000     
  -8.9839912909740506E-003   1.9099469744245187E-002   0.0000000000000000     
  -5.3305125025177877E-003   6.9877203416087268E-003   0.0000000000000000     
  -6.7233628502552456E-003   9.6500838550869911E-003   0.0000000000000000     
  -8.1171646711278925E-003   1.2604920160638992E-002   0.0000000000000000     
  -9.5119179651357282E-003   1.5852229258264738E-002   0.0000000000000000     
  -1.0907622732278754E-002   1.9392011147964228E-002   0.0000000000000000     
  -6.3159944358695333E-003   7.1847632229127640E-003   0.0000000000000000     
  -7.9555894330370063E-003   9.8957539944278042E-003   0.0000000000000000     
  -9.5991209211519161E-003   1.2893412788444161E-002   0.0000000000000000     
  -1.1246588900214268E-002   1.6177739604961834E-002   0.0000000000000000     
  -1.2897993370224065E-002   1.9748734443980821E-002   0.0000000000000000     
  -7.3414038818840127E-003   7.4202554711271188E-003   0.0000000000000000     
  -9.2307953342575400E-003   1.0186605826013339E-002   0.0000000000000000     
  -1.1129542372203045E-002   1.3233619971170054E-002   0.0000000000000000     
  -1.3037644995720528E-002   1.6561297906597262E-002   0.0000000000000000     
  -1.4955103204809988E-002   2.0169639632294966E-002   0.0000000000000000     
  -7.1270990463099589E-003   1.8871110232823701E-002   0.0000000000000000     
  -8.0381533536307299E-003   2.2644491984005571E-002   0.0000000000000000     
  -8.9382976675491527E-003   2.6669637688031506E-002   0.0000000000000000     
  -9.8275319880652291E-003   3.0946547344901515E-002   0.0000000000000000     
  -1.0705856315178961E-002   3.5475220954615590E-002   0.0000000000000000     
  -8.9839912909740506E-003   1.9099469744245187E-002   0.0000000000000000     
  -1.0127716764719531E-002   2.2887419979158725E-002   0.0000000000000000     
  -1.1257774452842447E-002   2.6923786829433166E-002   0.0000000000000000     
  -1.2374164355342799E-002   3.1208570295068513E-002   0.0000000000000000     
  -1.3476886472220586E-002   3.5741770376064762E-002   0.0000000000000000     
  -1.0907622732278754E-002   1.9392011147964228E-002   0.0000000000000000     
  -1.2293974588442082E-002   2.3199320757634791E-002   0.0000000000000000     
  -1.3660669149510835E-002   2.7249213015173770E-002   0.0000000000000000     
  -1.5007706415485010E-002   3.1541687920581159E-002   0.0000000000000000     
  -1.6335086386364606E-002   3.6076745473856982E-002   0.0000000000000000     
  -1.2897993370224065E-002   1.9748734443980821E-002   0.0000000000000000     
  -1.4536926824798386E-002   2.3580194319433766E-002   0.0000000000000000     
  -1.6146981757554316E-002   2.7645916245253317E-002   0.0000000000000000     
  -1.7728158168491864E-002   3.1945900221439463E-002   0.0000000000000000     
  -1.9280456057611018E-002   3.6480146247992222E-002   0.0000000000000000     
  -1.4955103204809988E-002   2.0169639632294966E-002   0.0000000000000000     
  -1.6856573473788439E-002   2.4030040664555653E-002   0.0000000000000000     
  -1.8716712276972896E-002   2.8113896519671801E-002   0.0000000000000000     
  -2.0535519614363357E-002   3.2421207197643409E-002   0.0000000000000000     
  -2.2312995485959830E-002   3.6951972698470496E-002   0.0000000000000000     
  -1.0705856315178961E-002   3.5475220954615590E-002   0.0000000000000000     
  -1.1567542482444435E-002   4.0235303253856713E-002   0.0000000000000000     
  -1.2406862323415740E-002   4.5206438979307845E-002   0.0000000000000000     
  -1.3223815838092876E-002   5.0388628130968977E-002   0.0000000000000000     
  -1.4018403026475841E-002   5.5781870708840123E-002   0.0000000000000000     
  -1.3476886472220586E-002   3.5741770376064762E-002   0.0000000000000000     
  -1.4558059305236034E-002   4.0503671074425783E-002   0.0000000000000000     
  -1.5609801356149368E-002   4.5474556392155446E-002   0.0000000000000000     
  -1.6632112624960588E-002   5.0654426329253738E-002   0.0000000000000000     
  -1.7624993111669693E-002   5.6043280885720664E-002   0.0000000000000000     
  -1.6335086386364606E-002   3.6076745473856982E-002   0.0000000000000000     
  -1.7634701850681087E-002   4.0836850906845988E-002   0.0000000000000000     
  -1.8898445596965914E-002   4.5804469451392965E-002   0.0000000000000000     
  -2.0126317625219090E-002   5.0979601107497906E-002   0.0000000000000000     
  -2.1318317935440610E-002   5.6362245875160852E-002   0.0000000000000000     
  -1.9280456057611018E-002   3.6480146247992222E-002   0.0000000000000000     
  -2.0797470118779596E-002   4.1234842751117287E-002   0.0000000000000000     
  -2.2272795045865379E-002   4.6196178157020380E-002   0.0000000000000000     
  -2.3706430838868389E-002   5.1364152465701522E-002   0.0000000000000000     
  -2.5098377497788611E-002   5.6738765677160678E-002   0.0000000000000000     
  -2.2312995485959830E-002   3.6951972698470496E-002   0.0000000000000000     
  -2.4046364109531551E-002   4.1697646607239715E-002   0.0000000000000000     
  -2.5732849702847761E-002   4.6649682509037727E-002   0.0000000000000000     
  -2.7372452265908471E-002   5.1808080403864538E-002   0.0000000000000000     
  -2.8965171798713683E-002   5.7172840291720158E-002   0.0000000000000000     
  -1.4018403026475841E-002   5.5781870708840123E-002   0.0000000000000000     
  -1.4789948550853256E-002   6.1373213260087503E-002   0.0000000000000000     
  -1.5537777073513732E-002   6.7149702331877351E-002   0.0000000000000000     
  -1.6261888594457277E-002   7.3111337924209652E-002   0.0000000000000000     
  -1.6962283113683880E-002   7.9258120037084434E-002   0.0000000000000000     
  -1.7624993111669693E-002   5.6043280885720664E-002   0.0000000000000000     
  -1.8588565855279585E-002   6.1628928558531915E-002   0.0000000000000000     
  -1.9522953894793166E-002   6.7399177844663177E-002   0.0000000000000000     
  -2.0428157230210447E-002   7.3354028744114438E-002   0.0000000000000000     
  -2.1304175861531424E-002   7.9493481256885726E-002   0.0000000000000000     
  -2.1318317935440610E-002   5.6362245875160852E-002   0.0000000000000000     
  -2.2474810760549670E-002   6.1940545200892545E-002   0.0000000000000000     
  -2.3596160333465455E-002   6.7702640531203798E-002   0.0000000000000000     
  -2.4682366654187958E-002   7.3648531866094630E-002   0.0000000000000000     
  -2.5733429722717183E-002   7.9778219205565007E-002   0.0000000000000000     
  -2.5098377497788611E-002   5.6738765677160678E-002   0.0000000000000000     
  -2.6448683266663525E-002   6.2308063187169409E-002   0.0000000000000000     
  -2.7757396389530585E-002   6.8060090391499253E-002   0.0000000000000000     
  -2.9024516866389807E-002   7.3994847290150198E-002   0.0000000000000000     
  -3.0250044697241182E-002   8.0112333883122264E-002   0.0000000000000000     
  -2.8965171798713683E-002   5.7172840291720158E-002   0.0000000000000000     
  -3.0510183373621130E-002   6.2731482517362505E-002   0.0000000000000000     
  -3.2006662062988564E-002   6.8471527425549517E-002   0.0000000000000000     
  -3.3454607866815984E-002   7.4392975016281171E-002   0.0000000000000000     
  -3.4854020785103398E-002   8.0495825289557524E-002   0.0000000000000000     
  -1.6962283113683880E-002   7.9258120037084434E-002   0.0000000000000000     
  -1.7637251901316771E-002   8.5576811418209678E-002   0.0000000000000000     
  -1.8285086227479173E-002   9.2054174815293349E-002   0.0000000000000000     
  -1.8905786092171084E-002   9.8690210228335490E-002   0.0000000000000000     
  -1.9499351495392506E-002  0.10548491765733609        0.0000000000000000     
  -2.1304175861531424E-002   7.9493481256885726E-002   0.0000000000000000     
  -2.2148437049725338E-002   8.5804366919063763E-002   0.0000000000000000     
  -2.2958368055761454E-002   9.2273517266735341E-002   0.0000000000000000     
  -2.3733968879639772E-002   9.8900932299900449E-002   0.0000000000000000     
  -2.4475239521360291E-002  0.10568661201855910        0.0000000000000000     
  -2.5733429722717183E-002   7.9778219205565007E-002   0.0000000000000000     
  -2.6746384552540140E-002   8.6078814145280541E-002   0.0000000000000000     
  -2.7718266157143810E-002   9.2537428280906942E-002   0.0000000000000000     
  -2.8649074536528204E-002   9.9154061612444194E-002   0.0000000000000000     
  -2.9538809690693307E-002  0.10592871413989229        0.0000000000000000     
  -3.0250044697241182E-002   8.0112333883122264E-002   0.0000000000000000     
  -3.1431094409761169E-002   8.6400153096860041E-002   0.0000000000000000     
  -3.2564780531626238E-002   9.2845907857808219E-002   0.0000000000000000     
  -3.3651103062836377E-002   9.9449598165966768E-002   0.0000000000000000     
  -3.4690062003391579E-002  0.10621122402133568        0.0000000000000000     
  -3.4854020785103398E-002   8.0495825289557524E-002   0.0000000000000000     
  -3.6202566621388439E-002   8.6768383773802263E-002   0.0000000000000000     
  -3.7497911179208726E-002   9.3198955997439131E-002   0.0000000000000000     
  -3.8740054458564280E-002   9.9787541960468129E-002   0.0000000000000000     
  -3.9928996459455086E-002  0.10653414166288927        0.0000000000000000     
  -1.9499351495392506E-002  0.10548491765733609        0.0000000000000000     
  -2.0067579441767004E-002  0.11242668575213634        0.0000000000000000     
  -2.0612266935918142E-002  0.11950390316257743        0.0000000000000000     
  -2.1133413977845929E-002  0.12671656988865940        0.0000000000000000     
  -2.1631020567550362E-002  0.13406468593038218        0.0000000000000000     
  -2.4475239521360291E-002  0.10568661201855910        0.0000000000000000     
  -2.5184793934473187E-002  0.11261962568481387        0.0000000000000000     
  -2.5865246072528665E-002  0.11968904256076746        0.0000000000000000     
  -2.6516595935526719E-002  0.12689486264641980        0.0000000000000000     
  -2.7138843523467338E-002  0.13423708594177094        0.0000000000000000     
  -2.9538809690693307E-002  0.10592871413989229        0.0000000000000000     
  -3.0390631208022583E-002  0.11285072329070077        0.0000000000000000     
  -3.1207698676899452E-002  0.11990942649231925        0.0000000000000000     
  -3.1990012097323918E-002  0.12710482374474774        0.0000000000000000     
  -3.2737571469295977E-002  0.13443691504798619        0.0000000000000000     
  -3.4690062003391579E-002  0.10621122402133568        0.0000000000000000     
  -3.5685091262415175E-002  0.11311997856979704        0.0000000000000000     
  -3.6639624749030507E-002  0.12016505495723284        0.0000000000000000     
  -3.7553662463237533E-002  0.12734645318364313        0.0000000000000000     
  -3.8427204405036296E-002  0.13466417324902791        0.0000000000000000     
  -3.9928996459455086E-002  0.10653414166288927        0.0000000000000000     
  -4.1068174097650997E-002  0.11342739152210261        0.0000000000000000     
  -4.2161024288921815E-002  0.12045592795550818        0.0000000000000000     
  -4.3207547033267575E-002  0.12761975096310602        0.0000000000000000     
  -4.4207742330688256E-002  0.13491886054489607        0.0000000000000000     
  -2.1631020567550362E-002  0.13406468593038218        0.0000000000000000     
  -2.2100770181032466E-002  0.14153665130709356        0.0000000000000000     
  -2.2538346294293285E-002  0.14912086603814129        0.0000000000000000     
  -2.2943748907332823E-002  0.15681733012352536        0.0000000000000000     
  -2.3316978020151077E-002  0.16462604356324578        0.0000000000000000     
  -2.7138843523467338E-002  0.13423708594177094        0.0000000000000000     
  -2.7724937539394531E-002  0.14170467852498395        0.0000000000000000     
  -2.8267826686352276E-002  0.14928660647422184        0.0000000000000000     
  -2.8767510964340569E-002  0.15698286978948472        0.0000000000000000     
  -2.9223990373359425E-002  0.16479346847077253        0.0000000000000000     
  -3.2737571469295977E-002  0.13443691504798619        0.0000000000000000     
  -3.3442068267872667E-002  0.14189467719070828        0.0000000000000000     
  -3.4095193968111004E-002  0.14946708696158778        0.0000000000000000     
  -3.4696948570010974E-002  0.15715414436062461        0.0000000000000000     
  -3.5247332073572599E-002  0.16495584938781879        0.0000000000000000     
  -3.8427204405036296E-002  0.13466417324902791        0.0000000000000000     
  -3.9252162366466885E-002  0.14210664730426670        0.0000000000000000     
  -4.0020448139569474E-002  0.14966230750023907        0.0000000000000000     
  -4.0732061724344050E-002  0.15733115383694504        0.0000000000000000     
  -4.1387003120790605E-002  0.16511318631438457        0.0000000000000000     
  -4.4207742330688256E-002  0.13491886054489607        0.0000000000000000     
  -4.5155219835177188E-002  0.14234058886565909        0.0000000000000000     
  -4.6043589200727694E-002  0.14987226809017570        0.0000000000000000     
  -4.6872850427339775E-002  0.15751389821844600        0.0000000000000000     
  -4.7643003515013431E-002  0.16526547925046992        0.0000000000000000     
   0.0000000000000000        0.0000000000000000        0.0000000000000000     
  -1.7983289536336019E-003   1.2768479238048848E-003   0.0000000000000000     
  -3.6213392518254714E-003   2.9391731435943658E-003   0.0000000000000000     
  -5.4690308945756095E-003   4.9869756593684438E-003   0.0000000000000000     
  -7.3414038818840127E-003   7.4202554711271188E-003   0.0000000000000000     
   0.0000000000000000        0.0000000000000000        0.0000000000000000     
  -2.0694489682200165E-003   1.3549269355268229E-003   0.0000000000000000     
  -4.1640659915025292E-003   3.0939605723811934E-003   0.0000000000000000     
  -6.2838510698475384E-003   5.2171009105631107E-003   0.0000000000000000     
  -8.4288042032550445E-003   7.7243479500725774E-003   0.0000000000000000     
   0.0000000000000000        0.0000000000000000        0.0000000000000000     
  -2.3401138972947485E-003   1.4589532472094008E-003   0.0000000000000000     
  -4.7201949901724055E-003   3.2998029168741878E-003   0.0000000000000000     
  -7.1402432786329718E-003   5.5225490089943624E-003   0.0000000000000000     
  -9.6002587626764450E-003   8.1271915235699224E-003   0.0000000000000000     
   0.0000000000000000        0.0000000000000000        0.0000000000000000     
  -2.6103237408577995E-003   1.5889268588526186E-003   0.0000000000000000     
  -5.2897262478351003E-003   3.5567001770733502E-003   0.0000000000000000     
  -8.0382075209319056E-003   5.9033199546621954E-003   0.0000000000000000     
  -1.0855767560148213E-002   8.6287861916191522E-003   0.0000000000000000     
   0.0000000000000000        0.0000000000000000        0.0000000000000000     
  -2.8800784989091669E-003   1.7448477704564761E-003   0.0000000000000000     
  -5.8726597644906137E-003   3.8646523529786802E-003   0.0000000000000000     
  -8.9777437967443405E-003   6.3594137475666132E-003   0.0000000000000000     
  -1.2195330595670351E-002   9.2291319542202738E-003   0.0000000000000000     
  -7.3414038818840127E-003   7.4202554711271188E-003   0.0000000000000000     
  -9.2307953342575400E-003   1.0186605826013339E-002   0.0000000000000000     
  -1.1129542372203045E-002   1.3233619971170054E-002   0.0000000000000000     
  -1.3037644995720528E-002   1.6561297906597262E-002   0.0000000000000000     
  -1.4955103204809988E-002   2.0169639632294966E-002   0.0000000000000000     
  -8.4288042032550445E-003   7.7243479500725774E-003   0.0000000000000000     
  -1.0590623264851256E-002   1.0558257743096763E-002   0.0000000000000000     
  -1.2761006127762384E-002   1.3661386341822842E-002   0.0000000000000000     
  -1.4939952791988424E-002   1.7033733746250813E-002   0.0000000000000000     
  -1.7127463257529382E-002   2.0675299956380684E-002   0.0000000000000000     
  -9.6002587626764450E-003   8.1271915235699224E-003   0.0000000000000000     
  -1.2076715935752557E-002   1.1046328138931241E-002   0.0000000000000000     
  -1.4546089291311038E-002   1.4212556533408693E-002   0.0000000000000000     
  -1.7008378829351883E-002   1.7625876707002275E-002   0.0000000000000000     
  -1.9463584549875106E-002   2.1286288659711987E-002   0.0000000000000000     
  -1.0855767560148213E-002   8.6287861916191522E-003   0.0000000000000000     
  -1.3689073346961443E-002   1.1650817013516772E-002   0.0000000000000000     
  -1.6484791862849010E-002   1.4887130545927598E-002   0.0000000000000000     
  -1.9242923107810915E-002   1.8337726788851628E-002   0.0000000000000000     
  -2.1963467081847165E-002   2.2002605742288874E-002   0.0000000000000000     
  -1.2195330595670351E-002   9.2291319542202738E-003   0.0000000000000000     
  -1.5427695498477912E-002   1.2371724366853361E-002   0.0000000000000000     
  -1.8577113842376300E-002   1.5685108379379569E-002   0.0000000000000000     
  -2.1643585627365514E-002   1.9169283991798895E-002   0.0000000000000000     
  -2.4627110853445558E-002   2.2824251204111346E-002   0.0000000000000000     
  -1.4955103204809988E-002   2.0169639632294966E-002   0.0000000000000000     
  -1.6856573473788439E-002   2.4030040664555653E-002   0.0000000000000000     
  -1.8716712276972896E-002   2.8113896519671801E-002   0.0000000000000000     
  -2.0535519614363357E-002   3.2421207197643409E-002   0.0000000000000000     
  -2.2312995485959830E-002   3.6951972698470496E-002   0.0000000000000000     
  -1.7127463257529382E-002   2.0675299956380684E-002   0.0000000000000000     
  -1.9292274947541325E-002   2.4558461789000813E-002   0.0000000000000000     
  -2.1403125285180315E-002   2.8655596060899572E-002   0.0000000000000000     
  -2.3460014270446351E-002   3.2966702772076958E-002   0.0000000000000000     
  -2.5462941903339441E-002   3.7491781922532982E-002   0.0000000000000000     
  -1.9463584549875106E-002   2.1286288659711987E-002   0.0000000000000000     
  -2.1883391658186112E-002   2.5175059688769621E-002   0.0000000000000000     
  -2.4239485359590304E-002   2.9273457091406985E-002   0.0000000000000000     
  -2.6531865654087688E-002   3.3581480867624060E-002   0.0000000000000000     
  -2.8760532541678263E-002   3.8099131017420858E-002   0.0000000000000000     
  -2.1963467081847165E-002   2.2002605742288874E-002   0.0000000000000000     
  -2.4629923605722803E-002   2.5879834363862087E-002   0.0000000000000000     
  -2.7225792500202874E-002   2.9967479611194024E-002   0.0000000000000000     
  -2.9751073765287378E-002   3.4265541484284699E-002   0.0000000000000000     
  -3.2205767400976311E-002   3.8774019983134116E-002   0.0000000000000000     
  -2.4627110853445558E-002   2.2824251204111346E-002   0.0000000000000000     
  -2.7531870790151403E-002   2.6672785814278194E-002   0.0000000000000000     
  -3.0362046707018014E-002   3.0737663620260716E-002   0.0000000000000000     
  -3.3117638604045402E-002   3.5018884622058905E-002   0.0000000000000000     
  -3.5798646481233556E-002   3.9516448819672770E-002   0.0000000000000000     
  -2.2312995485959830E-002   3.6951972698470496E-002   0.0000000000000000     
  -2.4046364109531551E-002   4.1697646607239715E-002   0.0000000000000000     
  -2.5732849702847761E-002   4.6649682509037727E-002   0.0000000000000000     
  -2.7372452265908471E-002   5.1808080403864538E-002   0.0000000000000000     
  -2.8965171798713683E-002   5.7172840291720158E-002   0.0000000000000000     
  -2.5462941903339441E-002   3.7491781922532982E-002   0.0000000000000000     
  -2.7412743308131048E-002   4.2226751993799591E-002   0.0000000000000000     
  -2.9310253609092628E-002   4.7167531467408742E-002   0.0000000000000000     
  -3.1155472806224199E-002   5.2314120343360443E-002   0.0000000000000000     
  -3.2948400899525741E-002   5.7666518621654700E-002   0.0000000000000000     
  -2.8760532541678263E-002   3.8099131017420858E-002   0.0000000000000000     
  -3.0927967199772175E-002   4.2823648429383285E-002   0.0000000000000000     
  -3.3036650805779555E-002   4.7752273992097229E-002   0.0000000000000000     
  -3.5086583359700399E-002   5.2885007705562710E-002   0.0000000000000000     
  -3.7077764861534704E-002   5.8221849569779709E-002   0.0000000000000000     
  -3.2205767400976311E-002   3.8774019983134116E-002   0.0000000000000000     
  -3.4592035784454939E-002   4.3488335913990761E-002   0.0000000000000000     
  -3.6912041292908516E-002   4.8403910083103158E-002   0.0000000000000000     
  -3.9165783926337079E-002   5.3520742490471306E-002   0.0000000000000000     
  -4.1353263684740585E-002   5.8838833136095191E-002   0.0000000000000000     
  -3.5798646481233556E-002   3.9516448819672770E-002   0.0000000000000000     
  -3.8404949062179332E-002   4.4220814447622062E-002   0.0000000000000000     
  -4.0936425070479558E-002   4.9122439740426550E-002   0.0000000000000000     
  -4.3393074506134229E-002   5.4221324698086250E-002   0.0000000000000000     
  -4.5774897369143371E-002   5.9517469320601160E-002   0.0000000000000000     
  -2.8965171798713683E-002   5.7172840291720158E-002   0.0000000000000000     
  -3.0510183373621130E-002   6.2731482517362505E-002   0.0000000000000000     
  -3.2006662062988564E-002   6.8471527425549517E-002   0.0000000000000000     
  -3.3454607866815984E-002   7.4392975016281171E-002   0.0000000000000000     
  -3.4854020785103398E-002   8.0495825289557524E-002   0.0000000000000000     
  -3.2948400899525741E-002   5.7666518621654700E-002   0.0000000000000000     
  -3.4687490967597420E-002   6.3211964194850506E-002   0.0000000000000000     
  -3.6371196089039388E-002   6.8937694955506834E-002   0.0000000000000000     
  -3.7999516263851639E-002   7.4843710903623767E-002   0.0000000000000000     
  -3.9572451492034179E-002   8.0930012039201221E-002   0.0000000000000000     
  -3.7077764861534704E-002   5.8221849569779709E-002   0.0000000000000000     
  -3.9008785934767316E-002   6.3750669223012035E-002   0.0000000000000000     
  -4.0878237202883035E-002   6.9459336303523495E-002   0.0000000000000000     
  -4.2686118665881900E-002   7.5347850811314079E-002   0.0000000000000000     
  -4.4432430323763865E-002   8.1416212746383818E-002   0.0000000000000000     
  -4.1353263684740585E-002   5.8838833136095191E-002   0.0000000000000000     
  -4.3474068275130819E-002   6.4347597601847148E-002   0.0000000000000000     
  -4.5527785404519544E-002   7.0036451469599470E-002   0.0000000000000000     
  -4.7514415072906754E-002   7.5905394739352178E-002   0.0000000000000000     
  -4.9433957280292457E-002   8.1954427411105271E-002   0.0000000000000000     
  -4.5774897369143371E-002   5.9517469320601160E-002   0.0000000000000000     
  -4.8083337988687927E-002   6.5002749331355816E-002   0.0000000000000000     
  -5.0319840693948882E-002   7.0669040453734774E-002   0.0000000000000000     
  -5.2484405484926208E-002   7.6516342687738048E-002   0.0000000000000000     
  -5.4577032361619947E-002   8.2544656033365610E-002   0.0000000000000000     
  -3.4854020785103398E-002   8.0495825289557524E-002   0.0000000000000000     
  -3.6202566621388439E-002   8.6768383773802263E-002   0.0000000000000000     
  -3.7497911179208726E-002   9.3198955997439131E-002   0.0000000000000000     
  -3.8740054458564280E-002   9.9787541960468129E-002   0.0000000000000000     
  -3.9928996459455086E-002  0.10653414166288927        0.0000000000000000     
  -3.9572451492034179E-002   8.0930012039201221E-002   0.0000000000000000     
  -4.1088225785529210E-002   8.7185506509729366E-002   0.0000000000000000     
  -4.2545063156278949E-002   9.3599102462698314E-002   0.0000000000000000     
  -4.3942963604283368E-002  0.10017079989810805        0.0000000000000000     
  -4.5281927129542501E-002  0.10690059881595862        0.0000000000000000     
  -4.4432430323763865E-002   8.1416212746383818E-002   0.0000000000000000     
  -4.6115496500290808E-002   8.7653521638263607E-002   0.0000000000000000     
  -4.7733641519224546E-002   9.4048877016484442E-002   0.0000000000000000     
  -4.9286865380565113E-002  0.10060227888104632        0.0000000000000000     
  -5.0775168084312476E-002  0.10731372723194925        0.0000000000000000     
  -4.9433957280292457E-002   8.1954427411105271E-002   0.0000000000000000     
  -5.1284378765673197E-002   8.8172429159404972E-002   0.0000000000000000     
  -5.3063646268045543E-002   9.4548279658797516E-002   0.0000000000000000     
  -5.4771759787409488E-002  0.10108197890928292        0.0000000000000000     
  -5.6408719323765032E-002  0.10777352691086117        0.0000000000000000     
  -5.4577032361619947E-002   8.2544656033365610E-002   0.0000000000000000     
  -5.6594872581676413E-002   8.8742229073153434E-002   0.0000000000000000     
  -5.8535077402741921E-002   9.5097310389637535E-002   0.0000000000000000     
  -6.0397646824816506E-002  0.10160989998281783        0.0000000000000000     
  -6.2182580847900147E-002  0.10827999785269439        0.0000000000000000     
  -3.9928996459455086E-002  0.10653414166288927        0.0000000000000000     
  -4.1068174097650997E-002  0.11342739152210261        0.0000000000000000     
  -4.2161024288921815E-002  0.12045592795550818        0.0000000000000000     
  -4.3207547033267575E-002  0.12761975096310602        0.0000000000000000     
  -4.4207742330688256E-002  0.13491886054489607        0.0000000000000000     
  -4.5281927129542501E-002  0.10690059881595862        0.0000000000000000     
  -4.6565457997058260E-002  0.11377650623961920        0.0000000000000000     
  -4.7797060471832589E-002  0.12078652919245907        0.0000000000000000     
  -4.8976734553865489E-002  0.12793066767447819        0.0000000000000000     
  -5.0104480243156953E-002  0.13520892168567661        0.0000000000000000     
  -5.0775168084312476E-002  0.10731372723194925        0.0000000000000000     
  -5.2202521243965253E-002  0.11417086681434845        0.0000000000000000     
  -5.3572896473021991E-002  0.12116134237339922        0.0000000000000000     
  -5.4886293771482735E-002  0.12828515390910153        0.0000000000000000     
  -5.6142713139347440E-002  0.13554230142145540        0.0000000000000000     
  -5.6408719323765032E-002  0.10777352691086117        0.0000000000000000     
  -5.7979363838371961E-002  0.11461047324629038        0.0000000000000000     
  -5.9488532292490057E-002  0.12158036749832868        0.0000000000000000     
  -6.0936224686119304E-002  0.12868320966697602        0.0000000000000000     
  -6.2322441019259732E-002  0.13591899975223248        0.0000000000000000     
  -6.2182580847900147E-002  0.10827999785269439        0.0000000000000000     
  -6.3895985780278372E-002  0.11509532553544496        0.0000000000000000     
  -6.5543967930236743E-002  0.12204360456724740        0.0000000000000000     
  -6.7126527297775213E-002  0.12912483494810167        0.0000000000000000     
  -6.8643663882893807E-002  0.13633901667800780        0.0000000000000000     
  -4.4207742330688256E-002  0.13491886054489607        0.0000000000000000     
  -4.5155219835177188E-002  0.14234058886565909        0.0000000000000000     
  -4.6043589200727694E-002  0.14987226809017570        0.0000000000000000     
  -4.6872850427339775E-002  0.15751389821844600        0.0000000000000000     
  -4.7643003515013431E-002  0.16526547925046992        0.0000000000000000     
  -5.0104480243156953E-002  0.13520892168567661        0.0000000000000000     
  -5.1175525099277683E-002  0.14260768776581426        0.0000000000000000     
  -5.2185096681798382E-002  0.15011336245465107        0.0000000000000000     
  -5.3133194990719015E-002  0.15772594575218707        0.0000000000000000     
  -5.4019820026039639E-002  0.16544543765842223        0.0000000000000000     
  -5.6142713139347440E-002  0.13554230142145540        0.0000000000000000     
  -5.7337362584042498E-002  0.14291912989566100        0.0000000000000000     
  -5.8465450112994234E-002  0.15040198431691848        0.0000000000000000     
  -5.9526975726202663E-002  0.15799086468522788        0.0000000000000000     
  -6.0521939423667792E-002  0.16568577100058915        0.0000000000000000     
  -6.2322441019259732E-002  0.13591899975223248        0.0000000000000000     
  -6.3640732289471605E-002  0.14327491525519936        0.0000000000000000     
  -6.4884649494315272E-002  0.15073813367697797        0.0000000000000000     
  -6.6054192633790712E-002  0.15830865501756844        0.0000000000000000     
  -6.7149361707897898E-002  0.16598647927697063        0.0000000000000000     
  -6.8643663882893807E-002  0.13633901667800780        0.0000000000000000     
  -7.0085634215565046E-002  0.14367504384442925        0.0000000000000000     
  -7.1442694825761502E-002  0.15112181053482954        0.0000000000000000     
  -7.2714845713483120E-002  0.15867931674920868        0.0000000000000000     
  -7.3902086878729942E-002  0.16634756248756666        0.0000000000000000     
   0.0000000000000000        0.0000000000000000        0.0000000000000000     
  -2.8800784989091669E-003   1.7448477704564761E-003   0.0000000000000000     
  -5.8726597644906137E-003   3.8646523529786802E-003   0.0000000000000000     
  -8.9777437967443405E-003   6.3594137475666132E-003   0.0000000000000000     
  -1.2195330595670351E-002   9.2291319542202738E-003   0.0000000000000000     
   0.0000000000000000        0.0000000000000000        0.0000000000000000     
  -3.2832161826541690E-003   1.9993673011374211E-003   0.0000000000000000     
  -6.6769687816726764E-003   4.3309618235122319E-003   0.0000000000000000     
  -1.0181257797055518E-002   6.9947835671244326E-003   0.0000000000000000     
  -1.3796083228802701E-002   9.9908325319740237E-003   0.0000000000000000     
   0.0000000000000000        0.0000000000000000        0.0000000000000000     
  -3.9535748032981230E-003   2.4251367700119028E-003   0.0000000000000000     
  -7.9106265409150164E-003   5.0629309675960608E-003   0.0000000000000000     
  -1.1871155212850679E-002   7.9133825927524739E-003   0.0000000000000000     
  -1.5835160819105111E-002   1.0976491645481144E-002   0.0000000000000000     
   0.0000000000000000        0.0000000000000000        0.0000000000000000     
  -4.8911543608410289E-003   3.0221561770799195E-003   0.0000000000000000     
  -9.5736330422176372E-003   6.0605597852301657E-003   0.0000000000000000     
  -1.4047436044129820E-002   9.1152108244507389E-003   0.0000000000000000     
  -1.8312563366577588E-002   1.2186109294741640E-002   0.0000000000000000     
   0.0000000000000000        0.0000000000000000        0.0000000000000000     
  -6.0959548552828868E-003   3.7904255223414718E-003   0.0000000000000000     
  -1.1665988285580535E-002   7.3238482764145466E-003   0.0000000000000000     
  -1.6710100290892947E-002   1.0600268262219225E-002   0.0000000000000000     
  -2.1228290871220121E-002   1.3619685479755507E-002   0.0000000000000000     
  -1.2195330595670351E-002   9.2291319542202738E-003   0.0000000000000000     
  -1.5427695498477912E-002   1.2371724366853361E-002   0.0000000000000000     
  -1.8577113842376300E-002   1.5685108379379569E-002   0.0000000000000000     
  -2.1643585627365514E-002   1.9169283991798895E-002   0.0000000000000000     
  -2.4627110853445558E-002   2.2824251204111346E-002   0.0000000000000000     
  -1.3796083228802701E-002   9.9908325319740237E-003   0.0000000000000000     
  -1.7404369101218189E-002   1.3221122045052386E-002   0.0000000000000000     
  -2.0889039438605955E-002   1.6587665433350905E-002   0.0000000000000000     
  -2.4250094240966007E-002   2.0090462696869576E-002   0.0000000000000000     
  -2.7487533508298329E-002   2.3729513835608406E-002   0.0000000000000000     
  -1.5835160819105111E-002   1.0976491645481144E-002   0.0000000000000000     
  -1.9730880866098501E-002   1.4211081894225236E-002   0.0000000000000000     
  -2.3486552860251034E-002   1.7575977107427920E-002   0.0000000000000000     
  -2.7102176801562718E-002   2.1071177285089188E-002   0.0000000000000000     
  -3.0577752690033533E-002   2.4696682427209054E-002   0.0000000000000000     
  -1.8312563366577588E-002   1.2186109294741640E-002   0.0000000000000000     
  -2.2407230793118849E-002   1.5341603914371914E-002   0.0000000000000000     
  -2.6369654107311537E-002   1.8650043401610618E-002   0.0000000000000000     
  -3.0199833309155644E-002   2.2111427756457736E-002   0.0000000000000000     
  -3.3897768398651176E-002   2.5725756978913283E-002   0.0000000000000000     
  -2.1228290871220121E-002   1.3619685479755507E-002   0.0000000000000000     
  -2.5433418882279232E-002   1.6612688105492417E-002   0.0000000000000000     
  -2.9538343179787454E-002   1.9809864315898991E-002   0.0000000000000000     
  -3.3543063763744788E-002   2.3211214110975216E-002   0.0000000000000000     
  -3.7447580634151240E-002   2.6816737490721106E-002   0.0000000000000000     
  -2.4627110853445558E-002   2.2824251204111346E-002   0.0000000000000000     
  -2.7531870790151403E-002   2.6672785814278194E-002   0.0000000000000000     
  -3.0362046707018014E-002   3.0737663620260716E-002   0.0000000000000000     
  -3.3117638604045402E-002   3.5018884622058905E-002   0.0000000000000000     
  -3.5798646481233556E-002   3.9516448819672770E-002   0.0000000000000000     
  -2.7487533508298329E-002   2.3729513835608406E-002   0.0000000000000000     
  -3.0624383555524971E-002   2.7547380105680124E-002   0.0000000000000000     
  -3.3683670697567947E-002   3.1586622763197479E-002   0.0000000000000000     
  -3.6665394934427269E-002   3.5847241808160457E-002   0.0000000000000000     
  -3.9569556266102944E-002   4.0329237240569075E-002   0.0000000000000000     
  -3.0577752690033533E-002   2.4696682427209054E-002   0.0000000000000000     
  -3.3942612245896571E-002   2.8497083303730061E-002   0.0000000000000000     
  -3.7226087189384888E-002   3.2516970684594783E-002   0.0000000000000000     
  -4.0428177520498494E-002   3.6756344569803201E-002   0.0000000000000000     
  -4.3548883239237376E-002   4.1215204959355337E-002   0.0000000000000000     
  -3.3897768398651176E-002   2.5725756978913283E-002   0.0000000000000000     
  -3.7486556861266222E-002   2.9521895408427992E-002   0.0000000000000000     
  -4.0989296182468833E-002   3.3528707384452607E-002   0.0000000000000000     
  -4.4405986362259058E-002   3.7746192906987143E-002   0.0000000000000000     
  -4.7736627400636847E-002   4.2174351976031560E-002   0.0000000000000000     
  -3.7447580634151240E-002   2.6816737490721106E-002   0.0000000000000000     
  -4.1256217401633884E-002   3.0621816419773931E-002   0.0000000000000000     
  -4.4973297676819783E-002   3.4621832862770985E-002   0.0000000000000000     
  -4.8598821459708952E-002   3.8816786819712241E-002   0.0000000000000000     
  -5.2132788750301383E-002   4.3206678290597739E-002   0.0000000000000000     
  -3.5798646481233556E-002   3.9516448819672770E-002   0.0000000000000000     
  -3.8404949062179332E-002   4.4220814447622062E-002   0.0000000000000000     
  -4.0936425070479558E-002   4.9122439740426550E-002   0.0000000000000000     
  -4.3393074506134229E-002   5.4221324698086250E-002   0.0000000000000000     
  -4.5774897369143371E-002   5.9517469320601160E-002   0.0000000000000000     
  -3.9569556266102944E-002   4.0329237240569075E-002   0.0000000000000000     
  -4.2393431938973408E-002   4.5019039761023824E-002   0.0000000000000000     
  -4.5134299199417159E-002   4.9903080070125214E-002   0.0000000000000000     
  -4.7792158047434176E-002   5.4981358167873265E-002   0.0000000000000000     
  -5.0367008483024472E-002   6.0253874054267936E-002   0.0000000000000000     
  -4.3548883239237376E-002   4.1215204959355337E-002   0.0000000000000000     
  -4.6584209320865259E-002   4.5880967584942742E-002   0.0000000000000000     
  -4.9530160740645875E-002   5.0741048178256969E-002   0.0000000000000000     
  -5.2386737498579222E-002   5.5795446739298031E-002   0.0000000000000000     
  -5.5153939594665309E-002   6.1044163268065915E-002   0.0000000000000000     
  -4.7736627400636847E-002   4.2174351976031560E-002   0.0000000000000000     
  -5.0977281207854865E-002   4.6806597919378821E-002   0.0000000000000000     
  -5.4124009694165698E-002   5.1636344064821815E-002   0.0000000000000000     
  -5.7176812859569368E-002   5.6663590412360569E-002   0.0000000000000000     
  -6.0135690704065867E-002   6.1888336961995069E-002   0.0000000000000000     
  -5.2132788750301383E-002   4.3206678290597739E-002   0.0000000000000000     
  -5.5572647599942224E-002   4.7795930764332042E-002   0.0000000000000000     
  -5.8915846059976629E-002   5.2588967729819747E-002   0.0000000000000000     
  -6.2162384130404612E-002   5.7585789187060879E-002   0.0000000000000000     
  -6.5312261811226138E-002   6.2786395136055412E-002   0.0000000000000000     
  -4.5774897369143371E-002   5.9517469320601160E-002   0.0000000000000000     
  -4.8083337988687927E-002   6.5002749331355816E-002   0.0000000000000000     
  -5.0319840693948882E-002   7.0669040453734774E-002   0.0000000000000000     
  -5.2484405484926208E-002   7.6516342687738048E-002   0.0000000000000000     
  -5.4577032361619947E-002   8.2544656033365610E-002   0.0000000000000000     
  -5.0367008483024472E-002   6.0253874054267936E-002   0.0000000000000000     
  -5.2862086635612052E-002   6.5714374541534989E-002   0.0000000000000000     
  -5.5280628634620937E-002   7.1356606441900061E-002   0.0000000000000000     
  -5.7622634480051130E-002   7.7180569755363193E-002   0.0000000000000000     
  -5.9888104171902601E-002   8.3186264481924399E-002   0.0000000000000000     
  -5.5153939594665309E-002   6.1044163268065915E-002   0.0000000000000000     
  -5.7835805776076596E-002   6.6480723362381575E-002   0.0000000000000000     
  -6.0436374789985599E-002   7.2098652620066025E-002   0.0000000000000000     
  -6.2955646636392304E-002   7.7897951041119226E-002   0.0000000000000000     
  -6.5393621315296704E-002   8.3878618625541163E-002   0.0000000000000000     
  -6.0135690704065867E-002   6.1888336961995069E-002   0.0000000000000000     
  -6.3004495410081560E-002   6.7301795793895641E-002   0.0000000000000000     
  -6.5787079160042852E-002   7.2895178988232667E-002   0.0000000000000000     
  -6.8483441953949745E-002   7.8668486545006078E-002   0.0000000000000000     
  -7.1093583791802237E-002   8.4621718464215956E-002   0.0000000000000000     
  -6.5312261811226138E-002   6.2786395136055412E-002   0.0000000000000000     
  -6.8368155537626943E-002   6.8177591836077162E-002   0.0000000000000000     
  -7.1332741744792733E-002   7.3746185546399973E-002   0.0000000000000000     
  -7.4206020432723466E-002   7.9492176267023804E-002   0.0000000000000000     
  -7.6987991601419184E-002   8.5415563997948696E-002   0.0000000000000000     
  -5.4577032361619947E-002   8.2544656033365610E-002   0.0000000000000000     
  -5.6594872581676413E-002   8.8742229073153434E-002   0.0000000000000000     
  -5.8535077402741921E-002   9.5097310389637535E-002   0.0000000000000000     
  -6.0397646824816506E-002  0.10160989998281783        0.0000000000000000     
  -6.2182580847900147E-002  0.10827999785269439        0.0000000000000000     
  -5.9888104171902601E-002   8.3186264481924399E-002   0.0000000000000000     
  -6.2073248402299462E-002   8.9361484532716182E-002   0.0000000000000000     
  -6.4174277863365756E-002   9.5694023818871113E-002   0.0000000000000000     
  -6.6191192555101475E-002  0.10218388234038919        0.0000000000000000     
  -6.8123992477506626E-002  0.10883106009727041        0.0000000000000000     
  -6.5393621315296704E-002   8.3878618625541163E-002   0.0000000000000000     
  -6.7745776681541442E-002   9.0028758691300267E-002   0.0000000000000000     
  -7.0007590589969096E-002   9.6336474556364890E-002   0.0000000000000000     
  -7.2179063040579722E-002  0.10280176622073506        0.0000000000000000     
  -7.4260194033373278E-002  0.10942463368441076        0.0000000000000000     
  -7.1093583791802237E-002   8.4621718464215956E-002   0.0000000000000000     
  -7.3612457419402297E-002   9.0744051548905691E-002   0.0000000000000000     
  -7.6035015582551962E-002   9.7024662602118852E-002   0.0000000000000000     
  -7.8361258281251220E-002  0.10346355162385543        0.0000000000000000     
  -8.0591185515500069E-002  0.11006071861411543        0.0000000000000000     
  -7.6987991601419184E-002   8.5415563997948696E-002   0.0000000000000000     
  -7.9673290615882075E-002   9.1507363105532480E-002   0.0000000000000000     
  -8.2256552841114355E-002   9.7758587956133014E-002   0.0000000000000000     
  -8.4737778277115997E-002  0.10416923854975034        0.0000000000000000     
  -8.7116966923887013E-002  0.11073931488638439        0.0000000000000000     
  -6.2182580847900147E-002  0.10827999785269439        0.0000000000000000     
  -6.3895985780278372E-002  0.11509532553544496        0.0000000000000000     
  -6.5543967930236743E-002  0.12204360456724740        0.0000000000000000     
  -6.7126527297775213E-002  0.12912483494810167        0.0000000000000000     
  -6.8643663882893807E-002  0.13633901667800780        0.0000000000000000     
  -6.8123992477506626E-002  0.10883106009727041        0.0000000000000000     
  -6.9979915674872634E-002  0.11562345297878909        0.0000000000000000     
  -7.1766200191490895E-002  0.12254895687421956        0.0000000000000000     
  -7.3482846027361437E-002  0.12960757178356180        0.0000000000000000     
  -7.5129853182484260E-002  0.13679929770681584        0.0000000000000000     
  -7.4260194033373278E-002  0.10942463368441076        0.0000000000000000     
  -7.6258682127342825E-002  0.11619288487329962        0.0000000000000000     
  -7.8182225881481382E-002  0.12309432771330929        0.0000000000000000     
  -8.0030825295789018E-002  0.13012896220443973        0.0000000000000000     
  -8.1804480370265692E-002  0.13729678834669096        0.0000000000000000     
  -8.0591185515500069E-002  0.11006071861411543        0.0000000000000000     
  -8.2732285137688905E-002  0.11680362121897654        0.0000000000000000     
  -8.4792045000208205E-002  0.12367971708451655        0.0000000000000000     
  -8.6770465103057914E-002  0.13068900621073545        0.0000000000000000     
  -8.8667545446238061E-002  0.13783148859763322        0.0000000000000000     
  -8.7116966923887013E-002  0.11073931488638439        0.0000000000000000     
  -8.9400724705910956E-002  0.11745566201581986        0.0000000000000000     
  -9.1595657547671336E-002  0.12430512498784141        0.0000000000000000     
  -9.3701765449168153E-002  0.13128770380244900        0.0000000000000000     
  -9.5719048410401408E-002  0.13840339845964261        0.0000000000000000     
  -6.8643663882893807E-002  0.13633901667800780        0.0000000000000000     
  -7.0085634215565046E-002  0.14367504384442925        0.0000000000000000     
  -7.1442694825761502E-002  0.15112181053482954        0.0000000000000000     
  -7.2714845713483120E-002  0.15867931674920868        0.0000000000000000     
  -7.3902086878729942E-002  0.16634756248756666        0.0000000000000000     
  -7.5129853182484260E-002  0.13679929770681584        0.0000000000000000     
  -7.6694896044162880E-002  0.14411431802544183        0.0000000000000000     
  -7.8165648999700840E-002  0.15154281612090004        0.0000000000000000     
  -7.9542112049098126E-002  0.15908479199319042        0.0000000000000000     
  -8.0824285192354739E-002  0.16674024564231305        0.0000000000000000     
  -8.1804480370265692E-002  0.13729678834669096        0.0000000000000000     
  -8.3491345457105168E-002  0.14458754016032810        0.0000000000000000     
  -8.5079574908501210E-002  0.15199095166561621        0.0000000000000000     
  -8.6569168724453860E-002  0.15950702286255544        0.0000000000000000     
  -8.7960126904963090E-002  0.16713575375114559        0.0000000000000000     
  -8.8667545446238061E-002  0.13783148859763322        0.0000000000000000     
  -9.0474982454391881E-002  0.14509471024908810        0.0000000000000000     
  -9.2184472552162666E-002  0.15246621716897821        0.0000000000000000     
  -9.3796015739550362E-002  0.15994600935730360        0.0000000000000000     
  -9.5309612016555009E-002  0.16753408681406429        0.0000000000000000     
  -9.5719048410401408E-002  0.13840339845964261        0.0000000000000000     
  -9.7645807036023075E-002  0.14563582829172178        0.0000000000000000     
  -9.9480341930685154E-002  0.15296861263098591        0.0000000000000000     
 -0.10122265309438762       0.16040175147743505        0.0000000000000000     
 -0.10287274052713050       0.16793524483106911        0.0000000000000000     
 </DataArray>
 <DataArray  type="Float64" Name="stress" NumberOfComponents="3" format="ascii">
   13416684225.175924        4025005267.5527778        2893970312.7795320     
   11766533900.921131        1890483852.6332209        1715801604.9862521     
   10313657794.776169        413543164.74643421        810730080.67621398     
   9058055906.7410336       -405816796.10758257        178755739.84941852     
   7999728236.8157310       -567596029.92883205       -180121417.49413484     
   10539935729.505238        3161980718.8515711        2225743001.9312859     
   9667579730.3861217        1589599870.5466228        1446697858.6266165     
   8943860491.3100643        512674889.05186558        863134112.72431755     
   8368778012.2770615       -68794225.632700920        475051764.22438759     
   7942332293.2871170       -154807473.50707579        282450813.12682903     
   8337901672.7103453        2501370501.8131037        1712349952.8042622     
   8021580609.9244156        1424602403.4820151        1275684672.9103012     
   7805258849.1147699        681165311.73853946        956885004.33783793     
   7688936390.2814083        271059226.58267736        755950947.08687270     
   7672613233.4243307        194284148.01442814        672882501.15740561     
   6810582054.7912493        2043174616.4373748        1353791165.3984604     
   6828536539.5360155        1395491451.4393992        1202762047.8373048     
   6897852868.1902905        919014432.80645800        1091982755.5167754     
   7018531040.7540770        613743560.53855228        1021453288.4368716     
   7190571057.2273741        479678834.63568115        991173646.59759426     
   5957976875.7479486        1787393062.7243848        1150066639.7138805     
   6088447519.2209177        1502267014.4187746        1227929983.4076288     
   6221642548.5366249        1226222252.2556207        1268427366.2611303     
   6357561963.6950665        959258776.23492324        1271558788.2743869     
   6496205764.6962471        701376586.35668278        1237324249.4473963     
   7999728236.8157310       -567596029.92883205       -180121417.49413484     
   7917596584.8716707       -200202117.03336668       -78238930.478019118     
   7794002368.4369078        28983247.559757233       -8998902.5077626389     
   7628945587.5114346        119960063.85052061        27598666.416637652     
   7422426242.0952644        72728331.838948250        31553776.295177262     
   7942332293.2871170       -154807473.50707579        282450813.12682903     
   7739737719.3985081        16325875.674477577        281158511.47913069     
   7513775343.8353233        109566552.60744333        265135782.08469748     
   7264445166.5975590        124914557.29181671        234382624.94352463     
   6991747187.6852198        62369889.727603436        188899040.05561531     
   7672613233.4243307        194284148.01442814        672882501.15740561     
   7400732969.8743782        184510103.16703033        589525967.46471000     
   7123579667.4659767        157159262.12480545        509351037.32439935     
   6841153326.1991253        112231624.88774443        432357710.73647314     
   6553453946.0738230        49727191.455853701        358545987.70092970     
   7190571057.2273741        479678834.63568115        991173646.59759426     
   6900582336.2992840        304350565.44429517        846863437.47871685     
   6623415339.3288670        171761376.11183715        723646863.21134484     
   6359070066.3161297        81911266.638305187        621523923.79547739     
   6107546517.2610722        34800237.023700953        540494619.23111701     
   6496205764.6962471        701376586.35668278        1237324249.4473963     
   6239285818.6732187        375847262.50626898        1053170921.5211517     
   6013282359.4239931        153372894.56854010        908023259.74553394     
   5818195386.9485760        33953482.543496847        801881264.12054205     
   5654024901.2469635        17589026.431138039        734744934.64617872     
   7422426242.0952644        72728331.838948250        31553776.295177262     
   7219353867.5518656       -17984616.487460613        14685496.435802901     
   7028393305.2508249       -68324857.339344025        2258953.4674299704     
   6849544555.1921377       -78292390.716711044       -5725852.6099368865     
   6682807617.3758125       -47887216.619544983       -9268921.7963045556     
   6991747187.6852198        62369889.727603436        188899040.05561531     
   6808790891.6203690        3040113.5177278519        180618004.36849064     
   6633571003.7136726       -30501635.498288631        176126867.82388830     
   6466087523.9651318       -38255357.320462465        175425630.42180893     
   6306340452.3747444       -20221051.948784351        178514292.16225606     
   6553453946.0738230        49727191.455853701        358545987.70092970     
   6388751334.9204311        21221869.292386055        353747558.08782011     
   6227409727.8409920        3919894.0420973301        352087189.86875206     
   6069429124.8355103       -2178734.2950060368        353564883.04373032     
   5914809525.9039803        2925984.2810676098        358180637.61275023     
   6107546517.2610722        34800237.023700953        540494619.23111701     
   5959235197.4520512        36560650.836510420        534074157.59378880     
   5809909477.6327858        34939731.281834602        530139919.60202301     
   5659569357.8032713        29937478.359663963        528691905.25581938     
   5508214837.9635096        21553892.070007563        529730114.55518246     
   5654024901.2469635        17589026.431138039        734744934.64617872     
   5520242479.2152290        49056458.150102615        721597802.88639438     
   5381070253.0890474        62557876.220907450        710285057.02369630     
   5236508222.8684177        58093280.643551826        700806697.05808043     
   5086556388.5533438        35662671.418038845        693162722.98954892     
   6682807617.3758125       -47887216.619544983       -9268921.7963045556     
   6509138067.5614243       -8698694.5010254383       -3619899.1257302840     
   6330519209.8700256        13992134.694142818        3312515.7690481702     
   6146951044.3016214        20185270.965950012        11528322.888047781     
   5958433570.8562174        9880714.3144240379        21027522.231256060     
   6306340452.3747444       -20221051.948784351        178514292.16225606     
   6132322316.8334770        772323.17447471619        174957738.65391734     
   5955341655.9495564        11890613.822221279        174048530.13036796     
   5775398469.7229786        13133819.994451284        175786666.59160820     
   5592492758.1537466        4501941.6911582947        180172148.03763196     
   5914809525.9039803        2925984.2810676098        358180637.61275023     
   5744339812.5231915        6893314.7752680779        347736420.88225007     
   5572894356.3340998        7608169.2417941093        341303501.89711040     
   5400473157.3367033        5070547.6806428432        338881880.65733445     
   5227076215.5310040       -719549.90818905830        340471557.16292506     
   5508214837.9635096        21553892.070007563        529730114.55518246     
   5345190554.6305628        9664280.3013594151        514716147.55925995     
   5183177311.0236635        1144800.9528760910        505077431.06927210     
   5022175107.1428118       -4004545.9754483700        500813965.08522612     
   4862183942.9880123       -5783760.4836084843        501925749.60711795     
   5086556388.5533438        35662671.418038845        693162722.98954892     
   4934874543.1555948        9085219.7527499199        675896918.68494523     
   4786190520.0182467       -7499491.0445342064        665370317.64685857     
   4640504319.1412983       -14091460.973824501        661582919.87528372     
   4497815940.5247498       -10690690.035110235        664534725.37022901     
   5958433570.8562174        9880714.3144240379        21027522.231256060     
   5778872061.3037462       -2147119.4640758038        13762632.201873399     
   5601352123.6097097       -7369713.7144722939        10450944.553114239     
   5425873757.7741013       -5787068.4367742538        11092459.284994591     
   5252436963.7969246        2600816.3690392971        15687176.397516377     
   5592492758.1537466        4501941.6911582947        180172148.03763196     
   5424626327.5540237       -2143314.4619488716        174962431.28863311     
   5258057480.2261791       -4463293.0421400070        173553593.43985462     
   5092786216.1702137       -2457994.0493991375        175945634.49131611     
   4928812535.3861217        3872582.5162534714        182138554.44301081     
   5227076215.5310040       -719549.90818905830        340471557.16292506     
   5070469653.9400167       -2112791.4191231728        336449027.00999528     
   4914416687.0343552       -1660717.3123030663        336075052.27688891     
   4758917314.8140202        636672.41226768494        339349632.96361822     
   4603971537.2790041        4779377.7545831203        346272769.07016802     
   4862183942.9880123       -5783760.4836084843        501925749.60711795     
   4716402040.4617424       -2055550.3355662823        498222419.36595249     
   4570429744.0342484        1038013.4750561714        498015321.06421137     
   4424267053.7055244        3496930.9482486248        501304454.70188379     
   4277913969.4755745        5321202.0840206146        508089820.27899468     
   4497815940.5247498       -10690690.035110235        664534725.37022901     
   4362423487.1191921       -1971591.2112896442        660282608.35651374     
   4226096651.2258506        3632899.3199284077        659374399.80181825     
   4088835432.8447294        6122781.5585448742        661810099.70613968     
   3950639831.9758248        5498055.5045557022        667589708.06947744     
   5252436963.7969246        2600816.3690392971        15687176.397516377     
   5059143594.6364355        6035235.1403934956        11551940.861720400     
   4864470306.2684097        4869923.2199842930        11229414.567823866     
   4668417098.6928682       -895119.39215731621        14719597.515842149     
   4470983971.9097910       -11259892.696083069        22022489.705767564     
   4928812535.3861217        3872582.5162534714        182138554.44301081     
   4745033467.1555929        4837861.0938603878        176368841.99218029     
   4560336805.7054167        2744495.6059973240        174674914.90565112     
   4374722551.0355940       -2407513.9473643303        177056773.18343833     
   4188190703.1461182       -10618167.566238642        183514416.82552496     
   4603971537.2790041        4779377.7545831203        346272769.07016802     
   4430458416.0424366        3501009.9576652050        339407960.02349651     
   4256490027.5740929        705084.72151041031        336882012.46352911     
   4082066371.8739815       -3608397.9538726807        338694926.39026934     
   3907187448.9420991       -9439438.0684950352        344846701.80371082     
   4277913969.4755745        5321202.0840206146        508089820.27899468     
   4115418441.2969503        2024681.7317550182        500669294.95567304     
   3952929971.8744349       -1248309.4334864616        497850707.24145383     
   3790448561.2080331       -4497771.4116818905        499634057.13633609     
   3627974209.2977357       -7723704.2028558254        506019344.64032638     
   3950639831.9758248        5498055.5045557022        667589708.06947744     
   3799913542.9191437        408876.41614842415        660152846.78870046     
   3649656638.6064520       -3115686.8589603901        657580999.23942530     
   3499869119.0377455       -5075634.3207859993        659874165.42164814     
   3350550984.2130270       -5470965.9693171978        667032345.33537304     
   4470983971.9097910       -11259892.696083069        22022489.705767564     
   4297663103.4289246       -13513812.468038797        11596561.864651429     
   4126300511.9850092       -9240142.1168124676        7520706.7495103730     
   3956896197.5780544        1561118.3576185703        9794924.3603450395     
   3789450160.2080483        18889968.955191135        18419214.697153505     
   4188190703.1461182       -10618167.566238642        183514416.82552496     
   4031255352.9869056       -9295546.9345483780        175183620.46504056     
   3875669019.0790925       -3476205.4648454189        172281640.76362634     
   3721431701.4226851        6839856.8428735733        174808477.72128573     
   3568543400.0176721        21652639.988565207        182764131.33801076     
   3907187448.9420991       -9439438.0684950352        344846701.80371082     
   3764005456.9133849       -5329925.0904965401        337900232.67404622     
   3621563220.3505154        1245439.4403297901        335461324.13654518     
   3479860739.2534938        10286655.523975372        337529976.19120938     
   3338898013.6223135        21793723.160427570        344106188.83803648     
   3627974209.2977357       -7723704.2028558254        506019344.64032638     
   3495913415.2083573       -1616946.9358890057        499746398.49166864     
   3363983115.7992764        4924792.5987102985        497059756.86826462     
   3232183311.0704808        11901514.400940418        497959419.77011997     
   3100514001.0219712        19313218.470796466        502445387.19723552     
   3350550984.2130270       -5470965.9693171978        667032345.33537304     
   3226979227.8718328        1843387.5292572975        660722117.91789925     
   3102928705.4253736        7561854.0102829933        657076938.95878279     
   2978399416.8736472        11684433.473764062        656096808.45801449     
   2853391362.2166600        14211125.919684768        657781726.41560841     
   3789450160.2080483        18889968.955191135        18419214.697153505     
   3611752634.7593369        24497991.720481634        22574631.343209326     
   3426396580.7954073        4577586.1017336845        22368516.927772768     
   3233381998.3162498       -40871247.901106238        17800871.450847674     
   3032708887.3218880       -111848510.28798306        8871694.9124173913     
   3568543400.0176721        21652639.988565207        182764131.33801076     
   3381438240.6041856        20739742.221706390        178002012.10029829     
   3189383653.8338037        3328753.2652084827        171869610.22783291     
   2992379639.7065234       -30580326.880956054        164366925.72060058     
   2790426198.2223587       -80987498.216770053        155493958.57863072     
   3338898013.6223135        21793723.160427570        344106188.83803648     
   3150931644.3204651        16923832.084373593        333587151.73459125     
   2960724948.8200326        4586187.0130537748        324689080.42312980     
   2768277927.1210284       -15219212.053526640        317411974.90365636     
   2573590579.2234354       -42492365.115375400        311755835.17616314     
   3100514001.0219712        19313218.470796466        502445387.19723552     
   2920232845.9081535        13050261.308443427        489330050.24610108     
   2740420465.7540836        8349887.3452353477        480826927.51368701     
   2561076860.5597439        5212096.5811411142        476936018.99999380     
   2382202030.3251576        3636889.0162198544        477657324.70502752     
   2853391362.2166600        14211125.919684768        657781726.41560841     
   2689341845.3672757        9119029.8939465284        645230707.63481617     
   2528470204.6359563        14619854.261769176        640283151.49948633     
   2370776440.0226927        30713599.023112059        642939058.00962615     
   2216260551.5274920        57400264.177985311        653198427.16522634     
   5957976875.7479486        1787393062.7243848        1150066639.7138805     
   6088447519.2209177        1502267014.4187746        1227929983.4076288     
   6221642548.5366249        1226222252.2556207        1268427366.2611303     
   6357561963.6950665        959258776.23492324        1271558788.2743869     
   6496205764.6962471        701376586.35668278        1237324249.4473963     
   5434683385.9204149        1630405015.7761245        1033491306.7438589     
   5489922429.1365557        1372515646.0653243        1113881356.8860910     
   5547358014.4798317        1121948083.4449704        1167481518.7645149     
   5606990141.9502401        878702327.91506028        1194291792.3791306     
   5668818811.5477829        642778379.47559500        1194312177.7299390     
   4895298835.6486139        1468589650.6945844        936380097.48173082     
   4905523628.8263226        1247002164.6441135        1018681036.4042429     
   4917417120.4155617        1030977006.6320763        1084768159.6393850     
   4930979310.4163313        820514176.65847242        1134641467.1871569     
   4946210198.8286295        615613674.72330153        1168300959.0475588     
   4339823224.9325495        1301946967.4797647        858733011.92749703     
   4335251118.2902203        1125726570.1551416        942329021.96208489     
   4331819866.3438168        953309021.81693995        1020287288.8857405     
   4329529469.0933409        784694322.46516001        1092607812.6984646     
   4328379926.5387907        619882472.09980106        1159290593.4002562     
   3768256553.7722187        1130476966.1316655        800550050.08115697     
   3779104897.5282450        1008688862.5984081        884825313.55961633     
   3790566252.2645950        888944128.99956059        974038906.50358176     
   3802640617.9812679        771242765.33512306        1068190828.9130539     
   3815327994.6782637        655584771.60509527        1167281080.7880316     
   6496205764.6962471        701376586.35668278        1237324249.4473963     
   6239285818.6732187        375847262.50626898        1053170921.5211517     
   6013282359.4239931        153372894.56854010        908023259.74553394     
   5818195386.9485760        33953482.543496847        801881264.12054205     
   5654024901.2469635        17589026.431138039        734744934.64617872     
   5668818811.5477829        642778379.47559500        1194312177.7299390     
   5518843037.1980047        383267790.19567370        1073460920.6340817     
   5393014473.9147673        204247904.47088528        980633652.23537052     
   5291333121.6980724        105718722.30123162        915830372.53380609     
   5213798980.5479145        87680243.686712027        879051081.52938569     
   4946210198.8286295        615613674.72330153        1168300959.0475588     
   4871802374.8564463        412708953.62517309        1102854284.4569464     
   4814772486.2435360        267730683.72462773        1054449921.1099989     
   4775120532.9899035        180678865.02166653        1023087869.0067171     
   4752846515.0955429        151553497.51628900        1008768128.1471001     
   4328379926.5387907        619882472.09980106        1159290593.4002562     
   4298163831.6485405        464170752.79476893        1141351012.9897451     
   4278556396.4102998        343821232.32976961        1129472066.3694196     
   4269557620.8240700        258833910.70480323        1123653753.5392785     
   4271167504.8898482        209208787.91986799        1123896074.4993212     
   3815327994.6782637        655584771.60509527        1167281080.7880316     
   3797927407.5742888        537653187.70446157        1188951106.2324800     
   3784366204.4150572        432519550.28630877        1205700088.0136325     
   3774644385.2005701        340183859.35063839        1217528026.1314878     
   3768761949.9308290        260646114.89745140        1224434920.5860472     
   5654024901.2469635        17589026.431138039        734744934.64617872     
   5520242479.2152290        49056458.150102615        721597802.88639438     
   5381070253.0890474        62557876.220907450        710285057.02369630     
   5236508222.8684177        58093280.643551826        700806697.05808043     
   5086556388.5533438        35662671.418038845        693162722.98954892     
   5213798980.5479145        87680243.686712027        879051081.52938569     
   5077464932.8537731        85409570.397305012        855345956.59382415     
   4939010779.9974718        76071879.900699615        835629373.33048892     
   4798436521.9790096        59667172.196889639        819901331.73938119     
   4655742158.7983875        36195447.285881758        808161831.82049894     
   4752846515.0955429        151553497.51628900        1008768128.1471001     
   4620115572.5251179        117391138.45434904        978319658.79009366     
   4488534223.7248201        87060758.626168728        954013886.88045764     
   4358102468.6946478        60562358.031743288        935850812.41819155     
   4228820307.4346042        37895936.671074629        923830435.40329647     
   4271167504.8898482        209208787.91986799        1123896074.4993212     
   4148194398.2292619        145001162.32123256        1090518909.4752059     
   4029640584.2710919        95524512.397314787        1065438597.6736042     
   3915506063.0153341        60778838.148109436        1048655139.0945165     
   3805790834.4619913        40764139.573619843        1040168533.7379384     
   3768761949.9308290        260646114.89745140        1224434920.5860472     
   3661701409.9662061        168239641.99795592        1191943708.6491585     
   3562329861.6362863        101463141.21413922        1169903505.7099261     
   3470647304.9410672        60316612.545990229        1158314311.7683513     
   3386653739.8805504        44800055.993516445        1157176126.8244312     
   5086556388.5533438        35662671.418038845        693162722.98954892     
   4934874543.1555948        9085219.7527499199        675896918.68494523     
   4786190520.0182467       -7499491.0445342064        665370317.64685857     
   4640504319.1412983       -14091460.973824501        661582919.87528372     
   4497815940.5247498       -10690690.035110235        664534725.37022901     
   4655742158.7983875        36195447.285881758        808161831.82049894     
   4522355486.3631315        15606418.117651463        794885012.32350373     
   4391148515.9158611        2283062.2427043915        787560255.87797463     
   4262121247.4565744       -3774620.3389594555        786187562.48391211     
   4135273680.9852753       -2566629.6273365021        790766932.14131296     
   4228820307.4346042        37895936.671074629        923830435.40329647     
   4111479835.9188380        22620638.386998653        913588127.06276095     
   3995500946.1186423        11883945.821491241        908510741.55864108     
   3880883638.0340214        5685858.9745581150        908598278.89093494     
   3767627911.6649680        4026377.8461914062        913850739.05964231     
   3805790834.4619913        40764139.573619843        1040168533.7379384     
   3702247591.8227134        30127880.560798407        1032006262.9027140     
   3599247810.6265936        21303159.691829920        1028221774.6888540     
   3496791490.8736300        14289976.966722965        1028815069.0963538     
   3394878632.5638218        9088332.3854663372        1033786146.1252229     
   3386653739.8805504        44800055.993516445        1157176126.8244312     
   3294658754.0747609        38128144.639051437        1150139419.8433659     
   3202389109.4397116        30540703.853718877        1146693355.2686119     
   3109844805.9754076        22037733.637540102        1146837933.1001716     
   3017025843.6818414        12619233.990489364        1150573153.3380463     
   4497815940.5247498       -10690690.035110235        664534725.37022901     
   4362423487.1191921       -1971591.2112896442        660282608.35651374     
   4226096651.2258506        3632899.3199284077        659374399.80181825     
   4088835432.8447294        6122781.5585448742        661810099.70613968     
   3950639831.9758248        5498055.5045557022        667589708.06947744     
   4135273680.9852753       -2566629.6273365021        790766932.14131296     
   4007685261.5336704        1098057.4466359615        784183248.09673727     
   3879683482.2411890        3384878.3843338490        781425161.34615314     
   3751268343.1078234        4293833.1857564449        782492671.88956094     
   3622439844.1335669        3824921.8508892059        787385779.72695422     
   3767627911.6649680        4026377.8461914062        913850739.05964231     
   3649219779.9815307        3049529.3145799637        905543347.73892319     
   3530919311.1041069        2431556.8030161858        901543242.54716265     
   3412726505.0326982        2172460.3114991188        901850423.48436773     
   3294641361.7673020        2272239.8400242329        906464890.55053353     
   3394878632.5638218        9088332.3854663372        1033786146.1252229     
   3287027042.4627542        3882824.3925318718        1024362907.2830675     
   3179804137.8145995        772934.57597279549        1019728643.4048477     
   3073209918.6193562       -241337.06422197819        1019883354.4905614     
   2967244384.8770175        840009.47195124626        1024827040.5402070     
   3017025843.6818414        12619233.990489364        1150573153.3380463     
   2921107048.9773531        3597942.6804980040        1140641926.7291698     
   2826337962.3726702       -1590988.2968013287        1135981363.9192004     
   2732718583.8677983       -2947558.9414029121        1136591464.9081376     
   2640248913.4627290       -471769.25332260132        1142472229.6959832     
   3950639831.9758248        5498055.5045557022        667589708.06947744     
   3799913542.9191437        408876.41614842415        660152846.78870046     
   3649656638.6064520       -3115686.8589603901        657580999.23942530     
   3499869119.0377455       -5075634.3207859993        659874165.42164814     
   3350550984.2130270       -5470965.9693171978        667032345.33537304     
   3622439844.1335669        3824921.8508892059        787385779.72695422     
   3484673504.0627298        488436.26833796501        780450104.05528426     
   3347197740.1501098       -1879462.1201722622        778214138.44756591     
   3210012552.3957019       -3278773.3146456480        780677882.90379941     
   3073117940.7994990       -3709497.3150812387        787841337.42399538     
   3294641361.7673020        2272239.8400242329        906464890.55053353     
   3169362674.4893188        546758.90542459488        899821790.47122717     
   3044195754.7837763       -806163.45438134670        897713096.78833354     
   2919140602.6506705       -1786527.2393983603        900138809.50184333     
   2794197218.0900025       -2394332.4496243000        907098928.61175883     
   2967244384.8770175        840009.47195124626        1024827040.5402070     
   2853981054.1989021        583844.32740795612        1018267906.0365376     
   2740650682.5074492        104209.13840973377        1016077874.2617232     
   2627253269.8026609       -598896.09504699707        1018256945.2157738     
   2513788816.0845299       -1525471.3729692698        1024805118.8986772     
   2640248913.4627290       -471769.25332260132        1142472229.6959832     
   2538528643.1914873        599692.53429865837        1135788450.7512038     
   2436562523.3211327        851655.65821075439        1133308470.8677373     
   2334350553.8516631        284120.11840891838        1135032290.0455828     
   2231892734.7830830       -1102914.0850964785        1140959908.2847462     
   3350550984.2130270       -5470965.9693171978        667032345.33537304     
   3226979227.8718328        1843387.5292572975        660722117.91789925     
   3102928705.4253736        7561854.0102829933        657076938.95878279     
   2978399416.8736472        11684433.473764062        656096808.45801449     
   2853391362.2166600        14211125.919684768        657781726.41560841     
   3073117940.7994990       -3709497.3150812387        787841337.42399538     
   2956601659.2768431        2056913.7606360912        780821011.42272758     
   2839849946.2470279        7038553.1458041668        776920142.76726687     
   2722862801.7100468        11235420.840429306        776138731.45760560     
   2605640225.6659017        14647516.844499946        778476777.49373364     
   2794197218.0900025       -2394332.4496243000        907098928.61175883     
   2686034722.4928651        2213629.5353243351        899652394.39116633     
   2577880129.9866686        6847935.1567289829        895779726.40380752     
   2469733440.5714040        11508584.414585471        895480924.64969587     
   2361594654.2470784        16195577.308891058        898755989.12881589     
   2513788816.0845299       -1525471.3729692698        1024805118.8986772     
   2415278417.5198932        2313534.8533115387        1017216266.8231976     
   2317019256.6442938        6990000.0430333614        1013655689.8683978     
   2219011333.4577327        12503924.196229577        1014123388.0342842     
   2121254647.9602118        18855307.312874794        1018619361.3208492     
   2231892734.7830830       -1102914.0850964785        1140959908.2847462     
   2144332744.3579242        2356629.7145961523        1133512628.7188318     
   2057267326.2199066        7464747.8047541380        1130548033.1610420     
   1970696480.3690252        14221440.185368657        1132066121.6113787     
   1884620206.8052795        22626706.856435537        1138066894.0698433     
   2853391362.2166600        14211125.919684768        657781726.41560841     
   2689341845.3672757        9119029.8939465284        645230707.63481617     
   2528470204.6359563        14619854.261769176        640283151.49948633     
   2370776440.0226927        30713599.023112059        642939058.00962615     
   2216260551.5274920        57400264.177985311        653198427.16522634     
   2605640225.6659017        14647516.844499946        778476777.49373364     
   2460199254.2992291        12039411.725802064        769421365.24167693     
   2316606011.6753254        15590402.416310072        766503527.42924798     
   2174860497.7941856        25300488.916033626        769723264.05642939     
   2034962712.6558042        41169671.224974275        779080575.12323487     
   2361594654.2470784        16195577.308891058        898755989.12881589     
   2230573976.3464246        14814987.492211580        891644344.80098999     
   2100070879.8132398        15159668.900424957        889204386.70693588     
   1970085364.6475189        17229621.533517599        891436114.84665298     
   1840617430.8492663        21024845.391508222        898339529.22014856     
   2121254647.9602118        18855307.312874794        1018619361.3208492     
   2000466011.5088687        17445757.193198323        1011899646.3127359     
   1878864809.0497019        13327653.714105606        1008385729.3325480     
   1756451040.5827034        6500996.8755586147        1008077610.3802871     
   1633224706.1078670       -3034213.3224129677        1010975289.4559615     
   1884620206.8052795        22626706.856435537        1138066894.0698433     
   1769875359.7865529        19931720.828763604        1130187269.7769239     
   1652987799.3847008        10094356.857341647        1124047555.3060951     
   1533957525.5997145       -6885385.0578623414        1119647750.6573491     
   1412784538.4316084       -31007504.916798592        1116987855.8306687     
   3768256553.7722187        1130476966.1316655        800550050.08115697     
   3779104897.5282450        1008688862.5984081        884825313.55961633     
   3790566252.2645950        888944128.99956059        974038906.50358176     
   3802640617.9812679        771242765.33512306        1068190828.9130539     
   3815327994.6782637        655584771.60509527        1167281080.7880316     
   3207781060.5141182        962334318.15423548        756681650.41623545     
   3235845652.4789915        868194586.18373585        853043395.03069854     
   3263636109.5322657        773141071.17457259        951329684.59505439     
   3291152431.6739411        677173773.12674594        1051540519.1093038     
   3318394618.9040170        580292692.04025495        1153675898.5734460     
   2685578983.5047450        805673695.05142343        721978251.40625715     
   2722249010.7767138        736599090.77315640        829391473.61614799     
   2757757757.2451611        663653550.48315227        935715456.26031840     
   2792105222.9100876        586837074.18141079        1040950199.3387697     
   2825291407.7714930        506149661.86793238        1145095702.8515007     
   2201650322.7440982        660495096.82322955        696439853.05122221     
   2238314972.4214110        613902376.36666942        813869549.31596482     
   2272931195.4032798        560481566.92529869        927196221.49937463     
   2305498991.6897058        500232668.49911761        1036419869.6014516     
   2336018361.2806888        433155681.08812523        1141540493.6221962     
   1755995078.2321782        526798523.46965349        680066455.35113037     
   1784043537.4130831        500104442.96427506        806477622.13014925     
   1809156424.0066228        463625120.50101262        925771980.31222236     
   1831333738.0127974        417360556.07986605        1037949529.8973496     
   1850575479.4316063        361310749.70083523        1143010270.8855312     
   3815327994.6782637        655584771.60509527        1167281080.7880316     
   3797927407.5742888        537653187.70446157        1188951106.2324800     
   3784366204.4150572        432519550.28630877        1205700088.0136325     
   3774644385.2005701        340183859.35063839        1217528026.1314878     
   3768761949.9308290        260646114.89745140        1224434920.5860472     
   3318394618.9040170        580292692.04025495        1153675898.5734460     
   3293764979.4238725        473089495.99494147        1182003948.8648694     
   3272864046.0998826        378315320.47014284        1207216451.4866927     
   3255691818.9320478        295970165.46585953        1229313406.4389169     
   3242248297.9203682        226054030.98209190        1248294813.7215397     
   2825291407.7714930        506149661.86793238        1145095702.8515007     
   2798591275.8971682        411222421.67253453        1179952653.9032111     
   2775509172.3904095        328355276.03568554        1213499553.2790172     
   2756045097.2512145        257548224.95738626        1245736400.9789202     
   2740199050.4795847        198801268.43763530        1276663197.0029190     
   2336018361.2806888        433155681.08812523        1141540493.6221962     
   2312406296.9941735        352051964.73724091        1182797221.3475046     
   2292301583.2866340        282639416.98293906        1224549393.3906054     
   2275704220.1580687        224918037.82521921        1266797009.7514997     
   2262614207.6084781        178887827.26408195        1309540070.4301851     
   1850575479.4316063        361310749.70083523        1143010270.8855312     
   1835210042.7148900        295578125.18906027        1190537651.1977508     
   1823241278.7885587        241167743.31190139        1240365971.8214586     
   1814669187.6526122        198079604.06935924        1292495232.7566547     
   1809493769.3070505        166313707.46143323        1346925434.0033398     
   3768761949.9308290        260646114.89745140        1224434920.5860472     
   3661701409.9662061        168239641.99795592        1191943708.6491585     
   3562329861.6362863        101463141.21413922        1169903505.7099261     
   3470647304.9410672        60316612.545990229        1158314311.7683513     
   3386653739.8805504        44800055.993516445        1157176126.8244312     
   3242248297.9203682        226054030.98209190        1248294813.7215397     
   3164654977.7348599        151756999.91538417        1231186235.6841829     
   3093133419.4168520        97699175.073677659        1222114638.8255370     
   3027683622.9663448        63880556.456968904        1221080023.1456025     
   2968305588.3833361        50301144.065260768        1228082388.6443789     
   2740199050.4795847        198801268.43763530        1276663197.0029190     
   2685175727.7333474        140544512.50176024        1273050484.8033588     
   2634606937.0874071        97136196.900213122        1275060725.9635642     
   2588492678.5417657        68576321.632991433        1282693920.4835360     
   2546832952.0964212        54864886.700096846        1295950068.3632724     
   2262614207.6084781        178887827.26408195        1309540070.4301851     
   2223263659.9616675        134602179.75708735        1317536456.0066862     
   2186750414.6479526        99774206.693745494        1328741767.1240070     
   2153074471.6673336        74403908.074058652        1343156003.7821491     
   2122235831.0198119        58491283.898025274        1360779165.9811108     
   1809493769.3070505        166313707.46143323        1346925434.0033398     
   1778918774.4198220        133930001.68136436        1364644149.2941663     
   1749563852.0984874        105613204.45427501        1383157762.3068671     
   1721429002.3430471        81363315.780166864        1402466273.0414438     
   1694514225.1535006        61180335.659039736        1422569681.4978950     
   3386653739.8805504        44800055.993516445        1157176126.8244312     
   3294658754.0747609        38128144.639051437        1150139419.8433659     
   3202389109.4397116        30540703.853718877        1146693355.2686119     
   3109844805.9754076        22037733.637540102        1146837933.1001716     
   3017025843.6818414        12619233.990489364        1150573153.3380463     
   2968305588.3833361        50301144.065260768        1228082388.6443789     
   2884910273.3977942        39157144.798033953        1220190888.7021046     
   2801799634.2888703        28962065.119519711        1216355898.0412734     
   2718973671.0565577        19715905.029718518        1216577416.6618762     
   2636432383.7008581        11418664.528630376        1220855444.5639200     
   2546832952.0964212        54864886.700096846        1295950068.3632724     
   2473368356.1457763        39648113.984502554        1287856332.6166425     
   2400747770.7776179        27244709.877192497        1284284973.0265782     
   2328971195.9919457        17654674.378171682        1285235989.5930772     
   2258038631.7887573        10878007.487434268        1290709382.3161426     
   2122235831.0198119        58491283.898025274        1360779165.9811108     
   2060033002.3187072        39601052.198457479        1353135751.5869744     
   1999233518.9059596        25388638.126746655        1350480580.2245300     
   1939837380.7815719        15854041.682897806        1352813651.8937747     
   1881844587.9455364        10997262.866899490        1360134966.5947113     
   1694514225.1535006        61180335.659039736        1422569681.4978950     
   1644904211.9165814        39015959.439890802        1416029145.6131029     
   1597256878.6738923        23393849.868174851        1414942719.6351290     
   1551572225.4254324        14314006.943888247        1419310403.5639689     
   1507850252.1712027        11776430.667037785        1429132197.3996270     
   3017025843.6818414        12619233.990489364        1150573153.3380463     
   2921107048.9773531        3597942.6804980040        1140641926.7291698     
   2826337962.3726702       -1590988.2968013287        1135981363.9192004     
   2732718583.8677983       -2947558.9414029121        1136591464.9081376     
   2640248913.4627290       -471769.25332260132        1142472229.6959832     
   2636432383.7008581        11418664.528630376        1220855444.5639200     
   2554560667.1237226        5040967.6222970486        1212686774.1748395     
   2473537465.2377858        1491653.0199637413        1209442824.4532051     
   2393362778.0430498        770720.72163236141        1211123595.3990157     
   2314036605.5395145        2878170.7273060083        1217729087.0122650     
   2258038631.7887573        10878007.487434268        1290709382.3161426     
   2189225584.3919330        6847382.3006438017        1283951875.8368208     
   2120959858.2777021        4641161.3891644478        1281773146.8934789     
   2053241453.4460654        4259344.7530020475        1284173195.4861171     
   1986070369.8970249        5701932.3921519518        1291152021.6147354     
   1881844587.9455364        10997262.866899490        1360134966.5947113     
   1825101800.7819872        9017186.7155458927        1354437231.7151067     
   1768605141.4924228        7857536.8108087778        1352972331.2400179     
   1712354610.0768480        7518313.1527026892        1355740265.1694417     
   1656350206.5352576        7999515.7412130833        1362741033.5033870     
   1507850252.1712027        11776430.667037785        1429132197.3996270     
   1462189316.2938862        11550380.867000580        1424142841.8096983     
   1416473314.8819470        11140779.284890831        1423040377.4928188     
   1370702247.9353940        10547625.920731306        1425824804.4489925     
   1324876115.4542170        9770920.7744954824        1432496122.6782169     
   2640248913.4627290       -471769.25332260132        1142472229.6959832     
   2538528643.1914873        599692.53429865837        1135788450.7512038     
   2436562523.3211327        851655.65821075439        1133308470.8677373     
   2334350553.8516631        284120.11840891838        1135032290.0455828     
   2231892734.7830830       -1102914.0850964785        1140959908.2847462     
   2314036605.5395145        2878170.7273060083        1217729087.0122650     
   2223270887.9158607        2720929.8537914753        1210393230.5592303     
   2132426219.9901524        2300521.3067486286        1207563700.7725153     
   2041502601.7623758        1616945.0861563683        1209240497.6521294     
   1950500033.2325368        670201.19201624393        1215423621.1980684     
   1986070369.8970249        5701932.3921519518        1291152021.6147354     
   1907123569.5067163        4575298.2332472801        1283358803.4999940     
   1828264718.1113956        3741827.3909605742        1280374439.6565907     
   1749493815.7110589        3201519.8652917147        1282198930.0845261     
   1670810862.3057115        2954375.6562470198        1288832274.7837996     
   1656350206.5352576        7999515.7412130833        1362741033.5033870     
   1590086687.9640450        6162797.6726408601        1354685169.5734980     
   1524078017.6848664        5175573.9108437896        1351740687.5199618     
   1458324195.6977203        5037844.4558221102        1353907587.3427770     
   1392825222.0026119        5749609.3075978756        1361185869.0419428     
   1324876115.4542170        9770920.7744954824        1432496122.6782169     
   1272160243.2878449        7483428.1719658971        1424372328.7797425     
   1219866118.7105560        6601760.8663820028        1421662444.3626287     
   1167993741.7223520        7125918.8577460051        1424366469.4268816     
   1116543112.3232329        9055902.1460582018        1432484403.9724932     
   2231892734.7830830       -1102914.0850964785        1140959908.2847462     
   2144332744.3579242        2356629.7145961523        1133512628.7188318     
   2057267326.2199066        7464747.8047541380        1130548033.1610420     
   1970696480.3690252        14221440.185368657        1132066121.6113787     
   1884620206.8052795        22626706.856435537        1138066894.0698433     
   1950500033.2325368        670201.19201624393        1215423621.1980684     
   1874605287.1774466        4801388.1205339432        1209043423.3828168     
   1799149217.1916060        10394828.613212585        1206998811.8913047     
   1724131823.2750149        17450522.670054913        1209289786.7235303     
   1649553105.4276700        25968470.291056752        1215916347.8794882     
   1670810862.3057115        2954375.6562470198        1288832274.7837996     
   1606161081.5224333        7631121.9841094613        1283453946.4650121     
   1541894080.5905116        13583801.149833024        1282264106.7855713     
   1478009859.5099525        20812413.153425515        1285262755.7454755     
   1414508418.2807488        29316957.994876206        1292449893.3447239     
   1392825222.0026119        5749609.3075978756        1361185869.0419428     
   1339000127.3928840        10845831.305330157        1356744197.9654150     
   1285501916.4166226        17031665.414611697        1356343917.8438365     
   1232330589.0738349        24307111.635476232        1359985028.6772206     
   1179486145.3645167        32672169.967903018        1367667530.4655564     
   1116543112.3232329        9055902.1460582018        1432484403.9724932     
   1073122424.7887968        14445516.084177673        1428914177.8840182     
   1029972724.6699413        20738421.407560170        1429238245.0661092     
   987094011.96666908        27934618.116222620        1433456605.5187597     
   944486286.67897415        36034106.210140228        1441569259.2419810     
   1884620206.8052795        22626706.856435537        1138066894.0698433     
   1769875359.7865529        19931720.828763604        1130187269.7769239     
   1652987799.3847008        10094356.857341647        1124047555.3060951     
   1533957525.5997145       -6885385.0578623414        1119647750.6573491     
   1412784538.4316084       -31007504.916798592        1116987855.8306687     
   1649553105.4276700        25968470.291056752        1215916347.8794882     
   1541632815.1697493        23573670.374214113        1207038934.8132224     
   1432673666.9867539        17716010.707124770        1201601997.2537668     
   1322675660.8786862        8395491.2897826433        1199605535.2011287     
   1211638796.8455386       -4387887.8778033257        1201049548.6552837     
   1414508418.2807488        29316957.994876206        1292449893.3447239     
   1318271443.8828506        28679971.918629646        1283862522.8728435     
   1222099467.0179324        28259644.285655200        1280416193.5924973     
   1125992487.6859879        28055975.095929980        1282110905.5036829     
   1029950505.8870234        28068964.349464893        1288946658.6064005     
   1179486145.3645167        32672169.967903018        1367667530.4655564     
   1099791245.9258561        35250625.462022960        1360658033.9557855     
   1021265199.4782274        41725257.592909098        1360490144.3222747     
   943908006.02163196        52096066.360564888        1367163861.5650196     
   867719665.55606389        66363051.764996529        1380679185.6840243     
   944486286.67897415        36034106.210140228        1441569259.2419810     
   886192221.29877055        43285631.004388899        1437425468.0620508     
   830170864.36765051        58112850.628917277        1441823849.4430974     
   776422215.88560939        80515765.083713919        1454764403.3851421     
   724946275.85265839        110494374.36879438        1476247129.8881590     
   1755995078.2321782        526798523.46965349        680066455.35113037     
   1784043537.4130831        500104442.96427506        806477622.13014925     
   1809156424.0066228        463625120.50101262        925771980.31222236     
   1831333738.0127974        417360556.07986605        1037949529.8973496     
   1850575479.4316063        361310749.70083523        1143010270.8855312     
   1326356893.9364119        397907068.18092352        669747510.11490703     
   1339569062.7576289        375533081.90358317        791891709.42316580     
   1350582030.5695121        345828425.59512937        908743241.46060181     
   1359395797.3720613        308793099.25556207        1020302106.2272153     
   1366010363.1652765        264427102.88488144        1126568303.7230058     
   890479413.82422554        267143824.14726767        662372469.15147746     
   894067124.64610636        250653481.80607080        781108801.16334581     
   896192006.03668427        229287041.36053088        896376607.23051453     
   896854057.99595940        203044502.81064817        1008175887.3529831     
   896053280.52393138        171925866.15642226        1116506641.5307524     
   448362637.89561981        134508791.36868593        657941332.46084154     
   447537723.07851535        125465642.67173788        774128897.35068941     
   445986350.40813917        114000967.79721734        888672077.62196052     
   443708519.88449121        100114766.74512435        1001570873.2746544     
   440704231.50757170        83807039.515458912        1112825284.3087714     
   6566.1505943414586        1969.8451783024375        656454100.04299951     
  -19141.945144141820       -30435.499415592498        770951997.98519647     
  -34936.316123193355       -29795.094811424991        885629652.63493943     
  -40816.962342754523        3891.0589912388805        1000487063.9922283     
  -36783.883803064091        70622.961991234610        1115524232.0570631     
   1850575479.4316063        361310749.70083523        1143010270.8855312     
   1835210042.7148900        295578125.18906027        1190537651.1977508     
   1823241278.7885587        241167743.31190139        1240365971.8214586     
   1814669187.6526122        198079604.06935924        1292495232.7566547     
   1809493769.3070505        166313707.46143323        1346925434.0033398     
   1366010363.1652765        264427102.88488144        1126568303.7230058     
   1360318960.8512139        216889186.49011344        1181993158.4303865     
   1357169531.2441316        177824512.45194575        1238359858.9551651     
   1356562074.3440299        147233080.77038068        1295668405.2973409     
   1358496590.1509080        125114891.44541490        1353918797.4569132     
   896053280.52393138        171925866.15642226        1116506641.5307524     
   896152785.48654771        141417719.74086994        1178831820.5359902     
   897939563.07273948        116533815.40390179        1240739750.8645339     
   901413613.28250670        97274153.145519197        1302230432.5163832     
   906574936.11584938        83638732.965721369        1363303865.4915392     
   440704231.50757170        83807039.515458912        1112825284.3087714     
   442711516.62089121        69163724.941328794        1181053637.5145600     
   445551374.27438188        57295652.167768076        1247505647.5495636     
   449223804.46804309        48202821.194776550        1312181314.4137819     
   453728807.20187491        41885232.022353217        1375080638.1072145     
  -36783.883803064091        70622.961991234610        1115524232.0570631     
  -4845.7457552505512        127202.09149114985        1188658609.3660977     
   4964.8490583219937        110022.74354337828        1258657549.0102551     
  -7352.0993616555252        19084.918150634949        1325521050.9895360     
  -41796.591015806123       -145611.38468935195        1389249115.3039401     
   1809493769.3070505        166313707.46143323        1346925434.0033398     
   1778918774.4198220        133930001.68136436        1364644149.2941663     
   1749563852.0984874        105613204.45427501        1383157762.3068671     
   1721429002.3430471        81363315.780166864        1402466273.0414438     
   1694514225.1535006        61180335.659039736        1422569681.4978950     
   1358496590.1509080        125114891.44541490        1353918797.4569132     
   1332957882.8683910        100023276.48497790        1372869941.0372915     
   1308350966.3676956        78037630.797282875        1393217464.0948880     
   1284675840.6488206        59157954.382321775        1414961366.6297026     
   1261932505.7117686        43384247.240102172        1438101648.6417353     
   906574936.11584938        83638732.965721369        1363303865.4915392     
   887791035.73902488        66354764.615215629        1383151108.6133828     
   869650644.35994816        51215826.257202983        1404996212.9677894     
   852153761.97862017        38221917.891686141        1428839178.5547564     
   835300388.59504080        27373039.518664300        1454680005.3742845     
   453728807.20187491        41885232.022353217        1375080638.1072145     
   443418233.03172266        32924466.072070137        1395487652.0224404     
   433462886.07524484        25147790.834036440        1418494008.9255700     
   423862766.33244300        18555206.308255062        1444099708.8166060     
   414617873.80331719        13146712.494726837        1472304751.6955442     
  -41796.591015806123       -145611.38468935195        1389249115.3039401     
  -160525.25351569243       -267619.14445555216        1409879571.2644629     
  -212308.48641397676       -166475.47221623873        1433710851.9682326     
  -197146.28970925504        157819.63203257433        1460742957.4152501     
  -115038.66340146150        705266.16829249403        1490975887.6055150     
   1694514225.1535006        61180335.659039736        1422569681.4978950     
   1644904211.9165814        39015959.439890802        1416029145.6131029     
   1597256878.6738923        23393849.868174851        1414942719.6351290     
   1551572225.4254324        14314006.943888247        1419310403.5639689     
   1507850252.1712027        11776430.667037785        1429132197.3996270     
   1261932505.7117686        43384247.240102172        1438101648.6417353     
   1227577185.9822323        27664973.536423087        1435275020.1771541     
   1194622841.7629292        16615618.200190604        1437241330.0770938     
   1163069473.0538645        10236181.231418252        1444000578.3415558     
   1132917079.8550317        8526662.6300855875        1455552764.9705443     
   835300388.59504080        27373039.518664300        1454680005.3742845     
   814310700.82347536        17532149.865630418        1454911962.4319181     
   794160284.07815218        10488830.300068945        1459275686.3117816     
   774849138.35906792        6243080.8219705224        1467771177.0138733     
   756377263.66622567        4794901.4313478172        1480398434.5381954     
   414617873.80331719        13146712.494726837        1472304751.6955442     
   405104756.44031334        8617488.4275158644        1474939972.3774011     
   395869205.61955613        5013486.1677940339        1481045788.3391931     
   386911221.34104586        2334705.7155614346        1490622199.5809205     
   378230803.60478240        581147.07081888616        1503669206.1025825     
  -115038.66340146150        705266.16829249403        1490975887.6055150     
  -40647.167254232627        920989.22208212514        1495359050.0136013     
  -250393.61285313073        189585.80338431930        1502551636.1593282     
  -744278.00020440086       -1488944.0878217402        1512553646.0426974     
  -1522300.3292990986       -4114600.4515048508        1525365079.6637082     
   1507850252.1712027        11776430.667037785        1429132197.3996270     
   1462189316.2938862        11550380.867000580        1424142841.8096983     
   1416473314.8819470        11140779.284890831        1423040377.4928188     
   1370702247.9353940        10547625.920731306        1425824804.4489925     
   1324876115.4542170        9770920.7744954824        1432496122.6782169     
   1132917079.8550317        8526662.6300855875        1455552764.9705443     
   1097399778.8933337        7338764.5349069834        1450096867.1064224     
   1061886618.5763482        6164668.5887752175        1448778839.0493722     
   1026377598.9040794        5004374.7916943431        1451598680.7993927     
   990872719.87652373        3857883.1436598897        1458556392.3564861     
   756377263.66622567        4794901.4313478172        1480398434.5381954     
   731720679.14591563        2860279.4987575710        1474545068.2757714     
   707127441.44965434        1136813.6463312209        1473080550.3544424     
   682597550.57744205       -375496.12593111396        1476004880.7742028     
   658131006.52927756       -1676649.8180349171        1483318059.5350521     
   378230803.60478240        581147.07081888616        1503669206.1025825     
   365152017.05163133       -1885074.2414510846        1497487445.3177505     
   352195783.50186235       -3942785.5424472094        1495945511.4080269     
   339362102.95547861       -5591986.8321602196        1499043404.3734164     
   326650975.41247773       -6832678.1105958074        1506781124.2139161     
  -1522300.3292990986       -4114600.4515048508        1525365079.6637082     
  -2306207.3895201595       -6897296.6857232796        1518923998.2323542     
  -2908355.2670225548       -9074128.9775465056        1517373722.2101314     
  -3328743.9618077725       -10645097.326978616        1520714251.5970392     
  -3567373.4738775729       -11610201.734026700        1528945586.3930788     
   1324876115.4542170        9770920.7744954824        1432496122.6782169     
   1272160243.2878449        7483428.1719658971        1424372328.7797425     
   1219866118.7105560        6601760.8663820028        1421662444.3626287     
   1167993741.7223520        7125918.8577460051        1424366469.4268816     
   1116543112.3232329        9055902.1460582018        1432484403.9724932     
   990872719.87652373        3857883.1436598897        1458556392.3564861     
   952149154.30021763        2210645.5425805449        1451190454.9240346     
   913727949.18572307        1571276.1475393176        1449026169.6176276     
   875609104.53304696        1939774.9585571885        1452063536.4372644     
   837792620.34218347        3316141.9756217599        1460302555.3829522     
   658131006.52927756       -1676649.8180349171        1483318059.5350521     
   632793297.95641315       -2865567.2936694920        1476570693.5868101     
   607638562.71809494       -3444573.6541516483        1474812722.4092951     
   582666800.81432772       -3413668.8994624019        1478044146.0025105     
   557878012.24510539       -2772853.0296233892        1486264964.3664563     
   326650975.41247773       -6832678.1105958074        1506781124.2139161     
   314092674.25643492       -7745210.3367725760        1500513044.7680728     
   301597959.30767393       -8445788.5386789590        1499022102.7376385     
   289166830.56619543       -8934412.7163093090        1502308298.1226184     
   276799288.03199577       -9211082.8696763217        1510371630.9230103     
  -3567373.4738775729       -11610201.734026700        1528945586.3930788     
  -3952716.7997122598       -12428283.586714678        1523017508.4678187     
  -4393861.0455371318       -13432368.506036604        1521654310.6026535     
  -4890806.2113443296       -14622456.491966804        1524855992.7975864     
  -5443552.2971453499       -15998547.544542037        1532622555.0526142     
   1116543112.3232329        9055902.1460582018        1432484403.9724932     
   1073122424.7887968        14445516.084177673        1428914177.8840182     
   1029972724.6699413        20738421.407560170        1429238245.0661092     
   987094011.96666908        27934618.116222620        1433456605.5187597     
   944486286.67897415        36034106.210140228        1441569259.2419810     
   837792620.34218347        3316141.9756217599        1460302555.3829522     
   804069657.15375519        6416423.4765739739        1456597056.8474724     
   770371272.96493316        9598634.9762136042        1456985360.4853992     
   736697467.77571559        12862776.474536985        1461467466.2967272     
   703048241.58610475        16208847.971545935        1470043374.2814546     
   557878012.24510539       -2772853.0296233892        1486264964.3664563     
   534422798.83935952       -1790896.3348351419        1482136716.8986754     
   510745756.01724589       -1548371.0279404521        1482301780.5071342     
   486846883.77876240       -2045277.1089453399        1486760155.1918311     
   462726182.12391007       -3281614.5778443515        1495511840.9527662     
   276799288.03199577       -9211082.8696763217        1510371630.9230103     
   264181849.84561113       -10176443.350045428        1505533158.0376244     
   251096173.82688308       -12702596.604893640        1505187505.1313088     
   237542259.97580868       -16789542.634229451        1509334672.2040708     
   223520108.29239464       -22437281.438031659        1517974659.2559090     
  -5443552.2971453499       -15998547.544542037        1532622555.0526142     
  -6653189.8274943605       -18740217.569074541        1526786380.2643149     
  -8577473.6061574630       -23864041.754652634        1525642534.3579259     
  -11216403.633143829       -31370020.101309661        1529191017.3334508     
  -14569979.908444425       -41258152.609012730        1537431829.1908867     
   944486286.67897415        36034106.210140228        1441569259.2419810     
   886192221.29877055        43285631.004388899        1437425468.0620508     
   830170864.36765051        58112850.628917277        1441823849.4430974     
   776422215.88560939        80515765.083713919        1454764403.3851421     
   724946275.85265839        110494374.36879438        1476247129.8881590     
   703048241.58610475        16208847.971545935        1470043374.2814546     
   664032919.62436056        19823685.747657180        1467616469.9470532     
   626231652.73603654        27485373.768504292        1472316431.1469753     
   589644440.92112660        39193912.034062386        1484143257.8812227     
   554271284.17963028        54949300.544330180        1503096950.1497934     
   462726182.12391007       -3281614.5778443515        1495511840.9527662     
   438945869.21874499       -4516584.1284128129        1493566727.8589497     
   415320958.01132619       -5233548.0198239088        1497333173.2727947     
   391851448.50164980       -5432506.2520972192        1506811177.1943066     
   368537340.68972629       -5113458.8251901120        1522000739.6234722     
   223520108.29239464       -22437281.438031659        1517974659.2559090     
   210931070.08191663       -29735178.623851687        1515276241.7977297     
   197438780.19351617       -40043914.736082211        1516874075.8205512     
   183043238.62719271       -53363489.774719298        1522768161.3243730     
   167744445.38294399       -69693903.739777222        1532958498.3092029     
  -14569979.908444425       -41258152.609012730        1537431829.1908867     
  -20011477.786124825       -55832097.738657810        1532745011.7633975     
  -27414880.717396274       -76945726.380273744        1530939138.7902539     
  -36780188.702267624       -104599038.53388797        1532014210.2714429     
  -48107401.740716435       -138792034.19942775        1535970226.2069781     
   6566.1505943414586        1969.8451783024375        656454100.04299951     
  -19141.945144141820       -30435.499415592498        770951997.98519647     
  -34936.316123193355       -29795.094811424991        885629652.63493943     
  -40816.962342754523        3891.0589912388805        1000487063.9922283     
  -36783.883803064091        70622.961991234610        1115524232.0570631     
  -448353287.33675069       -134505986.20102519        657918597.25982440     
  -447567735.55844879       -125497573.32754274        774122338.38953996     
  -446045282.84778756       -114032824.01286271        888684026.20295370     
  -443785929.20476711       -100111738.25698552        1001603660.7000659     
  -440789674.62938744       -83734316.059910685        1112881241.8808763     
  -890481408.49231529       -267144422.54769459        662342649.47318947     
  -894089768.33668065       -250656742.90514821        781100385.53262329     
  -896234240.04108679       -229289436.12940484        896394258.25190771     
  -896914823.60553384       -203042502.22046459        1008224267.6310432     
  -896131519.03002203       -171915941.17832768        1116590413.6700287     
  -1326377797.3160996       -397913339.19482994        669726256.68309474     
  -1339585240.2798395       -375507944.23223168        791886139.41444683     
  -1350601807.8960207       -345799631.44443721        908760348.78180170     
  -1359427500.1646426       -308788400.83144641        1020348884.7851595     
  -1366062317.0857065       -264474252.39325926        1126651747.4245205     
  -1756042453.8081036       -526812736.14243102        680069418.88954031     
  -1784054151.3879256       -500051177.30879337        806479600.03501010     
  -1809147986.4125891       -463563409.95795977        925782297.79263532     
  -1831323958.8820941       -417349434.08993101        1037977512.1624157     
  -1850582068.7964406       -361409249.70470637        1143065243.1443515     
  -36783.883803064091        70622.961991234610        1115524232.0570631     
  -4845.7457552505512        127202.09149114985        1188658609.3660977     
   4964.8490583219937        110022.74354337828        1258657549.0102551     
  -7352.0993616555252        19084.918150634949        1325521050.9895360     
  -41796.591015806123       -145611.38468935195        1389249115.3039401     
  -440789674.62938744       -83734316.059910685        1112881241.8808763     
  -442751050.40876824       -69025187.071291819        1181075201.4735293     
  -445568670.48448312       -57170205.737119973        1247489922.6732409     
  -449242534.85653138       -48169372.057392746        1312125405.4800103     
  -453772643.52491355       -42022686.032111615        1374981649.8938379     
  -896131519.03002203       -171915941.17832768        1116590413.6700287     
  -896211353.66416037       -141391805.81178898        1178870819.3343508     
  -897981549.34773219       -116502207.27669513        1240728185.8776662     
  -901442106.08073831       -97247145.573048115        1302162513.2999747     
  -906593023.86317682       -83626620.700844526        1363173801.6012754     
  -1366062317.0857065       -264474252.39325926        1126651747.4245205     
  -1360385755.5119309       -216972654.12999880        1182045462.9485621     
  -1357233671.7406893       -177885981.87518317        1238372338.6235311     
  -1356606065.7719812       -147214235.62881339        1295632374.4494278     
  -1358502937.6058066       -124957415.39088738        1353825570.4262531     
  -1850582068.7964406       -361409249.70470637        1143065243.1443515     
  -1835274255.9520812       -295767732.02592385        1190599132.3161623     
  -1823325037.6633544       -241321529.53258353        1240422380.9108360     
  -1814734413.9302616       -198070642.22469091        1292534988.9283721     
  -1809502384.7528012       -166015070.10223913        1346936956.3687706     
  -41796.591015806123       -145611.38468935195        1389249115.3039401     
  -160525.25351569243       -267619.14445555216        1409879571.2644629     
  -212308.48641397676       -166475.47221623873        1433710851.9682326     
  -197146.28970925504        157819.63203257433        1460742957.4152501     
  -115038.66340146150        705266.16829249403        1490975887.6055150     
  -453772643.52491355       -42022686.032111615        1374981649.8938379     
  -443654738.07297850       -33209047.922176406        1395510197.9912846     
  -433819567.76522028       -25337860.292831510        1418650183.1558878     
  -424267132.60163844       -18409123.144074529        1444401605.3876479     
  -414997432.58223510       -12422836.475911841        1472764464.6865635     
  -906593023.86317682       -83626620.700844526        1363173801.6012754     
  -887922449.08563852       -66382526.157855481        1383192481.1662381     
  -869884290.02605689       -51246484.008057594        1405233210.1222653     
  -852478546.68443131       -38218494.251444966        1429295988.4693577     
  -835705219.06076217       -27298556.888021767        1455380816.2075148     
  -1358502937.6058066       -124957415.39088738        1353825570.4262531     
  -1332963658.2914972       -99788053.851495028        1372926420.7893217     
  -1308406475.2689240       -77892346.617891669        1393459932.8673632     
  -1284831388.5380859       -59270293.690070927        1415426106.6603789     
  -1262238398.0989852       -43921895.068039954        1438824942.1683676     
  -1809502384.7528012       -166015070.10223913        1346936956.3687706     
  -1778778365.6905532       -133425631.00309354        1364712016.8605351     
  -1749386123.4938211       -105275448.12233526        1383330351.3911822     
  -1721325658.1626034       -81564521.459958375        1402791959.9607124     
  -1694596969.6969025       -62292851.015968919        1423096842.5691228     
  -115038.66340146150        705266.16829249403        1490975887.6055150     
  -40647.167254232627        920989.22208212514        1495359050.0136013     
  -250393.61285313073        189585.80338431930        1502551636.1593282     
  -744278.00020440086       -1488944.0878217402        1512553646.0426974     
  -1522300.3292990986       -4114600.4515048508        1525365079.6637082     
  -414997432.58223510       -12422836.475911841        1472764464.6865635     
  -405396383.19733578       -7657356.4011208862        1474929851.2700036     
  -396383067.72519612       -4850989.3688616455        1480564068.5638418     
  -387957486.16581702       -4003735.3791376352        1489667116.5680778     
  -380119638.51919824       -5115594.4319487959        1502238995.2827113     
  -835705219.06076217       -27298556.888021767        1455380816.2075148     
  -814693491.86495137       -17418113.815577894        1454974231.6667948     
  -794573094.55291390       -10508770.355713427        1458695884.8092279     
  -775344027.12465000       -6570526.5084263384        1466545775.6348143     
  -757006289.58015871       -5603382.2737152576        1478523904.1435552     
  -1262238398.0989852       -43921895.068039954        1438824942.1683676     
  -1227931973.1701043       -28361283.021300852        1435492191.2039721     
  -1194820474.0960085       -16783757.157178223        1436947084.8954873     
  -1162903900.8766999       -9189317.4756801128        1443189623.2429109     
  -1132182253.5121772       -5577963.9767996073        1454219806.2462432     
  -1694596969.6969025       -62292851.015968919        1423096842.5691228     
  -1645111827.1127918       -40486864.018281639        1416483729.8815389     
  -1597125206.3544815       -23675949.773261786        1415317668.8226187     
  -1550637107.4219673       -11860108.280896187        1419598659.3923643     
  -1505647530.3152542       -5039339.5411981940        1429326701.5907726     
  -1522300.3292990986       -4114600.4515048508        1525365079.6637082     
  -2306207.3895201595       -6897296.6857232796        1518923998.2323542     
  -2908355.2670225548       -9074128.9775465056        1517373722.2101314     
  -3328743.9618077725       -10645097.326978616        1520714251.5970392     
  -3567373.4738775729       -11610201.734026700        1528945586.3930788     
  -380119638.51919824       -5115594.4319487959        1502238995.2827113     
  -367859610.47288710       -5684938.2800927609        1496414639.3233602     
  -355528863.18320668       -6018551.3170053661        1495222500.5631166     
  -343127396.65015441       -6116433.5426788479        1498662579.0019774     
  -330655210.87373209       -5978584.9571171850        1506734874.6399510     
  -757006289.58015871       -5603382.2737152576        1478523904.1435552     
  -732441149.88452590       -4181020.7729512751        1473186727.0603011     
  -707916330.88486886       -2893061.5921045244        1472223178.9661317     
  -683431832.58118987       -1739504.7311840951        1475633259.8610463     
  -658987654.97348571       -720350.19018238783        1483416969.7450447     
  -1132182253.5121772       -5577963.9767996073        1454219806.2462432     
  -1096050825.6244307       -2385544.1642826200        1449240261.4431820     
  -1060070758.3720100        302340.19714939594        1448375757.4191816     
  -1024242051.7549113        2485689.1075072885        1451626294.1742418     
  -988564705.77313745        4164502.5667838454        1458991871.7083642     
  -1505647530.3152542       -5039339.5411981940        1429326701.5907726     
  -1458688637.6926081       -298508.45410394669        1424575242.4719985     
  -1411992145.6446280        3567654.0507664680        1423680235.9222631     
  -1365558054.1713233        6559147.9733874202        1426641681.9415629     
  -1319386363.2726877        8675973.3137804866        1433459580.5299008     
  -3567373.4738775729       -11610201.734026700        1528945586.3930788     
  -3952716.7997122598       -12428283.586714678        1523017508.4678187     
  -4393861.0455371318       -13432368.506036604        1521654310.6026535     
  -4890806.2113443296       -14622456.491966804        1524855992.7975864     
  -5443552.2971453499       -15998547.544542037        1532622555.0526142     
  -330655210.87373209       -5978584.9571171850        1506734874.6399510     
  -318651566.22638148       -6054694.9550981224        1500383654.7932928     
  -306767033.95085633       -6527846.1924947202        1498826321.3609817     
  -295001614.04715562       -7398038.6693079025        1502062874.3430130     
  -283355306.51527947       -8665272.3855339587        1510093313.7393889     
  -658987654.97348571       -720350.19018238783        1483416969.7450447     
  -633940718.48366702        141802.82733431458        1476568744.6165147     
  -609076205.81751108        395876.43264314532        1474743412.2565761     
  -584394116.97501791        41870.625742346048        1477940972.6652312     
  -559894451.95618677       -920214.59336781502        1486161425.8424811     
  -988564705.77313745        4164502.5667838454        1458991871.7083642     
  -949820173.57156777        6161209.7605851293        1451572777.9374804     
  -911321376.64550138        7338799.3693770766        1449405583.2894371     
  -873068314.99493361        7697271.3931732774        1452490287.7642391     
  -835060988.61986458        7236625.8319704533        1460826891.3618803     
  -1319386363.2726877        8675973.3137804866        1433459580.5299008     
  -1266289931.4900889        12003525.844641566        1425395754.7561891     
  -1213502546.4348235        14300922.617719650        1422812834.4595680     
  -1161024208.1068988        15568163.632997215        1425710819.6400363     
  -1108854916.5063126        15805248.890481055        1434089710.2975962     
  -5443552.2971453499       -15998547.544542037        1532622555.0526142     
  -6653189.8274943605       -18740217.569074541        1526786380.2643149     
  -8577473.6061574630       -23864041.754652634        1525642534.3579259     
  -11216403.633143829       -31370020.101309661        1529191017.3334508     
  -14569979.908444425       -41258152.609012730        1537431829.1908867     
  -283355306.51527947       -8665272.3855339587        1510093313.7393889     
  -272390363.19624221       -10821978.309508860        1504049377.8704336     
  -261757997.35848853       -14087275.837760165        1502543183.5958838     
  -251458209.00202477       -18461164.970312953        1505574730.9157443     
  -241490998.12684715       -23943645.707151666        1513144019.8300188     
  -559894451.95618677       -920214.59336781502        1486161425.8424811     
  -537196605.75205529       -2624459.8060652316        1480355475.7877338     
  -514449268.26217949       -4163734.0662827492        1478932680.0398936     
  -491652439.48655862       -5538037.3740155399        1481893038.5989604     
  -468806119.42519569       -6747369.7292760015        1489236551.4649353     
  -835060988.61986458        7236625.8319704533        1460826891.3618803     
  -801071917.49493361        5852337.9412567616        1455704674.0162158     
  -766651286.31722665        5906583.5597929657        1454811023.6899538     
  -731799095.08674443        7399362.6875813007        1458145940.3831005     
  -696515343.80348802        10330675.324617386        1465709424.0956464     
  -1108854916.5063126        15805248.890481055        1434089710.2975962     
  -1064016298.4248742        14608414.932466686        1430096972.5558801     
  -1018364051.5236338        16123677.040454924        1430178214.5460680     
  -971898175.80257761        20351035.214495003        1434333436.2681568     
  -924618671.26172674        27290489.454523444        1442562637.7221448     
  -14569979.908444425       -41258152.609012730        1537431829.1908867     
  -20011477.786124825       -55832097.738657810        1532745011.7633975     
  -27414880.717396274       -76945726.380273744        1530939138.7902539     
  -36780188.702267624       -104599038.53388797        1532014210.2714429     
  -48107401.740716435       -138792034.19942775        1535970226.2069781     
  -241490998.12684715       -23943645.707151666        1513144019.8300188     
  -235636480.22336900       -32682517.761907890        1507381307.8757010     
  -230782956.32853943       -44758036.512163922        1506080339.0506592     
  -226930426.44236490       -60170201.957930870        1509241113.3548899     
  -224078890.56484264       -78919014.099207059        1516863630.7883821     
  -468806119.42519569       -6747369.7292760015        1489236551.4649353     
  -447139018.09790277       -8296198.4163431823        1483519007.8695612     
  -425511999.73432314       -9978636.9824500084        1483844006.0783844     
  -403925064.33445346       -11794685.427594572        1490211546.0914028     
  -382378211.89829689       -13744343.751778111        1502621627.9086227     
  -696515343.80348802        10330675.324617386        1465709424.0956464     
  -654519091.40972722        17326860.298040152        1461158111.7449722     
  -611602010.93474102        27392472.208882153        1464230139.8734264     
  -567764102.37852621        40527511.057154864        1474925508.4810102     
  -523005365.74108207        56731976.842851549        1493244217.5677099     
  -924618671.26172674        27290489.454523444        1442562637.7221448     
  -857776700.15884793        44186658.381221294        1440298619.5019367     
  -789052989.92980027        67355291.061814487        1447238740.4357815     
  -718447540.57458210        96796387.496304125        1463383000.5236852     
  -645960352.09320319        132509947.68467373        1488731399.7656364     
  -1756042453.8081036       -526812736.14243102        680069418.88954031     
  -1784054151.3879256       -500051177.30879337        806479600.03501010     
  -1809147986.4125891       -463563409.95795977        925782297.79263532     
  -1831323958.8820941       -417349434.08993101        1037977512.1624157     
  -1850582068.7964406       -361409249.70470637        1143065243.1443515     
  -2201716331.3902712       -660514899.41708136        696468097.71729231     
  -2238333580.2269020       -613875699.35140550        813885689.36118388     
  -2272912880.9022479       -560443338.74811494        927203961.60336649     
  -2305454233.4163094       -500217817.60720968        1036422914.4438401     
  -2335957637.7690868       -433199135.92868972        1141542547.8826051     
  -2685640383.4845476       -805692115.04536426        722018254.79111743     
  -2722268429.3318849       -736596847.47381973        829416690.14057732     
  -2757738441.4118104       -663641467.34424114        935723970.07446396     
  -2792050419.7243271       -586825974.65662932        1040940094.5927776     
  -2825204364.2694330       -506150369.41098332        1145065063.6955183     
  -3207814610.0909333       -962344383.02727997        756719890.11101556     
  -3235858698.7028728       -868214621.67603564        853072602.37319016     
  -3263624667.9412780       -773157795.74633884        951342323.20592797     
  -3291112517.8061457       -677173905.23818862        1051529052.6092281     
  -3318322248.2974782       -580262950.15158677        1153632790.5830910     
  -3768239011.2094274       -1130471703.3628283        800573003.67698693     
  -3779104388.3398685       -1008729021.9580536        884853426.05902326     
  -3790571560.4906483       -888992323.95440745        974059020.99775815     
  -3802640527.6617665       -771261609.35188937        1068189788.4931916     
  -3815311289.8532238       -655536878.15049982        1167245728.5453234     
  -1850582068.7964406       -361409249.70470637        1143065243.1443515     
  -1835274255.9520812       -295767732.02592385        1190599132.3161623     
  -1823325037.6633544       -241321529.53258353        1240422380.9108360     
  -1814734413.9302616       -198070642.22469091        1292534988.9283721     
  -1809502384.7528012       -166015070.10223913        1346936956.3687706     
  -2335957637.7690868       -433199135.92868972        1141542547.8826051     
  -2312415275.3068523       -352161188.72248948        1182830787.8002563     
  -2292357760.6873231       -282739400.99197584        1224610915.0332365     
  -2275785093.9105015       -224933772.73715037        1266882929.5815470     
  -2262697274.9763861       -178744303.95801175        1309646831.4451859     
  -2825204364.2694330       -506150369.41098332        1145065063.6955183     
  -2798563086.7822752       -411256683.05525142        1179960358.8574247     
  -2775532910.4248981       -328400000.46544993        1213550069.2271276     
  -2756113835.1972995       -257580321.64157784        1245834194.8046257     
  -2740305861.0994792       -198797646.58363509        1276812735.5899205     
  -3318322248.2974782       -580262950.15158677        1153632790.5830910     
  -3293717690.3783512       -473054215.02420926        1181987845.4876680     
  -3272850486.8760762       -378303327.95300424        1207239843.4925077     
  -3255720637.7906537       -296010288.93797207        1229388784.5976098     
  -3242328143.1220832       -226175097.97911406        1248434668.8029747     
  -3815311289.8532238       -655536878.15049982        1167245728.5453234     
  -3797879086.0950799       -537553784.62936187        1188913247.6909857     
  -3784310490.0408602       -432449383.45464170        1205680237.8293777     
  -3774605501.6905651       -340223674.62633407        1217546698.9604988     
  -3768764121.0441952       -260876658.14444268        1224512631.0843487     
  -1809502384.7528012       -166015070.10223913        1346936956.3687706     
  -1778778365.6905532       -133425631.00309354        1364712016.8605351     
  -1749386123.4938211       -105275448.12233526        1383330351.3911822     
  -1721325658.1626034       -81564521.459958375        1402791959.9607124     
  -1694596969.6969025       -62292851.015968919        1423096842.5691228     
  -2262697274.9763861       -178744303.95801175        1309646831.4451859     
  -2223122141.3059812       -134301019.70773721        1317598467.8313696     
  -2186452739.3201804       -99543507.739476919        1328779877.1500700     
  -2152689069.0189829       -74471768.053228617        1343191059.4012876     
  -2121831130.4023888       -59085800.648989558        1360832014.5850203     
  -2740305861.0994792       -198797646.58363509        1276812735.5899205     
  -2685061044.5533915       -140454946.70197678        1273104667.2482550     
  -2634295914.5109959       -97044535.165957093        1275012870.7327394     
  -2588010470.9722924       -68566411.975575686        1282537346.0433741     
  -2546204713.9372787       -55020577.130829811        1295678093.1801598     
  -3242328143.1220832       -226175097.97911406        1248434668.8029747     
  -3164595075.4327874       -151887411.98581278        1231230615.1111891     
  -3092915649.0662699       -97778530.401774406        1222029332.1391885     
  -3027289864.0225325       -63848453.226999760        1220830819.8869729     
  -2967717720.3015757       -50097180.461492658        1227635078.3545420     
  -3768764121.0441952       -260876658.14444268        1224512631.0843487     
  -3661724233.9441643       -168598415.55923951        1191976311.4201748     
  -3562311942.9860010       -101745493.44692814        1169829261.3694198     
  -3470527248.1697054       -60317891.807508945        1158071480.9320831     
  -3386370149.4952774       -44315610.640976310        1156702970.1081657     
  -1694596969.6969025       -62292851.015968919        1423096842.5691228     
  -1645111827.1127918       -40486864.018281639        1416483729.8815389     
  -1597125206.3544815       -23675949.773261786        1415317668.8226187     
  -1550637107.4219673       -11860108.280896187        1419598659.3923643     
  -1505647530.3152542       -5039339.5411981940        1429326701.5907726     
  -2121831130.4023888       -59085800.648989558        1360832014.5850203     
  -2059728092.8689256       -40432680.990979910        1353462146.8999476     
  -1998745506.5659957       -25514398.768081307        1351078885.3948698     
  -1938883371.4936006       -14330953.980299354        1353682230.0697863     
  -1880141687.6517386       -6882346.6276251078        1361272180.9246950     
  -2546204713.9372787       -55020577.130829811        1295678093.1801598     
  -2472799339.8792367       -39914992.339930773        1287992552.8587427     
  -2400136346.4564624       -27284009.666594625        1284833173.2686503     
  -2328215733.6689563       -17127629.110815644        1286199954.4098792     
  -2257037501.5167165       -9445850.6725972891        1292092896.2824333     
  -2967717720.3015757       -50097180.461492658        1227635078.3545420     
  -2884325568.1437268       -38933798.065138221        1220074947.7579226     
  -2801297726.0258799       -28984782.468785882        1216580532.4439566     
  -2718634193.9480362       -20250133.672447801        1217151832.4126444     
  -2636334971.9101949       -12729851.676119566        1221788847.6639838     
  -3386370149.4952774       -44315610.640976310        1156702970.1081657     
  -3294306777.6623955       -37489098.166592598        1149709331.5974874     
  -3202229645.2742496       -30616717.174668908        1146320962.9207931     
  -3110138752.3308411       -23698467.665200353        1146537864.0780802     
  -3018034098.8321710       -16734349.638192773        1150360035.0693495     
  -1505647530.3152542       -5039339.5411981940        1429326701.5907726     
  -1458688637.6926081       -298508.45410394669        1424575242.4719985     
  -1411992145.6446280        3567654.0507664680        1423680235.9222631     
  -1365558054.1713233        6559147.9733874202        1426641681.9415629     
  -1319386363.2726877        8675973.3137804866        1433459580.5299008     
  -1880141687.6517386       -6882346.6276251078        1361272180.9246950     
  -1822693134.9963620       -2169277.3260687590        1355458984.3370171     
  -1765671998.3819902        1119071.8388024569        1353864711.0021436     
  -1709078277.8086276        2982700.8669724464        1356489360.9200714     
  -1652911973.2762744        3421609.7584558725        1363332934.0908015     
  -2257037501.5167165       -9445850.6725972891        1292092896.2824333     
  -2188063658.3035674       -4449853.9990700483        1285025444.1817920     
  -2119682246.5977621       -1428629.0166875124        1282539386.0177188     
  -2051893266.3993022       -382175.72545671463        1284634721.7902133     
  -1984696717.7081842       -1310494.1253703833        1291311451.4992750     
  -2636334971.9101949       -12729851.676119566        1221788847.6639838     
  -2554800207.6142292       -7140238.4731069803        1213274622.0063202     
  -2474022890.2919426       -4075448.5156968832        1209704260.9689894     
  -2394003019.9433389       -3535481.8038914204        1211077764.5519910     
  -2314740596.5684142       -5520338.3376872540        1217395132.7553287     
  -3018034098.8321710       -16734349.638192773        1150360035.0693495     
  -2922902782.9283438       -10240430.748181343        1140206517.8106039     
  -2828693929.4645343       -6821386.6582300663        1135359335.8559535     
  -2735407538.4407420       -6477217.3683387041        1135818489.2054052     
  -2643043609.8569698       -9207922.8785082102        1141583977.8589547     
  -1319386363.2726877        8675973.3137804866        1433459580.5299008     
  -1266289931.4900889        12003525.844641566        1425395754.7561891     
  -1213502546.4348235        14300922.617719650        1422812834.4595680     
  -1161024208.1068988        15568163.632997215        1425710819.6400363     
  -1108854916.5063126        15805248.890481055        1434089710.2975962     
  -1652911973.2762744        3421609.7584558725        1363332934.0908015     
  -1586206286.8839717        6060731.9228737950        1355410470.8773870     
  -1519707207.2759702        8011164.8062845469        1352634628.1250660     
  -1453414734.4522715        9272908.4086874127        1355005405.8338320     
  -1387328868.4128730        9845962.7300863862        1362522804.0036955     
  -1984696717.7081842       -1310494.1253703833        1291311451.4992750     
  -1905336876.7518928        353667.65887534618        1283649864.1130369     
  -1826081202.6368654        1670606.6389149427        1280800612.1718910     
  -1746929695.3631017        2640322.8147336245        1282763695.6758363     
  -1667882354.9306028        3262816.1863477230        1289539114.6248746     
  -2314740596.5684142       -5520338.3376872540        1217395132.7553287     
  -2223681701.0938478       -5117666.9473252296        1210113934.4631410     
  -2132624532.5175056       -4720751.8843799829        1207310786.6000478     
  -2041569090.8393891       -4329593.1488555670        1208985689.1660483     
  -1950515376.0594964       -3944190.7407418489        1215138642.1611431     
  -2643043609.8569698       -9207922.8785082102        1141583977.8589547     
  -2541240759.9098339       -10353271.895731807        1134802681.9276974     
  -2439337196.9178863       -11162910.763584495        1132165151.4095333     
  -2337332920.8811316       -11636839.482076526        1133671386.3044631     
  -2235227931.7995615       -11775058.051186442        1139321386.6124895     
  -1108854916.5063126        15805248.890481055        1434089710.2975962     
  -1064016298.4248742        14608414.932466686        1430096972.5558801     
  -1018364051.5236338        16123677.040454924        1430178214.5460680     
  -971898175.80257761        20351035.214495003        1434333436.2681568     
  -924618671.26172674        27290489.454523444        1442562637.7221448     
  -1387328868.4128730        9845962.7300863862        1362522804.0036955     
  -1332179646.1704185        7422143.1707450747        1358539855.7364156     
  -1276636485.7645466        6311450.8227918148        1358697312.2306297     
  -1220699387.1952503        6513885.6862520576        1362995173.4863381     
  -1164368350.4625421        8029447.7610918283        1371433439.5035417     
  -1667882354.9306028        3262816.1863477230        1289539114.6248746     
  -1602232742.7282984       -331053.23468047380        1285076316.7329149     
  -1536608883.0189595       -4010764.2989283204        1284820348.6320410     
  -1471010775.8025866       -7776317.0063936710        1288771210.3222530     
  -1405438421.0791819       -11627711.357085526        1296928901.8035553     
  -1950515376.0594964       -3944190.7407418489        1215138642.1611431     
  -1874175588.0985074       -8651174.2838031054        1209706355.5453835     
  -1798281243.2868688       -14842968.324697256        1208547323.7503023     
  -1722832341.6245837       -22519572.863439083        1211661546.7759006     
  -1647828883.1116514       -31680987.900019288        1219049024.6221824     
  -2235227931.7995615       -11775058.051186442        1139321386.6124895     
  -2148008182.2810516       -17538219.976627946        1132429972.1738169     
  -2061653566.5682726       -26185161.254508734        1129878237.5854127     
  -1976164084.6612377       -37715881.884868383        1131666182.8472822     
  -1891539736.5599387       -52130381.867681742        1137793807.9594235     
  -924618671.26172674        27290489.454523444        1442562637.7221448     
  -857776700.15884793        44186658.381221294        1440298619.5019367     
  -789052989.92980027        67355291.061814487        1447238740.4357815     
  -718447540.57458210        96796387.496304125        1463383000.5236852     
  -645960352.09320319        132509947.68467373        1488731399.7656364     
  -1164368350.4625421        8029447.7610918283        1371433439.5035417     
  -1077705914.1631727        20393074.021211982        1369189826.0716481     
  -990284463.73144066        35286747.389206350        1374034556.5599060     
  -902103999.16734147        52710467.865081429        1385967630.9683104     
  -813164520.47087991        72664235.448845148        1404989049.2968574     
  -1405438421.0791819       -11627711.357085526        1296928901.8035553     
  -1305000648.8230598       -5610166.5354760289        1293395847.3338754     
  -1204926587.4283757       -804991.25198978186        1294835341.5504386     
  -1105216236.8951304        2787814.4933599830        1301247384.4532409     
  -1005869597.2233258        5168250.7005858421        1312631976.0422871     
  -1647828883.1116514       -31680987.900019288        1219049024.6221824     
  -1539660904.1385102       -33823063.288834751        1212916683.2886119     
  -1432979361.0206037       -40919924.861774027        1209641095.4073792     
  -1327784253.7579451       -52971572.618864298        1209222260.9784756     
  -1224075582.3505297       -69978006.560100913        1211660180.0019133     
  -1891539736.5599387       -52130381.867681742        1137793807.9594235     
  -1781686680.1095173       -64245616.238860369        1127752333.9358654     
  -1674442784.5081279       -85058053.440142930        1118451818.1307321     
  -1569808049.7557924       -114567693.47161728        1109892260.5440290     
  -1467782475.8524990       -152774536.33321726        1102073661.1757483     
  -3768239011.2094274       -1130471703.3628283        800573003.67698693     
  -3779104388.3398685       -1008729021.9580536        884853426.05902326     
  -3790571560.4906483       -888992323.95440745        974059020.99775815     
  -3802640527.6617665       -771261609.35188937        1068189788.4931916     
  -3815311289.8532238       -655536878.15049982        1167245728.5453234     
  -4339758995.7389402       -1301927698.7216821        858737416.51425159     
  -4335227493.0790405       -1125747137.4553769        942341770.60432482     
  -4331829277.8657503       -953344201.01109624        1020302118.1622229     
  -4329564350.0990658       -784718889.38883924        1092618459.1879463     
  -4328432709.7789898       -619871202.58860672        1159290793.6814945     
  -4895219972.5783806       -1468565991.7735143        936372949.64803028     
  -4905489244.6677809       -1247006847.0075703        1018681160.9488266     
  -4917423296.6300573       -1030996968.4845464        1084776186.6285746     
  -4931022128.4652100       -820536356.20444202        1134658026.6872745     
  -4946285740.1732378       -615625010.16725743        1168326681.1249249     
  -5434621941.7277489       -1630386582.5183246        1033479603.0783226     
  -5489889643.1060867       -1372508150.6146338        1113871597.0925291     
  -5547353616.7835693       -1121950626.3747582        1167481226.3968136     
  -5607013862.7601967       -878714009.79869819        1194308490.9911759     
  -5668870381.0359678       -642798300.88645315        1194353390.8756161     
  -5957964903.1870451       -1787389470.9561136        1150057376.8051288     
  -6088428688.3939590       -1502251048.2765672        1227913079.0354316     
  -6221620238.3262873       -1226205174.6817319        1268417237.4669387     
  -6357539552.9840288       -959251850.17160738        1271569852.0996504     
  -6496186632.3671818       -701391074.74619365        1237370922.9335668     
  -3815311289.8532238       -655536878.15049982        1167245728.5453234     
  -3797879086.0950799       -537553784.62936187        1188913247.6909857     
  -3784310490.0408602       -432449383.45464170        1205680237.8293777     
  -3774605501.6905651       -340223674.62633407        1217546698.9604988     
  -3768764121.0441952       -260876658.14444268        1224512631.0843487     
  -4328432709.7789898       -619871202.58860672        1159290793.6814945     
  -4298147056.4908667       -464110696.54607475        1141335799.4788613     
  -4278486391.3483019       -343766817.65539885        1129450738.7246993     
  -4269450714.3512936       -258839565.91657782        1123635611.4190075     
  -4271040025.4998393       -209328941.32961440        1123890417.5617871     
  -4946285740.1732378       -615625010.16725743        1168326681.1249249     
  -4871802458.9101610       -412683838.06983876        1102860896.3920927     
  -4814705546.2342739       -267697227.92971587        1054435507.5634726     
  -4774995002.1455736       -180665179.74688816        1023050514.6390655     
  -4752670826.6440639       -151587693.52135754        1008705917.6188700     
  -5668870381.0359678       -642798300.88645315        1194353390.8756161     
  -5518845293.3529625       -383273209.20065522        1073488538.4306802     
  -5392967954.6987753       -204240614.27759123        980634544.34569788     
  -5291238365.0734100       -105700516.11726642        915791408.62066960     
  -5213656524.4768658       -87652914.719674349        878959131.25559604     
  -6496186632.3671818       -701391074.74619365        1237370922.9335668     
  -6239275559.8192692       -375878809.93852305        1053218725.5946237     
  -6013273616.7418098       -153396976.69902730        908047849.07137561     
  -5818180803.1348009       -33945575.027708530        801858293.36382306     
  -5653997118.9982452       -17524604.924565554        734650058.47196615     
  -3768764121.0441952       -260876658.14444268        1224512631.0843487     
  -3661724233.9441643       -168598415.55923951        1191976311.4201748     
  -3562311942.9860010       -101745493.44692814        1169829261.3694198     
  -3470527248.1697054       -60317891.807508945        1158071480.9320831     
  -3386370149.4952774       -44315610.640976310        1156702970.1081657     
  -4271040025.4998393       -209328941.32961440        1123890417.5617871     
  -4148208865.4629316       -145244396.39346361        1090514924.3524501     
  -4029754181.6803255       -95748105.638323069        1065403532.4770751     
  -3915675974.1520200       -60840069.064187050        1048556241.9356613     
  -3805974242.8780184       -40520286.671058655        1039973052.7282090     
  -4752670826.6440639       -151587693.52135754        1008705917.6188700     
  -4620120303.0401525       -117518419.04522538        978284224.06652892     
  -4488695135.8029804       -87200332.458215714        954001463.56869292     
  -4358395324.9325457       -60633433.760329962        935857636.12536216     
  -4229220870.4288454       -37817722.951565027        923852741.73653400     
  -5213656524.4768658       -87652914.719674349        878959131.25559604     
  -5077458546.6758337       -85420483.514525175        855284210.56241071     
  -4939134805.3539696       -76102173.906611681        835623054.64427483     
  -4798685300.5112791       -59697985.895936728        819975663.50118506     
  -4656110032.1477594       -36207919.482500792        808342037.13314366     
  -5653997118.9982452       -17524604.924565554        734650058.47196615     
  -5520223596.3699665       -48950589.801358223        721514883.84009790     
  -5381073190.3332920       -62453629.983505964        710268305.70381892     
  -5236545900.8882236       -58033725.471006155        700910324.06313050     
  -5086641728.0347614       -35690876.263858557        693440938.91803336     
  -3386370149.4952774       -44315610.640976310        1156702970.1081657     
  -3294306777.6623955       -37489098.166592598        1149709331.5974874     
  -3202229645.2742496       -30616717.174668908        1146320962.9207931     
  -3110138752.3308411       -23698467.665200353        1146537864.0780802     
  -3018034098.8321710       -16734349.638192773        1150360035.0693495     
  -3805974242.8780184       -40520286.671058655        1039973052.7282090     
  -3702341442.5777068       -29740683.515484571        1031684844.7883577     
  -3599421946.2069106       -21338760.124953985        1027778675.6784246     
  -3497215753.7656212       -15314516.499450684        1028254545.3984087     
  -3395722865.2538424       -11667952.638985395        1033112453.9483119     
  -4229220870.4288454       -37817722.951565027        923852741.73653400     
  -4111799301.6727219       -22419227.118291140        913421722.46860754     
  -3995818101.3308802       -11821959.332626581        908149511.02653432     
  -3881277269.4033227       -6025919.5945737362        908036107.41031492     
  -3768176805.8900537       -5031107.9041373730        913081511.61994863     
  -4656110032.1477594       -36207919.482500792        808342037.13314366     
  -4522680354.9474316       -15524728.974999905        794919964.63823879     
  -4391418110.6461620       -2066314.7976922989        787433468.96512103     
  -4262323299.2439494        4167323.0494232178        785882550.11379325     
  -4135395920.7407937        3176184.5663490295        790267208.08425689     
  -5086641728.0347614       -35690876.263858557        693440938.91803336     
  -4934984602.4018450       -9057189.0856275558        676179571.29724765     
  -4786221974.1527567        7928173.4798429012        665630549.49418700     
  -4640353843.2875023        15265211.432543516        661793873.50885117     
  -4497380209.8060741        12953924.772476673        664669543.34123969     
  -3018034098.8321710       -16734349.638192773        1150360035.0693495     
  -2922902782.9283438       -10240430.748181343        1140206517.8106039     
  -2828693929.4645343       -6821386.6582300663        1135359335.8559535     
  -2735407538.4407420       -6477217.3683387041        1135818489.2054052     
  -2643043609.8569698       -9207922.8785082102        1141583977.8589547     
  -3395722865.2538424       -11667952.638985395        1033112453.9483119     
  -3288305066.7099299       -8072282.5894298553        1023719546.8452790     
  -3181379480.8214765       -6117321.3914152384        1019140271.5860115     
  -3074946107.5884938       -5803069.0449671745        1019374628.1705098     
  -2969004947.0109749       -7129525.5500603914        1024422616.5987750     
  -3768176805.8900537       -5031107.9041373730        913081511.61994863     
  -3649880248.8784246       -4756003.9467415810        904951172.75460601     
  -3531645654.7377129       -4687442.8923921585        901141762.27269793     
  -3413473023.4679132       -4825424.7410857677        901653280.17422462     
  -3295362355.0690279       -5169949.4928271770        906485726.45918167     
  -4135395920.7407937        3176184.5663490295        790267208.08425689     
  -4007628329.4338398       -291594.82013535500        783901395.53858483     
  -3879492451.2132444       -2531751.1611571312        781363807.91601372     
  -3750988286.0790119       -3544284.4567182064        782654445.21654189     
  -3622115834.0311422       -3329194.7068135738        787773307.44017220     
  -4497380209.8060741        12953924.772476673        664669543.34123969     
  -4361549308.3761692        5320944.7904009819        660570215.19721520     
  -4224919870.2480688        349753.80229353905        659806408.51595628     
  -4087491895.4217787       -1959648.1918444633        662378123.29746699     
  -3949265383.8972983       -1607261.1920099258        668285359.54174769     
  -2643043609.8569698       -9207922.8785082102        1141583977.8589547     
  -2541240759.9098339       -10353271.895731807        1134802681.9276974     
  -2439337196.9178863       -11162910.763584495        1132165151.4095333     
  -2337332920.8811316       -11636839.482076526        1133671386.3044631     
  -2235227931.7995615       -11775058.051186442        1139321386.6124895     
  -2969004947.0109749       -7129525.5500603914        1024422616.5987750     
  -2855810431.5495687       -7010779.5819772482        1017659278.0042032     
  -2742605552.2186184       -6857487.3820799589        1015223279.3955203     
  -2629390309.0181274       -6669648.9503748417        1017114620.7727250     
  -2516164701.9480891       -6447264.2868568897        1023333302.1358180     
  -3295362355.0690279       -5169949.4928271770        906485726.45918167     
  -3170251675.3139405       -3629758.9056100845        899634937.83014917     
  -3045220980.8645768       -2356186.0041363239        897295063.75979733     
  -2920270271.7209392       -1349230.7884243727        899466104.24813032     
  -2795399547.8830290       -608893.25845432281        906148059.29514480     
  -3622115834.0311422       -3329194.7068135738        787773307.44017220     
  -3484564491.2029548       -210209.86662912369        780729661.40553343     
  -3347183482.8557668        2340993.3702273369        778380504.50236654     
  -3209972808.9895687        4324415.0037908554        780725836.73068321     
  -3072932469.6043687        5740055.0340281725        787765658.09046948     
  -3949265383.8972983       -1607261.1920099258        668285359.54174769     
  -3798748879.2166109        3247867.5349421501        660943448.73035455     
  -3648493058.1921816        7234050.7410387993        658479601.62322903     
  -3498497920.8240213        10351288.426242828        660893818.22037804     
  -3348763467.1121149        12599580.590588570        668186098.52179551     
  -2235227931.7995615       -11775058.051186442        1139321386.6124895     
  -2148008182.2810516       -17538219.976627946        1132429972.1738169     
  -2061653566.5682726       -26185161.254508734        1129878237.5854127     
  -1976164084.6612377       -37715881.884868383        1131666182.8472822     
  -1891539736.5599387       -52130381.867681742        1137793807.9594235     
  -2516164701.9480891       -6447264.2868568897        1023333302.1358180     
  -2418029807.0677791       -11672661.564314842        1015969192.6841322     
  -2320512244.1563902       -18955832.071516871        1012537569.5109487     
  -2223612013.2139263       -28296775.808463454        1013038432.6162682     
  -2127329114.2403860       -39695492.775157571        1017471782.0000896     
  -2795399547.8830290       -608893.25845432281        906148059.29514480     
  -2687512917.8459744       -5645548.9494581223        898600356.97339714     
  -2579995817.9410276       -11913971.747487426        894577947.35838401     
  -2472848248.1681890       -19414161.652537227        894080830.45010459     
  -2366070208.5274529       -28146118.664607763        897109006.24855649     
  -3072932469.6043687        5740055.0340281725        787765658.09046948     
  -2956457514.6156259        543117.86796820164        780323465.04161286     
  -2840104287.9221754       -5059580.2824045420        775999371.12772453     
  -2723872789.5240154       -11068039.417070270        774793376.34879589     
  -2607763019.4211450       -17482259.536044598        776705480.70483434     
  -3348763467.1121149        12599580.590588570        668186098.52179551     
  -3224863597.3767385        6893338.8879560232        661138516.88878262     
  -3100837654.0998421        1607342.3237195015        656801840.81896341     
  -2976685637.2814145       -3258409.1020841599        655176070.31234133     
  -2852407546.9214687       -7703915.3894808292        656261205.36891365     
  -1891539736.5599387       -52130381.867681742        1137793807.9594235     
  -1781686680.1095173       -64245616.238860369        1127752333.9358654     
  -1674442784.5081279       -85058053.440142930        1118451818.1307321     
  -1569808049.7557924       -114567693.47161728        1109892260.5440290     
  -1467782475.8524990       -152774536.33321726        1102073661.1757483     
  -2127329114.2403860       -39695492.775157571        1017471782.0000896     
  -2011837323.5771532       -48151808.271299958        1005156192.0403016     
  -1897587717.0129359       -60748737.430821657        995592765.82385778     
  -1784580294.5477302       -77486280.253714979        988781503.35075593     
  -1672815056.1815314       -98364436.739974976        984722404.62098992     
  -2366070208.5274529       -28146118.664607763        897109006.24855649     
  -2239193382.1516628       -31219624.835808277        884114106.56091511     
  -2112191763.1248522       -33877155.503613234        875882576.14153028     
  -1985065351.4470208       -36118710.668003440        872414414.99039471     
  -1857814147.1181715       -37944290.329008341        873709623.10752738     
  -2607763019.4211450       -17482259.536044598        776705480.70483434     
  -2463754855.8330407       -13449065.932377219        764626077.49770463     
  -2318254922.8438783       -4443307.6585344076        759321249.08374786     
  -2171263220.4536600        9535015.2854924202        760790995.46296585     
  -2022779748.6624031        28485902.899670720        769035316.63534594     
  -2852407546.9214687       -7703915.3894808292        656261205.36891365     
  -2685521744.6212850        5159868.4390009642        646692104.85067213     
  -2515777196.1700277        27552806.104386806        645908784.65051377     
  -2343173901.5676670        59474897.606783032        653911244.76844323     
  -2167711860.8142424        100926142.94608104        670699485.20445895     
  -5957964903.1870451       -1787389470.9561136        1150057376.8051288     
  -6088428688.3939590       -1502251048.2765672        1227913079.0354316     
  -6221620238.3262873       -1226205174.6817319        1268417237.4669387     
  -6357539552.9840288       -959251850.17160738        1271569852.0996504     
  -6496186632.3671818       -701391074.74619365        1237370922.9335668     
  -6810615506.5782871       -2043184651.9734859        1353787340.6907518     
  -6828534943.4437437       -1395483043.4599137        1202756499.3685942     
  -6897819460.2368031       -918998368.03835535        1091981349.9923480     
  -7018469056.9574680       -613730625.70881295        1021461892.5620135     
  -7190483733.6057367       -479679816.47128439        991198127.07759011     
  -8337940401.5234928       -2501382120.4570479        1712350564.5974953     
  -8021580530.7768974       -1424596838.3282709        1275689645.3203204     
  -7805223055.1600971       -681152873.29881334        956891653.73376405     
  -7688867974.6730928       -271050225.36867428        755956589.83782721     
  -7672515289.3158846       -194288894.53785372        672884453.63250899     
  -10539939588.022661       -3161981876.4067979        2225747048.5253577     
  -9667565450.3934231       -1589592432.8816407        1446712516.8906102     
  -8943831023.0961742       -512668690.46310520        863148148.69118798     
  -8368736306.1309099        68789350.848807812        475053943.92709219     
  -7942281299.4976330        154781691.05409861        282429902.59832180     
  -13416613066.075790       -4024983919.8227372        2893976792.4743409     
  -11766489702.293322       -1890469827.1200206        1715825114.0794632     
  -10313643364.045027       -413545819.53123045        810750834.86461902     
  -9058074051.3309097        405788102.94363308        178753954.82980773     
  -7999781764.1509724        567531940.30457163       -180165526.02497098     
  -6496186632.3671818       -701391074.74619365        1237370922.9335668     
  -6239275559.8192692       -375878809.93852305        1053218725.5946237     
  -6013273616.7418098       -153396976.69902730        908047849.07137561     
  -5818180803.1348009       -33945575.027708530        801858293.36382306     
  -5653997118.9982452       -17524604.924565554        734650058.47196615     
  -7190483733.6057367       -479679816.47128439        991198127.07759011     
  -6900552740.1406889       -304382595.76520467        846885243.23309159     
  -6623435099.4285450       -171796550.90214443        723655987.91721439     
  -6359130811.4693117       -81921681.882110596        621510361.12995827     
  -6107639876.2629833       -34757988.705096722        540448362.87132347     
  -7672515289.3158846       -194288894.53785372        672884453.63250899     
  -7400700638.6110592       -184547597.03656912        589522622.78625667     
  -7123603563.9415884       -157198219.65315342        509346728.18155360     
  -6841224065.3074856       -112240762.38761187        432356769.81839699     
  -6553562142.7087393       -49675225.239936590        358552747.69678766     
  -7942281299.4976330        154781691.05409861        282429902.59832180     
  -7739719255.2303762       -16373813.752618313        281130864.25412178     
  -7513779010.2809391       -109601982.95205259        265120069.86439371     
  -7264460564.6493158       -124902816.54420853        234397519.42914104     
  -6991763918.3355064       -62276314.529076576        188963212.94836062     
  -7999781764.1509724        567531940.30457163       -180165526.02497098     
  -7917608589.9986496        200138754.08664322       -78290032.363316730     
  -7793961438.4465942       -29007840.798846245       -9023987.0342618730     
  -7628840309.4948082       -119907844.35190630        27632609.962188542     
  -7422245203.1432924       -72561256.572527409        31679758.626040887     
  -5653997118.9982452       -17524604.924565554        734650058.47196615     
  -5520223596.3699665       -48950589.801358223        721514883.84009790     
  -5381073190.3332920       -62453629.983505964        710268305.70381892     
  -5236545900.8882236       -58033725.471006155        700910324.06313050     
  -5086641728.0347614       -35690876.263858557        693440938.91803336     
  -6107639876.2629833       -34757988.705096722        540448362.87132347     
  -5959224203.0073566       -36441671.028414965        534043374.21928740     
  -5809813724.4153862       -34809335.563910961        530149373.58035439     
  -5659408440.4870663       -29860982.311585665        528766360.95452553     
  -5508008351.2224045       -21596611.271441698        529894336.34180021     
  -6553562142.7087393       -49675225.239936590        358552747.69678766     
  -6388726057.3471594       -21083126.566194057        353765520.60719460     
  -6227277244.7212782       -3781937.0114531517        352111673.04821837     
  -6069215704.8311043        2228343.4242722988        353591205.01986021     
  -5914541437.6766262       -3052285.2589995861        358204116.52211678     
  -6991763918.3355064       -62276314.529076576        188963212.94836062     
  -6808729159.3893614       -2874956.4146890640        180681323.00382128     
  -6633463751.2509670        30628565.673861980        176155204.10741362     
  -6465967693.9203196        38234251.736584902        175384856.25913471     
  -6306240987.3974285        19942101.773465633        178370279.45898554     
  -7422245203.1432924       -72561256.572527409        31679758.626040887     
  -7219233509.1339750        18182839.426083565        14790781.409166535     
  -7028373244.0044546        68422172.492043972        2279966.7579347198     
  -6849664407.7547350        78156742.625324249       -5852685.3276532749     
  -6683107000.3848085        47386549.825967789       -9607174.8475961685     
  -5086641728.0347614       -35690876.263858557        693440938.91803336     
  -4934984602.4018450       -9057189.0856275558        676179571.29724765     
  -4786221974.1527567        7928173.4798429012        665630549.49418700     
  -4640353843.2875023        15265211.432543516        661793873.50885117     
  -4497380209.8060741        12953924.772476673        664669543.34123969     
  -5508008351.2224045       -21596611.271441698        529894336.34180021     
  -5345086936.7398844       -9779069.1941032410        514922795.39823127     
  -5183096520.9089851       -1064855.9554955959        505322856.62145680     
  -5022037103.7296991        4546028.4443981647        501094520.01147032     
  -4861908685.2020311        7053584.0055637360        502237785.56827629     
  -5914541437.6766262       -3052285.2589995861        358204116.52211678     
  -5744186430.4900322       -7200097.1262185574        347813150.77668500     
  -5572798923.2228432       -7906242.0581197739        341453043.54710788     
  -5400378915.8750544       -5170720.0546967983        339123794.83338600     
  -5226926408.4466743        1006468.8840401173        340825404.63552320     
  -6306240987.3974285        19942101.773465633        178370279.45898554     
  -6132283083.6522856       -1320272.8819627762        174850637.43260133     
  -5955329181.0943327       -12595984.828028440        174021110.27113765     
  -5775379279.7235718       -13885034.064741850        175881697.97460169     
  -5592433379.5400047       -5187420.5920855999        180432400.54298142     
  -6683107000.3848085        47386549.825967789       -9607174.8475961685     
  -6509376896.2266426        7860403.5386669636       -3964744.6340195066     
  -6330687294.5234585       -15134084.265248060        3027056.7935538320     
  -6147038195.2752457       -21596913.585724354        11368229.435105672     
  -5958429598.4820127       -11528084.422814846        21058773.290655307     
  -4497380209.8060741        12953924.772476673        664669543.34123969     
  -4361549308.3761692        5320944.7904009819        660570215.19721520     
  -4224919870.2480688        349753.80229353905        659806408.51595628     
  -4087491895.4217787       -1959648.1918444633        662378123.29746699     
  -3949265383.8972983       -1607261.1920099258        668285359.54174769     
  -4861908685.2020311        7053584.0055637360        502237785.56827629     
  -4715844862.1947041        4101611.1263377666        498559237.01296675     
  -4569667721.7122002        1527363.1643452644        498336412.72301853     
  -4423377263.7545376       -669159.88043427467        501569312.69843137     
  -4276973488.3217001       -2487958.0079779625        508257936.93920803     
  -5226926408.4466743        1006468.8840401173        340825404.63552320     
  -5070286227.2830830        2838534.0813281536        336768213.24206936     
  -4914217947.8673449        2764260.1190903187        336286948.91656703     
  -4758721570.1994638        783646.99733185768        339381611.65902013     
  -4603797094.2794437       -3103305.2839517593        346052201.46942908     
  -5592433379.5400047       -5187420.5920855999        180432400.54298142     
  -5424873403.6413097        1531713.6553707123        175197143.88452169     
  -5258570548.7135000        4060444.6665289402        173658017.09660169     
  -5093524814.7565603        2398772.4414453506        175815020.17923653     
  -4929736201.7705145       -3453303.0199241638        181668153.13241643     
  -5958429598.4820127       -11528084.422814846        21058773.290655307     
  -5779606391.2693863        181149.84843325615        13846028.940323051     
  -5602725524.2506542        5415916.8066883087        10449617.263132470     
  -5427786997.4258385        4176216.4518945217        10869538.259079719     
  -5254790810.7949200       -3537951.2158932686        15105791.928168641     
  -3949265383.8972983       -1607261.1920099258        668285359.54174769     
  -3798748879.2166109        3247867.5349421501        660943448.73035455     
  -3648493058.1921816        7234050.7410387993        658479601.62322903     
  -3498497920.8240213        10351288.426242828        660893818.22037804     
  -3348763467.1121149        12599580.590588570        668186098.52179551     
  -4276973488.3217001       -2487958.0079779625        508257936.93920803     
  -4114512322.8333321        714736.57093930244        500992702.92247331     
  -3952029787.5521393        3988663.7926204205        498418936.77999914     
  -3789525882.4781075        7333823.6570954323        500536638.51178849     
  -3627000607.6112413        10750216.164340258        507345808.11783618     
  -4603797094.2794437       -3103305.2839517593        346052201.46942908     
  -4429924398.9262867       -1712984.1359536648        339192706.60463458     
  -4255748280.3312054        688747.81847262383        336838083.78409022     
  -4081268738.4941893        4101890.5793459415        338988333.00779802     
  -3906485773.4152489        8526444.1466224194        345643454.27575338     
  -4929736201.7705145       -3453303.0199241638        181668153.13241643     
  -4744985107.4954605       -4035294.5857040882        175543459.77684072     
  -4559648536.5293818       -2665697.1814081669        173737042.63550535     
  -4373726488.8722754        655489.19298529625        176248901.70840669     
  -4187218964.5241456        5928264.5374574661        183079036.99554721     
  -5254790810.7949200       -3537951.2158932686        15105791.928168641     
  -5059694448.5408440       -6252194.7783110142        10044962.439088760     
  -4863730556.1466703       -6074671.2070295811        9115813.3342397325     
  -4666899133.6123533       -3005380.5019586086        12318344.613617795     
  -4469200180.9379311        2955677.3367986679        19652556.277223349     
  -3348763467.1121149        12599580.590588570        668186098.52179551     
  -3224863597.3767385        6893338.8879560232        661138516.88878262     
  -3100837654.0998421        1607342.3237195015        656801840.81896341     
  -2976685637.2814145       -3258409.1020841599        655176070.31234133     
  -2852407546.9214687       -7703915.3894808292        656261205.36891365     
  -3627000607.6112413        10750216.164340258        507345808.11783618     
  -3494969578.1568828        5166090.8933961391        500381697.18820649     
  -3362862497.0587316       -164528.89821410179        496933238.22574258     
  -3230679364.3167820       -5241643.2105116844        497000431.23044741     
  -3098420179.9310327       -10065252.043472528        500583276.20232058     
  -3906485773.4152489        8526444.1466224194        345643454.27575338     
  -3764024308.8019977        3754217.9393463135        338704455.16882640     
  -3621536814.4426646       -931242.44767761230        336085854.43303573     
  -3479023290.3372588       -5529937.0144584179        337787652.06839103     
  -3336483736.4857931       -10041865.761024475        343809848.07488269     
  -4187218964.5241456        5928264.5374574661        183079036.99554721     
  -4032027789.3120632        2657720.0258288383        176106790.83064753     
  -3876860606.2516389       -692798.32466864586        174259689.44084695     
  -3721717415.3428583       -4123290.5139687061        177537732.82617205     
  -3566598216.5857325       -7633756.5421226025        185940920.98660788     
  -4469200180.9379311        2955677.3367986679        19652556.277223349     
  -4298980019.6870985        1876597.1527938843        12588704.173649861     
  -4128833872.4856372        550803.47088694572        11454743.249183625     
  -3958761739.3335619       -1021703.7089803219        16250673.503782043     
  -3788763620.2308788       -2840924.3868095875        26976494.937488351     
  -2852407546.9214687       -7703915.3894808292        656261205.36891365     
  -2685521744.6212850        5159868.4390009642        646692104.85067213     
  -2515777196.1700277        27552806.104386806        645908784.65051377     
  -2343173901.5676670        59474897.606783032        653911244.76844323     
  -2167711860.8142424        100926142.94608104        670699485.20445895     
  -3098420179.9310327       -10065252.043472528        500583276.20232058     
  -2913807742.3615813        1854140.5544257164        493959571.40090632     
  -2728587603.3750110        15799204.542724013        492403896.00327927     
  -2542759762.9713120        31769939.921463728        495916250.00945455     
  -2356324221.1504755        49766346.690623641        504496633.41940880     
  -3336483736.4857931       -10041865.761024475        343809848.07488269     
  -3144766809.1164799       -2253508.0345364809        337505320.13400894     
  -2954693225.0640044        57038.635845541954        332551070.68264061     
  -2766262984.3283563       -3110225.7498534918        328947099.72076625     
  -2579476086.9095335       -11755301.191681266        326693407.24839967     
  -3566598216.5857325       -7633756.5421226025        185940920.98660788     
  -3378398944.8859692       -7163077.3278527260        177329351.04998869     
  -3194094061.2370057       -19673691.616232514        166350308.68858266     
  -3013683565.6388268       -45165599.407226205        153003793.90238959     
  -2837167458.0914330       -83638800.700852036        137289806.69138852     
  -3788763620.2308788       -2840924.3868095875        26976494.937488351     
  -3614704149.6700745       -12874567.325573683        13431664.148847956     
  -3446790111.8940210       -43392986.213517666       -6198389.9788733339     
  -3285021506.9027109       -94396181.050585747       -31913667.445688810     
  -3129398334.6961470       -165884151.83684063       -63714168.251585498     
 </DataArray>
 <DataArray  type="Float64" Name="VM" NumberOfComponents="1" format="ascii">
   12935650383.194288     
   11340755369.042250     
   10210252796.254951     
   9272800879.5764332     
   8303960638.0897770     
   10130305495.186123     
   9322024790.0527496     
   8826391382.3515034     
   8443572952.4400444     
   8035762278.2428370     
   7982337031.3835526     
   7734972438.6706009     
   7669176425.2116995     
   7669644337.9155998     
   7666445435.5248184     
   6491658772.5571337     
   6586884918.3212709     
   6757441408.7510462     
   6961248548.8455143     
   7171646586.4866953     
   5657824290.6957340     
   5890921967.9288759     
   6116376739.9934263     
   6331730385.0517550     
   6536761103.5175934     
   8303960638.0897770     
   8020716935.3662319     
   7779566850.9533701     
   7569829420.3702574     
   7386532811.3538322     
   8035762278.2428370     
   7746908985.4772444     
   7473717765.2365265     
   7214231623.5200052     
   6968456987.0633068     
   7666445435.5248184     
   7381192658.6913300     
   7101328412.7584457     
   6826930539.1504192     
   6558201905.5299311     
   7171646586.4866953     
   6911005914.9156542     
   6658264048.7025023     
   6409561454.8654423     
   6161752571.3731937     
   6536761103.5175934     
   6328699484.6256380     
   6142827702.1533041     
   5965236214.0508556     
   5786917013.5146952     
   7386532811.3538322     
   7228407709.4044828     
   7062804684.9635744     
   6889031563.7771139     
   6706898659.6716652     
   6968456987.0633068     
   6814456085.5126123     
   6655868943.7664375     
   6492413748.6810389     
   6324038400.2323046     
   6558201905.5299311     
   6407528754.9859581     
   6255248409.5755205     
   6101329584.7081757     
   5945801355.3172293     
   6161752571.3731937     
   6012624461.9020433     
   5864845884.6124821     
   5718455536.7049150     
   5573510005.9216547     
   5786917013.5146952     
   5636203526.1911812     
   5489691868.9869843     
   5347296264.0539646     
   5209064331.7738037     
   6706898659.6716652     
   6513494788.8508396     
   6323537355.5614042     
   6136915790.5618143     
   5953610764.6553612     
   6324038400.2323046     
   6139419523.8901072     
   5957037991.3591633     
   5776871973.1237564     
   5598946726.8372126     
   5945801355.3172293     
   5772404326.8163157     
   5600381603.8634138     
   5429758324.6438589     
   5260594079.2503471     
   5573510005.9216547     
   5414267834.2982016     
   5255920878.0081282     
   5098510984.3149157     
   4942142878.2508173     
   5209064331.7738037     
   5067419936.4459314     
   4926634034.3115816     
   4786746940.2889452     
   4647942177.5034761     
   5953610764.6553612     
   5779995075.2450991     
   5605069843.7787867     
   5428803602.6538334     
   5251207333.6884375     
   5598946726.8372126     
   5434154729.5356741     
   5268872667.5733566     
   5103123173.3568745     
   4936967098.4996500     
   5260594079.2503471     
   5104897027.7095566     
   4949595429.0168495     
   4794761627.3803921     
   4640505051.3039503     
   4942142878.2508173     
   4795708912.3332329     
   4650606706.1199560     
   4506950000.1174469     
   4364891567.6233788     
   4647942177.5034761     
   4510794037.9319515     
   4375942974.6229153     
   4243531013.5988832     
   4113744344.0853815     
   5251207333.6884375     
   5056168268.1675501     
   4862076077.0556059     
   4668934332.2577877     
   4476787043.4258890     
   4936967098.4996500     
   4752444434.3730898     
   4568993047.3895864     
   4386659629.2635517     
   4205538924.5179796     
   4640505051.3039503     
   4467555958.7208681     
   4295948688.8068037     
   4125790998.6269994     
   3957251857.2037721     
   4364891567.6233788     
   4204800811.2752194     
   4046499398.3313417     
   3890176303.1306586     
   3736100192.7190099     
   4113744344.0853815     
   3968021515.7152081     
   3824736956.4637427     
   3684179068.7817278     
   3546737800.9747829     
   4476787043.4258890     
   4304482782.8292618     
   4130948871.8297572     
   3956152246.0383949     
   3780175201.5157361     
   4205538924.5179796     
   4047301169.1934848     
   3888873608.4515018     
   3730324468.9378982     
   3571821752.5816183     
   3957251857.2037721     
   3811870545.6277370     
   3667262490.2533302     
   3523566361.7514782     
   3381002085.2345467     
   3736100192.7190099     
   3602263915.3804636     
   3470020885.1688037     
   3339546897.0202789     
   3211079766.6851583     
   3546737800.9747829     
   3423026572.0916901     
   3301516340.9937024     
   3182387117.9949975     
   3065864432.2515054     
   3780175201.5157361     
   3599778521.2548056     
   3424329264.1716490     
   3254156200.3422585     
   3090189860.9293804     
   3571821752.5816183     
   3385185180.0771942     
   3201590228.2222910     
   3021229628.9539061     
   2844567118.7034802     
   3381002085.2345467     
   3195179489.2653313     
   3011412262.4119821     
   2829836815.1597891     
   2650680501.9484577     
   3211079766.6851583     
   3034493710.0185275     
   2860188009.5968585     
   2688530671.2691693     
   2520060613.4340510     
   3065864432.2515054     
   2908107035.0816703     
   2754323327.4718800     
   2605536619.1482015     
   2463310016.4601889     
   5657824290.6957340     
   5890921967.9288759     
   6116376739.9934263     
   6331730385.0517550     
   6536761103.5175934     
   5151464045.5362692     
   5311331102.3331108     
   5467827725.9073200     
   5618058347.7492046     
   5760557379.9480486     
   4643484048.2356348     
   4755534780.6035519     
   4868708927.6003141     
   4980371052.6452847     
   5088595315.3873663     
   4134147917.0461154     
   4224370622.2503524     
   4320515818.9321060     
   4420926249.9189863     
   4524146798.9521999     
   3624975798.2008901     
   3719663094.1352491     
   3825606871.5830755     
   3942743581.2815757     
   4070980659.7972822     
   6536761103.5175934     
   6328699484.6256380     
   6142827702.1533041     
   5965236214.0508556     
   5786917013.5146952     
   5760557379.9480486     
   5652104292.8552208     
   5559652641.7525511     
   5474141529.9473400     
   5390030879.4441433     
   5088595315.3873663     
   5054009627.8003654     
   5029934929.1975498     
   5011165928.3774614     
   4994501712.4074192     
   4524146798.9521999     
   4539012147.4422522     
   4558543713.7735624     
   4580262465.0143108     
   4602445171.1991196     
   4070980659.7972822     
   4112440876.7950187     
   4151243966.3737702     
   4186492049.6164861     
   4217453318.8271832     
   5786917013.5146952     
   5636203526.1911812     
   5489691868.9869843     
   5347296264.0539646     
   5209064331.7738037     
   5390030879.4441433     
   5248726603.3617163     
   5110648092.9209700     
   4975837484.2865648     
   4844389035.6747608     
   4994501712.4074192     
   4867054141.9171419     
   4742802056.5575800     
   4621713772.4134331     
   4503830614.9494467     
   4602445171.1991196     
   4493856202.5354624     
   4389496205.1655283     
   4289048226.5477672     
   4192423826.1084318     
   4217453318.8271832     
   4133099063.9394197     
   4055251690.3818951     
   3983060287.6193032     
   3916232639.5611148     
   5209064331.7738037     
   5067419936.4459314     
   4926634034.3115816     
   4786746940.2889452     
   4647942177.5034761     
   4844389035.6747608     
   4719840196.7839918     
   4597055438.6194019     
   4476164911.5666456     
   4357412734.9940662     
   4503830614.9494467     
   4394963439.3899794     
   4288690012.6276503     
   4185197304.9189258     
   4084756531.1483173     
   4192423826.1084318     
   4097696282.9256277     
   4006255524.7844372     
   3918311779.7624431     
   3834132382.9471793     
   3916232639.5611148     
   3833936996.2137218     
   3755415087.3752608     
   3680869215.5332479     
   3610538377.4418774     
   4647942177.5034761     
   4510794037.9319515     
   4375942974.6229153     
   4243531013.5988832     
   4113744344.0853815     
   4357412734.9940662     
   4231072180.0018740     
   4107395643.3942766     
   3986578688.9497890     
   3868870455.7569380     
   4084756531.1483173     
   3970606019.6707683     
   3859682903.7722678     
   3752238726.9291801     
   3648591021.7210379     
   3834132382.9471793     
   3733598398.7139769     
   3637064295.5917950     
   3544833862.3839941     
   3457290676.3647180     
   3610538377.4418774     
   3524990975.3201060     
   3444422514.2872324     
   3369174211.8985825     
   3299680063.6948686     
   4113744344.0853815     
   3968021515.7152081     
   3824736956.4637427     
   3684179068.7817278     
   3546737800.9747829     
   3868870455.7569380     
   3737452972.5902667     
   3609276785.0698652     
   3484693689.6884303     
   3364156548.0884652     
   3648591021.7210379     
   3531595241.2394500     
   3418661869.0862756     
   3310188786.6162186     
   3206667968.8339291     
   3457290676.3647180     
   3354720629.7013106     
   3257011408.2137403     
   3164581358.3363233     
   3077929149.1153584     
   3299680063.6948686     
   3211331796.9089990     
   3128566255.2569575     
   3051790335.4218812     
   2981472206.6237702     
   3546737800.9747829     
   3423026572.0916901     
   3301516340.9937024     
   3182387117.9949975     
   3065864432.2515054     
   3364156548.0884652     
   3250301598.8570580     
   3139366743.2094321     
   3031615007.4763198     
   2927368725.5883732     
   3206667968.8339291     
   3104346120.6830177     
   3005848242.5984631     
   2911520365.4523821     
   2821778021.5464101     
   3077929149.1153584     
   2988674314.1819086     
   2904294183.4230833     
   2825200884.0265584     
   2751878650.2321639     
   2981472206.6237702     
   2906487177.3949203     
   2837510204.0499349     
   2774985015.4697075     
   2719421134.8998861     
   3065864432.2515054     
   2908107035.0816703     
   2754323327.4718800     
   2605536619.1482015     
   2463310016.4601889     
   2927368725.5883732     
   2792692908.0030022     
   2663338624.1145039     
   2540286396.3292904     
   2424848256.1793785     
   2821778021.5464101     
   2706976677.9739771     
   2598219478.9147253     
   2496310160.8561430     
   2402219307.8983865     
   2751878650.2321639     
   2653128654.2419567     
   2560428689.6636791     
   2474349458.7158918     
   2395537686.3921547     
   2719421134.8998861     
   2632403691.5714989     
   2550731940.4429870     
   2474766300.8360481     
   2404935373.5878139     
   3624975798.2008901     
   3719663094.1352491     
   3825606871.5830755     
   3942743581.2815757     
   4070980659.7972822     
   3137943631.2117605     
   3255482199.3606420     
   3382440119.2197409     
   3518348892.2246037     
   3662751226.2503576     
   2694717429.1673679     
   2830491547.5104113     
   2973576701.7179689     
   3122891355.7994084     
   3277525169.1453795     
   2298787523.9414768     
   2449484454.4840899     
   2604898897.7454677     
   2763108910.0495300     
   2922685426.0631866     
   1955364655.4426372     
   2119416467.5084765     
   2284816432.9749556     
   2448604563.0792994     
   2608823429.6557765     
   4070980659.7972822     
   4112440876.7950187     
   4151243966.3737702     
   4186492049.6164861     
   4217453318.8271832     
   3662751226.2503576     
   3702142055.9258523     
   3740147272.1967249     
   3775867352.8214884     
   3808552346.8889503     
   3277525169.1453795     
   3320728583.3424559     
   3364172821.1120577     
   3407033707.7483311     
   3448632263.5676637     
   2922685426.0631866     
   2975584663.3238692     
   3030709563.1685925     
   3087376699.6046805     
   3145052520.3668642     
   2608823429.6557765     
   2676761865.0108638     
   2749215686.0697427     
   2825675603.4713197     
   2905788827.0388885     
   4217453318.8271832     
   4133099063.9394197     
   4055251690.3818951     
   3983060287.6193032     
   3916232639.5611148     
   3808552346.8889503     
   3755698525.0085740     
   3708842874.3947392     
   3667512508.5590258     
   3631613713.4869504     
   3448632263.5676637     
   3422646248.9922953     
   3401766161.8908978     
   3385764143.1766896     
   3374625353.9301596     
   3145052520.3668642     
   3141571239.4303465     
   3141705751.9005699     
   3145357311.7380195     
   3152512279.1149268     
   2905788827.0388885     
   2920787499.8864655     
   2937129034.1073766     
   2954760831.0670462     
   2973644908.1549869     
   3916232639.5611148     
   3833936996.2137218     
   3755415087.3752608     
   3680869215.5332479     
   3610538377.4418774     
   3631613713.4869504     
   3560600108.5287561     
   3494043374.1664534     
   3432168606.9201365     
   3375243044.9300108     
   3374625353.9301596     
   3316139383.0775604     
   3262987608.3786278     
   3215399809.9804111     
   3173654984.6116824     
   3152512279.1149268     
   3107515700.0714612     
   3068911015.7206283     
   3036903107.1261973     
   3011754677.1646209     
   2973644908.1549869     
   2942527862.0829754     
   2919006598.2466497     
   2903222022.3214903     
   2895384341.7194037     
   3610538377.4418774     
   3524990975.3201060     
   3444422514.2872324     
   3369174211.8985825     
   3299680063.6948686     
   3375243044.9300108     
   3305261834.1870794     
   3240826436.9135423     
   3182263731.5347815     
   3129968992.0653796     
   3173654984.6116824     
   3118230642.5081134     
   3068790599.5837903     
   3025619859.2967243     
   2989047376.0046282     
   3011754677.1646209     
   2969532160.6491532     
   2933552691.6519241     
   2904037847.0850186     
   2881232266.3355312     
   2895384341.7194037     
   2864575128.3764076     
   2840047869.3318539     
   2821950986.3379626     
   2810441665.8415256     
   3299680063.6948686     
   3211331796.9089990     
   3128566255.2569575     
   3051790335.4218812     
   2981472206.6237702     
   3129968992.0653796     
   3054839897.2994118     
   2986129846.2082744     
   2924247293.4756346     
   2869652825.3886638     
   2989047376.0046282     
   2927361446.6250358     
   2872942907.0103002     
   2826170573.5261617     
   2787462530.7920527     
   2881232266.3355312     
   2832689534.4818268     
   2792232309.6440125     
   2760178489.5841599     
   2736871912.6827874     
   2810441665.8415256     
   2774065096.4740896     
   2746531627.9906802     
   2728075631.0034876     
   2718947209.6284552     
   2981472206.6237702     
   2906487177.3949203     
   2837510204.0499349     
   2774985015.4697075     
   2719421134.8998861     
   2869652825.3886638     
   2809007890.2275624     
   2754792643.0390053     
   2707396060.4470830     
   2667249732.0995812     
   2787462530.7920527     
   2740313292.4486327     
   2699866813.6559420     
   2666437024.0881939     
   2640360703.7583728     
   2736871912.6827874     
   2701995717.9562287     
   2673932962.2530289     
   2652914049.4786553     
   2639178297.8136172     
   2718947209.6284552     
   2694751526.1236658     
   2677326982.4141684     
   2666824770.5458174     
   2663397242.4220185     
   2719421134.8998861     
   2632403691.5714989     
   2550731940.4429870     
   2474766300.8360481     
   2404935373.5878139     
   2667249732.0995812     
   2590689962.4203105     
   2521711424.9059544     
   2460812304.1833792     
   2408519133.7719259     
   2640360703.7583728     
   2577937758.2608166     
   2525507177.7769213     
   2483642592.0219603     
   2452922080.6016130     
   2639178297.8136172     
   2593489139.7534976     
   2560256110.1697865     
   2540061712.4294705     
   2533492054.2391267     
   2663397242.4220185     
   2635797192.1511745     
   2623144145.9600363     
   2625989037.5013561     
   2644914060.9758086     
   1955364655.4426372     
   2119416467.5084765     
   2284816432.9749556     
   2448604563.0792994     
   2608823429.6557765     
   1653925948.7318480     
   1820355819.4212251     
   1988477382.4911637     
   2155594404.0079174     
   2319949195.7869458     
   1393788074.6228304     
   1571138132.4753377     
   1749491500.8181880     
   1926844271.0000894     
   2101945881.8822610     
   1207258607.0842528     
   1399181075.5451291     
   1590682669.3193688     
   1780985986.6781428     
   1969631961.2524400     
   1137011854.1263559     
   1335328030.9730034     
   1533955555.4012032     
   1732894427.6808536     
   1932144649.3101764     
   2608823429.6557765     
   2676761865.0108638     
   2749215686.0697427     
   2825675603.4713197     
   2905788827.0388885     
   2319949195.7869458     
   2407030037.4964781     
   2496557250.3694835     
   2588141664.9049659     
   2681508325.2581687     
   2101945881.8822610     
   2205740303.4477248     
   2309445962.5423217     
   2412827556.0699987     
   2515718796.3766689     
   1969631961.2524400     
   2086820695.2902601     
   2201154625.2628398     
   2312559423.9799995     
   2420983261.1303940     
   1932144649.3101764     
   2058817108.3611770     
   2180058826.8725491     
   2295869806.9376264     
   2406250055.5806561     
   2905788827.0388885     
   2920787499.8864655     
   2937129034.1073766     
   2954760831.0670462     
   2973644908.1549869     
   2681508325.2581687     
   2703288771.7537704     
   2727441332.1144114     
   2753949870.9126987     
   2782807378.4454942     
   2515718796.3766689     
   2544206689.8145361     
   2576124706.4438410     
   2611474716.0291038     
   2650262829.6151562     
   2420983261.1303940     
   2454640870.2951288     
   2492789122.8638616     
   2535431124.3457327     
   2582571160.8666992     
   2406250055.5806561     
   2441983061.1278472     
   2483260046.5112886     
   2530081037.7934546     
   2582446104.7677836     
   2973644908.1549869     
   2942527862.0829754     
   2919006598.2466497     
   2903222022.3214903     
   2895384341.7194037     
   2782807378.4454942     
   2766548998.0432844     
   2757632741.7629914     
   2756146403.8394856     
   2762212042.3521552     
   2650262829.6151562     
   2645645314.8131919     
   2647815580.0394349     
   2656811886.7726412     
   2672684301.7079611     
   2582571160.8666992     
   2585930568.5955210     
   2595234625.1710210     
   2610491533.3823442     
   2631710910.2155085     
   2582446104.7677836     
   2590038021.4741411     
   2602495802.8949890     
   2619820081.4535112     
   2642012275.2269640     
   2895384341.7194037     
   2864575128.3764076     
   2840047869.3318539     
   2821950986.3379626     
   2810441665.8415256     
   2762212042.3521552     
   2739457856.1419158     
   2723596039.8340430     
   2714729421.3994985     
   2712965390.1489840     
   2672684301.7079611     
   2656347093.8415394     
   2647475318.5193071     
   2646123030.7745109     
   2652346147.3515649     
   2631710910.2155085     
   2619433876.6947670     
   2615149129.0599656     
   2618871703.6610413     
   2630617325.8495145     
   2642012275.2269640     
   2630860566.7948256     
   2628180634.2254601     
   2633971235.3898330     
   2648231470.8999176     
   2810441665.8415256     
   2774065096.4740896     
   2746531627.9906802     
   2728075631.0034876     
   2718947209.6284552     
   2712965390.1489840     
   2687442882.0148697     
   2670673330.0443516     
   2662792166.8064299     
   2663940669.7590289     
   2652346147.3515649     
   2634963362.3014660     
   2626127803.8806691     
   2625898851.4487987     
   2634337319.3094611     
   2630617325.8495145     
   2618351600.2801328     
   2614341539.7530823     
   2618601054.6210861     
   2631144181.0691571     
   2648231470.8999176     
   2637966632.4683208     
   2635609272.5411234     
   2641159521.2955918     
   2654617521.5316648     
   2718947209.6284552     
   2694751526.1236658     
   2677326982.4141684     
   2666824770.5458174     
   2663397242.4220185     
   2663940669.7590289     
   2646967111.7470994     
   2637155388.1718788     
   2634591828.0294871     
   2639361006.2838621     
   2634337319.3094611     
   2622356911.9778914     
   2617882761.7289491     
   2620951561.0534678     
   2631598711.2194386     
   2631144181.0691571     
   2621540446.2392712     
   2619764969.3601151     
   2625827469.2122645     
   2639738822.7655153     
   2654617521.5316648     
   2644522779.5098209     
   2642573329.2153444     
   2648779630.2342939     
   2663156637.7598553     
   2663397242.4220185     
   2635797192.1511745     
   2623144145.9600363     
   2625989037.5013561     
   2644914060.9758086     
   2639361006.2838621     
   2624854934.1851811     
   2622757392.1151538     
   2633277404.0810347     
   2656629554.0341711     
   2631598711.2194386     
   2624290594.2910371     
   2626920704.1163702     
   2639535106.1150851     
   2662177524.8289065     
   2639738822.7655153     
   2634356550.8658571     
   2636515255.8634501     
   2646240528.4989715     
   2663563679.9258132     
   2663156637.7598553     
   2655244284.9678001     
   2652524590.3896990     
   2655117547.3392386     
   2663177469.5079489     
   1137011854.1263559     
   1335328030.9730034     
   1533955555.4012032     
   1732894427.6808536     
   1932144649.3101764     
   1207218692.4376564     
   1399176199.9450960     
   1590714924.6006458     
   1781058620.5101759     
   1969749153.2186284     
   1393746567.9387894     
   1571136252.6050069     
   1749537199.8573341     
   1926945549.3003063     
   2102110832.5718915     
   1653913372.8918839     
   1820362850.0510385     
   1988517320.9591460     
   2155679359.4866462     
   2320089880.6362815     
   1955401358.3383887     
   2119436258.0757456     
   2284835059.8700151     
   2448635930.8604107     
   2608878612.0431695     
   1932144649.3101764     
   2058817108.3611770     
   2180058826.8725491     
   2295869806.9376264     
   2406250055.5806561     
   1969749153.2186284     
   2086875149.5034463     
   2201140600.1193080     
   2312470248.8554225     
   2420811926.9076800     
   2102110832.5718915     
   2205828351.7848330     
   2309447139.1158519     
   2412731613.6182232     
   2515515345.1702108     
   2320089880.6362815     
   2407125766.9381876     
   2496596075.6851516     
   2588113226.4650755     
   2681402729.2968388     
   2608878612.0431695     
   2676840324.5535040     
   2749306409.9615312     
   2825772010.3348570     
   2905885873.8718772     
   2406250055.5806561     
   2441983061.1278472     
   2483260046.5112886     
   2530081037.7934546     
   2582446104.7677836     
   2420811926.9076800     
   2454698587.2228708     
   2493101360.0422654     
   2536024270.9150372     
   2583471938.3038712     
   2515515345.1702108     
   2544314190.5101271     
   2576584462.6736431     
   2612328644.5981302     
   2651553287.8793845     
   2681402729.2968388     
   2703426860.7465181     
   2727869429.6132832     
   2754713328.3144388     
   2783951624.3367314     
   2905885873.8718772     
   2920930830.1106796     
   2937358661.1444716     
   2955112779.2042694     
   2974153977.5907369     
   2582446104.7677836     
   2590038021.4741411     
   2602495802.8949890     
   2619820081.4535112     
   2642012275.2269640     
   2583471938.3038712     
   2586030702.9362068     
   2594499971.4389114     
   2608888291.2859406     
   2629208734.1692944     
   2651553287.8793845     
   2645881421.5404711     
   2646977125.6545506     
   2654877897.3485866     
   2669634231.5201912     
   2783951624.3367314     
   2766895202.1912217     
   2757222308.3220162     
   2755019509.7311192     
   2760401824.3113375     
   2974153977.5907369     
   2942907603.3886266     
   2919405475.4774518     
   2903791734.6686201     
   2896262569.4149146     
   2642012275.2269640     
   2630860566.7948256     
   2628180634.2254601     
   2633971235.3898330     
   2648231470.8999176     
   2629208734.1692944     
   2617447625.2072401     
   2613688620.5857062     
   2617946462.8359928     
   2630236055.7666922     
   2669634231.5201912     
   2654102968.1751547     
   2646021375.9240479     
   2645443973.2453589     
   2652426863.2352476     
   2760401824.3113375     
   2738541661.4844184     
   2723499148.1926050     
   2715378537.2133799     
   2714289270.8718081     
   2896262569.4149146     
   2866283493.3661075     
   2842422961.0461950     
   2824830647.1427670     
   2813666951.8654952     
   2648231470.8999176     
   2637966632.4683208     
   2635609272.5411234     
   2641159521.2955918     
   2654617521.5316648     
   2630236055.7666922     
   2617842523.2759318     
   2613730499.2469745     
   2617914606.2003498     
   2630409742.6758947     
   2652426863.2352476     
   2634907308.0434999     
   2625989241.4306045     
   2625732185.6395535     
   2634197177.9020739     
   2714289270.8718081     
   2688724409.9946070     
   2671998905.1014299     
   2664246963.5055633     
   2665608348.3827438     
   2813666951.8654952     
   2777425677.1651378     
   2750152039.1267643     
   2732077710.8455071     
   2723449035.9167466     
   2654617521.5316648     
   2644522779.5098209     
   2642573329.2153444     
   2648779630.2342939     
   2663156637.7598553     
   2630409742.6758947     
   2618751499.4347591     
   2614944798.4845662     
   2619006614.1808591     
   2630954864.6237698     
   2634197177.9020739     
   2619453041.0383835     
   2612328266.6279092     
   2612862593.9896488     
   2621094812.2964158     
   2665608348.3827438     
   2646444200.1094203     
   2634718716.7465329     
   2630507225.5031161     
   2633884615.6447659     
   2723449035.9167466     
   2698781157.0083613     
   2681412736.5177946     
   2671463378.3665829     
   2669055759.1428485     
   2663156637.7598553     
   2655244284.9678001     
   2652524590.3896990     
   2655117547.3392386     
   2663177469.5079489     
   2630954864.6237698     
   2620207382.3131323     
   2617206263.5190358     
   2622001074.9009347     
   2634650128.2115011     
   2621094812.2964158     
   2607446742.4150300     
   2604283607.5322423     
   2611651155.7717981     
   2629593454.5683031     
   2633884615.6447659     
   2616292281.9366450     
   2612177322.8366065     
   2621683502.5881906     
   2644949742.0530653     
   2669055759.1428485     
   2645565337.3426905     
   2638899044.1859531     
   2649443140.4331622     
   2677570424.3060474     
   1955401358.3383887     
   2119436258.0757456     
   2284835059.8700151     
   2448635930.8604107     
   2608878612.0431695     
   2298863138.2714438     
   2449520717.3491759     
   2604901605.7619085     
   2763082549.4271579     
   2922632873.3613520     
   2694797924.4431715     
   2830530358.7266707     
   2973571886.9946380     
   3122840278.2662096     
   3277424547.4142489     
   3137998388.8957038     
   3255511773.3055410     
   3382436805.5704832     
   3518305079.4350615     
   3662659419.6074934     
   3624976599.4656649     
   3719673198.1462855     
   3825614201.1101475     
   3942737256.3040619     
   4070950669.9781981     
   2608878612.0431695     
   2676840324.5535040     
   2749306409.9615312     
   2825772010.3348570     
   2905885873.8718772     
   2922632873.3613520     
   2975601622.1677465     
   3030795521.2115979     
   3087534475.9963584     
   3145286744.3593912     
   3277424547.4142489     
   3320704591.3618736     
   3364231829.0577869     
   3407183430.5398784     
   3448881361.5216284     
   3662659419.6074934     
   3702098766.6959839     
   3740162777.9355941     
   3775950543.4900169     
   3808711126.3502069     
   4070950669.9781981     
   4112399479.5347910     
   4151203454.8720212     
   4186460149.1675291     
   4217434124.2818828     
   2905885873.8718772     
   2920930830.1106796     
   2937358661.1444716     
   2955112779.2042694     
   2974153977.5907369     
   3145286744.3593912     
   3141645813.2389631     
   3141624611.8516684     
   3145121361.2893777     
   3152123046.8304706     
   3448881361.5216284     
   3422650548.9802456     
   3401508789.6555591     
   3385226002.8765559     
   3373786777.4610600     
   3808711126.3502069     
   3755643234.4065766     
   3708548795.9914808     
   3666954655.1413922     
   3630764046.5209446     
   4217434124.2818828     
   4133002718.1319084     
   4055054973.7820854     
   3982744205.4612374     
   3915773599.7985182     
   2974153977.5907369     
   2942907603.3886266     
   2919405475.4774518     
   2903791734.6686201     
   2896262569.4149146     
   3152123046.8304706     
   3107477053.5937185     
   3069345249.1290960     
   3037935943.3909178     
   3013507291.7144222     
   3373786777.4610600     
   3315780822.6524806     
   3263173670.6589441     
   3216199000.4939547     
   3175137796.3824735     
   3630764046.5209446     
   3560098412.8103366     
   3493868720.7733245     
   3432303161.4383483     
   3375672961.7822428     
   3915773599.7985182     
   3833517526.9120798     
   3754906866.3764567     
   3680144885.0225310     
   3609472212.5535126     
   2896262569.4149146     
   2866283493.3661075     
   2842422961.0461950     
   2824830647.1427670     
   2813666951.8654952     
   3013507291.7144222     
   2971543070.1735873     
   2935715200.6100211     
   2906242468.2587552     
   2883368756.5209098     
   3175137796.3824735     
   3119579616.9921865     
   3069975318.7964034     
   3026605531.6546445     
   2989795584.9199433     
   3375672961.7822428     
   3305286542.2397785     
   3240505564.7340965     
   3181654767.6312532     
   3129125929.0813651     
   3609472212.5535126     
   3523314699.4149232     
   3442293236.6985526     
   3366753547.2244401     
   3297130465.0010781     
   2813666951.8654952     
   2777425677.1651378     
   2750152039.1267643     
   2732077710.8455071     
   2723449035.9167466     
   2883368756.5209098     
   2834980303.5987816     
   2794746877.8248906     
   2762986917.8811650     
   2740044359.9943542     
   2989795584.9199433     
   2928182630.2224207     
   2873843530.4223223     
   2827159508.5895276     
   2788551160.3421278     
   3129125929.0813651     
   3053937399.3415680     
   2985103029.5847049     
   2923033206.1616926     
   2868190778.7347183     
   3297130465.0010781     
   3208587386.1026564     
   3125484643.6338406     
   3048227988.0986323     
   2977284381.1789794     
   2723449035.9167466     
   2698781157.0083613     
   2681412736.5177946     
   2671463378.3665829     
   2669055759.1428485     
   2740044359.9943542     
   2705833872.3609734     
   2678819355.3099914     
   2659204476.8524704     
   2647197839.1122303     
   2788551160.3421278     
   2742422809.6007013     
   2703203646.4777279     
   2671195954.0976219     
   2646719489.4485149     
   2868190778.7347183     
   2808302611.5663652     
   2754832810.4197369     
   2708178737.0605721     
   2668778829.2402639     
   2977284381.1789794     
   2902372723.4672375     
   2833194461.2803116     
   2770220073.2522235     
   2713992946.0495224     
   2669055759.1428485     
   2645565337.3426905     
   2638899044.1859531     
   2649443140.4331622     
   2677570424.3060474     
   2647197839.1122303     
   2609192593.6628885     
   2584717640.1353121     
   2574264781.4222741     
   2578291545.3013468     
   2646719489.4485149     
   2591207315.1583033     
   2545716885.0688524     
   2510841712.7905531     
   2487168481.8825817     
   2668778829.2402639     
   2594826447.5564404     
   2527085598.2090054     
   2466199023.0617690     
   2412873962.5152278     
   2713992946.0495224     
   2622888740.8105502     
   2534042634.9292202     
   2448092374.0860753     
   2365837004.5624633     
   3624976599.4656649     
   3719673198.1462855     
   3825614201.1101475     
   3942737256.3040619     
   4070950669.9781981     
   4134097396.4133196     
   4224352983.7790380     
   4320524849.2899504     
   4420957538.8980913     
   4524197682.9812355     
   4643414043.6367054     
   4755502712.9661560     
   4868714023.3241024     
   4980413911.1312923     
   5088677752.5193501     
   5151405791.9221087     
   5311297246.4622517     
   5467822759.9803276     
   5618086813.9269161     
   5760623305.7389002     
   5657808681.9936295     
   5890898515.1000948     
   6116355242.6373177     
   6331718674.0553389     
   6536763976.2512617     
   4070950669.9781981     
   4112399479.5347910     
   4151203454.8720212     
   4186460149.1675291     
   4217434124.2818828     
   4524197682.9812355     
   4539007937.3295107     
   4558486227.7246275     
   4580150162.9641619     
   4602275331.8600111     
   5088677752.5193501     
   5054024088.0073309     
   5029877801.0591373     
   5011031721.4965649     
   4994284262.1642447     
   5760623305.7389002     
   5652119877.0563869     
   5559612111.4492884     
   5474039744.2249851     
   5389862026.1760111     
   6536763976.2512617     
   6328699864.1620665     
   6142818971.6123629     
   5965216579.0490551     
   5786885050.9494085     
   4217434124.2818828     
   4133002718.1319084     
   4055054973.7820854     
   3982744205.4612374     
   3915773599.7985182     
   4602275331.8600111     
   4493762013.5157442     
   4389475959.2078056     
   4289102520.2670813     
   4192552267.4024253     
   4994284262.1642447     
   4866979867.3036489     
   4742881886.5211248     
   4621959572.8143559     
   4504254823.2869377     
   5389862026.1760111     
   5248685190.6592197     
   5110749743.3141985     
   4976098158.3643141     
   4844825500.9591703     
   5786885050.9494085     
   5636204192.1928587     
   5489738134.0042725     
   5347402216.5260468     
   5209244879.5215654     
   3915773599.7985182     
   3833517526.9120798     
   3754906866.3764567     
   3680144885.0225310     
   3609472212.5535126     
   4192552267.4024253     
   4097710013.8336186     
   4006054606.0380778     
   3917794867.6310682     
   3833198770.3051558     
   4504254823.2869377     
   4395250901.3484526     
   4288784240.5143995     
   4185038829.6916471     
   4084284170.9372673     
   4844825500.9591703     
   4720207460.9096823     
   4597351155.1851683     
   4476384020.5804882     
   4357546450.7733078     
   5209244879.5215654     
   5067653737.9598064     
   4926978965.3682671     
   4787260823.5998926     
   4648678531.1709547     
   3609472212.5535126     
   3523314699.4149232     
   3442293236.6985526     
   3366753547.2244401     
   3297130465.0010781     
   3833198770.3051558     
   3732355339.1306372     
   3635614388.4309187     
   3543283366.2135148     
   3455748645.5295734     
   4084284170.9372673     
   3970025123.4806290     
   3859035895.4746351     
   3751571113.8712878     
   3647951759.4768529     
   4357546450.7733078     
   4231243375.4191384     
   4107582546.9769282     
   3986762478.0799556     
   3869035515.6757183     
   4648678531.1709547     
   4511696717.7036266     
   4376923486.2274961     
   4244504461.5275106     
   4114628551.8966417     
   3297130465.0010781     
   3208587386.1026564     
   3125484643.6338406     
   3048227988.0986323     
   2977284381.1789794     
   3455748645.5295734     
   3352994502.3573008     
   3255020703.2068181     
   3162240855.2211561     
   3075148311.4646964     
   3647951759.4768529     
   3530868260.7572651     
   3417837995.1657720     
   3309253387.0699005     
   3205599759.6720214     
   3869035515.6757183     
   3737656172.0279913     
   3609585448.7548561     
   3485172002.3566899     
   3364864025.2872195     
   4114628551.8966417     
   3969052803.4292908     
   3826059783.6860323     
   3685939599.2209201     
   3549082488.4823184     
   2977284381.1789794     
   2902372723.4672375     
   2833194461.2803116     
   2770220073.2522235     
   2713992946.0495224     
   3075148311.4646964     
   2985859969.3816271     
   2901180130.1267967     
   2821536928.7110882     
   2747436258.8522506     
   3205599759.6720214     
   3103229426.7005258     
   3004428644.1405501     
   2909551286.1340094     
   2819024379.1240683     
   3364864025.2872195     
   3250993873.5546622     
   3139804659.8384571     
   3031562612.2028623     
   2926594986.7065201     
   3549082488.4823184     
   3425395631.6011896     
   3303686852.9784589     
   3184138155.0087528     
   3066977301.2961574     
   2713992946.0495224     
   2622888740.8105502     
   2534042634.9292202     
   2448092374.0860753     
   2365837004.5624633     
   2747436258.8522506     
   2642716655.1279812     
   2542217213.5691772     
   2446531636.1295595     
   2356369008.9455390     
   2819024379.1240683     
   2700005213.0655427     
   2586978453.4529133     
   2480607132.1631942     
   2381706373.9171319     
   2926594986.7065201     
   2791252905.1819372     
   2663405937.5825582     
   2543931353.8969045     
   2433991787.2638440     
   3066977301.2961574     
   2912137125.7887149     
   2766008903.3564901     
   2629859496.7046523     
   2505484582.5380268     
   5657808681.9936295     
   5890898515.1000948     
   6116355242.6373177     
   6331718674.0553389     
   6536763976.2512617     
   6491684104.9464865     
   6586882970.2285843     
   6757414911.4651232     
   6961197955.2679758     
   7171571676.6458683     
   7982369383.7309170     
   7734976684.8068752     
   7669149299.4856682     
   7669582821.5372000     
   7666346912.9215479     
   10130311333.922575     
   9322020611.1961422     
   8826369276.0563660     
   8443529358.2239332     
   8035695943.2425051     
   12935596425.999413     
   11340728803.495808     
   10210242222.245560     
   9272803627.7384510     
   8303981653.0525646     
   6536763976.2512617     
   6328699864.1620665     
   6142818971.6123629     
   5965216579.0490551     
   5786885050.9494085     
   7171571676.6458683     
   6910970450.9878445     
   6658269837.7719107     
   6409612354.4979296     
   6161853373.5276003     
   7666346912.9215479     
   7381141985.2891188     
   7101332514.9034319     
   6826996237.3618202     
   6558336292.7977066     
   8035695943.2425051     
   7746863702.0723925     
   7473702461.6551228     
   7214254155.1480083     
   6968525025.2647867     
   8303981653.0525646     
   8020697576.3556967     
   7779513780.6451311     
   7569750012.1135769     
   7386435701.6310177     
   5786885050.9494085     
   5636204192.1928587     
   5489738134.0042725     
   5347402216.5260468     
   5209244879.5215654     
   6161853373.5276003     
   6012663634.8417177     
   5864817688.6987476     
   5718354804.7158384     
   5573332227.5434389     
   6558336292.7977066     
   6407575278.1141815     
   6255189278.2128553     
   6101146511.5166245     
   5945476215.9204197     
   6968525025.2647867     
   6814481891.7631531     
   6655827889.6128731     
   6492280112.3158731     
   6323786891.4058094     
   7386435701.6310177     
   7228387478.5717249     
   7062834007.1044588     
   6889082754.2745628     
   6706946469.1458893     
   5209244879.5215654     
   5067653737.9598064     
   4926978965.3682671     
   4787260823.5998926     
   4648678531.1709547     
   5573332227.5434389     
   5414168123.7435703     
   5255951388.2884264     
   5098724822.4523115     
   4942593254.2933674     
   5945476215.9204197     
   5772113378.3886662     
   5600166157.6199398     
   5429660225.8775845     
   5260656546.5178423     
   6323786891.4058094     
   6139097613.6839819     
   5956671983.4548969     
   5776487721.4309788     
   5598570823.2860508     
   6706946469.1458893     
   6513314275.3795195     
   6323136009.5915642     
   6136299834.4327297     
   5952785676.7362118     
   4648678531.1709547     
   4511696717.7036266     
   4376923486.2274961     
   4244504461.5275106     
   4114628551.8966417     
   4942593254.2933674     
   4796273145.6508751     
   4651221614.0047531     
   4507551690.7737103     
   4365414742.1163387     
   5260656546.5178423     
   5105138700.6095390     
   4949989554.8374844     
   4795278968.9079313     
   4641112658.2292881     
   5598570823.2860508     
   5434118627.8943586     
   5269193881.2736578     
   5103817371.6902733     
   4938045871.0934582     
   5952785676.7362118     
   5779746723.1005230     
   5605464665.0458441     
   5429908948.0534363     
   5253087886.5315552     
   4114628551.8966417     
   3969052803.4292908     
   3826059783.6860323     
   3685939599.2209201     
   3549082488.4823184     
   4365414742.1163387     
   4205369665.4597573     
   4047169749.2052317     
   3891010497.6708875     
   3737169961.6640568     
   4641112658.2292881     
   4467863001.5858326     
   4295893937.3920336     
   4125318354.8488355     
   3956313994.5349569     
   4938045871.0934582     
   4752704394.3479013     
   4568238273.1546688     
   4384694035.5782948     
   4202167838.6578865     
   5253087886.5315552     
   5056601181.7360849     
   4860721711.2909412     
   4665445956.4767218     
   4470808335.8512764     
   3549082488.4823184     
   3425395631.6011896     
   3303686852.9784589     
   3184138155.0087528     
   3066977301.2961574     
   3737169961.6640568     
   3603337328.0738621     
   3471184069.2900352     
   3340869774.0588861     
   3212611615.1653485     
   3956313994.5349569     
   3811323416.1958189     
   3667562997.6073399     
   3525151961.1095777     
   3384277718.5104585     
   4202167838.6578865     
   4044874777.2447567     
   3888246658.3068542     
   3732346545.9155588     
   3577314166.8875732     
   4470808335.8512764     
   4299973908.2195530     
   4129156967.1575336     
   3958351061.2761078     
   3787632168.4806108     
   3066977301.2961574     
   2912137125.7887149     
   2766008903.3564901     
   2629859496.7046523     
   2505484582.5380268     
   3212611615.1653485     
   3037707981.5087729     
   2866345099.2879515     
   2699114419.0721464     
   2536839910.5862331     
   3384277718.5104585     
   3197531255.2192984     
   3010340717.0949845     
   2822806308.0645165     
   2635089808.4779902     
   3577314166.8875732     
   3388770883.9383507     
   3197311617.6281075     
   3003072463.8861375     
   2806378952.2652683     
   3787632168.4806108     
   3608359089.8072138     
   3425316594.2744050     
   3239326921.0438051     
   3051837542.5679078     
 </DataArray>
 <DataArray  type="Float64" Name="strain" NumberOfComponents="3" format="ascii">
  0.20348637741516820        0.0000000000000000       0.12540538022044639     
  0.18665647908551941       -2.7324605294051972E-002   7.4351402882737588E-002
  0.16982658075587062       -4.4675902894773599E-002   3.5131636829302607E-002
  0.15299668242622180       -5.2053892802164881E-002   7.7460820601414695E-003
  0.13616678409657301       -4.9458575016225859E-002  -7.8052614247458435E-003
  0.15985569189749610        0.0000000000000000        9.6448863417022399E-002
  0.15317832948703558       -2.1844567476153563E-002   6.2690240540486719E-002
  0.14650096707657506       -3.6174720972352560E-002   3.7402478218053758E-002
  0.13982360466611454       -4.2990460488596990E-002   2.0585576449723461E-002
  0.13314624225565400       -4.2291786024886847E-002   1.2239535235495924E-002
  0.12645817536944023        0.0000000000000000        7.4201831288184694E-002
  0.12656999814799685       -1.6364529658255161E-002   5.5279669159446383E-002
  0.12668182092655347       -2.7673539049931525E-002   4.1465016854639644E-002
  0.12679364370511009       -3.3927028175029086E-002   3.2757874373764484E-002
  0.12690546648366671       -3.5124997033547850E-002   2.9158241716820910E-002
  0.10329382783100062        0.0000000000000000        5.8664283833933281E-002
  0.10683148506840326       -1.0884491840356756E-002   5.2119688739616546E-002
  0.11036914230580588       -1.9172357127510482E-002   4.7319252739060270E-002
  0.11390679954320852       -2.4863595861461182E-002   4.4262975832264441E-002
  0.11744445678061116       -2.7958208042208853E-002   4.2950858019229085E-002
   9.0362649282177229E-002   0.0000000000000000        4.9836221054268159E-002
   9.3962790248254768E-002  -5.4044540224583498E-003   5.3210299280997249E-002
   9.7562931214332307E-002  -1.0671175205089443E-002   5.4965185871315644E-002
  0.10116307218040983       -1.5800163547893282E-002   5.5100880825223429E-002
  0.10476321314648737       -2.0791419050869855E-002   5.3617384142720506E-002
  0.13616678409657301       -4.9458575016225859E-002  -7.8052614247458435E-003
  0.13296095366636135       -4.2924684874914465E-002  -3.3903536540474954E-003
  0.12975512323614968       -3.8486957716188590E-002  -3.8995244200304771E-004
  0.12654929280593796       -3.6145393540048490E-002   1.1959422113876315E-003
  0.12334346237572633       -3.5899992346493853E-002   1.3673303061243480E-003
  0.13314624225565400       -4.2291786024886847E-002   1.2239535235495924E-002
  0.12891399927826941       -3.8426590669084576E-002   1.2183535497428996E-002
  0.12468175630088485       -3.5742767509052566E-002   1.1489217223670224E-002
  0.12044951332350023       -3.4240316544790851E-002   1.0156580414219400E-002
  0.11621727034611565       -3.3919237776299377E-002   8.1856250690766630E-003
  0.12690546648366671       -3.5124997033547850E-002   2.9158241716820910E-002
  0.12242299898207115       -3.3928496463254715E-002   2.5546125256804102E-002
  0.11794053148047559       -3.2998577301916465E-002   2.2071878284057305E-002
  0.11345806397888003       -3.2335239549533219E-002   1.8735500798580502E-002
  0.10897559647728444       -3.1938483206104887E-002   1.5536992800373621E-002
  0.11744445678061116       -2.7958208042208853E-002   4.2950858019229085E-002
  0.11348795277776658       -2.9430402257424826E-002   3.6697415624077731E-002
  0.10953144877492194       -3.0254387094780386E-002   3.1358030739158278E-002
  0.10557494477207731       -3.0430162554275563E-002   2.6932703364470689E-002
  0.10161844076923271       -2.9957728635910348E-002   2.3421433500015069E-002
  0.10476321314648737       -2.0791419050869855E-002   5.3617384142720506E-002
  0.10210886066535563       -2.4932308051594944E-002   4.5637406599249905E-002
   9.9454508184223855E-002  -2.7510196887644296E-002   3.9347674588973140E-002
   9.6800155703092111E-002  -2.8525085559017931E-002   3.4748188111890156E-002
   9.4145803221960367E-002  -2.7976974065715851E-002   3.1838947168001078E-002
  0.12334346237572633       -3.5899992346493853E-002   1.3673303061243480E-003
  0.12041248754163505       -3.6396512945883669E-002   6.3637151221812571E-004
  0.11748151270754380       -3.6280714148576525E-002   9.7887983588632044E-005
  0.11455053787345251       -3.5552595954572538E-002  -2.4812027976393175E-004
  0.11161956303936127       -3.4212158363871481E-002  -4.0165327783986404E-004
  0.11621727034611565       -3.3919237776299377E-002   8.1856250690766630E-003
  0.11346464762608419       -3.3993285899473050E-002   7.8267801893012606E-003
  0.11071202490605266       -3.3676215610206513E-002   7.6321642723684927E-003
  0.10795940218602118       -3.2968026908500037E-002   7.6017773182783868E-003
  0.10520677946598966       -3.1868719794353462E-002   7.7356193270310958E-003
  0.10897559647728444       -3.1938483206104887E-002   1.5536992800373621E-002
  0.10637307956887859       -3.1590058853062389E-002   1.5329060850472205E-002
  0.10377056266047271       -3.1071717071836671E-002   1.5257111560979256E-002
  0.10116804575206688       -3.0383457862427653E-002   1.5321144931894981E-002
   9.8565528843661002E-002  -2.9525281224835442E-002   1.5521160963219177E-002
  0.10161844076923271       -2.9957728635910348E-002   2.3421433500015069E-002
   9.9137783370018301E-002  -2.9186831806651749E-002   2.3143213495730848E-002
   9.6657125970803934E-002  -2.8467218533466690E-002   2.2972729849420996E-002
   9.4176468571589539E-002  -2.7798888816355293E-002   2.2909982561085507E-002
   9.1695811172375116E-002  -2.7181842655317423E-002   2.2954971630724574E-002
   9.4145803221960367E-002  -2.7976974065715851E-002   3.1838947168001078E-002
   9.1758759029503312E-002  -2.6783604760241102E-002   3.1269238125077092E-002
   8.9371714837046257E-002  -2.5862719995096779E-002   3.0779019137693507E-002
   8.6984670644589202E-002  -2.5214319770282888E-002   3.0368290205850152E-002
   8.4597626452132202E-002  -2.4838404085799404E-002   3.0037051329547121E-002
  0.11161956303936127       -3.4212158363871481E-002  -4.0165327783986404E-004
  0.10852912793186220       -3.2690668579490878E-002  -1.5686229544831232E-004
  0.10543869282436305       -3.1419393804447748E-002   1.4354234999208737E-004
  0.10234825771686394       -3.0398334038742272E-002   4.9956065848207054E-004
   9.9257822609364832E-002  -2.9627489282374020E-002   9.1119263002109596E-004
  0.10520677946598966       -3.1868719794353462E-002   7.7356193270310958E-003
  0.10220151033135225       -3.0648739531259475E-002   7.5815020083364187E-003
   9.9196241196714829E-002  -2.9578531382710757E-002   7.5421029723159450E-003
   9.6190972062077384E-002  -2.8658095348707373E-002   7.6174222189696883E-003
   9.3185702927439995E-002  -2.7887431429249432E-002   7.8074597482973851E-003
   9.8565528843661002E-002  -2.9525281224835442E-002   1.5521160963219177E-002
   9.5704530301510188E-002  -2.8606810483028156E-002   1.5068578238230837E-002
   9.2843531759359360E-002  -2.7737668960973932E-002   1.4789818415541452E-002
   8.9982533217208518E-002  -2.6917856658672808E-002   1.4684881495151160E-002
   8.7121534675057691E-002  -2.6147373576124844E-002   1.4753767477060087E-002
   9.1695811172375116E-002  -2.7181842655317423E-002   2.2954971630724574E-002
   8.9038187842335914E-002  -2.6564881434796822E-002   2.2304366394234599E-002
   8.6380564512296684E-002  -2.5896806539237052E-002   2.1886688679668458E-002
   8.3722941182257440E-002  -2.5177617968638200E-002   2.1701938487026465E-002
   8.1065317852218238E-002  -2.4407315723000200E-002   2.1750115816308445E-002
   8.4597626452132202E-002  -2.4838404085799404E-002   3.0037051329547121E-002
   8.2202482953829495E-002  -2.4522952386565475E-002   2.9288866476347625E-002
   7.9807339455526788E-002  -2.4055944117500137E-002   2.8832713764697204E-002
   7.7412195957224109E-002  -2.3437379278603572E-002   2.8668593194595630E-002
   7.5017052458921374E-002  -2.2667257869875584E-002   2.8796504766043257E-002
   9.9257822609364832E-002  -2.9627489282374020E-002   9.1119263002109596E-004
   9.6325269952382830E-002  -2.8930145630920001E-002   5.9638072874784731E-004
   9.3392717295400857E-002  -2.8129589179956421E-002   4.5287426396828367E-004
   9.0460164638418897E-002  -2.7225819929483412E-002   4.8067323568309894E-004
   8.7527611981436881E-002  -2.6218837879500634E-002   6.7977764389237638E-004
   9.3185702927439995E-002  -2.7887431429249432E-002   7.8074597482973851E-003
   9.0421155364876798E-002  -2.7158853545469264E-002   7.5817053558407677E-003
   8.7656607802313685E-002  -2.6364675618499894E-002   7.5206557157270343E-003
   8.4892060239750558E-002  -2.5504897648341053E-002   7.6243108279570315E-003
   8.2127512677187431E-002  -2.4579519634993052E-002   7.8926706925304679E-003
   8.7121534675057691E-002  -2.6147373576124844E-002   1.4753767477060087E-002
   8.4518391522762568E-002  -2.5387561460018804E-002   1.4579457837099796E-002
   8.1915248370467431E-002  -2.4599762057043492E-002   1.4563252265331852E-002
   7.9312105218172335E-002  -2.3783975367198975E-002   1.4705150761756790E-002
   7.6708962065877156E-002  -2.2940201390485304E-002   1.5005153326373949E-002
   8.1065317852218238E-002  -2.4407315723000200E-002   2.1750115816308445E-002
   7.8616978426040207E-002  -2.3616269374568150E-002   2.1589638172524607E-002
   7.6168638999862190E-002  -2.2834848495586972E-002   2.1580663912782492E-002
   7.3720299573684173E-002  -2.2063053086056814E-002   2.1723193037081631E-002
   7.1271960147506142E-002  -2.1300883145977528E-002   2.2017225545423104E-002
   7.5017052458921374E-002  -2.2667257869875584E-002   2.8796504766043257E-002
   7.2716916074709648E-002  -2.1844977289117454E-002   2.8612246362115595E-002
   7.0416779690497866E-002  -2.1069934934130445E-002   2.8572890658078789E-002
   6.8116643306286098E-002  -2.0342130804914565E-002   2.8678437653932722E-002
   6.5816506922074303E-002  -1.9661564901469863E-002   2.8928887349677357E-002
   8.7527611981436881E-002  -2.6218837879500634E-002   6.7977764389237638E-004
   8.4288883734905284E-002  -2.5195130720842285E-002   5.0058410400788400E-004
   8.1050155488373576E-002  -2.4241186144342314E-002   4.8660796460570088E-004
   7.7811427241841924E-002  -2.3357004150000298E-002   6.3784922568649316E-004
   7.4572698995310271E-002  -2.2542584737817006E-002   9.5430788724992777E-004
   8.2127512677187431E-002  -2.4579519634993052E-002   7.8926706925304679E-003
   7.9059701813790573E-002  -2.3644536317546955E-002   7.6426498196611459E-003
   7.5991890950393631E-002  -2.2755942435093796E-002   7.5692463125782150E-003
   7.2924080086996718E-002  -2.1913737987634040E-002   7.6724601712823276E-003
   6.9856269223599832E-002  -2.1117922975167902E-002   7.9522913957727481E-003
   7.6708962065877156E-002  -2.2940201390485304E-002   1.5005153326373949E-002
   7.3823468550918953E-002  -2.2093941914251097E-002   1.4707678267684848E-002
   7.0937975035960665E-002  -2.1270698725845291E-002   1.4598220540086262E-002
   6.8052481521002392E-002  -2.0470471825267785E-002   1.4676780143578337E-002
   6.5166988006044119E-002  -1.9693261212518742E-002   1.4943357078160802E-002
   7.1271960147506142E-002  -2.1300883145977528E-002   2.2017225545423104E-002
   6.8580183946290396E-002  -2.0543347510955504E-002   2.1695669448079165E-002
   6.5888407745074679E-002  -1.9785455016596946E-002   2.1573530647129666E-002
   6.3196631543858961E-002  -1.9027205662901531E-002   2.1650809142574563E-002
   6.0504855342643209E-002  -1.8268599449869610E-002   2.1927504934414144E-002
   6.5816506922074303E-002  -1.9661564901469863E-002   2.8928887349677357E-002
   6.3329847999904987E-002  -1.8992753107659910E-002   2.8606623360843686E-002
   6.0843189077735671E-002  -1.8300211307348269E-002   2.8495176633708430E-002
   5.8356530155566355E-002  -1.7583939500535162E-002   2.8594547168271423E-002
   5.5869871233397039E-002  -1.6843937687220423E-002   2.8904734964532830E-002
   7.4572698995310271E-002  -2.2542584737817006E-002   9.5430788724992777E-004
   7.1695287452822276E-002  -2.1713545724945271E-002   5.0251768080156189E-004
   6.8817875910334225E-002  -2.0785504928538590E-002   3.2589729247878285E-004
   6.5940464367846147E-002  -1.9758462348596628E-002   4.2444672228161839E-004
   6.3063052825358179E-002  -1.8632417985120386E-002   7.9816597020998525E-004
   6.9856269223599832E-002  -2.1117922975167902E-002   7.9522913957727481E-003
   6.7234066951121163E-002  -2.0311202547176999E-002   7.5912902201517585E-003
   6.4611864678642439E-002  -1.9436281853142889E-002   7.4655377664238076E-003
   6.1989662406163715E-002  -1.8493160893065533E-002   7.5750340345890482E-003
   5.9367460133685046E-002  -1.7481839666945609E-002   7.9197790246471333E-003
   6.5166988006044119E-002  -1.9693261212518742E-002   1.4943357078160802E-002
   6.2760073907342229E-002  -1.8908859369408532E-002   1.4642343415875336E-002
   6.0353159808640269E-002  -1.8087058777747078E-002   1.4536657379250292E-002
   5.7946245709938358E-002  -1.7227859437534548E-002   1.4626298968285739E-002
   5.5539331611236420E-002  -1.6331261348771109E-002   1.4911268182981580E-002
   6.0504855342643209E-002  -1.8268599449869610E-002   2.1927504934414144E-002
   5.8273308321485404E-002  -1.7506516191639940E-002   2.1655677267972309E-002
   5.6041761300327717E-002  -1.6737835702351211E-002   2.1539256130958133E-002
   5.3810214279169981E-002  -1.5962557982003397E-002   2.1578241523371865E-002
   5.1578667258012204E-002  -1.5180683030596581E-002   2.1772633445213539E-002
   5.5869871233397039E-002  -1.6843937687220423E-002   2.8904734964532830E-002
   5.3773770193550924E-002  -1.6104173013871542E-002   2.8631291776442302E-002
   5.1677669153704808E-002  -1.5388612626955483E-002   2.8473334021547253E-002
   4.9581568113858637E-002  -1.4697256526472170E-002   2.8430861699847293E-002
   4.7485467074012577E-002  -1.4030104712421887E-002   2.8503874811343033E-002
   6.3063052825358179E-002  -1.8632417985120386E-002   7.9816597020998525E-004
   6.0073387287386537E-002  -1.7650463311788656E-002   9.7823402487240418E-004
   5.7083721749414784E-002  -1.7055689802281476E-002   9.6930240020348668E-004
   5.4094056211443031E-002  -1.6848097456599688E-002   7.7137109620339928E-004
   5.1104390673471389E-002  -1.7027686274742493E-002   3.8444011287142033E-004
   5.9367460133685046E-002  -1.7481839666945609E-002   7.9197790246471333E-003
   5.6253605298961229E-002  -1.6561528832659156E-002   7.7134205243462595E-003
   5.3139750464237356E-002  -1.5891439048082212E-002   7.4476831098727603E-003
   5.0025895629513512E-002  -1.5471570313215222E-002   7.1225667812260252E-003
   4.6912040794789833E-002  -1.5301922628057962E-002   6.7380715384073309E-003
   5.5539331611236420E-002  -1.6331261348771109E-002   1.4911268182981580E-002
   5.2430908244919222E-002  -1.5472594353529434E-002   1.4455443241832289E-002
   4.9322484878601941E-002  -1.4727188293882601E-002   1.4069860151668959E-002
   4.6214061512284771E-002  -1.4095043169830585E-002   1.3754518912491777E-002
   4.3105638145967462E-002  -1.3576158981373432E-002   1.3509419524300403E-002
   5.1578667258012204E-002  -1.5180683030596581E-002   2.1772633445213539E-002
   4.8605296125260343E-002  -1.4383659874400045E-002   2.1204302177331047E-002
   4.5631924992508552E-002  -1.3562937539683163E-002   2.0835833525593105E-002
   4.2658553859756691E-002  -1.2718516026446367E-002   2.0667227489999732E-002
   3.9685182727004858E-002  -1.1850395334688790E-002   2.0698484070551193E-002
   4.7485467074012577E-002  -1.4030104712421887E-002   2.8503874811343033E-002
   4.4776768939984862E-002  -1.3294725395270601E-002   2.7959997330842035E-002
   4.2068070805957092E-002  -1.2398686785483629E-002   2.7745603231644406E-002
   3.9359372671929321E-002  -1.1341988883061597E-002   2.7860692513750465E-002
   3.6650674537901606E-002  -1.0124631688004371E-002   2.8305265177159811E-002
   9.0362649282177229E-002   0.0000000000000000        4.9836221054268159E-002
   9.3962790248254768E-002  -5.4044540224583498E-003   5.3210299280997249E-002
   9.7562931214332307E-002  -1.0671175205089443E-002   5.4965185871315644E-002
  0.10116307218040983       -1.5800163547893282E-002   5.5100880825223429E-002
  0.10476321314648737       -2.0791419050869855E-002   5.3617384142720506E-002
   8.2426031353126289E-002   0.0000000000000000        4.4784623292233885E-002
   8.4636128921949300E-002  -4.5743513779273690E-003   4.8268192131730607E-002
   8.6846226490772352E-002  -9.0376553483163223E-003   5.0590865813128980E-002
   8.9056324059595376E-002  -1.3389911911166863E-002   5.1752644336428996E-002
   9.1266421628418401E-002  -1.7631121066478996E-002   5.1753527701630692E-002
   7.4245365674003985E-002   0.0000000000000000        4.0576470890875002E-002
   7.5523716323884812E-002  -3.7442487333963870E-003   4.4142844910850527E-002
   7.6802066973765654E-002  -7.4041354915432046E-003   4.7006620251040014E-002
   7.8080417623646495E-002  -1.0979660274440450E-002   4.9167796911443469E-002
   7.9358768273527322E-002  -1.4470823082088125E-002   5.0626374892060878E-002
   6.5820652244810332E-002   0.0000000000000000        3.7211763850191537E-002
   6.6625552454061293E-002  -2.9141460888654058E-003   4.0834257618357010E-002
   6.7430452663312240E-002  -5.7706156347700835E-003   4.4212449185048755E-002
   6.8235352872563215E-002  -8.5694086377140384E-003   4.7346338550266799E-002
   6.9040253081814176E-002  -1.1310525097697272E-002   5.0235925714011101E-002
   5.7151891065545316E-002   0.0000000000000000        3.4690502170183470E-002
   5.7941637312478714E-002  -2.0840434443344241E-003   3.8342430254250041E-002
   5.8731383559412112E-002  -4.1370957779969658E-003   4.2208352615155209E-002
   5.9521129806345517E-002  -6.1591570009876199E-003   4.6288269252899000E-002
   6.0310876053278922E-002  -8.1502271133064002E-003   5.0582180167481366E-002
  0.10476321314648737       -2.0791419050869855E-002   5.3617384142720506E-002
  0.10210886066535563       -2.4932308051594944E-002   4.5637406599249905E-002
   9.9454508184223855E-002  -2.7510196887644296E-002   3.9347674588973140E-002
   9.6800155703092111E-002  -2.8525085559017931E-002   3.4748188111890156E-002
   9.4145803221960367E-002  -2.7976974065715851E-002   3.1838947168001078E-002
   9.1266421628418401E-002  -1.7631121066478996E-002   5.1753527701630692E-002
   9.0064378335655046E-002  -2.1206418682728798E-002   4.6516639894143542E-002
   8.8862335042891705E-002  -2.3560940628392417E-002   4.2494124930199391E-002
   8.7660291750128377E-002  -2.4694686903469831E-002   3.9685982809798265E-002
   8.6458248457365022E-002  -2.4607657507961039E-002   3.8092213532940046E-002
   7.9358768273527322E-002  -1.4470823082088125E-002   5.0626374892060878E-002
   7.9133161479481573E-002  -1.7480529313862677E-002   4.7790352326467674E-002
   7.8907554685435796E-002  -1.9611684369140552E-002   4.5692829914766621E-002
   7.8681947891390061E-002  -2.0864288247921740E-002   4.4333807656957741E-002
   7.8456341097344284E-002  -2.1238340950206235E-002   4.3713285553041006E-002
   6.9040253081814176E-002  -1.1310525097697272E-002   5.0235925714011101E-002
   6.9315210096835167E-002  -1.3754639944996552E-002   4.9458543896222291E-002
   6.9590167111856144E-002  -1.5662428109888670E-002   4.8943789542674844E-002
   6.9865124126877148E-002  -1.7033889592373629E-002   4.8691662653368738E-002
   7.0140081141898125E-002  -1.7869024392451440E-002   4.8702163228303924E-002
   6.0310876053278922E-002  -8.1502271133064002E-003   5.0582180167481366E-002
   6.0610524187715835E-002  -1.0028750576130417E-002   5.1521214603407472E-002
   6.0910172322152747E-002  -1.1713171850636809E-002   5.2247003813924081E-002
   6.1209820456589646E-002  -1.3203490936825546E-002   5.2759547799031144E-002
   6.1509468591026566E-002  -1.4499707834696625E-002   5.3058846558728716E-002
   9.4145803221960367E-002  -2.7976974065715851E-002   3.1838947168001078E-002
   9.1758759029503312E-002  -2.6783604760241102E-002   3.1269238125077092E-002
   8.9371714837046257E-002  -2.5862719995096779E-002   3.0779019137693507E-002
   8.6984670644589202E-002  -2.5214319770282888E-002   3.0368290205850152E-002
   8.4597626452132202E-002  -2.4838404085799404E-002   3.0037051329547121E-002
   8.6458248457365022E-002  -2.4607657507961039E-002   3.8092213532940046E-002
   8.4197367695576356E-002  -2.3963831824313782E-002   3.7064991452399047E-002
   8.1936486933787703E-002  -2.3427189234975700E-002   3.6210606177654522E-002
   7.9675606171999036E-002  -2.2997729739946883E-002   3.5529057708706520E-002
   7.7414725410210383E-002  -2.2675453339227242E-002   3.5020346045554956E-002
   7.8456341097344284E-002  -2.1238340950206235E-002   4.3713285553041006E-002
   7.6414970516480218E-002  -2.1144058888386438E-002   4.2393851880904061E-002
   7.4373599935616153E-002  -2.0991658474854617E-002   4.1340601764819830E-002
   7.2332229354752087E-002  -2.0781139709610853E-002   4.0553535204788299E-002
   7.0290858773888021E-002  -2.0512502592655107E-002   4.0032652200809517E-002
   7.0140081141898125E-002  -1.7869024392451440E-002   4.8702163228303924E-002
   6.8411567492214873E-002  -1.8324285952459100E-002   4.7255819410592259E-002
   6.6683053842531620E-002  -1.8556127714733545E-002   4.6169005899189521E-002
   6.4954540192848353E-002  -1.8564549679274844E-002   4.5441722694095715E-002
   6.3226026543165087E-002  -1.8349551846082959E-002   4.5073969795310663E-002
   6.1509468591026566E-002  -1.4499707834696625E-002   5.3058846558728716E-002
   6.0187158622780325E-002  -1.5504513016531767E-002   5.1650894041463537E-002
   5.8864848654534077E-002  -1.6120596954612446E-002   5.0695818580763469E-002
   5.7542538686287836E-002  -1.6347959648938832E-002   5.0193620176628553E-002
   5.6220228718041595E-002  -1.6186601099510811E-002   5.0144298829058687E-002
   8.4597626452132202E-002  -2.4838404085799404E-002   3.0037051329547121E-002
   8.2202482953829495E-002  -2.4522952386565475E-002   2.9288866476347625E-002
   7.9807339455526788E-002  -2.4055944117500137E-002   2.8832713764697204E-002
   7.7412195957224109E-002  -2.3437379278603572E-002   2.8668593194595630E-002
   7.5017052458921374E-002  -2.2667257869875584E-002   2.8796504766043257E-002
   7.7414725410210383E-002  -2.2675453339227242E-002   3.5020346045554956E-002
   7.5294559348797280E-002  -2.2351670463188138E-002   3.4445017200685164E-002
   7.3174393287384162E-002  -2.1917691542200898E-002   3.4127611088045566E-002
   7.1054227225971045E-002  -2.1373516576265534E-002   3.4068127707636189E-002
   6.8934061164557942E-002  -2.0719145565381986E-002   3.4266567059456896E-002
   7.0290858773888021E-002  -2.0512502592655107E-002   4.0032652200809517E-002
   6.8411560740045632E-002  -2.0180388539810877E-002   3.9588818839386308E-002
   6.6532262706203243E-002  -1.9779438966901691E-002   3.9368798800874447E-002
   6.4652964672360896E-002  -1.9309653873927472E-002   3.9372592085273848E-002
   6.2773666638518508E-002  -1.8771033260888317E-002   3.9600198692584500E-002
   6.3226026543165087E-002  -1.8349551846082959E-002   4.5073969795310663E-002
   6.1553487127574566E-002  -1.8009106616433592E-002   4.4720271392450939E-002
   5.9880947711984073E-002  -1.7641186391602469E-002   4.4556276903183673E-002
   5.8208408296393552E-002  -1.7245791171589434E-002   4.4581986327508663E-002
   5.6535868880803031E-002  -1.6822920956394670E-002   4.4797399665426327E-002
   5.6220228718041595E-002  -1.6186601099510811E-002   5.0144298829058687E-002
   5.4720338511384095E-002  -1.5837824693056279E-002   4.9839374859879187E-002
   5.3220448304726602E-002  -1.5502933816303244E-002   4.9690045394973181E-002
   5.1720558098069094E-002  -1.5181928469251371E-002   4.9696310434340765E-002
   5.0220667891411580E-002  -1.4874808651901050E-002   4.9858169977982009E-002
   7.5017052458921374E-002  -2.2667257869875584E-002   2.8796504766043257E-002
   7.2716916074709648E-002  -2.1844977289117454E-002   2.8612246362115595E-002
   7.0416779690497866E-002  -2.1069934934130445E-002   2.8572890658078789E-002
   6.8116643306286098E-002  -2.0342130804914565E-002   2.8678437653932722E-002
   6.5816506922074303E-002  -1.9661564901469863E-002   2.8928887349677357E-002
   6.8934061164557942E-002  -2.0719145565381986E-002   3.4266567059456896E-002
   6.6789264071661331E-002  -2.0020125350224419E-002   3.3981274084191951E-002
   6.4644466978764817E-002  -1.9342002771467047E-002   3.3861756991666637E-002
   6.2499669885868275E-002  -1.8684777829109843E-002   3.3908015781880976E-002
   6.0354872792971664E-002  -1.8048450523153015E-002   3.4120050454834683E-002
   6.2773666638518508E-002  -1.8771033260888317E-002   3.9600198692584500E-002
   6.0805082019785947E-002  -1.8195273411331321E-002   3.9240211735353338E-002
   5.8836497401053366E-002  -1.7614070608803597E-002   3.9066873843710381E-002
   5.6867912782320812E-002  -1.7027424853305176E-002   3.9080185017655936E-002
   5.4899328163588251E-002  -1.6435336144836110E-002   3.9280145257189786E-002
   5.6535868880803031E-002  -1.6822920956394670E-002   4.4797399665426327E-002
   5.4764369919083247E-002  -1.6370421472438241E-002   4.4389059315599590E-002
   5.2992870957363464E-002  -1.5886138446140119E-002   4.4188241214210069E-002
   5.1221371995643715E-002  -1.5370071877500481E-002   4.4194945361257662E-002
   4.9449873033923869E-002  -1.4822221766519234E-002   4.4409171756742305E-002
   5.0220667891411580E-002  -1.4874808651901050E-002   4.9858169977982009E-002
   4.8667127769553398E-002  -1.4545569533545133E-002   4.9427816824930693E-002
   4.7113587647695174E-002  -1.4158206283476707E-002   4.9225859103165348E-002
   4.5560047525836984E-002  -1.3712718901695706E-002   4.9252296812685961E-002
   4.4006507403978767E-002  -1.3209107388202357E-002   4.9507129953492601E-002
   6.5816506922074303E-002  -1.9661564901469863E-002   2.8928887349677357E-002
   6.3329847999904987E-002  -1.8992753107659910E-002   2.8606623360843686E-002
   6.0843189077735671E-002  -1.8300211307348269E-002   2.8495176633708430E-002
   5.8356530155566355E-002  -1.7583939500535162E-002   2.8594547168271423E-002
   5.5869871233397039E-002  -1.6843937687220423E-002   2.8904734964532830E-002
   6.0354872792971664E-002  -1.8048450523153015E-002   3.4120050454834683E-002
   5.8075449553037145E-002  -1.7415226915841353E-002   3.3819504509062320E-002
   5.5796026313102695E-002  -1.6767313069420087E-002   3.3722612666061191E-002
   5.3516603073168259E-002  -1.6104708983889271E-002   3.3829374925831310E-002
   5.1237179833233726E-002  -1.5427414659248850E-002   3.4139791288373134E-002
   5.4899328163588251E-002  -1.6435336144836110E-002   3.9280145257189786E-002
   5.2819977446961527E-002  -1.5837700724022852E-002   3.8992277587086510E-002
   5.0740626730334845E-002  -1.5234414831491905E-002   3.8900900860827786E-002
   4.8661276013708163E-002  -1.4625478467243325E-002   3.9006015078413211E-002
   4.6581925297081495E-002  -1.4010891631277084E-002   3.9307620239842883E-002
   4.9449873033923869E-002  -1.4822221766519234E-002   4.4409171756742305E-002
   4.7563431681677995E-002  -1.4260174532204378E-002   4.4124942594916630E-002
   4.5676990329432107E-002  -1.3701516593563751E-002   4.4030041218008006E-002
   4.3790548977186247E-002  -1.3146247950597420E-002   4.4124467626016864E-002
   4.1904107624940345E-002  -1.2594368603305470E-002   4.4408221818942682E-002
   4.4006507403978767E-002  -1.3209107388202357E-002   4.9507129953492601E-002
   4.2305812257186631E-002  -1.2682648340385794E-002   4.9217499532552167E-002
   4.0605117110394495E-002  -1.2168618355635485E-002   4.9110033737601949E-002
   3.8904421963602345E-002  -1.1667017433951501E-002   4.9184732568641920E-002
   3.7203726816810195E-002  -1.1177845575333689E-002   4.9441596025672330E-002
   5.5869871233397039E-002  -1.6843937687220423E-002   2.8904734964532830E-002
   5.3773770193550924E-002  -1.6104173013871542E-002   2.8631291776442302E-002
   5.1677669153704808E-002  -1.5388612626955483E-002   2.8473334021547253E-002
   4.9581568113858637E-002  -1.4697256526472170E-002   2.8430861699847293E-002
   4.7485467074012577E-002  -1.4030104712421887E-002   2.8503874811343033E-002
   5.1237179833233726E-002  -1.5427414659248850E-002   3.4139791288373134E-002
   4.9266409752477536E-002  -1.4748726400373613E-002   3.3835577161651531E-002
   4.7295639671721443E-002  -1.4081940512138402E-002   3.3666539519914898E-002
   4.5324869590965301E-002  -1.3427056994543080E-002   3.3632678363162909E-002
   4.3354099510209188E-002  -1.2784075847587839E-002   3.3733993691395125E-002
   4.6581925297081495E-002  -1.4010891631277084E-002   3.9307620239842883E-002
   4.4756177227204465E-002  -1.3393279786875587E-002   3.8984937090283875E-002
   4.2930429157327504E-002  -1.2775268397321196E-002   3.8817121477498329E-002
   4.1104681087450474E-002  -1.2156857462613930E-002   3.8804173401486820E-002
   3.9278933017573514E-002  -1.1538046982753875E-002   3.8946092862248691E-002
   4.1904107624940345E-002  -1.2594368603305470E-002   4.4408221818942682E-002
   4.0243072617731662E-002  -1.2037833173377609E-002   4.4079371562338564E-002
   3.8582037610523062E-002  -1.1468596282504247E-002   4.3925079894297239E-002
   3.6921002603314400E-002  -1.0886657930684837E-002   4.3945346814818986E-002
   3.5259967596105821E-002  -1.0292018117919813E-002   4.4140172323903465E-002
   3.7203726816810195E-002  -1.1177845575333689E-002   4.9441596025672330E-002
   3.5727095924059094E-002  -1.0682386559879686E-002   4.9118880577816049E-002
   3.4250465031308006E-002  -1.0161924167686964E-002   4.8990414770311824E-002
   3.2773834138556911E-002  -9.6164583987556479E-003   4.9056198603159740E-002
   3.1297203245805816E-002  -9.0459892530858066E-003   4.9316232076359878E-002
   4.7485467074012577E-002  -1.4030104712421887E-002   2.8503874811343033E-002
   4.4776768939984862E-002  -1.3294725395270601E-002   2.7959997330842035E-002
   4.2068070805957092E-002  -1.2398686785483629E-002   2.7745603231644406E-002
   3.9359372671929321E-002  -1.1341988883061597E-002   2.7860692513750465E-002
   3.6650674537901606E-002  -1.0124631688004371E-002   2.8305265177159811E-002
   4.3354099510209188E-002  -1.2784075847587839E-002   3.3733993691395125E-002
   4.0943123846358148E-002  -1.2100339409399447E-002   3.3341592493805999E-002
   3.8532148182507206E-002  -1.1323190018104792E-002   3.3215152855267410E-002
   3.6121172518656257E-002  -1.0452627673703700E-002   3.3354674775778609E-002
   3.3710196854805197E-002  -9.4886523761961161E-003   3.3760158255340178E-002
   3.9278933017573514E-002  -1.1538046982753875E-002   3.8946092862248691E-002
   3.7102158001646020E-002  -1.0905953423528597E-002   3.8637921608042899E-002
   3.4925382985718539E-002  -1.0247693250725783E-002   3.8532190090633890E-002
   3.2748607969791059E-002  -9.5632664643456339E-003   3.8628898310021628E-002
   3.0571832953863565E-002  -8.8526730643878615E-003   3.8928046266206440E-002
   3.5259967596105821E-002  -1.0292018117919813E-002   4.4140172323903465E-002
   3.3253871405848491E-002  -9.7115674376577060E-003   4.3848984673551888E-002
   3.1247775215591172E-002  -9.1721964833467486E-003   4.3696714937743748E-002
   2.9241679025333929E-002  -8.6739052549875406E-003   4.3683363116479107E-002
   2.7235582835076516E-002  -8.2166937525795514E-003   4.3808929209758332E-002
   3.1297203245805816E-002  -9.0459892530858066E-003   4.9316232076359878E-002
   2.9398264058965395E-002  -8.5171814517867039E-003   4.8974781690333369E-002
   2.7499324872124975E-002  -8.0966997159678117E-003   4.8708727396597457E-002
   2.5600385685284555E-002  -7.7845440456296121E-003   4.8518069195151795E-002
   2.3701446498444134E-002  -7.5807144407713523E-003   4.8402807085995647E-002
   5.7151891065545316E-002   0.0000000000000000        3.4690502170183470E-002
   5.7941637312478714E-002  -2.0840434443344241E-003   3.8342430254250041E-002
   5.8731383559412112E-002  -4.1370957779969658E-003   4.2208352615155209E-002
   5.9521129806345517E-002  -6.1591570009876199E-003   4.6288269252899000E-002
   6.0310876053278922E-002  -8.1502271133064002E-003   5.0582180167481366E-002
   4.8651346084464128E-002   0.0000000000000000        3.2789538184703537E-002
   4.9589787943731180E-002  -1.7093184926660265E-003   3.6965213784663602E-002
   5.0528229802998231E-002  -3.4324960280851177E-003   4.1224286332452356E-002
   5.1466671662265290E-002  -5.1695326062572728E-003   4.5566755828069835E-002
   5.2405113521532341E-002  -6.9204282271825030E-003   4.9992622271515991E-002
   4.0731281249821963E-002   0.0000000000000000        3.1285724227604478E-002
   4.1687821392412776E-002  -1.3345935409976280E-003   3.5940297190033083E-002
   4.2644361535003589E-002  -2.7278962781732679E-003   4.0547669771280465E-002
   4.3600901677594402E-002  -4.1799082115269214E-003   4.5107841971346686E-002
   4.4557441820185215E-002  -5.6906293410585894E-003   4.9620813790231699E-002
   3.3391696561618826E-002   0.0000000000000000        3.0179060298886295E-002
   3.4235737658523502E-002  -9.5986858932923082E-004   3.5267680470358477E-002
   3.5079778755428170E-002  -2.0232965282614207E-003   4.0178502931639569E-002
   3.5923819852332846E-002  -3.1902838167965704E-003   4.4911527682729574E-002
   3.6767860949237514E-002  -4.4608304549346878E-003   4.9466754723628506E-002
   2.6632592019854705E-002   0.0000000000000000        2.9469546398548985E-002
   2.7233536742063344E-002  -5.8514363766083190E-004   3.4947363625639799E-002
   2.7834481464271983E-002  -1.3186967783495700E-003   4.0116785813529635E-002
   2.8435426186480626E-002  -2.2006594220662194E-003   4.4977812962218484E-002
   2.9036370908689262E-002  -3.2310315688107768E-003   4.9530445071706355E-002
   6.0310876053278922E-002  -8.1502271133064002E-003   5.0582180167481366E-002
   6.0610524187715835E-002  -1.0028750576130417E-002   5.1521214603407472E-002
   6.0910172322152747E-002  -1.1713171850636809E-002   5.2247003813924081E-002
   6.1209820456589646E-002  -1.3203490936825546E-002   5.2759547799031144E-002
   6.1509468591026566E-002  -1.4499707834696625E-002   5.3058846558728716E-002
   5.2405113521532341E-002  -6.9204282271825030E-003   4.9992622271515991E-002
   5.2530635510423168E-002  -8.5839999638703379E-003   5.1220171117477668E-002
   5.2656157499314002E-002  -1.0059064889330368E-002   5.2312712897756686E-002
   5.2781679488204836E-002  -1.1345623003562580E-002   5.3270247612353064E-002
   5.2907201477095676E-002  -1.2443674306566975E-002   5.4092775261266719E-002
   4.4557441820185215E-002  -5.6906293410585894E-003   4.9620813790231699E-002
   4.4587075823256800E-002  -7.1392493516102655E-003   5.1131281669139148E-002
   4.4616709826328399E-002  -8.4049579280239557E-003   5.2584980642090745E-002
   4.4646343829399977E-002  -9.4877550702996347E-003   5.3981910709086540E-002
   4.4675977832471570E-002  -1.0387640778437335E-002   5.5322071870126485E-002
   3.6767860949237514E-002  -4.4608304549346878E-003   4.9466754723628506E-002
   3.6779845126216688E-002  -5.6944987393501862E-003   5.1254546258391868E-002
   3.6791829303195869E-002  -6.7508509667175186E-003   5.3063807046926238E-002
   3.6803813480175050E-002  -7.6298871370366894E-003   5.4894537089231657E-002
   3.6815797657154224E-002  -8.3316072503076908E-003   5.6746736385308021E-002
   2.9036370908689262E-002  -3.2310315688107768E-003   4.9530445071706355E-002
   2.9108943419302865E-002  -4.2497481270901130E-003   5.1589964885235873E-002
   2.9181515929916472E-002  -5.0967440054111041E-003   5.3749192112263207E-002
   2.9254088440530075E-002  -5.7720192037737407E-003   5.6008126752788372E-002
   2.9326660951143675E-002  -6.2755737221780322E-003   5.8366768806811395E-002
   6.1509468591026566E-002  -1.4499707834696625E-002   5.3058846558728716E-002
   6.0187158622780325E-002  -1.5504513016531767E-002   5.1650894041463537E-002
   5.8864848654534077E-002  -1.6120596954612446E-002   5.0695818580763469E-002
   5.7542538686287836E-002  -1.6347959648938832E-002   5.0193620176628553E-002
   5.6220228718041595E-002  -1.6186601099510811E-002   5.0144298829058687E-002
   5.2907201477095676E-002  -1.2443674306566975E-002   5.4092775261266719E-002
   5.1985464629337411E-002  -1.3293991556751230E-002   5.3351403546314596E-002
   5.1063727781579152E-002  -1.3837347512522967E-002   5.2958301015773271E-002
   5.0141990933820900E-002  -1.4073742173882242E-002   5.2913467669642771E-002
   4.9220254086062627E-002  -1.4003175540828999E-002   5.3216903507923088E-002
   4.4675977832471570E-002  -1.0387640778437335E-002   5.5322071870126485E-002
   4.4050206233046986E-002  -1.1083470096970732E-002   5.5165521008145549E-002
   4.3424434633622389E-002  -1.1554098070433484E-002   5.5252631458421110E-002
   4.2798663034197798E-002  -1.1799524698825637E-002   5.5583403220953224E-002
   4.2172891434773208E-002  -1.1819749982147160E-002   5.6157836295741809E-002
   3.6815797657154224E-002  -8.3316072503076908E-003   5.6746736385308021E-002
   3.6381383433909023E-002  -8.8729486371902141E-003   5.7093246426956408E-002
   3.5946969210663815E-002  -9.2708486283440035E-003   5.7578809908706972E-002
   3.5512554987418607E-002  -9.5253072237690261E-003   5.8203426830559790E-002
   3.5078140764173406E-002  -9.6363244234653062E-003   5.8967097192514806E-002
   2.9326660951143675E-002  -6.2755737221780322E-003   5.8366768806811395E-002
   2.8978996231923543E-002  -6.6624271774097035E-003   5.9134579802747209E-002
   2.8631331512703414E-002  -6.9875991862545193E-003   5.9936836366630906E-002
   2.8283666793483285E-002  -7.2510897487124545E-003   6.0773538498462565E-002
   2.7936002074263146E-002  -7.4528988647835082E-003   6.1644686198242121E-002
   5.6220228718041595E-002  -1.6186601099510811E-002   5.0144298829058687E-002
   5.4720338511384095E-002  -1.5837824693056279E-002   4.9839374859879187E-002
   5.3220448304726602E-002  -1.5502933816303244E-002   4.9690045394973181E-002
   5.1720558098069094E-002  -1.5181928469251371E-002   4.9696310434340765E-002
   5.0220667891411580E-002  -1.4874808651901050E-002   4.9858169977982009E-002
   4.9220254086062627E-002  -1.4003175540828999E-002   5.3216903507923088E-002
   4.7886052165973074E-002  -1.3771932287021740E-002   5.2874938510424532E-002
   4.6551850245883569E-002  -1.3526297086119021E-002   5.2708755581788516E-002
   4.5217648325794037E-002  -1.3266269938120814E-002   5.2718354722014638E-002
   4.3883446405704490E-002  -1.2991850843027120E-002   5.2903735931103202E-002
   4.2172891434773208E-002  -1.1819749982147160E-002   5.6157836295741809E-002
   4.1024565365840426E-002  -1.1706039880987174E-002   5.5807107746721180E-002
   3.9876239296907673E-002  -1.1549660355934882E-002   5.5652348831151721E-002
   3.8727913227974906E-002  -1.1350611406990202E-002   5.5693559549033350E-002
   3.7579587159042117E-002  -1.1108893034153217E-002   5.5930739900366178E-002
   3.5078140764173406E-002  -9.6363244234653062E-003   5.8967097192514806E-002
   3.4135878110986166E-002  -9.6401474749525790E-003   5.8635882568768893E-002
   3.3193615457798926E-002  -9.5730236257506873E-003   5.8520825143062963E-002
   3.2251352804611708E-002  -9.4349528758595619E-003   5.8621924915396903E-002
   3.1309090151424440E-002  -9.2259352252793553E-003   5.8939181885770825E-002
   2.7936002074263146E-002  -7.4528988647835082E-003   6.1644686198242121E-002
   2.7219990401410238E-002  -7.5742550689180607E-003   6.1361262976567799E-002
   2.6503978728557333E-002  -7.5963868955665481E-003   6.1314184517522255E-002
   2.5787967055704436E-002  -7.5192943447290259E-003   6.1503450821105324E-002
   2.5071955382851521E-002  -7.3429774164053829E-003   6.1929061887317172E-002
   5.0220667891411580E-002  -1.4874808651901050E-002   4.9858169977982009E-002
   4.8667127769553398E-002  -1.4545569533545133E-002   4.9427816824930693E-002
   4.7113587647695174E-002  -1.4158206283476707E-002   4.9225859103165348E-002
   4.5560047525836984E-002  -1.3712718901695706E-002   4.9252296812685961E-002
   4.4006507403978767E-002  -1.3209107388202357E-002   4.9507129953492601E-002
   4.3883446405704490E-002  -1.2991850843027120E-002   5.2903735931103202E-002
   4.2550806280617220E-002  -1.2688787208580327E-002   5.2549760214243041E-002
   4.1218166155529944E-002  -1.2342826442522867E-002   5.2409189059638886E-002
   3.9885526030442667E-002  -1.1953968544854709E-002   5.2482022467290682E-002
   3.8552885905355383E-002  -1.1522213515575808E-002   5.2768260437198150E-002
   3.7579587159042117E-002  -1.1108893034153217E-002   5.5930739900366178E-002
   3.6452856161695670E-002  -1.0832004883615604E-002   5.5637914619595566E-002
   3.5326125164349215E-002  -1.0527446601569103E-002   5.5543503032050752E-002
   3.4199394167002746E-002  -1.0195218188013626E-002   5.5647505137731743E-002
   3.3072663169656319E-002  -9.8353196429492584E-003   5.5949920936638531E-002
   3.1309090151424440E-002  -9.2259352252793553E-003   5.8939181885770825E-002
   3.0373277412788727E-002  -8.9752225586508388E-003   5.8692280040987962E-002
   2.9437464674153004E-002  -8.7120667606153009E-003   5.8628801020400773E-002
   2.8501651935517288E-002  -8.4364678311725297E-003   5.8748744824009144E-002
   2.7565839196881561E-002  -8.1484257703227370E-003   5.9052111451813438E-002
   2.5071955382851521E-002  -7.3429774164053829E-003   6.1929061887317172E-002
   2.4312070033896432E-002  -7.1184402336860880E-003   6.1712856478420258E-002
   2.3552184684941330E-002  -6.8966869196615543E-003   6.1665083024688816E-002
   2.2792299335986244E-002  -6.6777174743314488E-003   6.1785741526123011E-002
   2.2032413987031138E-002  -6.4615318976961600E-003   6.2074831982722734E-002
   4.4006507403978767E-002  -1.3209107388202357E-002   4.9507129953492601E-002
   4.2305812257186631E-002  -1.2682648340385794E-002   4.9217499532552167E-002
   4.0605117110394495E-002  -1.2168618355635485E-002   4.9110033737601949E-002
   3.8904421963602345E-002  -1.1667017433951501E-002   4.9184732568641920E-002
   3.7203726816810195E-002  -1.1177845575333689E-002   4.9441596025672330E-002
   3.8552885905355383E-002  -1.1522213515575808E-002   5.2768260437198150E-002
   3.7040910149328726E-002  -1.1071005608682780E-002   5.2450373324233315E-002
   3.5528934393302125E-002  -1.0623789078171617E-002   5.2327760366809001E-002
   3.4016958637275482E-002  -1.0180563924042606E-002   5.2400421564925609E-002
   3.2504982881248867E-002  -9.7413301462957458E-003   5.2668356918582959E-002
   3.3072663169656319E-002  -9.8353196429492584E-003   5.5949920936638531E-002
   3.1762516333945702E-002  -9.4593628769794602E-003   5.5612214818333075E-002
   3.0452369498235127E-002  -9.0789598007076366E-003   5.5482892385118929E-002
   2.9142222662524524E-002  -8.6941104141337669E-003   5.5561953636996134E-002
   2.7832075826813955E-002  -8.3048147172577746E-003   5.5849398573964648E-002
   2.7565839196881561E-002  -8.1484257703227370E-003   5.9052111451813438E-002
   2.6470630811037545E-002  -7.8477201452762102E-003   5.8703024014851585E-002
   2.5375422425193552E-002  -7.5341305232436012E-003   5.8575429792531684E-002
   2.4280214039349560E-002  -7.2076569042248996E-003   5.8669328784853675E-002
   2.3185005653505543E-002  -6.8682992882197619E-003   5.8984720991817521E-002
   2.2032413987031138E-002  -6.4615318976961600E-003   6.2074831982722734E-002
   2.1165253580604254E-002  -6.2360774135731267E-003   6.1722800913788844E-002
   2.0298093174177356E-002  -5.9893012457797462E-003   6.1605372589047247E-002
   1.9430932767750472E-002  -5.7212033943159941E-003   6.1722547008498205E-002
   1.8563772361323588E-002  -5.4317838591818601E-003   6.2074324172141371E-002
   3.7203726816810195E-002  -1.1177845575333689E-002   4.9441596025672330E-002
   3.5727095924059094E-002  -1.0682386559879686E-002   4.9118880577816049E-002
   3.4250465031308006E-002  -1.0161924167686964E-002   4.8990414770311824E-002
   3.2773834138556911E-002  -9.6164583987556479E-003   4.9056198603159740E-002
   3.1297203245805816E-002  -9.0459892530858066E-003   4.9316232076359878E-002
   3.2504982881248867E-002  -9.7413301462957458E-003   5.2668356918582959E-002
   3.1219414512354771E-002  -9.2930033005449997E-003   5.2391881679922064E-002
   2.9933846143460702E-002  -8.8224989424044858E-003   5.2303281848623207E-002
   2.8648277774566640E-002  -8.3298170718741592E-003   5.2402557424686316E-002
   2.7362709405672550E-002  -7.8149576889540717E-003   5.2689708408111158E-002
   2.7832075826813955E-002  -8.3048147172577746E-003   5.5849398573964648E-002
   2.6731195748786671E-002  -7.9036200412103408E-003   5.5616337680150521E-002
   2.5630315670759362E-002  -7.4830737171220074E-003   5.5564777960708092E-002
   2.4529435592732081E-002  -7.0431757449926705E-003   5.5694719415637278E-002
   2.3428555514704769E-002  -6.5839261248224756E-003   5.6006162044938038E-002
   2.3185005653505543E-002  -6.8682992882197619E-003   5.8984720991817521E-002
   2.2262439633354749E-002  -6.5142367818755847E-003   5.8792248578501322E-002
   2.1339873613203986E-002  -6.1436484918395845E-003   5.8774903106566252E-002
   2.0417307593053199E-002  -5.7565344181112373E-003   5.8932684576012889E-002
   1.9494741572902430E-002  -5.3528945606908657E-003   5.9265592986840782E-002
   1.8563772361323588E-002  -5.4317838591818601E-003   6.2074324172141371E-002
   1.7813146166059057E-002  -5.1248535225410230E-003   6.1919614374974119E-002
   1.7062519970794554E-002  -4.8042232665570367E-003   6.1933657286198068E-002
   1.6311893775530037E-002  -4.4698930912296340E-003   6.2116452905812927E-002
   1.5561267580265534E-002  -4.1218629965592002E-003   6.2468001233819181E-002
   3.1297203245805816E-002  -9.0459892530858066E-003   4.9316232076359878E-002
   2.9398264058965395E-002  -8.5171814517867039E-003   4.8974781690333369E-002
   2.7499324872124975E-002  -8.0966997159678117E-003   4.8708727396597457E-002
   2.5600385685284555E-002  -7.7845440456296121E-003   4.8518069195151795E-002
   2.3701446498444134E-002  -7.5807144407713523E-003   4.8402807085995647E-002
   2.7362709405672550E-002  -7.8149576889540717E-003   5.2689708408111158E-002
   2.5576011900958082E-002  -7.3152695696118430E-003   5.2305020508572969E-002
   2.3789314396243606E-002  -6.8681014898150233E-003   5.2069419880996559E-002
   2.2002616891529190E-002  -6.4734534495637201E-003   5.1982906525382247E-002
   2.0215919386814662E-002  -6.1313254488577495E-003   5.2045480441728964E-002
   2.3428555514704769E-002  -6.5839261248224756E-003   5.6006162044938038E-002
   2.1827790871787697E-002  -6.1133576874370932E-003   5.5634042657823221E-002
   2.0227026228870598E-002  -5.6395032636620754E-003   5.5484701722341552E-002
   1.8626261585953485E-002  -5.1623628534977744E-003   5.5558139238492926E-002
   1.7025496943036400E-002  -4.6819364569440358E-003   5.5854355206277351E-002
   1.9494741572902430E-002  -5.3528945606908657E-003   5.9265592986840782E-002
   1.8153600971454156E-002  -4.9114458052622323E-003   5.8961848138084041E-002
   1.6812460370005909E-002  -4.4109050375093183E-003   5.8954572920631901E-002
   1.5471319768557708E-002  -3.8512722574320776E-003   5.9243767334484179E-002
   1.4130179167109416E-002  -3.2325474650303776E-003   5.9829431379641057E-002
   1.5561267580265534E-002  -4.1218629965592002E-003   6.2468001233819181E-002
   1.4553442199957564E-002  -3.7095339230873714E-003   6.2288436949355541E-002
   1.3545616819649588E-002  -3.1823068113562974E-003   6.2479033475867557E-002
   1.2537791439341587E-002  -2.5401816613661483E-003   6.3039790813356159E-002
   1.1529966059033669E-002  -1.7831584731167194E-003   6.3970708961820222E-002
   2.6632592019854705E-002   0.0000000000000000        2.9469546398548985E-002
   2.7233536742063344E-002  -5.8514363766083190E-004   3.4947363625639799E-002
   2.7834481464271983E-002  -1.3186967783495700E-003   4.0116785813529635E-002
   2.8435426186480626E-002  -2.2006594220662194E-003   4.4977812962218484E-002
   2.9036370908689262E-002  -3.2310315688107768E-003   4.9530445071706355E-002
   2.0116412891368913E-002   0.0000000000000000        2.9022392104979304E-002
   2.0448485636442568E-002  -4.3896061539509205E-004   3.4315307408337187E-002
   2.0780558381516222E-002  -9.8910305959540486E-004   3.9378873796626079E-002
   2.1112631126589877E-002  -1.6504273326009384E-003   4.4213091269845996E-002
   2.1444703871663535E-002  -2.4229334344116928E-003   4.8817959827996915E-002
   1.3505604443000755E-002   0.0000000000000000        2.8702806996564023E-002
   1.3647851335071419E-002  -2.9277759312935220E-004   3.3848048050411653E-002
   1.3790098227142084E-002  -6.5950934084123974E-004   3.8842986313322295E-002
   1.3932345119212750E-002  -1.1001952431356609E-003   4.3687621785295935E-002
   1.4074592011283414E-002  -1.6148353000126200E-003   4.8381954466332602E-002
   6.8001666747502338E-003   0.0000000000000000        2.8510791073303135E-002
   6.8316338379499006E-003  -1.4659457086361235E-004   3.3545585551863211E-002
   6.8631010011495665E-003  -3.2991562208707376E-004   3.8509123363618288E-002
   6.8945681643492315E-003  -5.4996315367038338E-004   4.3401404508568359E-002
   6.9260353275489000E-003  -8.0673716561354336E-004   4.8222428986713431E-002
   9.9586617347512119E-008   0.0000000000000000        2.8446344335196647E-002
  -1.6685492199106783E-007  -4.1154859787249920E-007   3.3407919912691847E-002
  -4.3329646132943093E-007  -3.2190333290778306E-007   3.8377284947514044E-002
  -6.9973800066876982E-007   2.6893579490108732E-007   4.3354439439663224E-002
  -9.6617954000724135E-007   1.3609687855358973E-006   4.8339383389139401E-002
   2.9036370908689262E-002  -3.2310315688107768E-003   4.9530445071706355E-002
   2.9108943419302865E-002  -4.2497481270901130E-003   5.1589964885235873E-002
   2.9181515929916472E-002  -5.0967440054111041E-003   5.3749192112263207E-002
   2.9254088440530075E-002  -5.7720192037737407E-003   5.6008126752788372E-002
   2.9326660951143675E-002  -6.2755737221780322E-003   5.8366768806811395E-002
   2.1444703871663535E-002  -2.4229334344116928E-003   4.8817959827996915E-002
   2.1587536748403000E-002  -3.1867750294208466E-003   5.1219703531983421E-002
   2.1730369625142465E-002  -3.8221057820215622E-003   5.3662260554723826E-002
   2.1873202501881930E-002  -4.3289256922138053E-003   5.6145630896218102E-002
   2.2016035378621394E-002  -4.7072347599976250E-003   5.8669814556466242E-002
   1.4074592011283414E-002  -1.6148353000126200E-003   4.8381954466332602E-002
   1.4228791159404779E-002  -2.1238019317515728E-003   5.1082712223226245E-002
   1.4382990307526149E-002  -2.5474675586320003E-003   5.3765389204129800E-002
   1.4537189455647517E-002  -2.8858321806538804E-003   5.6429985409043273E-002
   1.4691388603768884E-002  -3.1388957978172247E-003   5.9076500837966700E-002
   6.9260353275489000E-003  -8.0673716561354336E-004   4.8222428986713431E-002
   7.0327066523082097E-003  -1.0608288340823097E-003   5.1178990958964270E-002
   7.1393779770675247E-003  -1.2728293352424415E-003   5.4058578060481095E-002
   7.2460493018268362E-003  -1.4427386690939398E-003   5.6861190291263880E-002
   7.3527206265861494E-003  -1.5705568356368209E-003   5.9586827651312624E-002
  -9.6617954000724135E-007   1.3609687855358973E-006   4.8339383389139401E-002
  -7.1677288670992517E-007   2.1442635869620835E-006   5.1508539739197563E-002
  -4.6736623341152479E-007   1.8088881470980280E-006   5.4541827123777725E-002
  -2.1795958011410019E-007   3.5484246598552682E-007   5.7439245542879901E-002
   3.1447073183324403E-008  -2.2178734564101688E-006   6.0200794996504069E-002
   2.9326660951143675E-002  -6.2755737221780322E-003   5.8366768806811395E-002
   2.8978996231923543E-002  -6.6624271774097035E-003   5.9134579802747209E-002
   2.8631331512703414E-002  -6.9875991862545193E-003   5.9936836366630906E-002
   2.8283666793483285E-002  -7.2510897487124545E-003   6.0773538498462565E-002
   2.7936002074263146E-002  -7.4528988647835082E-003   6.1644686198242121E-002
   2.2016035378621394E-002  -4.7072347599976250E-003   5.8669814556466242E-002
   2.1715848332048295E-002  -4.9977348062589903E-003   5.9491030778282633E-002
   2.1415661285475181E-002  -5.2411276518837639E-003   6.0372756777445150E-002
   2.1115474238902067E-002  -5.4374132968720732E-003   6.1314992553953777E-002
   2.0815287192328967E-002  -5.5865917412238064E-003   6.2317738107808530E-002
   1.4691388603768884E-002  -3.1388957978172247E-003   5.9076500837966700E-002
   1.4464743439241003E-002  -3.3330424351081973E-003   5.9936548039913259E-002
   1.4238098274713121E-002  -3.4946561175130241E-003   6.0883169228604206E-002
   1.4011453110185238E-002  -3.6237368450316647E-003   6.1916364404039442E-002
   1.3784807945657359E-002  -3.7202846176641324E-003   6.3036133566218996E-002
   7.3527206265861494E-003  -1.5705568356368209E-003   5.9586827651312624E-002
   7.2256815535016936E-003  -1.6683500639574442E-003   6.0471131587639088E-002
   7.0986424804172317E-003  -1.7481845831422834E-003   6.1468073720108034E-002
   6.9716034073327750E-003  -1.8100603931912975E-003   6.2577654048719594E-002
   6.8445643342483192E-003  -1.8539774941044723E-003   6.3799872573473582E-002
   3.1447073183324403E-008  -2.2178734564101688E-006   6.0200794996504069E-002
  -1.3373251696504468E-006  -3.6576928066807401E-006   6.1094781421460062E-002
  -2.7060974124850853E-006  -1.7130487715340953E-006   6.2127470251956751E-002
  -4.0748696553171218E-006   3.6160586490891801E-006   6.3298861487994171E-002
  -5.4436418981534951E-006   1.2329629455215541E-005   6.4608955129572321E-002
   2.7936002074263146E-002  -7.4528988647835082E-003   6.1644686198242121E-002
   2.7219990401410238E-002  -7.5742550689180607E-003   6.1361262976567799E-002
   2.6503978728557333E-002  -7.5963868955665481E-003   6.1314184517522255E-002
   2.5787967055704436E-002  -7.5192943447290259E-003   6.1503450821105324E-002
   2.5071955382851521E-002  -7.3429774164053829E-003   6.1929061887317172E-002
   2.0815287192328967E-002  -5.5865917412238064E-003   6.2317738107808530E-002
   2.0321294898688422E-002  -5.6768030376374429E-003   6.2195250874343341E-002
   1.9827302605047867E-002  -5.6961872388114690E-003   6.2280457636674072E-002
   1.9333310311407316E-002  -5.6447443447456853E-003   6.2573358394800757E-002
   1.8839318017766768E-002  -5.5224743554403988E-003   6.3073953148723591E-002
   1.3784807945657359E-002  -3.7202846176641324E-003   6.3036133566218996E-002
   1.3484184264396439E-002  -3.7793510063568701E-003   6.3046185038716451E-002
   1.3183560583135526E-002  -3.7959875820562788E-003   6.3235279740177203E-002
   1.2882936901874613E-002  -3.7701943447624973E-003   6.3603417670601181E-002
   1.2582313220613688E-002  -3.7019712944753314E-003   6.4150598829988470E-002
   6.8445643342483192E-003  -1.8539774941044723E-003   6.3799872573473582E-002
   6.7086584985343103E-003  -1.8818989750763026E-003   6.3914065469687378E-002
   6.5727526628202989E-003  -1.8957879253012136E-003   6.4178650828031703E-002
   6.4368468271062901E-003  -1.8956443447792053E-003   6.4593628648506554E-002
   6.3009409913922796E-003  -1.8814682335102639E-003   6.5158998931111906E-002
  -5.4436418981534951E-006   1.2329629455215541E-005   6.4608955129572321E-002
  -5.2823988979811692E-006   1.5553056204306581E-005   6.4798892167256053E-002
  -5.1211558978071087E-006   4.4117314540043084E-006   6.5110570900237558E-002
  -4.9599128976313134E-006  -2.1094344796006997E-005   6.5543991328516890E-002
  -4.7986698974607223E-006  -6.0965172545252022E-005   6.6099153452094023E-002
   2.5071955382851521E-002  -7.3429774164053829E-003   6.1929061887317172E-002
   2.4312070033896432E-002  -7.1184402336860880E-003   6.1712856478420258E-002
   2.3552184684941330E-002  -6.8966869196615543E-003   6.1665083024688816E-002
   2.2792299335986244E-002  -6.6777174743314488E-003   6.1785741526123011E-002
   2.2032413987031138E-002  -6.4615318976961600E-003   6.2074831982722734E-002
   1.8839318017766768E-002  -5.5224743554403988E-003   6.3073953148723591E-002
   1.8253302492214359E-002  -5.3646861522182177E-003   6.2837530907944972E-002
   1.7667286966661925E-002  -5.2066886164021525E-003   6.2780416358806129E-002
   1.7081271441109519E-002  -5.0484817479921583E-003   6.2902609501307022E-002
   1.6495255915557096E-002  -4.8900655469882870E-003   6.3204110335447733E-002
   1.2582313220613688E-002  -3.7019712944753314E-003   6.4150598829988470E-002
   1.2181043254938139E-002  -3.6109320707502848E-003   6.3896952958616762E-002
   1.1779773289262581E-002  -3.5166903131427507E-003   6.3833490515359165E-002
   1.1378503323587023E-002  -3.4192460216527290E-003   6.3960211500215455E-002
   1.0977233357911467E-002  -3.3185991962803030E-003   6.4277115913185592E-002
   6.3009409913922796E-003  -1.8814682335102639E-003   6.5158998931111906E-002
   6.0952923220677782E-003  -1.8571779892823416E-003   6.4891122630435852E-002
   5.8896436527432761E-003  -1.8266920098834322E-003   6.4824305494347839E-002
   5.6839949834187782E-003  -1.7900102953133969E-003   6.4958547522848048E-002
   5.4783463140942752E-003  -1.7471328455723190E-003   6.5293848715936367E-002
  -4.7986698974607223E-006  -6.0965172545252022E-005   6.6099153452094023E-002
  -3.9503063967195884E-006  -1.0342390781445387E-004   6.5820039923402018E-002
  -3.1019428959767198E-006  -1.3669370662399566E-004   6.5752861295772361E-002
  -2.2535793952364533E-006  -1.6077456897393809E-004   6.5897617569205036E-002
  -1.4052158944927173E-006  -1.7566649486439045E-004   6.6254308743700085E-002
   2.2032413987031138E-002  -6.4615318976961600E-003   6.2074831982722734E-002
   2.1165253580604254E-002  -6.2360774135731267E-003   6.1722800913788844E-002
   2.0298093174177356E-002  -5.9893012457797462E-003   6.1605372589047247E-002
   1.9430932767750472E-002  -5.7212033943159941E-003   6.1722547008498205E-002
   1.8563772361323588E-002  -5.4317838591818601E-003   6.2074324172141371E-002
   1.6495255915557096E-002  -4.8900655469882870E-003   6.3204110335447733E-002
   1.5858099343957391E-002  -4.7239016791247451E-003   6.2884919713374829E-002
   1.5220942772357689E-002  -4.5424518101362943E-003   6.2791134016763867E-002
   1.4583786200757997E-002  -4.3457159400226153E-003   6.2922753245614790E-002
   1.3946629629158283E-002  -4.1336940687838886E-003   6.3279777399927933E-002
   1.0977233357911467E-002  -3.3185991962803030E-003   6.4277115913185592E-002
   1.0560882802408567E-002  -3.2117259446765578E-003   6.3984730055428443E-002
   1.0144532246905674E-002  -3.0956023744930020E-003   6.3908551304402789E-002
   9.7281816914027743E-003  -2.9702284857293457E-003   6.4048579660108795E-002
   9.3118311358998743E-003  -2.8356042783859170E-003   6.4404815122546435E-002
   5.4783463140942752E-003  -1.7471328455723190E-003   6.5293848715936367E-002
   5.2736039559577782E-003  -1.6995502102283844E-003   6.5022231939949826E-002
   5.0688615978212934E-003  -1.6487529388496854E-003   6.4957624451964333E-002
   4.8641192396848042E-003  -1.5947410314361326E-003   6.5100026251980136E-002
   4.6593768815483116E-003  -1.5375144879879177E-003   6.5449437339997113E-002
  -1.4052158944927173E-006  -1.7566649486439045E-004   6.6254308743700085E-002
  -3.7371953949642822E-006  -1.8737447578001665E-004   6.5997425366938811E-002
  -6.0691748954358471E-006  -2.0190350320625772E-004   6.5938353459448318E-002
  -8.4011543959048099E-006  -2.1925357714272509E-004   6.6077093021228744E-002
  -1.0733133896378977E-005  -2.3942469758997387E-004   6.6413644052279952E-002
   1.8563772361323588E-002  -5.4317838591818601E-003   6.2074324172141371E-002
   1.7813146166059057E-002  -5.1248535225410230E-003   6.1919614374974119E-002
   1.7062519970794554E-002  -4.8042232665570367E-003   6.1933657286198068E-002
   1.6311893775530037E-002  -4.4698930912296340E-003   6.2116452905812927E-002
   1.5561267580265534E-002  -4.1218629965592002E-003   6.2468001233819181E-002
   1.3946629629158283E-002  -4.1336940687838886E-003   6.3279777399927933E-002
   1.3369078835179717E-002  -3.9134078944925432E-003   6.3119205796723810E-002
   1.2791528041201150E-002  -3.6918791152211056E-003   6.3136032287700636E-002
   1.2213977247222573E-002  -3.4691077309696276E-003   6.3330256872858176E-002
   1.1636426453244017E-002  -3.2450937417380921E-003   6.3701879552196361E-002
   9.3118311358998743E-003  -2.8356042783859170E-003   6.4404815122546435E-002
   8.9160011289968338E-003  -2.7019622664440496E-003   6.4225924398942605E-002
   8.5201711220938003E-003  -2.5795349638852369E-003   6.4233077155309154E-002
   8.1243411151907668E-003  -2.4683223707095674E-003   6.4426273391646013E-002
   7.7285111082877229E-003  -2.3683244869169562E-003   6.4805513107953197E-002
   4.6593768815483116E-003  -1.5375144879879177E-003   6.5449437339997113E-002
   4.4539130475104126E-003  -1.4905166383954796E-003   6.5239770181630394E-002
   4.2484492134725197E-003  -1.4671908125493092E-003   6.5224791889023387E-002
   4.0429853794346250E-003  -1.4675370104495341E-003   6.5404502462176398E-002
   3.8375215453967356E-003  -1.4915552320958342E-003   6.5778901901089384E-002
  -1.0733133896378977E-005  -2.3942469758997387E-004   6.6413644052279952E-002
  -1.7185409279533298E-005  -2.7907101034710391E-004   6.6160743144786982E-002
  -2.3637684662694558E-005  -3.5484666121342323E-004   6.6111176488843459E-002
  -3.0089960045848879E-005  -4.6675165018944184E-004   6.6264944084449537E-002
  -3.6542235429010139E-005  -6.1478597727465667E-004   6.6622045931605089E-002
   1.5561267580265534E-002  -4.1218629965592002E-003   6.2468001233819181E-002
   1.4553442199957564E-002  -3.7095339230873714E-003   6.2288436949355541E-002
   1.3545616819649588E-002  -3.1823068113562974E-003   6.2479033475867557E-002
   1.2537791439341587E-002  -2.5401816613661483E-003   6.3039790813356159E-002
   1.1529966059033669E-002  -1.7831584731167194E-003   6.3970708961820222E-002
   1.1636426453244017E-002  -3.2450937417380921E-003   6.3701879552196361E-002
   1.0968096898334390E-002  -2.9897698356608493E-003   6.3596713697705642E-002
   1.0299767343424755E-002  -2.6730687008717779E-003   6.3800378683035591E-002
   9.6314377885151313E-003  -2.2949903373712596E-003   6.4312874508186318E-002
   8.9631082336055212E-003  -1.8555347451593152E-003   6.5134201173157713E-002
   7.7285111082877229E-003  -2.3683244869169562E-003   6.4805513107953197E-002
   7.3383474076211472E-003  -2.2700057482339386E-003   6.4721224873887817E-002
   6.9481837069545558E-003  -2.1638305903870295E-003   6.4884437508487769E-002
   6.5580200062879826E-003  -2.0497990133765357E-003   6.5295151011753289E-002
   6.1678563056213886E-003  -1.9279110172017999E-003   6.5953365383683793E-002
   3.8375215453967356E-003  -1.4915552320958342E-003   6.5778901901089384E-002
   3.6641937278178690E-003  -1.5502416608071112E-003   6.5661970477901621E-002
   3.4908659102390141E-003  -1.6545924799022844E-003   6.5731209952223882E-002
   3.3175380926601418E-003  -1.8046076893812853E-003   6.5986620324056167E-002
   3.1442102750812856E-003  -2.0002872892443402E-003   6.6428201593398795E-002
  -3.6542235429010139E-005  -6.1478597727465667E-004   6.6622045931605089E-002
  -5.4364141075458061E-005  -8.3047757338033934E-004   6.6418950509747221E-002
  -7.2186046721902514E-005  -1.1453543694175811E-003   6.6340696014244332E-002
  -9.0007952368353905E-005  -1.5594163653867947E-003   6.6387282445095855E-002
  -1.0782985801480183E-004  -2.0726635612868805E-003   6.6558709802302385E-002
   9.9586617347512119E-008   0.0000000000000000        2.8446344335196647E-002
  -1.6685492199106783E-007  -4.1154859787249920E-007   3.3407919912691847E-002
  -4.3329646132943093E-007  -3.2190333290778306E-007   3.8377284947514044E-002
  -6.9973800066876982E-007   2.6893579490108732E-007   4.3354439439663224E-002
  -9.6617954000724135E-007   1.3609687855358973E-006   4.8339383389139401E-002
  -6.8000248579407185E-003   0.0000000000000000        2.8509805881259058E-002
  -6.8319743926697667E-003   1.4621245566653202E-004   3.3545301330213398E-002
  -6.8639239273988123E-003   3.2967934735789271E-004   3.8509641135461327E-002
  -6.8958734621278571E-003   5.5040067507407687E-004   4.3402825297002852E-002
  -6.9278229968569045E-003   8.0837643881509231E-004   4.8224853814837973E-002
  -1.3505634695466782E-002   0.0000000000000000        2.8701514810504879E-002
  -1.3648212424418937E-002   2.9283645993093393E-004   3.3847683373080341E-002
  -1.3790790153371089E-002   6.5968059804868712E-004   3.8843751190916001E-002
  -1.3933367882323241E-002   1.1005324143532596E-003   4.3689718264011870E-002
  -1.4075945611275396E-002   1.6153919088446492E-003   4.8385584592367907E-002
  -2.0116729925960846E-002   0.0000000000000000        2.9021471122934107E-002
  -2.0448880950169501E-002   4.3946046419533671E-004   3.4315066041292697E-002
  -2.0781031974378160E-002   9.8968184873948371E-004   3.9379615113878073E-002
  -2.1113182998586812E-002   1.6506641536324388E-003   4.4215118340690245E-002
  -2.1445334022795477E-002   2.4224073788742112E-003   4.8821575721729224E-002
  -2.6633310549422903E-002   0.0000000000000000        2.9469674818546746E-002
  -2.7233979969921461E-002   5.8608446845973949E-004   3.4947449334850438E-002
  -2.7834649390420019E-002   1.3196830994302820E-003   4.0117232904347530E-002
  -2.8435318810918583E-002   2.2007958929116216E-003   4.4979025527038016E-002
  -2.9035988231417145E-002   3.2294228489037633E-003   4.9532827202921903E-002
  -9.6617954000724135E-007   1.3609687855358973E-006   4.8339383389139401E-002
  -7.1677288670992517E-007   2.1442635869620835E-006   5.1508539739197563E-002
  -4.6736623341152479E-007   1.8088881470980280E-006   5.4541827123777725E-002
  -2.1795958011410019E-007   3.5484246598552682E-007   5.7439245542879901E-002
   3.1447073183324403E-008  -2.2178734564101688E-006   6.0200794996504069E-002
  -6.9278229968569045E-003   8.0837643881509231E-004   4.8224853814837973E-002
  -7.0340582381230119E-003   1.0633354675223107E-003   5.1179925397186271E-002
  -7.1402934793891194E-003   1.2750065901370831E-003   5.4057896649173771E-002
  -7.2465287206552259E-003   1.4433898066594445E-003   5.6858767570800446E-002
  -7.3527639619213343E-003   1.5684851170893743E-003   5.9582538162066309E-002
  -1.4075945611275396E-002   1.6153919088446492E-003   4.8385584592367907E-002
  -1.4229896865343728E-002   2.1245266714576523E-003   5.1084402171155202E-002
  -1.4383848119412061E-002   2.5482042921270752E-003   5.3764888054698867E-002
  -1.4537799373480398E-002   2.8864247708528896E-003   5.6427042242998902E-002
  -1.4691750627548725E-002   3.1391881076351415E-003   5.9070864736055266E-002
  -2.1445334022795477E-002   2.4224073788742112E-003   4.8821575721729224E-002
  -2.1588232654548855E-002   3.1857178753930079E-003   5.1221970061104356E-002
  -2.1731131286302240E-002   3.8214019941170603E-003   5.3662801340353013E-002
  -2.1874029918055621E-002   4.3294597350463492E-003   5.6144069559475207E-002
  -2.2016928549809005E-002   4.7098910981809104E-003   5.8665774718470967E-002
  -2.9035988231417145E-002   3.2294228489037633E-003   4.9532827202921903E-002
  -2.9109065605738400E-002   4.2469090793283417E-003   5.1592629067033706E-002
  -2.9182142980059653E-002   5.0945996961070453E-003   5.3751636506136222E-002
  -2.9255220354380905E-002   5.7724946992397923E-003   5.6009849520229464E-002
  -2.9328297728702157E-002   6.2805940887266862E-003   5.8367268109313399E-002
   3.1447073183324403E-008  -2.2178734564101688E-006   6.0200794996504069E-002
  -1.3373251696504468E-006  -3.6576928066807401E-006   6.1094781421460062E-002
  -2.7060974124850853E-006  -1.7130487715340953E-006   6.2127470251956751E-002
  -4.0748696553171218E-006   3.6160586490891801E-006   6.3298861487994171E-002
  -5.4436418981534951E-006   1.2329629455215541E-005   6.4608955129572321E-002
  -7.3527639619213343E-003   1.5684851170893743E-003   5.9582538162066309E-002
  -7.2282003949387594E-003   1.6647895583286193E-003   6.0472108579622333E-002
  -7.1036368279561802E-003   1.7468001672789092E-003   6.1474841270088475E-002
  -6.9790732609736009E-003   1.8145169439402831E-003   6.2590736233464742E-002
  -6.8545096939910261E-003   1.8679398883126447E-003   6.3819793469751085E-002
  -1.4691750627548725E-002   3.1391881076351415E-003   5.9070864736055266E-002
  -1.4466794853971366E-002   3.3332368094639350E-003   5.9938340850536981E-002
  -1.4241839080393993E-002   3.4953133833293239E-003   6.0893439105298167E-002
  -1.4016883306816630E-002   3.6254178292314072E-003   6.1936159500338837E-002
  -1.3791927533239262E-002   3.7235501471701155E-003   6.3066502035658972E-002
  -2.2016928549809005E-002   4.7098910981809104E-003   5.8665774718470967E-002
  -2.1717120702267480E-002   5.0016840605992359E-003   5.9493478234203943E-002
  -2.1417312854725944E-002   5.2438265993797594E-003   6.0383263757585737E-002
  -2.1117505007184411E-002   5.4363187145225807E-003   6.1335131288616417E-002
  -2.0817697159642885E-002   5.5791604060275932E-003   6.2349080827295927E-002
  -2.9328297728702157E-002   6.2805940887266862E-003   5.8367268109313399E-002
  -2.8979177939827086E-002   6.6701313117345402E-003   5.9137520730623193E-002
  -2.8630058150952008E-002   6.9923398154301836E-003   5.9944315226951234E-002
  -2.8280938362076933E-002   7.2472195998137118E-003   6.0787651598297535E-002
  -2.7931818573201862E-002   7.4347706648850292E-003   6.1667529844661992E-002
  -5.4436418981534951E-006   1.2329629455215541E-005   6.4608955129572321E-002
  -5.2823988979811692E-006   1.5553056204306581E-005   6.4798892167256053E-002
  -5.1211558978071087E-006   4.4117314540043084E-006   6.5110570900237558E-002
  -4.9599128976313134E-006  -2.1094344796006997E-005   6.5543991328516890E-002
  -4.7986698974607223E-006  -6.0965172545252022E-005   6.6099153452094023E-002
  -6.8545096939910261E-003   1.8679398883126447E-003   6.3819793469751085E-002
  -6.7183196046166583E-003   1.8993593093013308E-003   6.3913626888366826E-002
  -6.5821295152422932E-003   1.9010655158116195E-003   6.4157776304433145E-002
  -6.4459394258679290E-003   1.8730585078434578E-003   6.4552241717950043E-002
  -6.3097493364935604E-003   1.8153382853968447E-003   6.5097023128917492E-002
  -1.3791927533239262E-002   3.7235501471701155E-003   6.3066502035658972E-002
  -1.3491134295337968E-002   3.7831655623984592E-003   6.3048883372227776E-002
  -1.3190341057436664E-002   3.7977193001693457E-003   6.3210155008399882E-002
  -1.2889547819535370E-002   3.7672113604828115E-003   6.3550316944175289E-002
  -1.2588754581634068E-002   3.6916417433388721E-003   6.4069369179554053E-002
  -2.0817697159642885E-002   5.5791604060275932E-003   6.2349080827295927E-002
  -2.0323726471061902E-002   5.6669718154955077E-003   6.2204661618838794E-002
  -1.9829755782480918E-002   5.6943730845270719E-003   6.2267707012137789E-002
  -1.9335785093899934E-002   5.6613642131221652E-003   6.2538217007192809E-002
  -1.8841814405318954E-002   5.5679452012808925E-003   6.3016191604003874E-002
  -2.7931818573201862E-002   7.4347706648850292E-003   6.1667529844661992E-002
  -2.7216096131788457E-002   7.5507780685925979E-003   6.1380961628200018E-002
  -2.6500373690375049E-002   7.5910268688847114E-003   6.1330432315646811E-002
  -2.5784651248961642E-002   7.5555170657615666E-003   6.1515941907002450E-002
  -2.5068928807548248E-002   7.4442486592229684E-003   6.1937490402266815E-002
  -4.7986698974607223E-006  -6.0965172545252022E-005   6.6099153452094023E-002
  -3.9503063967195884E-006  -1.0342390781445387E-004   6.5820039923402018E-002
  -3.1019428959767198E-006  -1.3669370662399566E-004   6.5752861295772361E-002
  -2.2535793952364533E-006  -1.6077456897393809E-004   6.5897617569205036E-002
  -1.4052158944927173E-006  -1.7566649486439045E-004   6.6254308743700085E-002
  -6.3097493364935604E-003   1.8153382853968447E-003   6.5097023128917492E-002
  -6.1025688164809879E-003   1.7445490810295561E-003   6.4844634370678944E-002
  -5.8953882964684181E-003   1.6773351272992773E-003   6.4792975024401719E-002
  -5.6882077764558465E-003   1.6136964242061246E-003   6.4942045090085693E-002
  -5.4810272564432827E-003   1.5536329717500408E-003   6.5291844567731211E-002
  -1.2588754581634068E-002   3.6916417433388721E-003   6.4069369179554053E-002
  -1.2186447394210674E-002   3.5925220698734411E-003   6.3838091505946382E-002
  -1.1784140206787292E-002   3.4913639612226023E-003   6.3796337755199037E-002
  -1.1381833019363909E-002   3.3881674173862142E-003   6.3944107927312005E-002
  -1.0979525831940517E-002   3.2829324383643887E-003   6.4281402022285272E-002
  -1.8841814405318954E-002   5.5679452012808925E-003   6.3016191604003874E-002
  -1.8255586039585766E-002   5.4404950587174442E-003   6.2800411329204553E-002
  -1.7669357673852581E-002   5.3053927951458735E-003   6.2762949488164535E-002
  -1.7083129308119394E-002   5.1626384105663455E-003   6.2903806080883806E-002
  -1.6496900942386209E-002   5.0122319049787506E-003   6.3222981107362450E-002
  -2.5068928807548248E-002   7.4442486592229684E-003   6.1937490402266815E-002
  -2.4309984752606283E-002   7.2884680475613084E-003   6.1731593840453264E-002
  -2.3551040697664300E-002   7.1194216290692489E-003   6.1692810223298075E-002
  -2.2792096642722325E-002   6.9371094037464064E-003   6.1821139550801062E-002
  -2.2033152587780363E-002   6.7415313715931124E-003   6.2116581822962369E-002
  -1.4052158944927173E-006  -1.7566649486439045E-004   6.6254308743700085E-002
  -3.7371953949642822E-006  -1.8737447578001665E-004   6.5997425366938811E-002
  -6.0691748954358471E-006  -2.0190350320625772E-004   6.5938353459448318E-002
  -8.4011543959048099E-006  -2.1925357714272509E-004   6.6077093021228744E-002
  -1.0733133896378977E-005  -2.3942469758997387E-004   6.6413644052279952E-002
  -5.4810272564432827E-003   1.5536329717500408E-003   6.5291844567731211E-002
  -5.2805859623308669E-003   1.4923462485469385E-003   6.5016625041042692E-002
  -5.0801446682184649E-003   1.4250377332127029E-003   6.4949140592309204E-002
  -4.8797033741060543E-003   1.3517074257473130E-003   6.5089391221530568E-002
  -4.6792620799936541E-003   1.2723553261508314E-003   6.5437376928706853E-002
  -1.0979525831940517E-002   3.2829324383643887E-003   6.4281402022285272E-002
  -1.0566387655531122E-002   3.1720669728739076E-003   6.3984645600048976E-002
  -1.0153249479121735E-002   3.0519789696316080E-003   6.3905547864451628E-002
  -9.7401113027123440E-003   2.9226684286374621E-003   6.4044108815493356E-002
  -9.3269731263029391E-003   2.7841353498914700E-003   6.4400328453174185E-002
  -1.6496900942386209E-002   5.0122319049787506E-003   6.3222981107362450E-002
  -1.5861142274995722E-002   4.8517876972009252E-003   6.2901487043957482E-002
  -1.5225383607605241E-002   4.6789202060504576E-003   6.2807575275875605E-002
  -1.4589624940214759E-002   4.4936294315275557E-003   6.2941245803117024E-002
  -1.3953866272824262E-002   4.2959153736321642E-003   6.3302498625681478E-002
  -2.2033152587780363E-002   6.7415313715931124E-003   6.2116581822962369E-002
  -2.1164849820724689E-002   6.5315084215278041E-003   6.1767149372768199E-002
  -2.0296547053668991E-002   6.3058614424694459E-003   6.1655222826581285E-002
  -1.9428244286613300E-002   6.0645904344177812E-003   6.1780802184401573E-002
  -1.8559941519557616E-002   5.8076953973729140E-003   6.2143887446229173E-002
  -1.0733133896378977E-005  -2.3942469758997387E-004   6.6413644052279952E-002
  -1.7185409279533298E-005  -2.7907101034710391E-004   6.6160743144786982E-002
  -2.3637684662694558E-005  -3.5484666121342323E-004   6.6111176488843459E-002
  -3.0089960045848879E-005  -4.6675165018944184E-004   6.6264944084449537E-002
  -3.6542235429010139E-005  -6.1478597727465667E-004   6.6622045931605089E-002
  -4.6792620799936541E-003   1.2723553261508314E-003   6.5437376928706853E-002
  -4.4857294950564931E-003   1.1815855108227302E-003   6.5175473041052118E-002
  -4.2921969101193409E-003   1.0740020561631064E-003   6.5110204622488302E-002
  -4.0986643251821817E-003   9.4960496217157478E-004   6.5241571673015586E-002
  -3.9051317402450277E-003   8.0839422884837475E-004   6.5569574192634150E-002
  -9.3269731263029391E-003   2.7841353498914700E-003   6.4400328453174185E-002
  -8.9401544635039285E-003   2.6422420319925227E-003   6.4148737284135129E-002
  -8.5533358007049108E-003   2.5028507735395181E-003   6.4087082801728729E-002
  -8.1665171379059001E-003   2.3659615745325342E-003   6.4215365005954955E-002
  -7.7796984751068807E-003   2.2315744349713784E-003   6.4533583896813865E-002
  -1.3953866272824262E-002   4.2959153736321642E-003   6.3302498625681478E-002
  -1.3380460314621844E-002   4.1028985531622805E-003   6.3080535874036017E-002
  -1.2807054356419410E-002   3.9316994909160165E-003   6.3041811026564670E-002
  -1.2233648398216982E-002   3.7823181868934111E-003   6.3186324083267686E-002
  -1.1660242440014552E-002   3.6547546410943960E-003   6.3514075044144677E-002
  -1.8559941519557616E-002   5.8076953973729140E-003   6.2143887446229173E-002
  -1.7806647048410236E-002   5.5635550743321494E-003   6.1970868810754809E-002
  -1.7053352577262839E-002   5.3605482082924177E-003   6.1974389296996280E-002
  -1.6300058106115435E-002   5.1986747992544720E-003   6.2154448904953460E-002
  -1.5546763634968062E-002   5.0779348472173580E-003   6.2511047634626282E-002
  -3.6542235429010139E-005  -6.1478597727465667E-004   6.6622045931605089E-002
  -5.4364141075458061E-005  -8.3047757338033934E-004   6.6418950509747221E-002
  -7.2186046721902514E-005  -1.1453543694175811E-003   6.6340696014244332E-002
  -9.0007952368353905E-005  -1.5594163653867947E-003   6.6387282445095855E-002
  -1.0782985801480183E-004  -2.0726635612868805E-003   6.6558709802302385E-002
  -3.9051317402450277E-003   8.0839422884837475E-004   6.5569574192634150E-002
  -3.7638620815799440E-003   6.3347377175171360E-004   6.5319856674613708E-002
  -3.6225924229148377E-003   4.0794750643996514E-004   6.5263481358861897E-002
  -3.4813227642497609E-003   1.3181543291297670E-004   6.5400448245378565E-002
  -3.3400531055846755E-003  -1.9492244882923782E-004   6.5730757334163226E-002
  -7.7796984751068807E-003   2.2315744349713784E-003   6.4533583896813865E-002
  -7.4108359762166641E-003   2.0974251168837943E-003   6.4285823674347653E-002
  -7.0419734773264691E-003   1.9612493822974489E-003   6.4299906930063322E-002
  -6.6731109784362516E-003   1.8230472312123578E-003   6.4575833663960788E-002
  -6.3042484795460575E-003   1.6828186636285158E-003   6.5113603876040316E-002
  -1.1660242440014552E-002   3.6547546410943960E-003   6.3514075044144677E-002
  -1.0995285824985655E-002   3.5613764620159721E-003   6.3316851508948793E-002
  -1.0330329209956763E-002   3.5145512581550749E-003   6.3449972727848483E-002
  -9.6653725949278763E-003   3.5142790295118785E-003   6.3913438700843775E-002
  -9.0004159798989583E-003   3.5605597760862695E-003   6.4707249427934099E-002
  -1.5546763634968062E-002   5.0779348472173580E-003   6.2511047634626282E-002
  -1.4517211627886904E-002   5.0253278071479279E-003   6.2412940178417253E-002
  -1.3487659620805743E-002   5.0678531340125760E-003   6.2713678752217200E-002
  -1.2458107613724555E-002   5.2055108278113126E-003   6.3413263356026359E-002
  -1.1428555606643423E-002   5.4383008885439121E-003   6.4511693989844243E-002
  -2.6633310549422903E-002   0.0000000000000000        2.9469674818546746E-002
  -2.7233979969921461E-002   5.8608446845973949E-004   3.4947449334850438E-002
  -2.7834649390420019E-002   1.3196830994302820E-003   4.0117232904347530E-002
  -2.8435318810918583E-002   2.2007958929116216E-003   4.4979025527038016E-002
  -2.9035988231417145E-002   3.2294228489037633E-003   4.9532827202921903E-002
  -3.3392697692752445E-002   0.0000000000000000        3.0180284234416002E-002
  -3.4236181173691337E-002   9.6040624527775082E-004   3.5268379872317970E-002
  -3.5079664654630222E-002   2.0238420920426570E-003   4.0178838336145883E-002
  -3.5923148135569107E-002   3.1903075402947177E-003   4.4911659625899741E-002
  -3.6766631616507998E-002   4.4598025900339381E-003   4.9466843741579551E-002
  -4.0732212482848973E-002   0.0000000000000000        3.1287457707615089E-002
  -4.1688156251495648E-002   1.3347280220957609E-003   3.5941389906091685E-002
  -4.2644100020142302E-002   2.7280010846550320E-003   4.0548038703226770E-002
  -4.3600043788788970E-002   4.1798191876778138E-003   4.5107404099020365E-002
  -4.4555987557435631E-002   5.6901823311641085E-003   4.9619486093472456E-002
  -4.8651854919712488E-002   0.0000000000000000        3.2791195238144007E-002
  -4.9589905203334374E-002   1.7090497989137715E-003   3.6966479436171575E-002
  -5.0527955486956266E-002   3.4321600772674065E-003   4.1224834005590211E-002
  -5.1466005770578152E-002   5.1693308350609169E-003   4.5566258946399887E-002
  -5.2404056054200038E-002   6.9205620722942781E-003   4.9990754258600612E-002
  -5.7151625003342983E-002   0.0000000000000000        3.4691496826002768E-002
  -5.7941428029207542E-002   2.0833715757317840E-003   3.8343648462557674E-002
  -5.8731231055072101E-002   4.1363190698797837E-003   4.2209224243236185E-002
  -5.9521034080936661E-002   6.1588424824440078E-003   4.6288224168038301E-002
  -6.0310837106801227E-002   8.1509418134244546E-003   5.0580648236964017E-002
  -2.9035988231417145E-002   3.2294228489037633E-003   4.9532827202921903E-002
  -2.9109065605738400E-002   4.2469090793283417E-003   5.1592629067033706E-002
  -2.9182142980059653E-002   5.0945996961070453E-003   5.3751636506136222E-002
  -2.9255220354380905E-002   5.7724946992397923E-003   5.6009849520229464E-002
  -2.9328297728702157E-002   6.2805940887266862E-003   5.8367268109313399E-002
  -3.6766631616507998E-002   4.4598025900339381E-003   4.9466843741579551E-002
  -3.6779448644835087E-002   5.6927232311594364E-003   5.1256000804677772E-002
  -3.6792265673162176E-002   6.7494654535703528E-003   5.3066472984773586E-002
  -3.6805082701489272E-002   7.6300292572666671E-003   5.4898260281867034E-002
  -3.6817899729816368E-002   8.3344146422483986E-003   5.6751362695958055E-002
  -4.4555987557435631E-002   5.6901823311641085E-003   4.9619486093472456E-002
  -4.4586434697761669E-002   7.1385373829905216E-003   5.1131615550488410E-002
  -4.4616881838087721E-002   8.4043312110336603E-003   5.2587169666508858E-002
  -4.4647328978413767E-002   9.4875638152935315E-003   5.3986148441533786E-002
  -4.4677776118739805E-002   1.0388235195770142E-002   5.5328551875563223E-002
  -5.2404056054200038E-002   6.9205620722942781E-003   4.9990754258600612E-002
  -5.2530023764518145E-002   8.5843515348216042E-003   5.1219473304465614E-002
  -5.2655991474836253E-002   1.0059196968496978E-002   5.2313726551342005E-002
  -5.2781959185154367E-002   1.1345098373320400E-002   5.3273513999229756E-002
  -5.2907926895472482E-002   1.2442055749291850E-002   5.4098835648128910E-002
  -6.0310837106801227E-002   8.1509418134244546E-003   5.0580648236964017E-002
  -6.0610215845104523E-002   1.0030165686652701E-002   5.1519574066609383E-002
  -6.0909594583407799E-002   1.1714062725960274E-002   5.2246143639273032E-002
  -6.1208973321711081E-002   1.3202632931347259E-002   5.2760356954954950E-002
  -6.1508352060014371E-002   1.4495876302813598E-002   5.3062214013655115E-002
  -2.9328297728702157E-002   6.2805940887266862E-003   5.8367268109313399E-002
  -2.8979177939827086E-002   6.6701313117345402E-003   5.9137520730623193E-002
  -2.8630058150952008E-002   6.9923398154301836E-003   5.9944315226951234E-002
  -2.8280938362076933E-002   7.2472195998137118E-003   6.0787651598297535E-002
  -2.7931818573201862E-002   7.4347706648850292E-003   6.1667529844661992E-002
  -3.6817899729816368E-002   8.3344146422483986E-003   5.6751362695958055E-002
  -3.6380530589894329E-002   8.8772603780676168E-003   5.7095933606026023E-002
  -3.5943161449972290E-002   9.2732052342762872E-003   5.7580461343169693E-002
  -3.5505792310050237E-002   9.5222492108744360E-003   5.8204945907389123E-002
  -3.5068423170128205E-002   9.6243923078621202E-003   5.8969387298684214E-002
  -4.4677776118739805E-002   1.0388235195770142E-002   5.5328551875563223E-002
  -4.4048742675713307E-002   1.1084389444400678E-002   5.5167868914091048E-002
  -4.3419709232686815E-002   1.1554070653122361E-002   5.5250557731752040E-002
  -4.2790675789660330E-002   1.1797278821935202E-002   5.5576618328546205E-002
  -4.2161642346633832E-002   1.1814013950839232E-002   5.6146050704473593E-002
  -5.2907926895472482E-002   1.2442055749291850E-002   5.4098835648128910E-002
  -5.1983814197284060E-002   1.3291518510733725E-002   5.3353326654818192E-002
  -5.1059701499095632E-002   1.3834936071968444E-002   5.2954604392698175E-002
  -5.0135588800907217E-002   1.4072308432996002E-002   5.2902668861768823E-002
  -4.9211476102718796E-002   1.4003635593816333E-002   5.3197520062030150E-002
  -6.1508352060014371E-002   1.4495876302813598E-002   5.3062214013655115E-002
  -6.0185745154606542E-002   1.5498647577066829E-002   5.1652306828207581E-002
  -5.8863138249198713E-002   1.6115801490814537E-002   5.0692601326008190E-002
  -5.7540531343790884E-002   1.6347338044056713E-002   5.0183097507056934E-002
  -5.6217924438383075E-002   1.6193257236793449E-002   5.0123795371353849E-002
  -2.7931818573201862E-002   7.4347706648850292E-003   6.1667529844661992E-002
  -2.7216096131788457E-002   7.5507780685925979E-003   6.1380961628200018E-002
  -2.6500373690375049E-002   7.5910268688847114E-003   6.1330432315646811E-002
  -2.5784651248961642E-002   7.5555170657615666E-003   6.1515941907002450E-002
  -2.5068928807548248E-002   7.4442486592229684E-003   6.1937490402266815E-002
  -3.5068423170128205E-002   9.6243923078621202E-003   5.8969387298684214E-002
  -3.4126638142860530E-002   9.6247624478282973E-003   5.8650026365664396E-002
  -3.3184853115592855E-002   9.5684875533619575E-003   5.8546751700444356E-002
  -3.2243068088325180E-002   9.4555676244630141E-003   5.8659563303024076E-002
  -3.1301283061057519E-002   9.2860026611316093E-003   5.8988461173403450E-002
  -4.2161642346633832E-002   1.1814013950839232E-002   5.6146050704473593E-002
  -4.1013747369620955E-002   1.1698746827064004E-002   5.5813010623878848E-002
  -3.9865852392608064E-002   1.1545948237839066E-002   5.5676104174974844E-002
  -3.8717957415595187E-002   1.1355618183164520E-002   5.5735331357761438E-002
  -3.7570062438582283E-002   1.1127756663040292E-002   5.5990692172238780E-002
  -4.9211476102718796E-002   1.4003635593816333E-002   5.3197520062030150E-002
  -4.7877423812069761E-002   1.3772731206299665E-002   5.2869914402843311E-002
  -4.6543371521420733E-002   1.3523408922316300E-002   5.2718489739238115E-002
  -4.5209319230771698E-002   1.3255668741866051E-002   5.2743246071214590E-002
  -4.3875266940122649E-002   1.2969510664948981E-002   5.2944183398772632E-002
  -5.6217924438383075E-002   1.6193257236793449E-002   5.0123795371353849E-002
  -5.4717667470206954E-002   1.5846715585535430E-002   4.9820737702557794E-002
  -5.3217410502030812E-002   1.5500869606793432E-002   4.9673908393234371E-002
  -5.1717153533854678E-002   1.5155719300567531E-002   4.9683307443383479E-002
  -5.0216896565678557E-002   1.4811264666857643E-002   4.9848934853005150E-002
  -2.5068928807548248E-002   7.4442486592229684E-003   6.1937490402266815E-002
  -2.4309984752606283E-002   7.2884680475613084E-003   6.1731593840453264E-002
  -2.3551040697664300E-002   7.1194216290692489E-003   6.1692810223298075E-002
  -2.2792096642722325E-002   6.9371094037464064E-003   6.1821139550801062E-002
  -2.2033152587780363E-002   6.7415313715931124E-003   6.2116581822962369E-002
  -3.1301283061057519E-002   9.2860026611316093E-003   5.8988461173403450E-002
  -3.0367372529975688E-002   9.0773110528806628E-003   5.8736555987937408E-002
  -2.9433461998893851E-002   8.8470111892233264E-003   5.8667470810092895E-002
  -2.8499551467811989E-002   8.5951030701593451E-003   5.8781205639869764E-002
  -2.7565640936730185E-002   8.3215866956889706E-003   5.9077760477268065E-002
  -3.7570062438582283E-002   1.1127756663040292E-002   5.5990692172238780E-002
  -3.6445478368397441E-002   1.0866154058200003E-002   5.5684435914544327E-002
  -3.5320894298212599E-002   1.0574600749377352E-002   5.5576706727434477E-002
  -3.4196310228027750E-002   1.0253096736572230E-002   5.5667504610909246E-002
  -3.3071726157842880E-002   9.9016420197847455E-003   5.5956829564968585E-002
  -4.3875266940122649E-002   1.2969510664948981E-002   5.2944183398772632E-002
  -4.2544302267871620E-002   1.2654997063519365E-002   5.2575233620273873E-002
  -4.1213337595620556E-002   1.2302190309531431E-002   5.2420517975322871E-002
  -3.9882372923369519E-002   1.1911090402985169E-002   5.2480036463919612E-002
  -3.8551408251118469E-002   1.1481697343880617E-002   5.2753789086064241E-002
  -5.0216896565678557E-002   1.4811264666857643E-002   4.9848934853005150E-002
  -4.8663844228398159E-002   1.4443840068838698E-002   4.9408949105126165E-002
  -4.7110791891117755E-002   1.4029779869685503E-002   4.9198904553757986E-002
  -4.5557739553837337E-002   1.3569084069398064E-002   4.9218801198900895E-002
  -4.4004687216556954E-002   1.3061752667976378E-002   4.9468639040554707E-002
  -2.2033152587780363E-002   6.7415313715931124E-003   6.2116581822962369E-002
  -2.1164849820724689E-002   6.5315084215278041E-003   6.1767149372768199E-002
  -2.0296547053668991E-002   6.3058614424694459E-003   6.1655222826581285E-002
  -1.9428244286613300E-002   6.0645904344177812E-003   6.1780802184401573E-002
  -1.8559941519557616E-002   5.8076953973729140E-003   6.2143887446229173E-002
  -2.7565640936730185E-002   8.3215866956889706E-003   5.9077760477268065E-002
  -2.6467075107680565E-002   8.0320436331344225E-003   5.8734453738020109E-002
  -2.5368509278630928E-002   7.7320554498179275E-003   5.8614167218752858E-002
  -2.4269943449581294E-002   7.4216221457394805E-003   5.8716900919466054E-002
  -2.3171377620531650E-002   7.1007437208991386E-003   5.9042654840160136E-002
  -3.3071726157842880E-002   9.9016420197847455E-003   5.5956829564968585E-002
  -3.1757382950825926E-002   9.5325788447407217E-003   5.5624827444898266E-002
  -3.0443039743808999E-002   9.1582494571662426E-003   5.5501359860781946E-002
  -2.9128696536792030E-002   8.7786538570610688E-003   5.5586426812619570E-002
  -2.7814353329775117E-002   8.3937920444254743E-003   5.5880028300411236E-002
  -3.8551408251118469E-002   1.1481697343880617E-002   5.2753789086064241E-002
  -3.7035773350160839E-002   1.1033114056347153E-002   5.2438270493402772E-002
  -3.5520138449203195E-002   1.0584443464514530E-002   5.2316800752668743E-002
  -3.4004503548245538E-002   1.0135685568382685E-002   5.2389379863862093E-002
  -3.2488868647287894E-002   9.6868403679517823E-003   5.2656007826982862E-002
  -4.4004687216556954E-002   1.3061752667976378E-002   4.9468639040554707E-002
  -4.2302246305685243E-002   1.2533649267953639E-002   4.9174782883533552E-002
  -4.0599805394813518E-002   1.2010637471863025E-002   4.9060489894413112E-002
  -3.8897364483941807E-002   1.1492717279704381E-002   4.9125760073193400E-002
  -3.7194923573070096E-002   1.0979888691478035E-002   4.9370593419874542E-002
  -1.8559941519557616E-002   5.8076953973729140E-003   6.2143887446229173E-002
  -1.7806647048410236E-002   5.5635550743321494E-003   6.1970868810754809E-002
  -1.7053352577262839E-002   5.3605482082924177E-003   6.1974389296996280E-002
  -1.6300058106115435E-002   5.1986747992544720E-003   6.2154448904953460E-002
  -1.5546763634968062E-002   5.0779348472173580E-003   6.2511047634626282E-002
  -2.3171377620531650E-002   7.1007437208991386E-003   5.9042654840160136E-002
  -2.2240104818694036E-002   6.7846006170311779E-003   5.8870060415244674E-002
  -2.1308832016856405E-002   6.4883732758692636E-003   5.8876883529993956E-002
  -2.0377559215018763E-002   6.2120616974137843E-003   5.9063124184407984E-002
  -1.9446286413181160E-002   5.9556658816642405E-003   5.9428782378486811E-002
  -2.7814353329775117E-002   8.3937920444254743E-003   5.5880028300411236E-002
  -2.6702223779298238E-002   8.0056461597301509E-003   5.5686640391759648E-002
  -2.5590094228821348E-002   7.6161983434459915E-003   5.5675548440721777E-002
  -2.4477964678344476E-002   7.2254485955730394E-003   5.5846752447297629E-002
  -2.3365835127867607E-002   6.8333969161111507E-003   5.6200252411487392E-002
  -3.2488868647287894E-002   9.6868403679517823E-003   5.2656007826982862E-002
  -3.1193003930222774E-002   9.2266917024291517E-003   5.2420608740299954E-002
  -2.9897139213157661E-002   8.7440234110227229E-003   5.2370384029179769E-002
  -2.8601274496092531E-002   8.2388354937322668E-003   5.2505333693622362E-002
  -2.7305409779027429E-002   7.7111279505579361E-003   5.2825457733627901E-002
  -3.7194923573070096E-002   1.0979888691478035E-002   4.9370593419874542E-002
  -3.5712445271467719E-002   1.0447737245128125E-002   4.9071965460865397E-002
  -3.4229966969865334E-002   9.8718484785995514E-003   4.8961390295367890E-002
  -3.2747488668262950E-002   9.2522223918917144E-003   4.9038867923382232E-002
  -3.1265010366660573E-002   8.5888589850049990E-003   4.9304398344908351E-002
  -1.5546763634968062E-002   5.0779348472173580E-003   6.2511047634626282E-002
  -1.4517211627886904E-002   5.0253278071479279E-003   6.2412940178417253E-002
  -1.3487659620805743E-002   5.0678531340125760E-003   6.2713678752217200E-002
  -1.2458107613724555E-002   5.2055108278113126E-003   6.3413263356026359E-002
  -1.1428555606643423E-002   5.4383008885439121E-003   6.4511693989844243E-002
  -1.9446286413181160E-002   5.9556658816642405E-003   5.9428782378486811E-002
  -1.8063730606158939E-002   5.7284141378360631E-003   5.9331559129771422E-002
  -1.6681174799136708E-002   5.5395347751439755E-003   5.9541497450929265E-002
  -1.5298618992114432E-002   5.3890277935880644E-003   6.0058597341960118E-002
  -1.3916063185092226E-002   5.2768931931684859E-003   6.0882858802863815E-002
  -2.3365835127867607E-002   6.8333969161111507E-003   5.6200252411487392E-002
  -2.1721959981040283E-002   6.4315004685240318E-003   5.6047153384467932E-002
  -2.0078084834212979E-002   6.0112164162753820E-003   5.6109531467185676E-002
  -1.8434209687385638E-002   5.5725447593649845E-003   5.6387386659640437E-002
  -1.6790334540558359E-002   5.1154854977930597E-003   5.6880718961832444E-002
  -2.7305409779027429E-002   7.7111279505579361E-003   5.2825457733627901E-002
  -2.5491899752530998E-002   7.1345867992119727E-003   5.2559722942506520E-002
  -2.3678389726034525E-002   6.4828980574067850E-003   5.2417780800986427E-002
  -2.1864879699538098E-002   5.7560617251419871E-003   5.2399631309067274E-002
  -2.0051369673041657E-002   4.9540778024176335E-003   5.2505274466749574E-002
  -3.1265010366660573E-002   8.5888589850049990E-003   4.9304398344908351E-002
  -2.9373549920630987E-002   7.8376731298999136E-003   4.8869267803887506E-002
  -2.7482089474601415E-002   6.9545796985382574E-003   4.8466245452331719E-002
  -2.5590629028571787E-002   5.9395786909186739E-003   4.8095331290241253E-002
  -2.3699168582542229E-002   4.7926701070422073E-003   4.7756525317615761E-002
  -5.7151625003342983E-002   0.0000000000000000        3.4691496826002768E-002
  -5.7941428029207542E-002   2.0833715757317840E-003   3.8343648462557674E-002
  -5.8731231055072101E-002   4.1363190698797837E-003   4.2209224243236185E-002
  -5.9521034080936661E-002   6.1588424824440078E-003   4.6288224168038301E-002
  -6.0310837106801227E-002   8.1509418134244546E-003   5.0580648236964017E-002
  -6.5819678102040591E-002   0.0000000000000000        3.7211954715617571E-002
  -6.6625055864040467E-002   2.9136851744722561E-003   4.0834810059520742E-002
  -6.7430433626040356E-002   5.7700763724771488E-003   4.4213091787029660E-002
  -6.8235811388040246E-002   8.5691735940146771E-003   4.7346799898144346E-002
  -6.9041189150040136E-002   1.1310976839084838E-002   5.0235934392864758E-002
  -7.4244169584105443E-002   0.0000000000000000        4.0576161151414644E-002
  -7.5523119842758488E-002   3.7439987732127309E-003   4.4142850307782484E-002
  -7.6802070101411560E-002   7.4038336750745131E-003   4.7006968087238234E-002
  -7.8081020360064618E-002   1.0979504705585348E-002   4.9168514489781892E-002
  -7.9359970618717690E-002   1.4471011864745236E-002   5.0627489515413411E-002
  -8.2425099449537520E-002   0.0000000000000000        4.4784116133393982E-002
  -8.4635619965361605E-002   4.5743123719532049E-003   4.8267769207342923E-002
  -8.6846140481185705E-002   9.0375909776718773E-003   5.0590853143861921E-002
  -8.9056660997009790E-002   1.3389835817156014E-002   5.1753367942950955E-002
  -9.1267181512833875E-002   1.7631046890405622E-002   5.1755313604610033E-002
  -9.0362467698336849E-002   0.0000000000000000        4.9835819661555578E-002
  -9.3962556231849820E-002   5.4046259706936779E-003   5.3209566758202036E-002
  -9.7562644765362805E-002   1.0671348280269241E-002   5.4964746956900679E-002
 -0.10116273329887578        1.5800166928726687E-002   5.5101360257651520E-002
 -0.10476282183238873        2.0791081916066018E-002   5.3619406660454560E-002
  -6.0310837106801227E-002   8.1509418134244546E-003   5.0580648236964017E-002
  -6.0610215845104523E-002   1.0030165686652701E-002   5.1519574066609383E-002
  -6.0909594583407799E-002   1.1714062725960274E-002   5.2246143639273032E-002
  -6.1208973321711081E-002   1.3202632931347259E-002   5.2760356954954950E-002
  -6.1508352060014371E-002   1.4495876302813598E-002   5.3062214013655115E-002
  -6.9041189150040136E-002   1.1310976839084838E-002   5.0235934392864758E-002
  -6.9315230792117405E-002   1.3755557006686420E-002   4.9457884644083988E-002
  -6.9589272434194702E-002   1.5662984995818193E-002   4.8942865344736970E-002
  -6.9863314076271998E-002   1.7033260806480169E-002   4.8690876494823662E-002
  -7.0137355718349254E-002   1.7866384438672292E-002   4.8701918094344113E-002
  -7.9359970618717690E-002   1.4471011864745236E-002   5.0627489515413411E-002
  -7.9133288458153497E-002   1.7480948326720161E-002   4.7790638843657356E-002
  -7.8906606297589318E-002   1.9611907265676104E-002   4.5692205327750479E-002
  -7.8679924137025112E-002   2.0863888681613062E-002   4.4332188967692837E-002
  -7.8453241976460947E-002   2.1236892574531027E-002   4.3710589763484367E-002
  -9.1267181512833875E-002   1.7631046890405622E-002   5.1755313604610033E-002
  -9.0064388843212759E-002   2.1206339646753888E-002   4.6517836665329472E-002
  -8.8861596173591628E-002   2.3560829535534022E-002   4.2494163588313573E-002
  -8.7658803503970512E-002   2.4694516556745944E-002   3.9684294373562350E-002
  -8.6456010834349395E-002   2.4607400710389759E-002   3.8088229021075830E-002
 -0.10476282183238873        2.0791081916066018E-002   5.3619406660454560E-002
 -0.10210853194729520        2.4931730966787628E-002   4.5639478109100358E-002
  -9.9454242062201687E-002   2.7509751805391926E-002   3.9348740126426279E-002
  -9.6799952177108142E-002   2.8525144431878861E-002   3.4747192712432332E-002
  -9.4145662292014598E-002   2.7977908846248470E-002   3.1834835867118536E-002
  -6.1508352060014371E-002   1.4495876302813598E-002   5.3062214013655115E-002
  -6.0185745154606542E-002   1.5498647577066829E-002   5.1652306828207581E-002
  -5.8863138249198713E-002   1.6115801490814537E-002   5.0692601326008190E-002
  -5.7540531343790884E-002   1.6347338044056713E-002   5.0183097507056934E-002
  -5.6217924438383075E-002   1.6193257236793449E-002   5.0123795371353849E-002
  -7.0137355718349254E-002   1.7866384438672292E-002   4.8701918094344113E-002
  -6.8410592442414875E-002   1.8320304387423599E-002   4.7255646721939507E-002
  -6.6683829166480468E-002   1.8552969147762905E-002   4.6167486407339919E-002
  -6.4957065890546062E-002   1.8564378719690314E-002   4.5437437150545323E-002
  -6.3230302614611683E-002   1.8354533103205783E-002   4.5065498951555726E-002
  -7.8453241976460947E-002   2.1236892574531027E-002   4.3710589763484367E-002
  -7.6414412955443087E-002   2.1141961197780341E-002   4.2392316376216252E-002
  -7.4375583934425255E-002   2.0990136804711304E-002   4.1340063421310025E-002
  -7.2336754913407436E-002   2.0781419395323891E-002   4.0553830898765693E-002
  -7.0297925892389590E-002   2.0515808969618139E-002   4.0033618808583138E-002
  -8.6456010834349395E-002   2.4607400710389759E-002   3.8088229021075830E-002
  -8.4197206693691282E-002   2.3963618008137084E-002   3.7062315791037796E-002
  -8.1938402553033113E-002   2.3427304461659658E-002   3.6210332367918575E-002
  -7.9679598412374972E-002   2.2998460070957450E-002   3.5532278751718022E-002
  -7.7420794271716831E-002   2.2677084836030457E-002   3.5028154942436225E-002
  -9.4145662292014598E-002   2.7977908846248470E-002   3.1834835867118536E-002
  -9.1758973657159321E-002   2.6785274818493864E-002   3.1265644966404244E-002
  -8.9372285022304002E-002   2.5864472118608029E-002   3.0778293247165488E-002
  -8.6985596387448696E-002   2.5215500746591017E-002   3.0372780709402320E-002
  -8.4598907752593391E-002   2.4838360702442830E-002   3.0049107353114779E-002
  -5.6217924438383075E-002   1.6193257236793449E-002   5.0123795371353849E-002
  -5.4717667470206954E-002   1.5846715585535430E-002   4.9820737702557794E-002
  -5.3217410502030812E-002   1.5500869606793432E-002   4.9673908393234371E-002
  -5.1717153533854678E-002   1.5155719300567531E-002   4.9683307443383479E-002
  -5.0216896565678557E-002   1.4811264666857643E-002   4.9848934853005150E-002
  -6.3230302614611683E-002   1.8354533103205783E-002   4.5065498951555726E-002
  -6.1556987292051030E-002   1.8016029154297127E-002   4.4706343274162168E-002
  -5.9883671969490404E-002   1.7641463728951985E-002   4.4537075946065069E-002
  -5.8210356646929765E-002   1.7230836827170595E-002   4.4557696967264374E-002
  -5.6537041324369111E-002   1.6784148448952790E-002   4.4768206337760186E-002
  -7.0297925892389590E-002   2.0515808969618139E-002   4.0033618808583138E-002
  -6.8417892225620572E-002   2.0185342723058757E-002   3.9581607973639660E-002
  -6.6537858558851540E-002   1.9782057851110625E-002   3.9353145477816487E-002
  -6.4657824892082508E-002   1.9305954353773719E-002   3.9348231321113647E-002
  -6.2777791225313545E-002   1.8757032231047979E-002   3.9566865503531105E-002
  -7.7420794271716831E-002   2.2677084836030457E-002   3.5028154942436225E-002
  -7.5300382270915525E-002   2.2354656291820492E-002   3.4446531800990346E-002
  -7.3179970270114247E-002   2.1922651973269276E-002   3.4122116988488577E-002
  -7.1059558269312942E-002   2.1381071880376801E-002   3.4054910504931042E-002
  -6.8939146268511636E-002   2.0729916013143120E-002   3.4244912350317798E-002
  -8.4598907752593391E-002   2.4838360702442830E-002   3.0049107353114779E-002
  -8.2204457427935945E-002   2.4523969860582098E-002   2.9301114756214067E-002
  -7.9810007103278485E-002   2.4063246095427829E-002   2.8843990478081435E-002
  -7.7415556778621081E-002   2.3456189406979900E-002   2.8677734518716885E-002
  -7.5021106453963621E-002   2.2702799795238315E-002   2.8802346878120388E-002
  -5.0216896565678557E-002   1.4811264666857643E-002   4.9848934853005150E-002
  -4.8663844228398159E-002   1.4443840068838698E-002   4.9408949105126165E-002
  -4.7110791891117755E-002   1.4029779869685503E-002   4.9198904553757986E-002
  -4.5557739553837337E-002   1.3569084069398064E-002   4.9218801198900895E-002
  -4.4004687216556954E-002   1.3061752667976378E-002   4.9468639040554707E-002
  -5.6537041324369111E-002   1.6784148448952790E-002   4.4768206337760186E-002
  -5.4764723032218347E-002   1.6306987290392483E-002   4.4361180363295422E-002
  -5.2992404740067528E-002   1.5804942047583793E-002   4.4162745102060502E-002
  -5.1220086447916729E-002   1.5278012720526349E-002   4.4172900554055428E-002
  -4.9447768155765945E-002   1.4726199309220533E-002   4.4391646719280253E-002
  -6.2777791225313545E-002   1.8757032231047979E-002   3.9566865503531105E-002
  -6.0807557461573375E-002   1.8170134511946434E-002   3.9214550819366263E-002
  -5.8837323697833260E-002   1.7580104225482032E-002   3.9049476365150243E-002
  -5.6867089934093125E-002   1.6986941371654803E-002   3.9071642140883066E-002
  -5.4896856170352996E-002   1.6390645950464688E-002   3.9281048146564537E-002
  -6.8939146268511636E-002   2.0729916013143120E-002   3.4244912350317798E-002
  -6.6792347516463318E-002   2.0033281733500274E-002   3.3969060473338676E-002
  -6.4645548764414959E-002   1.9355266403380270E-002   3.3859098343027264E-002
  -6.2498750012366606E-002   1.8695870022783088E-002   3.3915025959383484E-002
  -6.0351951260318296E-002   1.8055092591708816E-002   3.4136843322407462E-002
  -7.5021106453963621E-002   2.2702799795238315E-002   2.8802346878120388E-002
  -7.2719093196888157E-002   2.1896428955054198E-002   2.8624709325212661E-002
  -7.0417079939812624E-002   2.1130428581278574E-002   2.8591611035691439E-002
  -6.8115066682737091E-002   2.0404798673911487E-002   2.8703052009556904E-002
  -6.5813053425661600E-002   1.9719539232952998E-002   2.8959032246809069E-002
  -4.4004687216556954E-002   1.3061752667976378E-002   4.9468639040554707E-002
  -4.2302246305685243E-002   1.2533649267953639E-002   4.9174782883533552E-002
  -4.0599805394813518E-002   1.2010637471863025E-002   4.9060489894413112E-002
  -3.8897364483941807E-002   1.1492717279704381E-002   4.9125760073193400E-002
  -3.7194923573070096E-002   1.0979888691478035E-002   4.9370593419874542E-002
  -4.9447768155765945E-002   1.4726199309220533E-002   4.4391646719280253E-002
  -4.7561786627916262E-002   1.4162205831381558E-002   4.4098568713515474E-002
  -4.5675805100066573E-002   1.3598736304725093E-002   4.3993008773805881E-002
  -4.3789823572216918E-002   1.3035790729251057E-002   4.4074966900151419E-002
  -4.1903842044367201E-002   1.2473369104959497E-002   4.4344443092552116E-002
  -5.4896856170352996E-002   1.6390645950464688E-002   3.9281048146564537E-002
  -5.2819379127370954E-002   1.5790762394809532E-002   3.8984180639306462E-002
  -5.0741902084388932E-002   1.5186835137587278E-002   3.8882786096257886E-002
  -4.8664425041406868E-002   1.4578864178797625E-002   3.8976864517418983E-002
  -4.6586947998424874E-002   1.3966849518440905E-002   3.9266415902789606E-002
  -6.0351951260318296E-002   1.8055092591708816E-002   3.4136843322407462E-002
  -5.8075023804049428E-002   1.7419318958237617E-002   3.3831618660906448E-002
  -5.5798096347780587E-002   1.6774933970449293E-002   3.3729821861769219E-002
  -5.3521168891511768E-002   1.6121937628344359E-002   3.3831452924996272E-002
  -5.1244241435242949E-002   1.5460329931922312E-002   3.4136511850587012E-002
  -6.5813053425661600E-002   1.9719539232952998E-002   2.8959032246809069E-002
  -6.3328720657951559E-002   1.9047875521665425E-002   2.8640882778315363E-002
  -6.0844387890241561E-002   1.8363032803311558E-002   2.8534116070339927E-002
  -5.8360055122531569E-002   1.7665011077890820E-002   2.8638732122883051E-002
  -5.5875722354821522E-002   1.6953810345403719E-002   2.8954730935944473E-002
  -3.7194923573070096E-002   1.0979888691478035E-002   4.9370593419874542E-002
  -3.5712445271467719E-002   1.0447737245128125E-002   4.9071965460865397E-002
  -3.4229966969865334E-002   9.8718484785995514E-003   4.8961390295367890E-002
  -3.2747488668262950E-002   9.2522223918917144E-003   4.9038867923382232E-002
  -3.1265010366660573E-002   8.5888589850049990E-003   4.9304398344908351E-002
  -4.1903842044367201E-002   1.2473369104959497E-002   4.4344443092552116E-002
  -4.0242133476641406E-002   1.1895604675933646E-002   4.4025331682979063E-002
  -3.8580424908915584E-002   1.1286630686256668E-002   4.3876628012141108E-002
  -3.6918716341189789E-002   1.0646447135928574E-002   4.3898332080038287E-002
  -3.5257007773463980E-002   9.9750540249493036E-003   4.4090443886670549E-002
  -4.6586947998424874E-002   1.3966849518440905E-002   3.9266415902789606E-002
  -4.4763654219352286E-002   1.3343472106738904E-002   3.8939348802180543E-002
  -4.2940360440279692E-002   1.2701412893913681E-002   3.8765044385529975E-002
  -4.1117066661207131E-002   1.2040671879965324E-002   3.8743502652837866E-002
  -3.9293772882134509E-002   1.1361249064893802E-002   3.8874723604104114E-002
  -5.1244241435242949E-002   1.5460329931922312E-002   3.4136511850587012E-002
  -4.9277007499600275E-002   1.4791339537544267E-002   3.3814016818469891E-002
  -4.7309773563957568E-002   1.4116195101570802E-002   3.3626639415534731E-002
  -4.5342539628314908E-002   1.3434896624002240E-002   3.3574379641781157E-002
  -4.3375305692672193E-002   1.2747444104838315E-002   3.3657237497209488E-002
  -5.5875722354821522E-002   1.6953810345403719E-002   2.8954730935944473E-002
  -5.3782193317385429E-002   1.6239206968349629E-002   2.8649335731847247E-002
  -5.1688664279949295E-002   1.5530977309227867E-002   2.8461413102155081E-002
  -4.9595135242513154E-002   1.4829121368039003E-002   2.8390963046868126E-002
  -4.7501606205077068E-002   1.4133639144782661E-002   2.8437985565986257E-002
  -3.1265010366660573E-002   8.5888589850049990E-003   4.9304398344908351E-002
  -2.9373549920630987E-002   7.8376731298999136E-003   4.8869267803887506E-002
  -2.7482089474601415E-002   6.9545796985382574E-003   4.8466245452331719E-002
  -2.5590629028571787E-002   5.9395786909186739E-003   4.8095331290241253E-002
  -2.3699168582542229E-002   4.7926701070422073E-003   4.7756525317615761E-002
  -3.5257007773463980E-002   9.9750540249493036E-003   4.4090443886670549E-002
  -3.3289863018262721E-002   9.2566564800307671E-003   4.3556768321746403E-002
  -3.1322718263061489E-002   8.4754596278843186E-003   4.3142353185700505E-002
  -2.9355573507860264E-002   7.6314634685100691E-003   4.2847198478532758E-002
  -2.7388428752658983E-002   6.7246680019080740E-003   4.2671304200242899E-002
  -3.9293772882134509E-002   1.1361249064893802E-002   3.8874723604104114E-002
  -3.7163791578348669E-002   1.0675639830161510E-002   3.8311611284306324E-002
  -3.5033810274562802E-002   9.9963395572307059E-003   3.7954911632799647E-002
  -3.2903828970776997E-002   9.3233482461017123E-003   3.7804624649583771E-002
  -3.0773847666991150E-002   8.6566658967740517E-003   3.7860750334659521E-002
  -4.3375305692672193E-002   1.2747444104838315E-002   3.3657237497209488E-002
  -4.0995335600888798E-002   1.2094623180292252E-002   3.3133796691567199E-002
  -3.8615365509105298E-002   1.1517219486577152E-002   3.2903920793629075E-002
  -3.6235395417321799E-002   1.1015233023693175E-002   3.2967609803395186E-002
  -3.3855425325538410E-002   1.0588663791639863E-002   3.3324863720864989E-002
  -4.7501606205077068E-002   1.4133639144782661E-002   2.8437985565986257E-002
  -4.4784495085883086E-002   1.3513606530423106E-002   2.8023324543529127E-002
  -4.2067383966689062E-002   1.3038099415923252E-002   2.7989380668188929E-002
  -3.9350272847495031E-002   1.2707117801284720E-002   2.8336153939965872E-002
  -3.6633161728301111E-002   1.2520661686505896E-002   2.9063644358859886E-002
  -9.0362467698336849E-002   0.0000000000000000        4.9835819661555578E-002
  -9.3962556231849820E-002   5.4046259706936779E-003   5.3209566758202036E-002
  -9.7562644765362805E-002   1.0671348280269241E-002   5.4964746956900679E-002
 -0.10116273329887578        1.5800166928726687E-002   5.5101360257651520E-002
 -0.10476282183238873        2.0791081916066018E-002   5.3619406660454560E-002
 -0.10329433518310402        0.0000000000000000        5.8664118096599244E-002
 -0.10683150050676282        1.0884623992886821E-002   5.2119448305972413E-002
 -0.11036866583042161        1.9172457833878092E-002   4.7319191833001747E-002
 -0.11390583115408040        2.4863501522973789E-002   4.4263348677687255E-002
 -0.11744299647773919        2.7957755060173943E-002   4.2951918840028906E-002
 -0.12645876275643964        0.0000000000000000        7.4201857799224794E-002
 -0.12657002465464026        1.6364622015079967E-002   5.5279884630547213E-002
 -0.12668128655284089        2.7673567387486931E-002   4.1465304995129779E-002
 -0.12679254845104151        3.3926836117220895E-002   3.2758118892972511E-002
 -0.12690381034924214        3.5124428204281861E-002   2.9158326324075390E-002
 -0.15985575041834368        0.0000000000000000        9.6449038769432172E-002
 -0.15317812867548219        2.1844620037273107E-002   6.2690875731926443E-002
 -0.14650050693262071        3.6174676941095787E-002   3.7403086443284814E-002
 -0.13982288518975922        4.2990170711468018E-002   2.0585670903507328E-002
 -0.13314526344689770        4.2291101348389808E-002   1.2238629112593944E-002
 -0.20348529816881616        0.0000000000000000       0.12540566100722145     
 -0.18665581256928857        2.7324618059466257E-002   7.4352421610110075E-002
 -0.16982632696976097        4.4675786494704627E-002   3.5132536177466825E-002
 -0.15299684137023334        5.2053505305715106E-002   7.7460047092916678E-003
 -0.13616735577070574        4.9457774492497726E-002  -7.8071727944154096E-003
 -0.10476282183238873        2.0791081916066018E-002   5.3619406660454560E-002
 -0.10210853194729520        2.4931730966787628E-002   4.5639478109100358E-002
  -9.9454242062201687E-002   2.7509751805391926E-002   3.9348740126426279E-002
  -9.6799952177108142E-002   2.8525144431878861E-002   3.4747192712432332E-002
  -9.4145662292014598E-002   2.7977908846248470E-002   3.1834835867118536E-002
 -0.11744299647773919        2.7957755060173943E-002   4.2951918840028906E-002
 -0.11348729935685212        2.9429720437950033E-002   3.6698360540100637E-002
 -0.10953160223596504        3.0253899648773657E-002   3.1358426143079293E-002
 -0.10557590511507799        3.0430292692644717E-002   2.6932115648964861E-002
 -0.10162020799419091        2.9958899569563310E-002   2.3419429057757350E-002
 -0.12690381034924214        3.5124428204281861E-002   2.9158326324075390E-002
 -0.12242227265833480        3.3927709909112473E-002   2.5545980320737790E-002
 -0.11794073496742738        3.2998047492155388E-002   2.2071691554533989E-002
 -0.11345919727652003        3.2335440953410566E-002   1.8735460025463870E-002
 -0.10897765958561265        3.1939890292878088E-002   1.5537285733527466E-002
 -0.13314526344689770        4.2291101348389808E-002   1.2238629112593944E-002
 -0.12891345185174319        3.8425699380274916E-002   1.2182337451011944E-002
 -0.12468164025658872        3.5742195335537151E-002   1.1488536360790395E-002
 -0.12044982866143422        3.4240589214176435E-002   1.0157225841929445E-002
 -0.11621801706627972        3.3920881016192922E-002   8.1884058944289607E-003
 -0.13616735577070574        4.9457774492497726E-002  -7.8071727944154096E-003
 -0.13296083693707739        4.2923688851437304E-002  -3.3925680690770586E-003
 -0.12975431810344901        3.8486343178918872E-002  -3.9103943815134781E-004
 -0.12654779926982060        3.6145737474942270E-002   1.1974130983615034E-003
 -0.12334128043619225        3.5901871739507679E-002   1.3727895404617718E-003
  -9.4145662292014598E-002   2.7977908846248470E-002   3.1834835867118536E-002
  -9.1758973657159321E-002   2.6785274818493864E-002   3.1265644966404244E-002
  -8.9372285022304002E-002   2.5864472118608029E-002   3.0778293247165488E-002
  -8.6985596387448696E-002   2.5215500746591017E-002   3.0372780709402320E-002
  -8.4598907752593391E-002   2.4838360702442830E-002   3.0049107353114779E-002
 -0.10162020799419091        2.9958899569563310E-002   2.3419429057757350E-002
  -9.9138195028313864E-002   2.9188759831229864E-002   2.3141879549502455E-002
  -9.6656182062436882E-002   2.8468913029345080E-002   2.2973139521815358E-002
  -9.4174169096559845E-002   2.7799359163908906E-002   2.2913208974696106E-002
  -9.1692156130682878E-002   2.7180098234921332E-002   2.2962087908144677E-002
 -0.10897765958561265        3.1939890292878088E-002   1.5537285733527466E-002
 -0.10637335198962168        3.1592244843965896E-002   1.5329839226311766E-002
 -0.10376904439363070        3.1073353940082170E-002   1.5258172498756129E-002
 -0.10116473679763976        3.0383217581226727E-002   1.5322285550860609E-002
  -9.8560429201648772E-002   2.9521835767399807E-002   1.5522178382625061E-002
 -0.11621801706627972        3.3920881016192922E-002   8.1884058944289607E-003
 -0.11346444454108258        3.3995729856701989E-002   7.8295239968322553E-003
 -0.11071087201588543        3.3677794850819204E-002   7.6333921779879240E-003
 -0.10795729949068826        3.2967075998544683E-002   7.6000104378958376E-003
 -0.10520372696549114        3.1863573299878239E-002   7.7293787765560402E-003
 -0.12334128043619225        3.5901871739507679E-002   1.3727895404617718E-003
 -0.12041147268269667        3.6399214869437937E-002   6.4093386106388317E-004
 -0.11748166492920112        3.6282235761556335E-002   9.8798559510504536E-005
 -0.11455185717570554        3.5550934415862413E-002  -2.5361636419830857E-004
 -0.11162204942220999        3.4205310832356839E-002  -4.1631091006250065E-004
  -8.4598907752593391E-002   2.4838360702442830E-002   3.0049107353114779E-002
  -8.2204457427935945E-002   2.4523969860582098E-002   2.9301114756214067E-002
  -7.9810007103278485E-002   2.4063246095427829E-002   2.8843990478081435E-002
  -7.7415556778621081E-002   2.3456189406979900E-002   2.8677734518716885E-002
  -7.5021106453963621E-002   2.2702799795238315E-002   2.8802346878120388E-002
  -9.1692156130682878E-002   2.7180098234921332E-002   2.2962087908144677E-002
  -8.9035886933027553E-002   2.6562450197131035E-002   2.2313321133923356E-002
  -8.6379617735372269E-002   2.5897735005286662E-002   2.1897323786929795E-002
  -8.3723348537716971E-002   2.5185952659388465E-002   2.1714095867163715E-002
  -8.1067079340061673E-002   2.4427103159436220E-002   2.1763637374625305E-002
  -9.8560429201648772E-002   2.9521835767399807E-002   1.5522178382625061E-002
  -9.5700440022536110E-002   2.8600930533679854E-002   1.5071903200323016E-002
  -9.2840450843423447E-002   2.7732223915145550E-002   1.4796298553708009E-002
  -8.9980461664310771E-002   2.6915715911796999E-002   1.4695364442780062E-002
  -8.7120472485198108E-002   2.6151406523634041E-002   1.4769100867539339E-002
 -0.10520372696549114        3.1863573299878239E-002   7.7293787765560402E-003
 -0.10219811669646162        3.0639410870228718E-002   7.5768609554127250E-003
  -9.9192506427432062E-002   2.9566712825004521E-002   7.5409147784159646E-003
  -9.6186896158402493E-002   2.8645479164205494E-002   7.6215402455660731E-003
  -9.3181285889372981E-002   2.7875709887831931E-002   7.8187373568625283E-003
 -0.11162204942220999        3.4205310832356839E-002  -4.1631091006250065E-004
 -0.10852891695480404        3.2677891206777665E-002  -1.7180560080751195E-004
 -0.10543578448739807        3.1401201734863160E-002   1.3117246105399938E-004
 -0.10234265201999214        3.0375242416614157E-002   4.9262327552124577E-004
  -9.9249519552586152E-002   2.9600013252029822E-002   9.1254684259506336E-004
  -7.5021106453963621E-002   2.2702799795238315E-002   2.8802346878120388E-002
  -7.2719093196888157E-002   2.1896428955054198E-002   2.8624709325212661E-002
  -7.0417079939812624E-002   2.1130428581278574E-002   2.8591611035691439E-002
  -6.8115066682737091E-002   2.0404798673911487E-002   2.8703052009556904E-002
  -6.5813053425661600E-002   1.9719539232952998E-002   2.8959032246809069E-002
  -8.1067079340061673E-002   2.4427103159436220E-002   2.1763637374625305E-002
  -7.8617922425543413E-002   2.3647584496412480E-002   2.1604233603895226E-002
  -7.6168765511025055E-002   2.2873794661300087E-002   2.1594577884664137E-002
  -7.3719608596506780E-002   2.2105733654098781E-002   2.1734670216932025E-002
  -7.1270451681988450E-002   2.1343401474808871E-002   2.2024510600699015E-002
  -8.7120472485198108E-002   2.6151406523634041E-002   1.4769100867539339E-002
  -8.4518963125124691E-002   2.5398740037770887E-002   1.4593289240489672E-002
  -8.1917453765051204E-002   2.4617160741321566E-002   1.4572434453051238E-002
  -7.9315944404977717E-002   2.3806668634286182E-002   1.4706536505224205E-002
  -7.6714435044904300E-002   2.2967263716664688E-002   1.4995595397008593E-002
  -9.3181285889372981E-002   2.7875709887831931E-002   7.8187373568625283E-003
  -9.0422215295632019E-002   2.7149895579129397E-002   7.5918762349959402E-003
  -8.7663144701890974E-002   2.6360526821342978E-002   7.5251807408527396E-003
  -8.4904074108149902E-002   2.5507603614473559E-002   7.6186508744335831E-003
  -8.2145003514408954E-002   2.4591125958520504E-002   7.8722866357380447E-003
  -9.9249519552586152E-002   2.9600013252029822E-002   9.1254684259506336E-004
  -9.6327678937065286E-002   2.8901051120487492E-002   5.9999458741399891E-004
  -9.3405838321544338E-002   2.8103892901364738E-002   4.5281674806907368E-004
  -9.0483997706023458E-002   2.7208538594660773E-002   4.7101332456012113E-004
  -8.7562157090502524E-002   2.6214988200376377E-002   6.5458431688730778E-004
  -6.5813053425661600E-002   1.9719539232952998E-002   2.8959032246809069E-002
  -6.3328720657951559E-002   1.9047875521665425E-002   2.8640882778315363E-002
  -6.0844387890241561E-002   1.8363032803311558E-002   2.8534116070339927E-002
  -5.8360055122531569E-002   1.7665011077890820E-002   2.8638732122883051E-002
  -5.5875722354821522E-002   1.6953810345403719E-002   2.8954730935944473E-002
  -7.1270451681988450E-002   2.1343401474808871E-002   2.2024510600699015E-002
  -6.8578779063410228E-002   2.0584473890348981E-002   2.1709683793307177E-002
  -6.5887106444832089E-002   1.9826626667637702E-002   2.1598153927133296E-002
  -6.3195433826253936E-002   1.9069859806675464E-002   2.1689921002177502E-002
  -6.0503761207675727E-002   1.8314173307461878E-002   2.1984985018439568E-002
  -7.6714435044904300E-002   2.2967263716664688E-002   1.4995595397008593E-002
  -7.3823508394758347E-002   2.2121072259032204E-002   1.4698350619534166E-002
  -7.0932581744612450E-002   2.1290220531963902E-002   1.4596316963977243E-002
  -6.8041655094466552E-002   2.0474708535460049E-002   1.4689494430337915E-002
  -6.5150728444320599E-002   1.9674536269519954E-002   1.4977883018615981E-002
  -8.2145003514408954E-002   2.4591125958520504E-002   7.8722866357380447E-003
  -7.9062908651995820E-002   2.3657670627715566E-002   7.6068832569964311E-003
  -7.5980813789582644E-002   2.2753814396290102E-002   7.5286051808718980E-003
  -7.2898718927169523E-002   2.1879557264244467E-002   7.6374524073642893E-003
  -6.9816624064756375E-002   2.1034899231578350E-002   7.9334249364737125E-003
  -8.7562157090502524E-002   2.6214988200376377E-002   6.5458431688730778E-004
  -8.4296979835122521E-002   2.5194268996399038E-002   4.3528170569384628E-004
  -8.1031802579742684E-002   2.4217408260616191E-002   3.9501857781705507E-004
  -7.7766625324362765E-002   2.3284405993029125E-002   5.3379493325677110E-004
  -7.4501448068982845E-002   2.2395262193636301E-002   8.5161077201301172E-004
  -5.5875722354821522E-002   1.6953810345403719E-002   2.8954730935944473E-002
  -5.3782193317385429E-002   1.6239206968349629E-002   2.8649335731847247E-002
  -5.1688664279949295E-002   1.5530977309227867E-002   2.8461413102155081E-002
  -4.9595135242513154E-002   1.4829121368039003E-002   2.8390963046868126E-002
  -4.7501606205077068E-002   1.4133639144782661E-002   2.8437985565986257E-002
  -6.0503761207675727E-002   1.8314173307461878E-002   2.1984985018439568E-002
  -5.8275323423748360E-002   1.7560949405674348E-002   2.1683206878155614E-002
  -5.6046885639821117E-002   1.6811570336990087E-002   2.1533773656448846E-002
  -5.3818447855893813E-002   1.6066036101408717E-002   2.1536685353319387E-002
  -5.1590010071966522E-002   1.5324346698930624E-002   2.1691941968767225E-002
  -6.5150728444320599E-002   1.9674536269519954E-002   1.4977883018615981E-002
  -6.2752509569730025E-002   1.8882691842999094E-002   1.4677193057315810E-002
  -6.0354290695139354E-002   1.8092163364752029E-002   1.4563720358764881E-002
  -5.7956071820548689E-002   1.7302950834778653E-002   1.4637464922963611E-002
  -5.5557852945958101E-002   1.6515054253078559E-002   1.4898426749911584E-002
  -6.9816624064756375E-002   2.1034899231578350E-002   7.9334249364737125E-003
  -6.7213751755330203E-002   2.0204434280324132E-002   7.6312942693280601E-003
  -6.4610879445903976E-002   1.9372756392513721E-002   7.5512532091033674E-003
  -6.2008007136477791E-002   1.8539865568148146E-002   7.6933017558007896E-003
  -5.9405134827051592E-002   1.7705761807226619E-002   8.0574399094196746E-003
  -7.4501448068982845E-002   2.2395262193636301E-002   8.5161077201301172E-004
  -7.1659049980548950E-002   2.1526176717648726E-002   5.4551051419149399E-004
  -6.8816651892115055E-002   2.0653349420276301E-002   4.9637220746462374E-004
  -6.5974253803681132E-002   1.9776780301518138E-002   7.0419585183055522E-004
  -6.3131855715247265E-002   1.8896469361374235E-002   1.1689814472911619E-003
  -4.7501606205077068E-002   1.4133639144782661E-002   2.8437985565986257E-002
  -4.4784495085883086E-002   1.3513606530423106E-002   2.8023324543529127E-002
  -4.2067383966689062E-002   1.3038099415923252E-002   2.7989380668188929E-002
  -3.9350272847495031E-002   1.2707117801284720E-002   2.8336153939965872E-002
  -3.6633161728301111E-002   1.2520661686505896E-002   2.9063644358859886E-002
  -5.1590010071966522E-002   1.5324346698930624E-002   2.1691941968767225E-002
  -4.8572733075465155E-002   1.4599941054381671E-002   2.1404914760705940E-002
  -4.5555456078963809E-002   1.3906258092587123E-002   2.1337502160142102E-002
  -4.2538179082462518E-002   1.3243297813547623E-002   2.1489704167076365E-002
  -3.9520902085961040E-002   1.2611060217262771E-002   2.1861520781507715E-002
  -5.5557852945958101E-002   1.6515054253078559E-002   1.4898426749911584E-002
  -5.2401512611768654E-002   1.5686275578340125E-002   1.4625230539140388E-002
  -4.9245172277579297E-002   1.4774416769250780E-002   1.4410546396247760E-002
  -4.6088831943390002E-002   1.3779477825810888E-002   1.4254374321233203E-002
  -4.2932491609200485E-002   1.2701458748019645E-002   1.4156714314097318E-002
  -5.9405134827051592E-002   1.7705761807226619E-002   8.0574399094196746E-003
  -5.6270833694793555E-002   1.6772610102298968E-002   7.6842718788328428E-003
  -5.3136532562535602E-002   1.5642575445914488E-002   7.2085133765052486E-003
  -5.0002231430277648E-002   1.4315657838073696E-002   6.6301644024368825E-003
  -4.6867930298019625E-002   1.2791857278776297E-002   5.9492249566268363E-003
  -6.3131855715247265E-002   1.8896469361374235E-002   1.1689814472911619E-003
  -6.0180696324540039E-002   1.7858944626257478E-002   5.8203877978341145E-004
  -5.7229536933832759E-002   1.6510734122578141E-002  -2.6859689908451112E-004
  -5.4278377543125589E-002   1.4851837850337127E-002  -1.3829255893131817E-003
  -5.1327218152418252E-002   1.2882255809533394E-002  -2.7609472909020383E-003
 </DataArray>
 </PointData>
 </Piece>
 <Piece  NumberOfPoints="          1600 "  NumberOfCells="         1024 ">
 <Points>
 <DataArray  type="Float64" NumberOfComponents="3"  format="ascii" >
  0.50000000000000000        0.0000000000000000        0.0000000000000000     
  0.53125000000000000        0.0000000000000000        0.0000000000000000     
  0.56250000000000000        0.0000000000000000        0.0000000000000000     
  0.59375000000000000        0.0000000000000000        0.0000000000000000     
  0.62500000000000000        0.0000000000000000        0.0000000000000000     
  0.50000000000000000        3.1250000000000000E-002   0.0000000000000000     
  0.53125000000000000        3.1250000000000000E-002   0.0000000000000000     
  0.56250000000000000        3.1250000000000000E-002   0.0000000000000000     
  0.59375000000000000        3.1250000000000000E-002   0.0000000000000000     
  0.62500000000000000        3.1250000000000000E-002   0.0000000000000000     
  0.50000000000000000        6.2500000000000000E-002   0.0000000000000000     
  0.53125000000000000        6.2500000000000000E-002   0.0000000000000000     
  0.56250000000000000        6.2500000000000000E-002   0.0000000000000000     
  0.59375000000000000        6.2500000000000000E-002   0.0000000000000000     
  0.62500000000000000        6.2500000000000000E-002   0.0000000000000000     
  0.50000000000000000        9.3750000000000000E-002   0.0000000000000000     
  0.53125000000000000        9.3750000000000000E-002   0.0000000000000000     
  0.56250000000000000        9.3750000000000000E-002   0.0000000000000000     
  0.59375000000000000        9.3750000000000000E-002   0.0000000000000000     
  0.62500000000000000        9.3750000000000000E-002   0.0000000000000000     
  0.50000000000000000       0.12500000000000000        0.0000000000000000     
  0.53125000000000000       0.12500000000000000        0.0000000000000000     
  0.56250000000000000       0.12500000000000000        0.0000000000000000     
  0.59375000000000000       0.12500000000000000        0.0000000000000000     
  0.62500000000000000       0.12500000000000000        0.0000000000000000     
  0.62500000000000000        0.0000000000000000        0.0000000000000000     
  0.65625000000000000        0.0000000000000000        0.0000000000000000     
  0.68750000000000000        0.0000000000000000        0.0000000000000000     
  0.71875000000000000        0.0000000000000000        0.0000000000000000     
  0.75000000000000000        0.0000000000000000        0.0000000000000000     
  0.62500000000000000        3.1250000000000000E-002   0.0000000000000000     
  0.65625000000000000        3.1250000000000000E-002   0.0000000000000000     
  0.68750000000000000        3.1250000000000000E-002   0.0000000000000000     
  0.71875000000000000        3.1250000000000000E-002   0.0000000000000000     
  0.75000000000000000        3.1250000000000000E-002   0.0000000000000000     
  0.62500000000000000        6.2500000000000000E-002   0.0000000000000000     
  0.65625000000000000        6.2500000000000000E-002   0.0000000000000000     
  0.68750000000000000        6.2500000000000000E-002   0.0000000000000000     
  0.71875000000000000        6.2500000000000000E-002   0.0000000000000000     
  0.75000000000000000        6.2500000000000000E-002   0.0000000000000000     
  0.62500000000000000        9.3750000000000000E-002   0.0000000000000000     
  0.65625000000000000        9.3750000000000000E-002   0.0000000000000000     
  0.68750000000000000        9.3750000000000000E-002   0.0000000000000000     
  0.71875000000000000        9.3750000000000000E-002   0.0000000000000000     
  0.75000000000000000        9.3750000000000000E-002   0.0000000000000000     
  0.62500000000000000       0.12500000000000000        0.0000000000000000     
  0.65625000000000000       0.12500000000000000        0.0000000000000000     
  0.68750000000000000       0.12500000000000000        0.0000000000000000     
  0.71875000000000000       0.12500000000000000        0.0000000000000000     
  0.75000000000000000       0.12500000000000000        0.0000000000000000     
  0.75000000000000000        0.0000000000000000        0.0000000000000000     
  0.78125000000000000        0.0000000000000000        0.0000000000000000     
  0.81250000000000000        0.0000000000000000        0.0000000000000000     
  0.84375000000000000        0.0000000000000000        0.0000000000000000     
  0.87500000000000000        0.0000000000000000        0.0000000000000000     
  0.75000000000000000        3.1250000000000000E-002   0.0000000000000000     
  0.78125000000000000        3.1250000000000000E-002   0.0000000000000000     
  0.81250000000000000        3.1250000000000000E-002   0.0000000000000000     
  0.84375000000000000        3.1250000000000000E-002   0.0000000000000000     
  0.87500000000000000        3.1250000000000000E-002   0.0000000000000000     
  0.75000000000000000        6.2500000000000000E-002   0.0000000000000000     
  0.78125000000000000        6.2500000000000000E-002   0.0000000000000000     
  0.81250000000000000        6.2500000000000000E-002   0.0000000000000000     
  0.84375000000000000        6.2500000000000000E-002   0.0000000000000000     
  0.87500000000000000        6.2500000000000000E-002   0.0000000000000000     
  0.75000000000000000        9.3750000000000000E-002   0.0000000000000000     
  0.78125000000000000        9.3750000000000000E-002   0.0000000000000000     
  0.81250000000000000        9.3750000000000000E-002   0.0000000000000000     
  0.84375000000000000        9.3750000000000000E-002   0.0000000000000000     
  0.87500000000000000        9.3750000000000000E-002   0.0000000000000000     
  0.75000000000000000       0.12500000000000000        0.0000000000000000     
  0.78125000000000000       0.12500000000000000        0.0000000000000000     
  0.81250000000000000       0.12500000000000000        0.0000000000000000     
  0.84375000000000000       0.12500000000000000        0.0000000000000000     
  0.87500000000000000       0.12500000000000000        0.0000000000000000     
  0.87500000000000000        0.0000000000000000        0.0000000000000000     
  0.90625000000000000        0.0000000000000000        0.0000000000000000     
  0.93750000000000000        0.0000000000000000        0.0000000000000000     
  0.96875000000000000        0.0000000000000000        0.0000000000000000     
   1.0000000000000000        0.0000000000000000        0.0000000000000000     
  0.87500000000000000        3.1250000000000000E-002   0.0000000000000000     
  0.90625000000000000        3.1250000000000000E-002   0.0000000000000000     
  0.93750000000000000        3.1250000000000000E-002   0.0000000000000000     
  0.96875000000000000        3.1250000000000000E-002   0.0000000000000000     
   1.0000000000000000        3.1250000000000000E-002   0.0000000000000000     
  0.87500000000000000        6.2500000000000000E-002   0.0000000000000000     
  0.90625000000000000        6.2500000000000000E-002   0.0000000000000000     
  0.93750000000000000        6.2500000000000000E-002   0.0000000000000000     
  0.96875000000000000        6.2500000000000000E-002   0.0000000000000000     
   1.0000000000000000        6.2500000000000000E-002   0.0000000000000000     
  0.87500000000000000        9.3750000000000000E-002   0.0000000000000000     
  0.90625000000000000        9.3750000000000000E-002   0.0000000000000000     
  0.93750000000000000        9.3750000000000000E-002   0.0000000000000000     
  0.96875000000000000        9.3750000000000000E-002   0.0000000000000000     
   1.0000000000000000        9.3750000000000000E-002   0.0000000000000000     
  0.87500000000000000       0.12500000000000000        0.0000000000000000     
  0.90625000000000000       0.12500000000000000        0.0000000000000000     
  0.93750000000000000       0.12500000000000000        0.0000000000000000     
  0.96875000000000000       0.12500000000000000        0.0000000000000000     
   1.0000000000000000       0.12500000000000000        0.0000000000000000     
   1.0000000000000000        0.0000000000000000        0.0000000000000000     
   1.0312500000000000        0.0000000000000000        0.0000000000000000     
   1.0625000000000000        0.0000000000000000        0.0000000000000000     
   1.0937500000000000        0.0000000000000000        0.0000000000000000     
   1.1250000000000000        0.0000000000000000        0.0000000000000000     
   1.0000000000000000        3.1250000000000000E-002   0.0000000000000000     
   1.0312500000000000        3.1250000000000000E-002   0.0000000000000000     
   1.0625000000000000        3.1250000000000000E-002   0.0000000000000000     
   1.0937500000000000        3.1250000000000000E-002   0.0000000000000000     
   1.1250000000000000        3.1250000000000000E-002   0.0000000000000000     
   1.0000000000000000        6.2500000000000000E-002   0.0000000000000000     
   1.0312500000000000        6.2500000000000000E-002   0.0000000000000000     
   1.0625000000000000        6.2500000000000000E-002   0.0000000000000000     
   1.0937500000000000        6.2500000000000000E-002   0.0000000000000000     
   1.1250000000000000        6.2500000000000000E-002   0.0000000000000000     
   1.0000000000000000        9.3750000000000000E-002   0.0000000000000000     
   1.0312500000000000        9.3750000000000000E-002   0.0000000000000000     
   1.0625000000000000        9.3750000000000000E-002   0.0000000000000000     
   1.0937500000000000        9.3750000000000000E-002   0.0000000000000000     
   1.1250000000000000        9.3750000000000000E-002   0.0000000000000000     
   1.0000000000000000       0.12500000000000000        0.0000000000000000     
   1.0312500000000000       0.12500000000000000        0.0000000000000000     
   1.0625000000000000       0.12500000000000000        0.0000000000000000     
   1.0937500000000000       0.12500000000000000        0.0000000000000000     
   1.1250000000000000       0.12500000000000000        0.0000000000000000     
   1.1250000000000000        0.0000000000000000        0.0000000000000000     
   1.1562500000000000        0.0000000000000000        0.0000000000000000     
   1.1875000000000000        0.0000000000000000        0.0000000000000000     
   1.2187500000000000        0.0000000000000000        0.0000000000000000     
   1.2500000000000000        0.0000000000000000        0.0000000000000000     
   1.1250000000000000        3.1250000000000000E-002   0.0000000000000000     
   1.1562500000000000        3.1250000000000000E-002   0.0000000000000000     
   1.1875000000000000        3.1250000000000000E-002   0.0000000000000000     
   1.2187500000000000        3.1250000000000000E-002   0.0000000000000000     
   1.2500000000000000        3.1250000000000000E-002   0.0000000000000000     
   1.1250000000000000        6.2500000000000000E-002   0.0000000000000000     
   1.1562500000000000        6.2500000000000000E-002   0.0000000000000000     
   1.1875000000000000        6.2500000000000000E-002   0.0000000000000000     
   1.2187500000000000        6.2500000000000000E-002   0.0000000000000000     
   1.2500000000000000        6.2500000000000000E-002   0.0000000000000000     
   1.1250000000000000        9.3750000000000000E-002   0.0000000000000000     
   1.1562500000000000        9.3750000000000000E-002   0.0000000000000000     
   1.1875000000000000        9.3750000000000000E-002   0.0000000000000000     
   1.2187500000000000        9.3750000000000000E-002   0.0000000000000000     
   1.2500000000000000        9.3750000000000000E-002   0.0000000000000000     
   1.1250000000000000       0.12500000000000000        0.0000000000000000     
   1.1562500000000000       0.12500000000000000        0.0000000000000000     
   1.1875000000000000       0.12500000000000000        0.0000000000000000     
   1.2187500000000000       0.12500000000000000        0.0000000000000000     
   1.2500000000000000       0.12500000000000000        0.0000000000000000     
   1.2500000000000000        0.0000000000000000        0.0000000000000000     
   1.2812500000000000        0.0000000000000000        0.0000000000000000     
   1.3125000000000000        0.0000000000000000        0.0000000000000000     
   1.3437500000000000        0.0000000000000000        0.0000000000000000     
   1.3750000000000000        0.0000000000000000        0.0000000000000000     
   1.2500000000000000        3.1250000000000000E-002   0.0000000000000000     
   1.2812500000000000        3.1250000000000000E-002   0.0000000000000000     
   1.3125000000000000        3.1250000000000000E-002   0.0000000000000000     
   1.3437500000000000        3.1250000000000000E-002   0.0000000000000000     
   1.3750000000000000        3.1250000000000000E-002   0.0000000000000000     
   1.2500000000000000        6.2500000000000000E-002   0.0000000000000000     
   1.2812500000000000        6.2500000000000000E-002   0.0000000000000000     
   1.3125000000000000        6.2500000000000000E-002   0.0000000000000000     
   1.3437500000000000        6.2500000000000000E-002   0.0000000000000000     
   1.3750000000000000        6.2500000000000000E-002   0.0000000000000000     
   1.2500000000000000        9.3750000000000000E-002   0.0000000000000000     
   1.2812500000000000        9.3750000000000000E-002   0.0000000000000000     
   1.3125000000000000        9.3750000000000000E-002   0.0000000000000000     
   1.3437500000000000        9.3750000000000000E-002   0.0000000000000000     
   1.3750000000000000        9.3750000000000000E-002   0.0000000000000000     
   1.2500000000000000       0.12500000000000000        0.0000000000000000     
   1.2812500000000000       0.12500000000000000        0.0000000000000000     
   1.3125000000000000       0.12500000000000000        0.0000000000000000     
   1.3437500000000000       0.12500000000000000        0.0000000000000000     
   1.3750000000000000       0.12500000000000000        0.0000000000000000     
   1.3750000000000000        0.0000000000000000        0.0000000000000000     
   1.4062500000000000        0.0000000000000000        0.0000000000000000     
   1.4375000000000000        0.0000000000000000        0.0000000000000000     
   1.4687500000000000        0.0000000000000000        0.0000000000000000     
   1.5000000000000000        0.0000000000000000        0.0000000000000000     
   1.3750000000000000        3.1250000000000000E-002   0.0000000000000000     
   1.4062500000000000        3.1250000000000000E-002   0.0000000000000000     
   1.4375000000000000        3.1250000000000000E-002   0.0000000000000000     
   1.4687500000000000        3.1250000000000000E-002   0.0000000000000000     
   1.5000000000000000        3.1250000000000000E-002   0.0000000000000000     
   1.3750000000000000        6.2500000000000000E-002   0.0000000000000000     
   1.4062500000000000        6.2500000000000000E-002   0.0000000000000000     
   1.4375000000000000        6.2500000000000000E-002   0.0000000000000000     
   1.4687500000000000        6.2500000000000000E-002   0.0000000000000000     
   1.5000000000000000        6.2500000000000000E-002   0.0000000000000000     
   1.3750000000000000        9.3750000000000000E-002   0.0000000000000000     
   1.4062500000000000        9.3750000000000000E-002   0.0000000000000000     
   1.4375000000000000        9.3750000000000000E-002   0.0000000000000000     
   1.4687500000000000        9.3750000000000000E-002   0.0000000000000000     
   1.5000000000000000        9.3750000000000000E-002   0.0000000000000000     
   1.3750000000000000       0.12500000000000000        0.0000000000000000     
   1.4062500000000000       0.12500000000000000        0.0000000000000000     
   1.4375000000000000       0.12500000000000000        0.0000000000000000     
   1.4687500000000000       0.12500000000000000        0.0000000000000000     
   1.5000000000000000       0.12500000000000000        0.0000000000000000     
  0.50000000000000000       0.12500000000000000        0.0000000000000000     
  0.53125000000000000       0.12500000000000000        0.0000000000000000     
  0.56250000000000000       0.12500000000000000        0.0000000000000000     
  0.59375000000000000       0.12500000000000000        0.0000000000000000     
  0.62500000000000000       0.12500000000000000        0.0000000000000000     
  0.50000000000000000       0.15625000000000000        0.0000000000000000     
  0.53125000000000000       0.15625000000000000        0.0000000000000000     
  0.56250000000000000       0.15625000000000000        0.0000000000000000     
  0.59375000000000000       0.15625000000000000        0.0000000000000000     
  0.62500000000000000       0.15625000000000000        0.0000000000000000     
  0.50000000000000000       0.18750000000000000        0.0000000000000000     
  0.53125000000000000       0.18750000000000000        0.0000000000000000     
  0.56250000000000000       0.18750000000000000        0.0000000000000000     
  0.59375000000000000       0.18750000000000000        0.0000000000000000     
  0.62500000000000000       0.18750000000000000        0.0000000000000000     
  0.50000000000000000       0.21875000000000000        0.0000000000000000     
  0.53125000000000000       0.21875000000000000        0.0000000000000000     
  0.56250000000000000       0.21875000000000000        0.0000000000000000     
  0.59375000000000000       0.21875000000000000        0.0000000000000000     
  0.62500000000000000       0.21875000000000000        0.0000000000000000     
  0.50000000000000000       0.25000000000000000        0.0000000000000000     
  0.53125000000000000       0.25000000000000000        0.0000000000000000     
  0.56250000000000000       0.25000000000000000        0.0000000000000000     
  0.59375000000000000       0.25000000000000000        0.0000000000000000     
  0.62500000000000000       0.25000000000000000        0.0000000000000000     
  0.62500000000000000       0.12500000000000000        0.0000000000000000     
  0.65625000000000000       0.12500000000000000        0.0000000000000000     
  0.68750000000000000       0.12500000000000000        0.0000000000000000     
  0.71875000000000000       0.12500000000000000        0.0000000000000000     
  0.75000000000000000       0.12500000000000000        0.0000000000000000     
  0.62500000000000000       0.15625000000000000        0.0000000000000000     
  0.65625000000000000       0.15625000000000000        0.0000000000000000     
  0.68750000000000000       0.15625000000000000        0.0000000000000000     
  0.71875000000000000       0.15625000000000000        0.0000000000000000     
  0.75000000000000000       0.15625000000000000        0.0000000000000000     
  0.62500000000000000       0.18750000000000000        0.0000000000000000     
  0.65625000000000000       0.18750000000000000        0.0000000000000000     
  0.68750000000000000       0.18750000000000000        0.0000000000000000     
  0.71875000000000000       0.18750000000000000        0.0000000000000000     
  0.75000000000000000       0.18750000000000000        0.0000000000000000     
  0.62500000000000000       0.21875000000000000        0.0000000000000000     
  0.65625000000000000       0.21875000000000000        0.0000000000000000     
  0.68750000000000000       0.21875000000000000        0.0000000000000000     
  0.71875000000000000       0.21875000000000000        0.0000000000000000     
  0.75000000000000000       0.21875000000000000        0.0000000000000000     
  0.62500000000000000       0.25000000000000000        0.0000000000000000     
  0.65625000000000000       0.25000000000000000        0.0000000000000000     
  0.68750000000000000       0.25000000000000000        0.0000000000000000     
  0.71875000000000000       0.25000000000000000        0.0000000000000000     
  0.75000000000000000       0.25000000000000000        0.0000000000000000     
  0.75000000000000000       0.12500000000000000        0.0000000000000000     
  0.78125000000000000       0.12500000000000000        0.0000000000000000     
  0.81250000000000000       0.12500000000000000        0.0000000000000000     
  0.84375000000000000       0.12500000000000000        0.0000000000000000     
  0.87500000000000000       0.12500000000000000        0.0000000000000000     
  0.75000000000000000       0.15625000000000000        0.0000000000000000     
  0.78125000000000000       0.15625000000000000        0.0000000000000000     
  0.81250000000000000       0.15625000000000000        0.0000000000000000     
  0.84375000000000000       0.15625000000000000        0.0000000000000000     
  0.87500000000000000       0.15625000000000000        0.0000000000000000     
  0.75000000000000000       0.18750000000000000        0.0000000000000000     
  0.78125000000000000       0.18750000000000000        0.0000000000000000     
  0.81250000000000000       0.18750000000000000        0.0000000000000000     
  0.84375000000000000       0.18750000000000000        0.0000000000000000     
  0.87500000000000000       0.18750000000000000        0.0000000000000000     
  0.75000000000000000       0.21875000000000000        0.0000000000000000     
  0.78125000000000000       0.21875000000000000        0.0000000000000000     
  0.81250000000000000       0.21875000000000000        0.0000000000000000     
  0.84375000000000000       0.21875000000000000        0.0000000000000000     
  0.87500000000000000       0.21875000000000000        0.0000000000000000     
  0.75000000000000000       0.25000000000000000        0.0000000000000000     
  0.78125000000000000       0.25000000000000000        0.0000000000000000     
  0.81250000000000000       0.25000000000000000        0.0000000000000000     
  0.84375000000000000       0.25000000000000000        0.0000000000000000     
  0.87500000000000000       0.25000000000000000        0.0000000000000000     
  0.87500000000000000       0.12500000000000000        0.0000000000000000     
  0.90625000000000000       0.12500000000000000        0.0000000000000000     
  0.93750000000000000       0.12500000000000000        0.0000000000000000     
  0.96875000000000000       0.12500000000000000        0.0000000000000000     
   1.0000000000000000       0.12500000000000000        0.0000000000000000     
  0.87500000000000000       0.15625000000000000        0.0000000000000000     
  0.90625000000000000       0.15625000000000000        0.0000000000000000     
  0.93750000000000000       0.15625000000000000        0.0000000000000000     
  0.96875000000000000       0.15625000000000000        0.0000000000000000     
   1.0000000000000000       0.15625000000000000        0.0000000000000000     
  0.87500000000000000       0.18750000000000000        0.0000000000000000     
  0.90625000000000000       0.18750000000000000        0.0000000000000000     
  0.93750000000000000       0.18750000000000000        0.0000000000000000     
  0.96875000000000000       0.18750000000000000        0.0000000000000000     
   1.0000000000000000       0.18750000000000000        0.0000000000000000     
  0.87500000000000000       0.21875000000000000        0.0000000000000000     
  0.90625000000000000       0.21875000000000000        0.0000000000000000     
  0.93750000000000000       0.21875000000000000        0.0000000000000000     
  0.96875000000000000       0.21875000000000000        0.0000000000000000     
   1.0000000000000000       0.21875000000000000        0.0000000000000000     
  0.87500000000000000       0.25000000000000000        0.0000000000000000     
  0.90625000000000000       0.25000000000000000        0.0000000000000000     
  0.93750000000000000       0.25000000000000000        0.0000000000000000     
  0.96875000000000000       0.25000000000000000        0.0000000000000000     
   1.0000000000000000       0.25000000000000000        0.0000000000000000     
   1.0000000000000000       0.12500000000000000        0.0000000000000000     
   1.0312500000000000       0.12500000000000000        0.0000000000000000     
   1.0625000000000000       0.12500000000000000        0.0000000000000000     
   1.0937500000000000       0.12500000000000000        0.0000000000000000     
   1.1250000000000000       0.12500000000000000        0.0000000000000000     
   1.0000000000000000       0.15625000000000000        0.0000000000000000     
   1.0312500000000000       0.15625000000000000        0.0000000000000000     
   1.0625000000000000       0.15625000000000000        0.0000000000000000     
   1.0937500000000000       0.15625000000000000        0.0000000000000000     
   1.1250000000000000       0.15625000000000000        0.0000000000000000     
   1.0000000000000000       0.18750000000000000        0.0000000000000000     
   1.0312500000000000       0.18750000000000000        0.0000000000000000     
   1.0625000000000000       0.18750000000000000        0.0000000000000000     
   1.0937500000000000       0.18750000000000000        0.0000000000000000     
   1.1250000000000000       0.18750000000000000        0.0000000000000000     
   1.0000000000000000       0.21875000000000000        0.0000000000000000     
   1.0312500000000000       0.21875000000000000        0.0000000000000000     
   1.0625000000000000       0.21875000000000000        0.0000000000000000     
   1.0937500000000000       0.21875000000000000        0.0000000000000000     
   1.1250000000000000       0.21875000000000000        0.0000000000000000     
   1.0000000000000000       0.25000000000000000        0.0000000000000000     
   1.0312500000000000       0.25000000000000000        0.0000000000000000     
   1.0625000000000000       0.25000000000000000        0.0000000000000000     
   1.0937500000000000       0.25000000000000000        0.0000000000000000     
   1.1250000000000000       0.25000000000000000        0.0000000000000000     
   1.1250000000000000       0.12500000000000000        0.0000000000000000     
   1.1562500000000000       0.12500000000000000        0.0000000000000000     
   1.1875000000000000       0.12500000000000000        0.0000000000000000     
   1.2187500000000000       0.12500000000000000        0.0000000000000000     
   1.2500000000000000       0.12500000000000000        0.0000000000000000     
   1.1250000000000000       0.15625000000000000        0.0000000000000000     
   1.1562500000000000       0.15625000000000000        0.0000000000000000     
   1.1875000000000000       0.15625000000000000        0.0000000000000000     
   1.2187500000000000       0.15625000000000000        0.0000000000000000     
   1.2500000000000000       0.15625000000000000        0.0000000000000000     
   1.1250000000000000       0.18750000000000000        0.0000000000000000     
   1.1562500000000000       0.18750000000000000        0.0000000000000000     
   1.1875000000000000       0.18750000000000000        0.0000000000000000     
   1.2187500000000000       0.18750000000000000        0.0000000000000000     
   1.2500000000000000       0.18750000000000000        0.0000000000000000     
   1.1250000000000000       0.21875000000000000        0.0000000000000000     
   1.1562500000000000       0.21875000000000000        0.0000000000000000     
   1.1875000000000000       0.21875000000000000        0.0000000000000000     
   1.2187500000000000       0.21875000000000000        0.0000000000000000     
   1.2500000000000000       0.21875000000000000        0.0000000000000000     
   1.1250000000000000       0.25000000000000000        0.0000000000000000     
   1.1562500000000000       0.25000000000000000        0.0000000000000000     
   1.1875000000000000       0.25000000000000000        0.0000000000000000     
   1.2187500000000000       0.25000000000000000        0.0000000000000000     
   1.2500000000000000       0.25000000000000000        0.0000000000000000     
   1.2500000000000000       0.12500000000000000        0.0000000000000000     
   1.2812500000000000       0.12500000000000000        0.0000000000000000     
   1.3125000000000000       0.12500000000000000        0.0000000000000000     
   1.3437500000000000       0.12500000000000000        0.0000000000000000     
   1.3750000000000000       0.12500000000000000        0.0000000000000000     
   1.2500000000000000       0.15625000000000000        0.0000000000000000     
   1.2812500000000000       0.15625000000000000        0.0000000000000000     
   1.3125000000000000       0.15625000000000000        0.0000000000000000     
   1.3437500000000000       0.15625000000000000        0.0000000000000000     
   1.3750000000000000       0.15625000000000000        0.0000000000000000     
   1.2500000000000000       0.18750000000000000        0.0000000000000000     
   1.2812500000000000       0.18750000000000000        0.0000000000000000     
   1.3125000000000000       0.18750000000000000        0.0000000000000000     
   1.3437500000000000       0.18750000000000000        0.0000000000000000     
   1.3750000000000000       0.18750000000000000        0.0000000000000000     
   1.2500000000000000       0.21875000000000000        0.0000000000000000     
   1.2812500000000000       0.21875000000000000        0.0000000000000000     
   1.3125000000000000       0.21875000000000000        0.0000000000000000     
   1.3437500000000000       0.21875000000000000        0.0000000000000000     
   1.3750000000000000       0.21875000000000000        0.0000000000000000     
   1.2500000000000000       0.25000000000000000        0.0000000000000000     
   1.2812500000000000       0.25000000000000000        0.0000000000000000     
   1.3125000000000000       0.25000000000000000        0.0000000000000000     
   1.3437500000000000       0.25000000000000000        0.0000000000000000     
   1.3750000000000000       0.25000000000000000        0.0000000000000000     
   1.3750000000000000       0.12500000000000000        0.0000000000000000     
   1.4062500000000000       0.12500000000000000        0.0000000000000000     
   1.4375000000000000       0.12500000000000000        0.0000000000000000     
   1.4687500000000000       0.12500000000000000        0.0000000000000000     
   1.5000000000000000       0.12500000000000000        0.0000000000000000     
   1.3750000000000000       0.15625000000000000        0.0000000000000000     
   1.4062500000000000       0.15625000000000000        0.0000000000000000     
   1.4375000000000000       0.15625000000000000        0.0000000000000000     
   1.4687500000000000       0.15625000000000000        0.0000000000000000     
   1.5000000000000000       0.15625000000000000        0.0000000000000000     
   1.3750000000000000       0.18750000000000000        0.0000000000000000     
   1.4062500000000000       0.18750000000000000        0.0000000000000000     
   1.4375000000000000       0.18750000000000000        0.0000000000000000     
   1.4687500000000000       0.18750000000000000        0.0000000000000000     
   1.5000000000000000       0.18750000000000000        0.0000000000000000     
   1.3750000000000000       0.21875000000000000        0.0000000000000000     
   1.4062500000000000       0.21875000000000000        0.0000000000000000     
   1.4375000000000000       0.21875000000000000        0.0000000000000000     
   1.4687500000000000       0.21875000000000000        0.0000000000000000     
   1.5000000000000000       0.21875000000000000        0.0000000000000000     
   1.3750000000000000       0.25000000000000000        0.0000000000000000     
   1.4062500000000000       0.25000000000000000        0.0000000000000000     
   1.4375000000000000       0.25000000000000000        0.0000000000000000     
   1.4687500000000000       0.25000000000000000        0.0000000000000000     
   1.5000000000000000       0.25000000000000000        0.0000000000000000     
  0.50000000000000000       0.25000000000000000        0.0000000000000000     
  0.53125000000000000       0.25000000000000000        0.0000000000000000     
  0.56250000000000000       0.25000000000000000        0.0000000000000000     
  0.59375000000000000       0.25000000000000000        0.0000000000000000     
  0.62500000000000000       0.25000000000000000        0.0000000000000000     
  0.50000000000000000       0.28125000000000000        0.0000000000000000     
  0.53125000000000000       0.28125000000000000        0.0000000000000000     
  0.56250000000000000       0.28125000000000000        0.0000000000000000     
  0.59375000000000000       0.28125000000000000        0.0000000000000000     
  0.62500000000000000       0.28125000000000000        0.0000000000000000     
  0.50000000000000000       0.31250000000000000        0.0000000000000000     
  0.53125000000000000       0.31250000000000000        0.0000000000000000     
  0.56250000000000000       0.31250000000000000        0.0000000000000000     
  0.59375000000000000       0.31250000000000000        0.0000000000000000     
  0.62500000000000000       0.31250000000000000        0.0000000000000000     
  0.50000000000000000       0.34375000000000000        0.0000000000000000     
  0.53125000000000000       0.34375000000000000        0.0000000000000000     
  0.56250000000000000       0.34375000000000000        0.0000000000000000     
  0.59375000000000000       0.34375000000000000        0.0000000000000000     
  0.62500000000000000       0.34375000000000000        0.0000000000000000     
  0.50000000000000000       0.37500000000000000        0.0000000000000000     
  0.53125000000000000       0.37500000000000000        0.0000000000000000     
  0.56250000000000000       0.37500000000000000        0.0000000000000000     
  0.59375000000000000       0.37500000000000000        0.0000000000000000     
  0.62500000000000000       0.37500000000000000        0.0000000000000000     
  0.62500000000000000       0.25000000000000000        0.0000000000000000     
  0.65625000000000000       0.25000000000000000        0.0000000000000000     
  0.68750000000000000       0.25000000000000000        0.0000000000000000     
  0.71875000000000000       0.25000000000000000        0.0000000000000000     
  0.75000000000000000       0.25000000000000000        0.0000000000000000     
  0.62500000000000000       0.28125000000000000        0.0000000000000000     
  0.65625000000000000       0.28125000000000000        0.0000000000000000     
  0.68750000000000000       0.28125000000000000        0.0000000000000000     
  0.71875000000000000       0.28125000000000000        0.0000000000000000     
  0.75000000000000000       0.28125000000000000        0.0000000000000000     
  0.62500000000000000       0.31250000000000000        0.0000000000000000     
  0.65625000000000000       0.31250000000000000        0.0000000000000000     
  0.68750000000000000       0.31250000000000000        0.0000000000000000     
  0.71875000000000000       0.31250000000000000        0.0000000000000000     
  0.75000000000000000       0.31250000000000000        0.0000000000000000     
  0.62500000000000000       0.34375000000000000        0.0000000000000000     
  0.65625000000000000       0.34375000000000000        0.0000000000000000     
  0.68750000000000000       0.34375000000000000        0.0000000000000000     
  0.71875000000000000       0.34375000000000000        0.0000000000000000     
  0.75000000000000000       0.34375000000000000        0.0000000000000000     
  0.62500000000000000       0.37500000000000000        0.0000000000000000     
  0.65625000000000000       0.37500000000000000        0.0000000000000000     
  0.68750000000000000       0.37500000000000000        0.0000000000000000     
  0.71875000000000000       0.37500000000000000        0.0000000000000000     
  0.75000000000000000       0.37500000000000000        0.0000000000000000     
  0.75000000000000000       0.25000000000000000        0.0000000000000000     
  0.78125000000000000       0.25000000000000000        0.0000000000000000     
  0.81250000000000000       0.25000000000000000        0.0000000000000000     
  0.84375000000000000       0.25000000000000000        0.0000000000000000     
  0.87500000000000000       0.25000000000000000        0.0000000000000000     
  0.75000000000000000       0.28125000000000000        0.0000000000000000     
  0.78125000000000000       0.28125000000000000        0.0000000000000000     
  0.81250000000000000       0.28125000000000000        0.0000000000000000     
  0.84375000000000000       0.28125000000000000        0.0000000000000000     
  0.87500000000000000       0.28125000000000000        0.0000000000000000     
  0.75000000000000000       0.31250000000000000        0.0000000000000000     
  0.78125000000000000       0.31250000000000000        0.0000000000000000     
  0.81250000000000000       0.31250000000000000        0.0000000000000000     
  0.84375000000000000       0.31250000000000000        0.0000000000000000     
  0.87500000000000000       0.31250000000000000        0.0000000000000000     
  0.75000000000000000       0.34375000000000000        0.0000000000000000     
  0.78125000000000000       0.34375000000000000        0.0000000000000000     
  0.81250000000000000       0.34375000000000000        0.0000000000000000     
  0.84375000000000000       0.34375000000000000        0.0000000000000000     
  0.87500000000000000       0.34375000000000000        0.0000000000000000     
  0.75000000000000000       0.37500000000000000        0.0000000000000000     
  0.78125000000000000       0.37500000000000000        0.0000000000000000     
  0.81250000000000000       0.37500000000000000        0.0000000000000000     
  0.84375000000000000       0.37500000000000000        0.0000000000000000     
  0.87500000000000000       0.37500000000000000        0.0000000000000000     
  0.87500000000000000       0.25000000000000000        0.0000000000000000     
  0.90625000000000000       0.25000000000000000        0.0000000000000000     
  0.93750000000000000       0.25000000000000000        0.0000000000000000     
  0.96875000000000000       0.25000000000000000        0.0000000000000000     
   1.0000000000000000       0.25000000000000000        0.0000000000000000     
  0.87500000000000000       0.28125000000000000        0.0000000000000000     
  0.90625000000000000       0.28125000000000000        0.0000000000000000     
  0.93750000000000000       0.28125000000000000        0.0000000000000000     
  0.96875000000000000       0.28125000000000000        0.0000000000000000     
   1.0000000000000000       0.28125000000000000        0.0000000000000000     
  0.87500000000000000       0.31250000000000000        0.0000000000000000     
  0.90625000000000000       0.31250000000000000        0.0000000000000000     
  0.93750000000000000       0.31250000000000000        0.0000000000000000     
  0.96875000000000000       0.31250000000000000        0.0000000000000000     
   1.0000000000000000       0.31250000000000000        0.0000000000000000     
  0.87500000000000000       0.34375000000000000        0.0000000000000000     
  0.90625000000000000       0.34375000000000000        0.0000000000000000     
  0.93750000000000000       0.34375000000000000        0.0000000000000000     
  0.96875000000000000       0.34375000000000000        0.0000000000000000     
   1.0000000000000000       0.34375000000000000        0.0000000000000000     
  0.87500000000000000       0.37500000000000000        0.0000000000000000     
  0.90625000000000000       0.37500000000000000        0.0000000000000000     
  0.93750000000000000       0.37500000000000000        0.0000000000000000     
  0.96875000000000000       0.37500000000000000        0.0000000000000000     
   1.0000000000000000       0.37500000000000000        0.0000000000000000     
   1.0000000000000000       0.25000000000000000        0.0000000000000000     
   1.0312500000000000       0.25000000000000000        0.0000000000000000     
   1.0625000000000000       0.25000000000000000        0.0000000000000000     
   1.0937500000000000       0.25000000000000000        0.0000000000000000     
   1.1250000000000000       0.25000000000000000        0.0000000000000000     
   1.0000000000000000       0.28125000000000000        0.0000000000000000     
   1.0312500000000000       0.28125000000000000        0.0000000000000000     
   1.0625000000000000       0.28125000000000000        0.0000000000000000     
   1.0937500000000000       0.28125000000000000        0.0000000000000000     
   1.1250000000000000       0.28125000000000000        0.0000000000000000     
   1.0000000000000000       0.31250000000000000        0.0000000000000000     
   1.0312500000000000       0.31250000000000000        0.0000000000000000     
   1.0625000000000000       0.31250000000000000        0.0000000000000000     
   1.0937500000000000       0.31250000000000000        0.0000000000000000     
   1.1250000000000000       0.31250000000000000        0.0000000000000000     
   1.0000000000000000       0.34375000000000000        0.0000000000000000     
   1.0312500000000000       0.34375000000000000        0.0000000000000000     
   1.0625000000000000       0.34375000000000000        0.0000000000000000     
   1.0937500000000000       0.34375000000000000        0.0000000000000000     
   1.1250000000000000       0.34375000000000000        0.0000000000000000     
   1.0000000000000000       0.37500000000000000        0.0000000000000000     
   1.0312500000000000       0.37500000000000000        0.0000000000000000     
   1.0625000000000000       0.37500000000000000        0.0000000000000000     
   1.0937500000000000       0.37500000000000000        0.0000000000000000     
   1.1250000000000000       0.37500000000000000        0.0000000000000000     
   1.1250000000000000       0.25000000000000000        0.0000000000000000     
   1.1562500000000000       0.25000000000000000        0.0000000000000000     
   1.1875000000000000       0.25000000000000000        0.0000000000000000     
   1.2187500000000000       0.25000000000000000        0.0000000000000000     
   1.2500000000000000       0.25000000000000000        0.0000000000000000     
   1.1250000000000000       0.28125000000000000        0.0000000000000000     
   1.1562500000000000       0.28125000000000000        0.0000000000000000     
   1.1875000000000000       0.28125000000000000        0.0000000000000000     
   1.2187500000000000       0.28125000000000000        0.0000000000000000     
   1.2500000000000000       0.28125000000000000        0.0000000000000000     
   1.1250000000000000       0.31250000000000000        0.0000000000000000     
   1.1562500000000000       0.31250000000000000        0.0000000000000000     
   1.1875000000000000       0.31250000000000000        0.0000000000000000     
   1.2187500000000000       0.31250000000000000        0.0000000000000000     
   1.2500000000000000       0.31250000000000000        0.0000000000000000     
   1.1250000000000000       0.34375000000000000        0.0000000000000000     
   1.1562500000000000       0.34375000000000000        0.0000000000000000     
   1.1875000000000000       0.34375000000000000        0.0000000000000000     
   1.2187500000000000       0.34375000000000000        0.0000000000000000     
   1.2500000000000000       0.34375000000000000        0.0000000000000000     
   1.1250000000000000       0.37500000000000000        0.0000000000000000     
   1.1562500000000000       0.37500000000000000        0.0000000000000000     
   1.1875000000000000       0.37500000000000000        0.0000000000000000     
   1.2187500000000000       0.37500000000000000        0.0000000000000000     
   1.2500000000000000       0.37500000000000000        0.0000000000000000     
   1.2500000000000000       0.25000000000000000        0.0000000000000000     
   1.2812500000000000       0.25000000000000000        0.0000000000000000     
   1.3125000000000000       0.25000000000000000        0.0000000000000000     
   1.3437500000000000       0.25000000000000000        0.0000000000000000     
   1.3750000000000000       0.25000000000000000        0.0000000000000000     
   1.2500000000000000       0.28125000000000000        0.0000000000000000     
   1.2812500000000000       0.28125000000000000        0.0000000000000000     
   1.3125000000000000       0.28125000000000000        0.0000000000000000     
   1.3437500000000000       0.28125000000000000        0.0000000000000000     
   1.3750000000000000       0.28125000000000000        0.0000000000000000     
   1.2500000000000000       0.31250000000000000        0.0000000000000000     
   1.2812500000000000       0.31250000000000000        0.0000000000000000     
   1.3125000000000000       0.31250000000000000        0.0000000000000000     
   1.3437500000000000       0.31250000000000000        0.0000000000000000     
   1.3750000000000000       0.31250000000000000        0.0000000000000000     
   1.2500000000000000       0.34375000000000000        0.0000000000000000     
   1.2812500000000000       0.34375000000000000        0.0000000000000000     
   1.3125000000000000       0.34375000000000000        0.0000000000000000     
   1.3437500000000000       0.34375000000000000        0.0000000000000000     
   1.3750000000000000       0.34375000000000000        0.0000000000000000     
   1.2500000000000000       0.37500000000000000        0.0000000000000000     
   1.2812500000000000       0.37500000000000000        0.0000000000000000     
   1.3125000000000000       0.37500000000000000        0.0000000000000000     
   1.3437500000000000       0.37500000000000000        0.0000000000000000     
   1.3750000000000000       0.37500000000000000        0.0000000000000000     
   1.3750000000000000       0.25000000000000000        0.0000000000000000     
   1.4062500000000000       0.25000000000000000        0.0000000000000000     
   1.4375000000000000       0.25000000000000000        0.0000000000000000     
   1.4687500000000000       0.25000000000000000        0.0000000000000000     
   1.5000000000000000       0.25000000000000000        0.0000000000000000     
   1.3750000000000000       0.28125000000000000        0.0000000000000000     
   1.4062500000000000       0.28125000000000000        0.0000000000000000     
   1.4375000000000000       0.28125000000000000        0.0000000000000000     
   1.4687500000000000       0.28125000000000000        0.0000000000000000     
   1.5000000000000000       0.28125000000000000        0.0000000000000000     
   1.3750000000000000       0.31250000000000000        0.0000000000000000     
   1.4062500000000000       0.31250000000000000        0.0000000000000000     
   1.4375000000000000       0.31250000000000000        0.0000000000000000     
   1.4687500000000000       0.31250000000000000        0.0000000000000000     
   1.5000000000000000       0.31250000000000000        0.0000000000000000     
   1.3750000000000000       0.34375000000000000        0.0000000000000000     
   1.4062500000000000       0.34375000000000000        0.0000000000000000     
   1.4375000000000000       0.34375000000000000        0.0000000000000000     
   1.4687500000000000       0.34375000000000000        0.0000000000000000     
   1.5000000000000000       0.34375000000000000        0.0000000000000000     
   1.3750000000000000       0.37500000000000000        0.0000000000000000     
   1.4062500000000000       0.37500000000000000        0.0000000000000000     
   1.4375000000000000       0.37500000000000000        0.0000000000000000     
   1.4687500000000000       0.37500000000000000        0.0000000000000000     
   1.5000000000000000       0.37500000000000000        0.0000000000000000     
  0.50000000000000000       0.37500000000000000        0.0000000000000000     
  0.53125000000000000       0.37500000000000000        0.0000000000000000     
  0.56250000000000000       0.37500000000000000        0.0000000000000000     
  0.59375000000000000       0.37500000000000000        0.0000000000000000     
  0.62500000000000000       0.37500000000000000        0.0000000000000000     
  0.50000000000000000       0.40625000000000000        0.0000000000000000     
  0.53125000000000000       0.40625000000000000        0.0000000000000000     
  0.56250000000000000       0.40625000000000000        0.0000000000000000     
  0.59375000000000000       0.40625000000000000        0.0000000000000000     
  0.62500000000000000       0.40625000000000000        0.0000000000000000     
  0.50000000000000000       0.43750000000000000        0.0000000000000000     
  0.53125000000000000       0.43750000000000000        0.0000000000000000     
  0.56250000000000000       0.43750000000000000        0.0000000000000000     
  0.59375000000000000       0.43750000000000000        0.0000000000000000     
  0.62500000000000000       0.43750000000000000        0.0000000000000000     
  0.50000000000000000       0.46875000000000000        0.0000000000000000     
  0.53125000000000000       0.46875000000000000        0.0000000000000000     
  0.56250000000000000       0.46875000000000000        0.0000000000000000     
  0.59375000000000000       0.46875000000000000        0.0000000000000000     
  0.62500000000000000       0.46875000000000000        0.0000000000000000     
  0.50000000000000000       0.50000000000000000        0.0000000000000000     
  0.53125000000000000       0.50000000000000000        0.0000000000000000     
  0.56250000000000000       0.50000000000000000        0.0000000000000000     
  0.59375000000000000       0.50000000000000000        0.0000000000000000     
  0.62500000000000000       0.50000000000000000        0.0000000000000000     
  0.62500000000000000       0.37500000000000000        0.0000000000000000     
  0.65625000000000000       0.37500000000000000        0.0000000000000000     
  0.68750000000000000       0.37500000000000000        0.0000000000000000     
  0.71875000000000000       0.37500000000000000        0.0000000000000000     
  0.75000000000000000       0.37500000000000000        0.0000000000000000     
  0.62500000000000000       0.40625000000000000        0.0000000000000000     
  0.65625000000000000       0.40625000000000000        0.0000000000000000     
  0.68750000000000000       0.40625000000000000        0.0000000000000000     
  0.71875000000000000       0.40625000000000000        0.0000000000000000     
  0.75000000000000000       0.40625000000000000        0.0000000000000000     
  0.62500000000000000       0.43750000000000000        0.0000000000000000     
  0.65625000000000000       0.43750000000000000        0.0000000000000000     
  0.68750000000000000       0.43750000000000000        0.0000000000000000     
  0.71875000000000000       0.43750000000000000        0.0000000000000000     
  0.75000000000000000       0.43750000000000000        0.0000000000000000     
  0.62500000000000000       0.46875000000000000        0.0000000000000000     
  0.65625000000000000       0.46875000000000000        0.0000000000000000     
  0.68750000000000000       0.46875000000000000        0.0000000000000000     
  0.71875000000000000       0.46875000000000000        0.0000000000000000     
  0.75000000000000000       0.46875000000000000        0.0000000000000000     
  0.62500000000000000       0.50000000000000000        0.0000000000000000     
  0.65625000000000000       0.50000000000000000        0.0000000000000000     
  0.68750000000000000       0.50000000000000000        0.0000000000000000     
  0.71875000000000000       0.50000000000000000        0.0000000000000000     
  0.75000000000000000       0.50000000000000000        0.0000000000000000     
  0.75000000000000000       0.37500000000000000        0.0000000000000000     
  0.78125000000000000       0.37500000000000000        0.0000000000000000     
  0.81250000000000000       0.37500000000000000        0.0000000000000000     
  0.84375000000000000       0.37500000000000000        0.0000000000000000     
  0.87500000000000000       0.37500000000000000        0.0000000000000000     
  0.75000000000000000       0.40625000000000000        0.0000000000000000     
  0.78125000000000000       0.40625000000000000        0.0000000000000000     
  0.81250000000000000       0.40625000000000000        0.0000000000000000     
  0.84375000000000000       0.40625000000000000        0.0000000000000000     
  0.87500000000000000       0.40625000000000000        0.0000000000000000     
  0.75000000000000000       0.43750000000000000        0.0000000000000000     
  0.78125000000000000       0.43750000000000000        0.0000000000000000     
  0.81250000000000000       0.43750000000000000        0.0000000000000000     
  0.84375000000000000       0.43750000000000000        0.0000000000000000     
  0.87500000000000000       0.43750000000000000        0.0000000000000000     
  0.75000000000000000       0.46875000000000000        0.0000000000000000     
  0.78125000000000000       0.46875000000000000        0.0000000000000000     
  0.81250000000000000       0.46875000000000000        0.0000000000000000     
  0.84375000000000000       0.46875000000000000        0.0000000000000000     
  0.87500000000000000       0.46875000000000000        0.0000000000000000     
  0.75000000000000000       0.50000000000000000        0.0000000000000000     
  0.78125000000000000       0.50000000000000000        0.0000000000000000     
  0.81250000000000000       0.50000000000000000        0.0000000000000000     
  0.84375000000000000       0.50000000000000000        0.0000000000000000     
  0.87500000000000000       0.50000000000000000        0.0000000000000000     
  0.87500000000000000       0.37500000000000000        0.0000000000000000     
  0.90625000000000000       0.37500000000000000        0.0000000000000000     
  0.93750000000000000       0.37500000000000000        0.0000000000000000     
  0.96875000000000000       0.37500000000000000        0.0000000000000000     
   1.0000000000000000       0.37500000000000000        0.0000000000000000     
  0.87500000000000000       0.40625000000000000        0.0000000000000000     
  0.90625000000000000       0.40625000000000000        0.0000000000000000     
  0.93750000000000000       0.40625000000000000        0.0000000000000000     
  0.96875000000000000       0.40625000000000000        0.0000000000000000     
   1.0000000000000000       0.40625000000000000        0.0000000000000000     
  0.87500000000000000       0.43750000000000000        0.0000000000000000     
  0.90625000000000000       0.43750000000000000        0.0000000000000000     
  0.93750000000000000       0.43750000000000000        0.0000000000000000     
  0.96875000000000000       0.43750000000000000        0.0000000000000000     
   1.0000000000000000       0.43750000000000000        0.0000000000000000     
  0.87500000000000000       0.46875000000000000        0.0000000000000000     
  0.90625000000000000       0.46875000000000000        0.0000000000000000     
  0.93750000000000000       0.46875000000000000        0.0000000000000000     
  0.96875000000000000       0.46875000000000000        0.0000000000000000     
   1.0000000000000000       0.46875000000000000        0.0000000000000000     
  0.87500000000000000       0.50000000000000000        0.0000000000000000     
  0.90625000000000000       0.50000000000000000        0.0000000000000000     
  0.93750000000000000       0.50000000000000000        0.0000000000000000     
  0.96875000000000000       0.50000000000000000        0.0000000000000000     
   1.0000000000000000       0.50000000000000000        0.0000000000000000     
   1.0000000000000000       0.37500000000000000        0.0000000000000000     
   1.0312500000000000       0.37500000000000000        0.0000000000000000     
   1.0625000000000000       0.37500000000000000        0.0000000000000000     
   1.0937500000000000       0.37500000000000000        0.0000000000000000     
   1.1250000000000000       0.37500000000000000        0.0000000000000000     
   1.0000000000000000       0.40625000000000000        0.0000000000000000     
   1.0312500000000000       0.40625000000000000        0.0000000000000000     
   1.0625000000000000       0.40625000000000000        0.0000000000000000     
   1.0937500000000000       0.40625000000000000        0.0000000000000000     
   1.1250000000000000       0.40625000000000000        0.0000000000000000     
   1.0000000000000000       0.43750000000000000        0.0000000000000000     
   1.0312500000000000       0.43750000000000000        0.0000000000000000     
   1.0625000000000000       0.43750000000000000        0.0000000000000000     
   1.0937500000000000       0.43750000000000000        0.0000000000000000     
   1.1250000000000000       0.43750000000000000        0.0000000000000000     
   1.0000000000000000       0.46875000000000000        0.0000000000000000     
   1.0312500000000000       0.46875000000000000        0.0000000000000000     
   1.0625000000000000       0.46875000000000000        0.0000000000000000     
   1.0937500000000000       0.46875000000000000        0.0000000000000000     
   1.1250000000000000       0.46875000000000000        0.0000000000000000     
   1.0000000000000000       0.50000000000000000        0.0000000000000000     
   1.0312500000000000       0.50000000000000000        0.0000000000000000     
   1.0625000000000000       0.50000000000000000        0.0000000000000000     
   1.0937500000000000       0.50000000000000000        0.0000000000000000     
   1.1250000000000000       0.50000000000000000        0.0000000000000000     
   1.1250000000000000       0.37500000000000000        0.0000000000000000     
   1.1562500000000000       0.37500000000000000        0.0000000000000000     
   1.1875000000000000       0.37500000000000000        0.0000000000000000     
   1.2187500000000000       0.37500000000000000        0.0000000000000000     
   1.2500000000000000       0.37500000000000000        0.0000000000000000     
   1.1250000000000000       0.40625000000000000        0.0000000000000000     
   1.1562500000000000       0.40625000000000000        0.0000000000000000     
   1.1875000000000000       0.40625000000000000        0.0000000000000000     
   1.2187500000000000       0.40625000000000000        0.0000000000000000     
   1.2500000000000000       0.40625000000000000        0.0000000000000000     
   1.1250000000000000       0.43750000000000000        0.0000000000000000     
   1.1562500000000000       0.43750000000000000        0.0000000000000000     
   1.1875000000000000       0.43750000000000000        0.0000000000000000     
   1.2187500000000000       0.43750000000000000        0.0000000000000000     
   1.2500000000000000       0.43750000000000000        0.0000000000000000     
   1.1250000000000000       0.46875000000000000        0.0000000000000000     
   1.1562500000000000       0.46875000000000000        0.0000000000000000     
   1.1875000000000000       0.46875000000000000        0.0000000000000000     
   1.2187500000000000       0.46875000000000000        0.0000000000000000     
   1.2500000000000000       0.46875000000000000        0.0000000000000000     
   1.1250000000000000       0.50000000000000000        0.0000000000000000     
   1.1562500000000000       0.50000000000000000        0.0000000000000000     
   1.1875000000000000       0.50000000000000000        0.0000000000000000     
   1.2187500000000000       0.50000000000000000        0.0000000000000000     
   1.2500000000000000       0.50000000000000000        0.0000000000000000     
   1.2500000000000000       0.37500000000000000        0.0000000000000000     
   1.2812500000000000       0.37500000000000000        0.0000000000000000     
   1.3125000000000000       0.37500000000000000        0.0000000000000000     
   1.3437500000000000       0.37500000000000000        0.0000000000000000     
   1.3750000000000000       0.37500000000000000        0.0000000000000000     
   1.2500000000000000       0.40625000000000000        0.0000000000000000     
   1.2812500000000000       0.40625000000000000        0.0000000000000000     
   1.3125000000000000       0.40625000000000000        0.0000000000000000     
   1.3437500000000000       0.40625000000000000        0.0000000000000000     
   1.3750000000000000       0.40625000000000000        0.0000000000000000     
   1.2500000000000000       0.43750000000000000        0.0000000000000000     
   1.2812500000000000       0.43750000000000000        0.0000000000000000     
   1.3125000000000000       0.43750000000000000        0.0000000000000000     
   1.3437500000000000       0.43750000000000000        0.0000000000000000     
   1.3750000000000000       0.43750000000000000        0.0000000000000000     
   1.2500000000000000       0.46875000000000000        0.0000000000000000     
   1.2812500000000000       0.46875000000000000        0.0000000000000000     
   1.3125000000000000       0.46875000000000000        0.0000000000000000     
   1.3437500000000000       0.46875000000000000        0.0000000000000000     
   1.3750000000000000       0.46875000000000000        0.0000000000000000     
   1.2500000000000000       0.50000000000000000        0.0000000000000000     
   1.2812500000000000       0.50000000000000000        0.0000000000000000     
   1.3125000000000000       0.50000000000000000        0.0000000000000000     
   1.3437500000000000       0.50000000000000000        0.0000000000000000     
   1.3750000000000000       0.50000000000000000        0.0000000000000000     
   1.3750000000000000       0.37500000000000000        0.0000000000000000     
   1.4062500000000000       0.37500000000000000        0.0000000000000000     
   1.4375000000000000       0.37500000000000000        0.0000000000000000     
   1.4687500000000000       0.37500000000000000        0.0000000000000000     
   1.5000000000000000       0.37500000000000000        0.0000000000000000     
   1.3750000000000000       0.40625000000000000        0.0000000000000000     
   1.4062500000000000       0.40625000000000000        0.0000000000000000     
   1.4375000000000000       0.40625000000000000        0.0000000000000000     
   1.4687500000000000       0.40625000000000000        0.0000000000000000     
   1.5000000000000000       0.40625000000000000        0.0000000000000000     
   1.3750000000000000       0.43750000000000000        0.0000000000000000     
   1.4062500000000000       0.43750000000000000        0.0000000000000000     
   1.4375000000000000       0.43750000000000000        0.0000000000000000     
   1.4687500000000000       0.43750000000000000        0.0000000000000000     
   1.5000000000000000       0.43750000000000000        0.0000000000000000     
   1.3750000000000000       0.46875000000000000        0.0000000000000000     
   1.4062500000000000       0.46875000000000000        0.0000000000000000     
   1.4375000000000000       0.46875000000000000        0.0000000000000000     
   1.4687500000000000       0.46875000000000000        0.0000000000000000     
   1.5000000000000000       0.46875000000000000        0.0000000000000000     
   1.3750000000000000       0.50000000000000000        0.0000000000000000     
   1.4062500000000000       0.50000000000000000        0.0000000000000000     
   1.4375000000000000       0.50000000000000000        0.0000000000000000     
   1.4687500000000000       0.50000000000000000        0.0000000000000000     
   1.5000000000000000       0.50000000000000000        0.0000000000000000     
  0.50000000000000000       0.50000000000000000        0.0000000000000000     
  0.53125000000000000       0.50000000000000000        0.0000000000000000     
  0.56250000000000000       0.50000000000000000        0.0000000000000000     
  0.59375000000000000       0.50000000000000000        0.0000000000000000     
  0.62500000000000000       0.50000000000000000        0.0000000000000000     
  0.50000000000000000       0.53125000000000000        0.0000000000000000     
  0.53125000000000000       0.53125000000000000        0.0000000000000000     
  0.56250000000000000       0.53125000000000000        0.0000000000000000     
  0.59375000000000000       0.53125000000000000        0.0000000000000000     
  0.62500000000000000       0.53125000000000000        0.0000000000000000     
  0.50000000000000000       0.56250000000000000        0.0000000000000000     
  0.53125000000000000       0.56250000000000000        0.0000000000000000     
  0.56250000000000000       0.56250000000000000        0.0000000000000000     
  0.59375000000000000       0.56250000000000000        0.0000000000000000     
  0.62500000000000000       0.56250000000000000        0.0000000000000000     
  0.50000000000000000       0.59375000000000000        0.0000000000000000     
  0.53125000000000000       0.59375000000000000        0.0000000000000000     
  0.56250000000000000       0.59375000000000000        0.0000000000000000     
  0.59375000000000000       0.59375000000000000        0.0000000000000000     
  0.62500000000000000       0.59375000000000000        0.0000000000000000     
  0.50000000000000000       0.62500000000000000        0.0000000000000000     
  0.53125000000000000       0.62500000000000000        0.0000000000000000     
  0.56250000000000000       0.62500000000000000        0.0000000000000000     
  0.59375000000000000       0.62500000000000000        0.0000000000000000     
  0.62500000000000000       0.62500000000000000        0.0000000000000000     
  0.62500000000000000       0.50000000000000000        0.0000000000000000     
  0.65625000000000000       0.50000000000000000        0.0000000000000000     
  0.68750000000000000       0.50000000000000000        0.0000000000000000     
  0.71875000000000000       0.50000000000000000        0.0000000000000000     
  0.75000000000000000       0.50000000000000000        0.0000000000000000     
  0.62500000000000000       0.53125000000000000        0.0000000000000000     
  0.65625000000000000       0.53125000000000000        0.0000000000000000     
  0.68750000000000000       0.53125000000000000        0.0000000000000000     
  0.71875000000000000       0.53125000000000000        0.0000000000000000     
  0.75000000000000000       0.53125000000000000        0.0000000000000000     
  0.62500000000000000       0.56250000000000000        0.0000000000000000     
  0.65625000000000000       0.56250000000000000        0.0000000000000000     
  0.68750000000000000       0.56250000000000000        0.0000000000000000     
  0.71875000000000000       0.56250000000000000        0.0000000000000000     
  0.75000000000000000       0.56250000000000000        0.0000000000000000     
  0.62500000000000000       0.59375000000000000        0.0000000000000000     
  0.65625000000000000       0.59375000000000000        0.0000000000000000     
  0.68750000000000000       0.59375000000000000        0.0000000000000000     
  0.71875000000000000       0.59375000000000000        0.0000000000000000     
  0.75000000000000000       0.59375000000000000        0.0000000000000000     
  0.62500000000000000       0.62500000000000000        0.0000000000000000     
  0.65625000000000000       0.62500000000000000        0.0000000000000000     
  0.68750000000000000       0.62500000000000000        0.0000000000000000     
  0.71875000000000000       0.62500000000000000        0.0000000000000000     
  0.75000000000000000       0.62500000000000000        0.0000000000000000     
  0.75000000000000000       0.50000000000000000        0.0000000000000000     
  0.78125000000000000       0.50000000000000000        0.0000000000000000     
  0.81250000000000000       0.50000000000000000        0.0000000000000000     
  0.84375000000000000       0.50000000000000000        0.0000000000000000     
  0.87500000000000000       0.50000000000000000        0.0000000000000000     
  0.75000000000000000       0.53125000000000000        0.0000000000000000     
  0.78125000000000000       0.53125000000000000        0.0000000000000000     
  0.81250000000000000       0.53125000000000000        0.0000000000000000     
  0.84375000000000000       0.53125000000000000        0.0000000000000000     
  0.87500000000000000       0.53125000000000000        0.0000000000000000     
  0.75000000000000000       0.56250000000000000        0.0000000000000000     
  0.78125000000000000       0.56250000000000000        0.0000000000000000     
  0.81250000000000000       0.56250000000000000        0.0000000000000000     
  0.84375000000000000       0.56250000000000000        0.0000000000000000     
  0.87500000000000000       0.56250000000000000        0.0000000000000000     
  0.75000000000000000       0.59375000000000000        0.0000000000000000     
  0.78125000000000000       0.59375000000000000        0.0000000000000000     
  0.81250000000000000       0.59375000000000000        0.0000000000000000     
  0.84375000000000000       0.59375000000000000        0.0000000000000000     
  0.87500000000000000       0.59375000000000000        0.0000000000000000     
  0.75000000000000000       0.62500000000000000        0.0000000000000000     
  0.78125000000000000       0.62500000000000000        0.0000000000000000     
  0.81250000000000000       0.62500000000000000        0.0000000000000000     
  0.84375000000000000       0.62500000000000000        0.0000000000000000     
  0.87500000000000000       0.62500000000000000        0.0000000000000000     
  0.87500000000000000       0.50000000000000000        0.0000000000000000     
  0.90625000000000000       0.50000000000000000        0.0000000000000000     
  0.93750000000000000       0.50000000000000000        0.0000000000000000     
  0.96875000000000000       0.50000000000000000        0.0000000000000000     
   1.0000000000000000       0.50000000000000000        0.0000000000000000     
  0.87500000000000000       0.53125000000000000        0.0000000000000000     
  0.90625000000000000       0.53125000000000000        0.0000000000000000     
  0.93750000000000000       0.53125000000000000        0.0000000000000000     
  0.96875000000000000       0.53125000000000000        0.0000000000000000     
   1.0000000000000000       0.53125000000000000        0.0000000000000000     
  0.87500000000000000       0.56250000000000000        0.0000000000000000     
  0.90625000000000000       0.56250000000000000        0.0000000000000000     
  0.93750000000000000       0.56250000000000000        0.0000000000000000     
  0.96875000000000000       0.56250000000000000        0.0000000000000000     
   1.0000000000000000       0.56250000000000000        0.0000000000000000     
  0.87500000000000000       0.59375000000000000        0.0000000000000000     
  0.90625000000000000       0.59375000000000000        0.0000000000000000     
  0.93750000000000000       0.59375000000000000        0.0000000000000000     
  0.96875000000000000       0.59375000000000000        0.0000000000000000     
   1.0000000000000000       0.59375000000000000        0.0000000000000000     
  0.87500000000000000       0.62500000000000000        0.0000000000000000     
  0.90625000000000000       0.62500000000000000        0.0000000000000000     
  0.93750000000000000       0.62500000000000000        0.0000000000000000     
  0.96875000000000000       0.62500000000000000        0.0000000000000000     
   1.0000000000000000       0.62500000000000000        0.0000000000000000     
   1.0000000000000000       0.50000000000000000        0.0000000000000000     
   1.0312500000000000       0.50000000000000000        0.0000000000000000     
   1.0625000000000000       0.50000000000000000        0.0000000000000000     
   1.0937500000000000       0.50000000000000000        0.0000000000000000     
   1.1250000000000000       0.50000000000000000        0.0000000000000000     
   1.0000000000000000       0.53125000000000000        0.0000000000000000     
   1.0312500000000000       0.53125000000000000        0.0000000000000000     
   1.0625000000000000       0.53125000000000000        0.0000000000000000     
   1.0937500000000000       0.53125000000000000        0.0000000000000000     
   1.1250000000000000       0.53125000000000000        0.0000000000000000     
   1.0000000000000000       0.56250000000000000        0.0000000000000000     
   1.0312500000000000       0.56250000000000000        0.0000000000000000     
   1.0625000000000000       0.56250000000000000        0.0000000000000000     
   1.0937500000000000       0.56250000000000000        0.0000000000000000     
   1.1250000000000000       0.56250000000000000        0.0000000000000000     
   1.0000000000000000       0.59375000000000000        0.0000000000000000     
   1.0312500000000000       0.59375000000000000        0.0000000000000000     
   1.0625000000000000       0.59375000000000000        0.0000000000000000     
   1.0937500000000000       0.59375000000000000        0.0000000000000000     
   1.1250000000000000       0.59375000000000000        0.0000000000000000     
   1.0000000000000000       0.62500000000000000        0.0000000000000000     
   1.0312500000000000       0.62500000000000000        0.0000000000000000     
   1.0625000000000000       0.62500000000000000        0.0000000000000000     
   1.0937500000000000       0.62500000000000000        0.0000000000000000     
   1.1250000000000000       0.62500000000000000        0.0000000000000000     
   1.1250000000000000       0.50000000000000000        0.0000000000000000     
   1.1562500000000000       0.50000000000000000        0.0000000000000000     
   1.1875000000000000       0.50000000000000000        0.0000000000000000     
   1.2187500000000000       0.50000000000000000        0.0000000000000000     
   1.2500000000000000       0.50000000000000000        0.0000000000000000     
   1.1250000000000000       0.53125000000000000        0.0000000000000000     
   1.1562500000000000       0.53125000000000000        0.0000000000000000     
   1.1875000000000000       0.53125000000000000        0.0000000000000000     
   1.2187500000000000       0.53125000000000000        0.0000000000000000     
   1.2500000000000000       0.53125000000000000        0.0000000000000000     
   1.1250000000000000       0.56250000000000000        0.0000000000000000     
   1.1562500000000000       0.56250000000000000        0.0000000000000000     
   1.1875000000000000       0.56250000000000000        0.0000000000000000     
   1.2187500000000000       0.56250000000000000        0.0000000000000000     
   1.2500000000000000       0.56250000000000000        0.0000000000000000     
   1.1250000000000000       0.59375000000000000        0.0000000000000000     
   1.1562500000000000       0.59375000000000000        0.0000000000000000     
   1.1875000000000000       0.59375000000000000        0.0000000000000000     
   1.2187500000000000       0.59375000000000000        0.0000000000000000     
   1.2500000000000000       0.59375000000000000        0.0000000000000000     
   1.1250000000000000       0.62500000000000000        0.0000000000000000     
   1.1562500000000000       0.62500000000000000        0.0000000000000000     
   1.1875000000000000       0.62500000000000000        0.0000000000000000     
   1.2187500000000000       0.62500000000000000        0.0000000000000000     
   1.2500000000000000       0.62500000000000000        0.0000000000000000     
   1.2500000000000000       0.50000000000000000        0.0000000000000000     
   1.2812500000000000       0.50000000000000000        0.0000000000000000     
   1.3125000000000000       0.50000000000000000        0.0000000000000000     
   1.3437500000000000       0.50000000000000000        0.0000000000000000     
   1.3750000000000000       0.50000000000000000        0.0000000000000000     
   1.2500000000000000       0.53125000000000000        0.0000000000000000     
   1.2812500000000000       0.53125000000000000        0.0000000000000000     
   1.3125000000000000       0.53125000000000000        0.0000000000000000     
   1.3437500000000000       0.53125000000000000        0.0000000000000000     
   1.3750000000000000       0.53125000000000000        0.0000000000000000     
   1.2500000000000000       0.56250000000000000        0.0000000000000000     
   1.2812500000000000       0.56250000000000000        0.0000000000000000     
   1.3125000000000000       0.56250000000000000        0.0000000000000000     
   1.3437500000000000       0.56250000000000000        0.0000000000000000     
   1.3750000000000000       0.56250000000000000        0.0000000000000000     
   1.2500000000000000       0.59375000000000000        0.0000000000000000     
   1.2812500000000000       0.59375000000000000        0.0000000000000000     
   1.3125000000000000       0.59375000000000000        0.0000000000000000     
   1.3437500000000000       0.59375000000000000        0.0000000000000000     
   1.3750000000000000       0.59375000000000000        0.0000000000000000     
   1.2500000000000000       0.62500000000000000        0.0000000000000000     
   1.2812500000000000       0.62500000000000000        0.0000000000000000     
   1.3125000000000000       0.62500000000000000        0.0000000000000000     
   1.3437500000000000       0.62500000000000000        0.0000000000000000     
   1.3750000000000000       0.62500000000000000        0.0000000000000000     
   1.3750000000000000       0.50000000000000000        0.0000000000000000     
   1.4062500000000000       0.50000000000000000        0.0000000000000000     
   1.4375000000000000       0.50000000000000000        0.0000000000000000     
   1.4687500000000000       0.50000000000000000        0.0000000000000000     
   1.5000000000000000       0.50000000000000000        0.0000000000000000     
   1.3750000000000000       0.53125000000000000        0.0000000000000000     
   1.4062500000000000       0.53125000000000000        0.0000000000000000     
   1.4375000000000000       0.53125000000000000        0.0000000000000000     
   1.4687500000000000       0.53125000000000000        0.0000000000000000     
   1.5000000000000000       0.53125000000000000        0.0000000000000000     
   1.3750000000000000       0.56250000000000000        0.0000000000000000     
   1.4062500000000000       0.56250000000000000        0.0000000000000000     
   1.4375000000000000       0.56250000000000000        0.0000000000000000     
   1.4687500000000000       0.56250000000000000        0.0000000000000000     
   1.5000000000000000       0.56250000000000000        0.0000000000000000     
   1.3750000000000000       0.59375000000000000        0.0000000000000000     
   1.4062500000000000       0.59375000000000000        0.0000000000000000     
   1.4375000000000000       0.59375000000000000        0.0000000000000000     
   1.4687500000000000       0.59375000000000000        0.0000000000000000     
   1.5000000000000000       0.59375000000000000        0.0000000000000000     
   1.3750000000000000       0.62500000000000000        0.0000000000000000     
   1.4062500000000000       0.62500000000000000        0.0000000000000000     
   1.4375000000000000       0.62500000000000000        0.0000000000000000     
   1.4687500000000000       0.62500000000000000        0.0000000000000000     
   1.5000000000000000       0.62500000000000000        0.0000000000000000     
  0.50000000000000000       0.62500000000000000        0.0000000000000000     
  0.53125000000000000       0.62500000000000000        0.0000000000000000     
  0.56250000000000000       0.62500000000000000        0.0000000000000000     
  0.59375000000000000       0.62500000000000000        0.0000000000000000     
  0.62500000000000000       0.62500000000000000        0.0000000000000000     
  0.50000000000000000       0.65625000000000000        0.0000000000000000     
  0.53125000000000000       0.65625000000000000        0.0000000000000000     
  0.56250000000000000       0.65625000000000000        0.0000000000000000     
  0.59375000000000000       0.65625000000000000        0.0000000000000000     
  0.62500000000000000       0.65625000000000000        0.0000000000000000     
  0.50000000000000000       0.68750000000000000        0.0000000000000000     
  0.53125000000000000       0.68750000000000000        0.0000000000000000     
  0.56250000000000000       0.68750000000000000        0.0000000000000000     
  0.59375000000000000       0.68750000000000000        0.0000000000000000     
  0.62500000000000000       0.68750000000000000        0.0000000000000000     
  0.50000000000000000       0.71875000000000000        0.0000000000000000     
  0.53125000000000000       0.71875000000000000        0.0000000000000000     
  0.56250000000000000       0.71875000000000000        0.0000000000000000     
  0.59375000000000000       0.71875000000000000        0.0000000000000000     
  0.62500000000000000       0.71875000000000000        0.0000000000000000     
  0.50000000000000000       0.75000000000000000        0.0000000000000000     
  0.53125000000000000       0.75000000000000000        0.0000000000000000     
  0.56250000000000000       0.75000000000000000        0.0000000000000000     
  0.59375000000000000       0.75000000000000000        0.0000000000000000     
  0.62500000000000000       0.75000000000000000        0.0000000000000000     
  0.62500000000000000       0.62500000000000000        0.0000000000000000     
  0.65625000000000000       0.62500000000000000        0.0000000000000000     
  0.68750000000000000       0.62500000000000000        0.0000000000000000     
  0.71875000000000000       0.62500000000000000        0.0000000000000000     
  0.75000000000000000       0.62500000000000000        0.0000000000000000     
  0.62500000000000000       0.65625000000000000        0.0000000000000000     
  0.65625000000000000       0.65625000000000000        0.0000000000000000     
  0.68750000000000000       0.65625000000000000        0.0000000000000000     
  0.71875000000000000       0.65625000000000000        0.0000000000000000     
  0.75000000000000000       0.65625000000000000        0.0000000000000000     
  0.62500000000000000       0.68750000000000000        0.0000000000000000     
  0.65625000000000000       0.68750000000000000        0.0000000000000000     
  0.68750000000000000       0.68750000000000000        0.0000000000000000     
  0.71875000000000000       0.68750000000000000        0.0000000000000000     
  0.75000000000000000       0.68750000000000000        0.0000000000000000     
  0.62500000000000000       0.71875000000000000        0.0000000000000000     
  0.65625000000000000       0.71875000000000000        0.0000000000000000     
  0.68750000000000000       0.71875000000000000        0.0000000000000000     
  0.71875000000000000       0.71875000000000000        0.0000000000000000     
  0.75000000000000000       0.71875000000000000        0.0000000000000000     
  0.62500000000000000       0.75000000000000000        0.0000000000000000     
  0.65625000000000000       0.75000000000000000        0.0000000000000000     
  0.68750000000000000       0.75000000000000000        0.0000000000000000     
  0.71875000000000000       0.75000000000000000        0.0000000000000000     
  0.75000000000000000       0.75000000000000000        0.0000000000000000     
  0.75000000000000000       0.62500000000000000        0.0000000000000000     
  0.78125000000000000       0.62500000000000000        0.0000000000000000     
  0.81250000000000000       0.62500000000000000        0.0000000000000000     
  0.84375000000000000       0.62500000000000000        0.0000000000000000     
  0.87500000000000000       0.62500000000000000        0.0000000000000000     
  0.75000000000000000       0.65625000000000000        0.0000000000000000     
  0.78125000000000000       0.65625000000000000        0.0000000000000000     
  0.81250000000000000       0.65625000000000000        0.0000000000000000     
  0.84375000000000000       0.65625000000000000        0.0000000000000000     
  0.87500000000000000       0.65625000000000000        0.0000000000000000     
  0.75000000000000000       0.68750000000000000        0.0000000000000000     
  0.78125000000000000       0.68750000000000000        0.0000000000000000     
  0.81250000000000000       0.68750000000000000        0.0000000000000000     
  0.84375000000000000       0.68750000000000000        0.0000000000000000     
  0.87500000000000000       0.68750000000000000        0.0000000000000000     
  0.75000000000000000       0.71875000000000000        0.0000000000000000     
  0.78125000000000000       0.71875000000000000        0.0000000000000000     
  0.81250000000000000       0.71875000000000000        0.0000000000000000     
  0.84375000000000000       0.71875000000000000        0.0000000000000000     
  0.87500000000000000       0.71875000000000000        0.0000000000000000     
  0.75000000000000000       0.75000000000000000        0.0000000000000000     
  0.78125000000000000       0.75000000000000000        0.0000000000000000     
  0.81250000000000000       0.75000000000000000        0.0000000000000000     
  0.84375000000000000       0.75000000000000000        0.0000000000000000     
  0.87500000000000000       0.75000000000000000        0.0000000000000000     
  0.87500000000000000       0.62500000000000000        0.0000000000000000     
  0.90625000000000000       0.62500000000000000        0.0000000000000000     
  0.93750000000000000       0.62500000000000000        0.0000000000000000     
  0.96875000000000000       0.62500000000000000        0.0000000000000000     
   1.0000000000000000       0.62500000000000000        0.0000000000000000     
  0.87500000000000000       0.65625000000000000        0.0000000000000000     
  0.90625000000000000       0.65625000000000000        0.0000000000000000     
  0.93750000000000000       0.65625000000000000        0.0000000000000000     
  0.96875000000000000       0.65625000000000000        0.0000000000000000     
   1.0000000000000000       0.65625000000000000        0.0000000000000000     
  0.87500000000000000       0.68750000000000000        0.0000000000000000     
  0.90625000000000000       0.68750000000000000        0.0000000000000000     
  0.93750000000000000       0.68750000000000000        0.0000000000000000     
  0.96875000000000000       0.68750000000000000        0.0000000000000000     
   1.0000000000000000       0.68750000000000000        0.0000000000000000     
  0.87500000000000000       0.71875000000000000        0.0000000000000000     
  0.90625000000000000       0.71875000000000000        0.0000000000000000     
  0.93750000000000000       0.71875000000000000        0.0000000000000000     
  0.96875000000000000       0.71875000000000000        0.0000000000000000     
   1.0000000000000000       0.71875000000000000        0.0000000000000000     
  0.87500000000000000       0.75000000000000000        0.0000000000000000     
  0.90625000000000000       0.75000000000000000        0.0000000000000000     
  0.93750000000000000       0.75000000000000000        0.0000000000000000     
  0.96875000000000000       0.75000000000000000        0.0000000000000000     
   1.0000000000000000       0.75000000000000000        0.0000000000000000     
   1.0000000000000000       0.62500000000000000        0.0000000000000000     
   1.0312500000000000       0.62500000000000000        0.0000000000000000     
   1.0625000000000000       0.62500000000000000        0.0000000000000000     
   1.0937500000000000       0.62500000000000000        0.0000000000000000     
   1.1250000000000000       0.62500000000000000        0.0000000000000000     
   1.0000000000000000       0.65625000000000000        0.0000000000000000     
   1.0312500000000000       0.65625000000000000        0.0000000000000000     
   1.0625000000000000       0.65625000000000000        0.0000000000000000     
   1.0937500000000000       0.65625000000000000        0.0000000000000000     
   1.1250000000000000       0.65625000000000000        0.0000000000000000     
   1.0000000000000000       0.68750000000000000        0.0000000000000000     
   1.0312500000000000       0.68750000000000000        0.0000000000000000     
   1.0625000000000000       0.68750000000000000        0.0000000000000000     
   1.0937500000000000       0.68750000000000000        0.0000000000000000     
   1.1250000000000000       0.68750000000000000        0.0000000000000000     
   1.0000000000000000       0.71875000000000000        0.0000000000000000     
   1.0312500000000000       0.71875000000000000        0.0000000000000000     
   1.0625000000000000       0.71875000000000000        0.0000000000000000     
   1.0937500000000000       0.71875000000000000        0.0000000000000000     
   1.1250000000000000       0.71875000000000000        0.0000000000000000     
   1.0000000000000000       0.75000000000000000        0.0000000000000000     
   1.0312500000000000       0.75000000000000000        0.0000000000000000     
   1.0625000000000000       0.75000000000000000        0.0000000000000000     
   1.0937500000000000       0.75000000000000000        0.0000000000000000     
   1.1250000000000000       0.75000000000000000        0.0000000000000000     
   1.1250000000000000       0.62500000000000000        0.0000000000000000     
   1.1562500000000000       0.62500000000000000        0.0000000000000000     
   1.1875000000000000       0.62500000000000000        0.0000000000000000     
   1.2187500000000000       0.62500000000000000        0.0000000000000000     
   1.2500000000000000       0.62500000000000000        0.0000000000000000     
   1.1250000000000000       0.65625000000000000        0.0000000000000000     
   1.1562500000000000       0.65625000000000000        0.0000000000000000     
   1.1875000000000000       0.65625000000000000        0.0000000000000000     
   1.2187500000000000       0.65625000000000000        0.0000000000000000     
   1.2500000000000000       0.65625000000000000        0.0000000000000000     
   1.1250000000000000       0.68750000000000000        0.0000000000000000     
   1.1562500000000000       0.68750000000000000        0.0000000000000000     
   1.1875000000000000       0.68750000000000000        0.0000000000000000     
   1.2187500000000000       0.68750000000000000        0.0000000000000000     
   1.2500000000000000       0.68750000000000000        0.0000000000000000     
   1.1250000000000000       0.71875000000000000        0.0000000000000000     
   1.1562500000000000       0.71875000000000000        0.0000000000000000     
   1.1875000000000000       0.71875000000000000        0.0000000000000000     
   1.2187500000000000       0.71875000000000000        0.0000000000000000     
   1.2500000000000000       0.71875000000000000        0.0000000000000000     
   1.1250000000000000       0.75000000000000000        0.0000000000000000     
   1.1562500000000000       0.75000000000000000        0.0000000000000000     
   1.1875000000000000       0.75000000000000000        0.0000000000000000     
   1.2187500000000000       0.75000000000000000        0.0000000000000000     
   1.2500000000000000       0.75000000000000000        0.0000000000000000     
   1.2500000000000000       0.62500000000000000        0.0000000000000000     
   1.2812500000000000       0.62500000000000000        0.0000000000000000     
   1.3125000000000000       0.62500000000000000        0.0000000000000000     
   1.3437500000000000       0.62500000000000000        0.0000000000000000     
   1.3750000000000000       0.62500000000000000        0.0000000000000000     
   1.2500000000000000       0.65625000000000000        0.0000000000000000     
   1.2812500000000000       0.65625000000000000        0.0000000000000000     
   1.3125000000000000       0.65625000000000000        0.0000000000000000     
   1.3437500000000000       0.65625000000000000        0.0000000000000000     
   1.3750000000000000       0.65625000000000000        0.0000000000000000     
   1.2500000000000000       0.68750000000000000        0.0000000000000000     
   1.2812500000000000       0.68750000000000000        0.0000000000000000     
   1.3125000000000000       0.68750000000000000        0.0000000000000000     
   1.3437500000000000       0.68750000000000000        0.0000000000000000     
   1.3750000000000000       0.68750000000000000        0.0000000000000000     
   1.2500000000000000       0.71875000000000000        0.0000000000000000     
   1.2812500000000000       0.71875000000000000        0.0000000000000000     
   1.3125000000000000       0.71875000000000000        0.0000000000000000     
   1.3437500000000000       0.71875000000000000        0.0000000000000000     
   1.3750000000000000       0.71875000000000000        0.0000000000000000     
   1.2500000000000000       0.75000000000000000        0.0000000000000000     
   1.2812500000000000       0.75000000000000000        0.0000000000000000     
   1.3125000000000000       0.75000000000000000        0.0000000000000000     
   1.3437500000000000       0.75000000000000000        0.0000000000000000     
   1.3750000000000000       0.75000000000000000        0.0000000000000000     
   1.3750000000000000       0.62500000000000000        0.0000000000000000     
   1.4062500000000000       0.62500000000000000        0.0000000000000000     
   1.4375000000000000       0.62500000000000000        0.0000000000000000     
   1.4687500000000000       0.62500000000000000        0.0000000000000000     
   1.5000000000000000       0.62500000000000000        0.0000000000000000     
   1.3750000000000000       0.65625000000000000        0.0000000000000000     
   1.4062500000000000       0.65625000000000000        0.0000000000000000     
   1.4375000000000000       0.65625000000000000        0.0000000000000000     
   1.4687500000000000       0.65625000000000000        0.0000000000000000     
   1.5000000000000000       0.65625000000000000        0.0000000000000000     
   1.3750000000000000       0.68750000000000000        0.0000000000000000     
   1.4062500000000000       0.68750000000000000        0.0000000000000000     
   1.4375000000000000       0.68750000000000000        0.0000000000000000     
   1.4687500000000000       0.68750000000000000        0.0000000000000000     
   1.5000000000000000       0.68750000000000000        0.0000000000000000     
   1.3750000000000000       0.71875000000000000        0.0000000000000000     
   1.4062500000000000       0.71875000000000000        0.0000000000000000     
   1.4375000000000000       0.71875000000000000        0.0000000000000000     
   1.4687500000000000       0.71875000000000000        0.0000000000000000     
   1.5000000000000000       0.71875000000000000        0.0000000000000000     
   1.3750000000000000       0.75000000000000000        0.0000000000000000     
   1.4062500000000000       0.75000000000000000        0.0000000000000000     
   1.4375000000000000       0.75000000000000000        0.0000000000000000     
   1.4687500000000000       0.75000000000000000        0.0000000000000000     
   1.5000000000000000       0.75000000000000000        0.0000000000000000     
  0.50000000000000000       0.75000000000000000        0.0000000000000000     
  0.53125000000000000       0.75000000000000000        0.0000000000000000     
  0.56250000000000000       0.75000000000000000        0.0000000000000000     
  0.59375000000000000       0.75000000000000000        0.0000000000000000     
  0.62500000000000000       0.75000000000000000        0.0000000000000000     
  0.50000000000000000       0.78125000000000000        0.0000000000000000     
  0.53125000000000000       0.78125000000000000        0.0000000000000000     
  0.56250000000000000       0.78125000000000000        0.0000000000000000     
  0.59375000000000000       0.78125000000000000        0.0000000000000000     
  0.62500000000000000       0.78125000000000000        0.0000000000000000     
  0.50000000000000000       0.81250000000000000        0.0000000000000000     
  0.53125000000000000       0.81250000000000000        0.0000000000000000     
  0.56250000000000000       0.81250000000000000        0.0000000000000000     
  0.59375000000000000       0.81250000000000000        0.0000000000000000     
  0.62500000000000000       0.81250000000000000        0.0000000000000000     
  0.50000000000000000       0.84375000000000000        0.0000000000000000     
  0.53125000000000000       0.84375000000000000        0.0000000000000000     
  0.56250000000000000       0.84375000000000000        0.0000000000000000     
  0.59375000000000000       0.84375000000000000        0.0000000000000000     
  0.62500000000000000       0.84375000000000000        0.0000000000000000     
  0.50000000000000000       0.87500000000000000        0.0000000000000000     
  0.53125000000000000       0.87500000000000000        0.0000000000000000     
  0.56250000000000000       0.87500000000000000        0.0000000000000000     
  0.59375000000000000       0.87500000000000000        0.0000000000000000     
  0.62500000000000000       0.87500000000000000        0.0000000000000000     
  0.62500000000000000       0.75000000000000000        0.0000000000000000     
  0.65625000000000000       0.75000000000000000        0.0000000000000000     
  0.68750000000000000       0.75000000000000000        0.0000000000000000     
  0.71875000000000000       0.75000000000000000        0.0000000000000000     
  0.75000000000000000       0.75000000000000000        0.0000000000000000     
  0.62500000000000000       0.78125000000000000        0.0000000000000000     
  0.65625000000000000       0.78125000000000000        0.0000000000000000     
  0.68750000000000000       0.78125000000000000        0.0000000000000000     
  0.71875000000000000       0.78125000000000000        0.0000000000000000     
  0.75000000000000000       0.78125000000000000        0.0000000000000000     
  0.62500000000000000       0.81250000000000000        0.0000000000000000     
  0.65625000000000000       0.81250000000000000        0.0000000000000000     
  0.68750000000000000       0.81250000000000000        0.0000000000000000     
  0.71875000000000000       0.81250000000000000        0.0000000000000000     
  0.75000000000000000       0.81250000000000000        0.0000000000000000     
  0.62500000000000000       0.84375000000000000        0.0000000000000000     
  0.65625000000000000       0.84375000000000000        0.0000000000000000     
  0.68750000000000000       0.84375000000000000        0.0000000000000000     
  0.71875000000000000       0.84375000000000000        0.0000000000000000     
  0.75000000000000000       0.84375000000000000        0.0000000000000000     
  0.62500000000000000       0.87500000000000000        0.0000000000000000     
  0.65625000000000000       0.87500000000000000        0.0000000000000000     
  0.68750000000000000       0.87500000000000000        0.0000000000000000     
  0.71875000000000000       0.87500000000000000        0.0000000000000000     
  0.75000000000000000       0.87500000000000000        0.0000000000000000     
  0.75000000000000000       0.75000000000000000        0.0000000000000000     
  0.78125000000000000       0.75000000000000000        0.0000000000000000     
  0.81250000000000000       0.75000000000000000        0.0000000000000000     
  0.84375000000000000       0.75000000000000000        0.0000000000000000     
  0.87500000000000000       0.75000000000000000        0.0000000000000000     
  0.75000000000000000       0.78125000000000000        0.0000000000000000     
  0.78125000000000000       0.78125000000000000        0.0000000000000000     
  0.81250000000000000       0.78125000000000000        0.0000000000000000     
  0.84375000000000000       0.78125000000000000        0.0000000000000000     
  0.87500000000000000       0.78125000000000000        0.0000000000000000     
  0.75000000000000000       0.81250000000000000        0.0000000000000000     
  0.78125000000000000       0.81250000000000000        0.0000000000000000     
  0.81250000000000000       0.81250000000000000        0.0000000000000000     
  0.84375000000000000       0.81250000000000000        0.0000000000000000     
  0.87500000000000000       0.81250000000000000        0.0000000000000000     
  0.75000000000000000       0.84375000000000000        0.0000000000000000     
  0.78125000000000000       0.84375000000000000        0.0000000000000000     
  0.81250000000000000       0.84375000000000000        0.0000000000000000     
  0.84375000000000000       0.84375000000000000        0.0000000000000000     
  0.87500000000000000       0.84375000000000000        0.0000000000000000     
  0.75000000000000000       0.87500000000000000        0.0000000000000000     
  0.78125000000000000       0.87500000000000000        0.0000000000000000     
  0.81250000000000000       0.87500000000000000        0.0000000000000000     
  0.84375000000000000       0.87500000000000000        0.0000000000000000     
  0.87500000000000000       0.87500000000000000        0.0000000000000000     
  0.87500000000000000       0.75000000000000000        0.0000000000000000     
  0.90625000000000000       0.75000000000000000        0.0000000000000000     
  0.93750000000000000       0.75000000000000000        0.0000000000000000     
  0.96875000000000000       0.75000000000000000        0.0000000000000000     
   1.0000000000000000       0.75000000000000000        0.0000000000000000     
  0.87500000000000000       0.78125000000000000        0.0000000000000000     
  0.90625000000000000       0.78125000000000000        0.0000000000000000     
  0.93750000000000000       0.78125000000000000        0.0000000000000000     
  0.96875000000000000       0.78125000000000000        0.0000000000000000     
   1.0000000000000000       0.78125000000000000        0.0000000000000000     
  0.87500000000000000       0.81250000000000000        0.0000000000000000     
  0.90625000000000000       0.81250000000000000        0.0000000000000000     
  0.93750000000000000       0.81250000000000000        0.0000000000000000     
  0.96875000000000000       0.81250000000000000        0.0000000000000000     
   1.0000000000000000       0.81250000000000000        0.0000000000000000     
  0.87500000000000000       0.84375000000000000        0.0000000000000000     
  0.90625000000000000       0.84375000000000000        0.0000000000000000     
  0.93750000000000000       0.84375000000000000        0.0000000000000000     
  0.96875000000000000       0.84375000000000000        0.0000000000000000     
   1.0000000000000000       0.84375000000000000        0.0000000000000000     
  0.87500000000000000       0.87500000000000000        0.0000000000000000     
  0.90625000000000000       0.87500000000000000        0.0000000000000000     
  0.93750000000000000       0.87500000000000000        0.0000000000000000     
  0.96875000000000000       0.87500000000000000        0.0000000000000000     
   1.0000000000000000       0.87500000000000000        0.0000000000000000     
   1.0000000000000000       0.75000000000000000        0.0000000000000000     
   1.0312500000000000       0.75000000000000000        0.0000000000000000     
   1.0625000000000000       0.75000000000000000        0.0000000000000000     
   1.0937500000000000       0.75000000000000000        0.0000000000000000     
   1.1250000000000000       0.75000000000000000        0.0000000000000000     
   1.0000000000000000       0.78125000000000000        0.0000000000000000     
   1.0312500000000000       0.78125000000000000        0.0000000000000000     
   1.0625000000000000       0.78125000000000000        0.0000000000000000     
   1.0937500000000000       0.78125000000000000        0.0000000000000000     
   1.1250000000000000       0.78125000000000000        0.0000000000000000     
   1.0000000000000000       0.81250000000000000        0.0000000000000000     
   1.0312500000000000       0.81250000000000000        0.0000000000000000     
   1.0625000000000000       0.81250000000000000        0.0000000000000000     
   1.0937500000000000       0.81250000000000000        0.0000000000000000     
   1.1250000000000000       0.81250000000000000        0.0000000000000000     
   1.0000000000000000       0.84375000000000000        0.0000000000000000     
   1.0312500000000000       0.84375000000000000        0.0000000000000000     
   1.0625000000000000       0.84375000000000000        0.0000000000000000     
   1.0937500000000000       0.84375000000000000        0.0000000000000000     
   1.1250000000000000       0.84375000000000000        0.0000000000000000     
   1.0000000000000000       0.87500000000000000        0.0000000000000000     
   1.0312500000000000       0.87500000000000000        0.0000000000000000     
   1.0625000000000000       0.87500000000000000        0.0000000000000000     
   1.0937500000000000       0.87500000000000000        0.0000000000000000     
   1.1250000000000000       0.87500000000000000        0.0000000000000000     
   1.1250000000000000       0.75000000000000000        0.0000000000000000     
   1.1562500000000000       0.75000000000000000        0.0000000000000000     
   1.1875000000000000       0.75000000000000000        0.0000000000000000     
   1.2187500000000000       0.75000000000000000        0.0000000000000000     
   1.2500000000000000       0.75000000000000000        0.0000000000000000     
   1.1250000000000000       0.78125000000000000        0.0000000000000000     
   1.1562500000000000       0.78125000000000000        0.0000000000000000     
   1.1875000000000000       0.78125000000000000        0.0000000000000000     
   1.2187500000000000       0.78125000000000000        0.0000000000000000     
   1.2500000000000000       0.78125000000000000        0.0000000000000000     
   1.1250000000000000       0.81250000000000000        0.0000000000000000     
   1.1562500000000000       0.81250000000000000        0.0000000000000000     
   1.1875000000000000       0.81250000000000000        0.0000000000000000     
   1.2187500000000000       0.81250000000000000        0.0000000000000000     
   1.2500000000000000       0.81250000000000000        0.0000000000000000     
   1.1250000000000000       0.84375000000000000        0.0000000000000000     
   1.1562500000000000       0.84375000000000000        0.0000000000000000     
   1.1875000000000000       0.84375000000000000        0.0000000000000000     
   1.2187500000000000       0.84375000000000000        0.0000000000000000     
   1.2500000000000000       0.84375000000000000        0.0000000000000000     
   1.1250000000000000       0.87500000000000000        0.0000000000000000     
   1.1562500000000000       0.87500000000000000        0.0000000000000000     
   1.1875000000000000       0.87500000000000000        0.0000000000000000     
   1.2187500000000000       0.87500000000000000        0.0000000000000000     
   1.2500000000000000       0.87500000000000000        0.0000000000000000     
   1.2500000000000000       0.75000000000000000        0.0000000000000000     
   1.2812500000000000       0.75000000000000000        0.0000000000000000     
   1.3125000000000000       0.75000000000000000        0.0000000000000000     
   1.3437500000000000       0.75000000000000000        0.0000000000000000     
   1.3750000000000000       0.75000000000000000        0.0000000000000000     
   1.2500000000000000       0.78125000000000000        0.0000000000000000     
   1.2812500000000000       0.78125000000000000        0.0000000000000000     
   1.3125000000000000       0.78125000000000000        0.0000000000000000     
   1.3437500000000000       0.78125000000000000        0.0000000000000000     
   1.3750000000000000       0.78125000000000000        0.0000000000000000     
   1.2500000000000000       0.81250000000000000        0.0000000000000000     
   1.2812500000000000       0.81250000000000000        0.0000000000000000     
   1.3125000000000000       0.81250000000000000        0.0000000000000000     
   1.3437500000000000       0.81250000000000000        0.0000000000000000     
   1.3750000000000000       0.81250000000000000        0.0000000000000000     
   1.2500000000000000       0.84375000000000000        0.0000000000000000     
   1.2812500000000000       0.84375000000000000        0.0000000000000000     
   1.3125000000000000       0.84375000000000000        0.0000000000000000     
   1.3437500000000000       0.84375000000000000        0.0000000000000000     
   1.3750000000000000       0.84375000000000000        0.0000000000000000     
   1.2500000000000000       0.87500000000000000        0.0000000000000000     
   1.2812500000000000       0.87500000000000000        0.0000000000000000     
   1.3125000000000000       0.87500000000000000        0.0000000000000000     
   1.3437500000000000       0.87500000000000000        0.0000000000000000     
   1.3750000000000000       0.87500000000000000        0.0000000000000000     
   1.3750000000000000       0.75000000000000000        0.0000000000000000     
   1.4062500000000000       0.75000000000000000        0.0000000000000000     
   1.4375000000000000       0.75000000000000000        0.0000000000000000     
   1.4687500000000000       0.75000000000000000        0.0000000000000000     
   1.5000000000000000       0.75000000000000000        0.0000000000000000     
   1.3750000000000000       0.78125000000000000        0.0000000000000000     
   1.4062500000000000       0.78125000000000000        0.0000000000000000     
   1.4375000000000000       0.78125000000000000        0.0000000000000000     
   1.4687500000000000       0.78125000000000000        0.0000000000000000     
   1.5000000000000000       0.78125000000000000        0.0000000000000000     
   1.3750000000000000       0.81250000000000000        0.0000000000000000     
   1.4062500000000000       0.81250000000000000        0.0000000000000000     
   1.4375000000000000       0.81250000000000000        0.0000000000000000     
   1.4687500000000000       0.81250000000000000        0.0000000000000000     
   1.5000000000000000       0.81250000000000000        0.0000000000000000     
   1.3750000000000000       0.84375000000000000        0.0000000000000000     
   1.4062500000000000       0.84375000000000000        0.0000000000000000     
   1.4375000000000000       0.84375000000000000        0.0000000000000000     
   1.4687500000000000       0.84375000000000000        0.0000000000000000     
   1.5000000000000000       0.84375000000000000        0.0000000000000000     
   1.3750000000000000       0.87500000000000000        0.0000000000000000     
   1.4062500000000000       0.87500000000000000        0.0000000000000000     
   1.4375000000000000       0.87500000000000000        0.0000000000000000     
   1.4687500000000000       0.87500000000000000        0.0000000000000000     
   1.5000000000000000       0.87500000000000000        0.0000000000000000     
  0.50000000000000000       0.87500000000000000        0.0000000000000000     
  0.53125000000000000       0.87500000000000000        0.0000000000000000     
  0.56250000000000000       0.87500000000000000        0.0000000000000000     
  0.59375000000000000       0.87500000000000000        0.0000000000000000     
  0.62500000000000000       0.87500000000000000        0.0000000000000000     
  0.50000000000000000       0.90625000000000000        0.0000000000000000     
  0.53125000000000000       0.90625000000000000        0.0000000000000000     
  0.56250000000000000       0.90625000000000000        0.0000000000000000     
  0.59375000000000000       0.90625000000000000        0.0000000000000000     
  0.62500000000000000       0.90625000000000000        0.0000000000000000     
  0.50000000000000000       0.93750000000000000        0.0000000000000000     
  0.53125000000000000       0.93750000000000000        0.0000000000000000     
  0.56250000000000000       0.93750000000000000        0.0000000000000000     
  0.59375000000000000       0.93750000000000000        0.0000000000000000     
  0.62500000000000000       0.93750000000000000        0.0000000000000000     
  0.50000000000000000       0.96875000000000000        0.0000000000000000     
  0.53125000000000000       0.96875000000000000        0.0000000000000000     
  0.56250000000000000       0.96875000000000000        0.0000000000000000     
  0.59375000000000000       0.96875000000000000        0.0000000000000000     
  0.62500000000000000       0.96875000000000000        0.0000000000000000     
  0.50000000000000000        1.0000000000000000        0.0000000000000000     
  0.53125000000000000        1.0000000000000000        0.0000000000000000     
  0.56250000000000000        1.0000000000000000        0.0000000000000000     
  0.59375000000000000        1.0000000000000000        0.0000000000000000     
  0.62500000000000000        1.0000000000000000        0.0000000000000000     
  0.62500000000000000       0.87500000000000000        0.0000000000000000     
  0.65625000000000000       0.87500000000000000        0.0000000000000000     
  0.68750000000000000       0.87500000000000000        0.0000000000000000     
  0.71875000000000000       0.87500000000000000        0.0000000000000000     
  0.75000000000000000       0.87500000000000000        0.0000000000000000     
  0.62500000000000000       0.90625000000000000        0.0000000000000000     
  0.65625000000000000       0.90625000000000000        0.0000000000000000     
  0.68750000000000000       0.90625000000000000        0.0000000000000000     
  0.71875000000000000       0.90625000000000000        0.0000000000000000     
  0.75000000000000000       0.90625000000000000        0.0000000000000000     
  0.62500000000000000       0.93750000000000000        0.0000000000000000     
  0.65625000000000000       0.93750000000000000        0.0000000000000000     
  0.68750000000000000       0.93750000000000000        0.0000000000000000     
  0.71875000000000000       0.93750000000000000        0.0000000000000000     
  0.75000000000000000       0.93750000000000000        0.0000000000000000     
  0.62500000000000000       0.96875000000000000        0.0000000000000000     
  0.65625000000000000       0.96875000000000000        0.0000000000000000     
  0.68750000000000000       0.96875000000000000        0.0000000000000000     
  0.71875000000000000       0.96875000000000000        0.0000000000000000     
  0.75000000000000000       0.96875000000000000        0.0000000000000000     
  0.62500000000000000        1.0000000000000000        0.0000000000000000     
  0.65625000000000000        1.0000000000000000        0.0000000000000000     
  0.68750000000000000        1.0000000000000000        0.0000000000000000     
  0.71875000000000000        1.0000000000000000        0.0000000000000000     
  0.75000000000000000        1.0000000000000000        0.0000000000000000     
  0.75000000000000000       0.87500000000000000        0.0000000000000000     
  0.78125000000000000       0.87500000000000000        0.0000000000000000     
  0.81250000000000000       0.87500000000000000        0.0000000000000000     
  0.84375000000000000       0.87500000000000000        0.0000000000000000     
  0.87500000000000000       0.87500000000000000        0.0000000000000000     
  0.75000000000000000       0.90625000000000000        0.0000000000000000     
  0.78125000000000000       0.90625000000000000        0.0000000000000000     
  0.81250000000000000       0.90625000000000000        0.0000000000000000     
  0.84375000000000000       0.90625000000000000        0.0000000000000000     
  0.87500000000000000       0.90625000000000000        0.0000000000000000     
  0.75000000000000000       0.93750000000000000        0.0000000000000000     
  0.78125000000000000       0.93750000000000000        0.0000000000000000     
  0.81250000000000000       0.93750000000000000        0.0000000000000000     
  0.84375000000000000       0.93750000000000000        0.0000000000000000     
  0.87500000000000000       0.93750000000000000        0.0000000000000000     
  0.75000000000000000       0.96875000000000000        0.0000000000000000     
  0.78125000000000000       0.96875000000000000        0.0000000000000000     
  0.81250000000000000       0.96875000000000000        0.0000000000000000     
  0.84375000000000000       0.96875000000000000        0.0000000000000000     
  0.87500000000000000       0.96875000000000000        0.0000000000000000     
  0.75000000000000000        1.0000000000000000        0.0000000000000000     
  0.78125000000000000        1.0000000000000000        0.0000000000000000     
  0.81250000000000000        1.0000000000000000        0.0000000000000000     
  0.84375000000000000        1.0000000000000000        0.0000000000000000     
  0.87500000000000000        1.0000000000000000        0.0000000000000000     
  0.87500000000000000       0.87500000000000000        0.0000000000000000     
  0.90625000000000000       0.87500000000000000        0.0000000000000000     
  0.93750000000000000       0.87500000000000000        0.0000000000000000     
  0.96875000000000000       0.87500000000000000        0.0000000000000000     
   1.0000000000000000       0.87500000000000000        0.0000000000000000     
  0.87500000000000000       0.90625000000000000        0.0000000000000000     
  0.90625000000000000       0.90625000000000000        0.0000000000000000     
  0.93750000000000000       0.90625000000000000        0.0000000000000000     
  0.96875000000000000       0.90625000000000000        0.0000000000000000     
   1.0000000000000000       0.90625000000000000        0.0000000000000000     
  0.87500000000000000       0.93750000000000000        0.0000000000000000     
  0.90625000000000000       0.93750000000000000        0.0000000000000000     
  0.93750000000000000       0.93750000000000000        0.0000000000000000     
  0.96875000000000000       0.93750000000000000        0.0000000000000000     
   1.0000000000000000       0.93750000000000000        0.0000000000000000     
  0.87500000000000000       0.96875000000000000        0.0000000000000000     
  0.90625000000000000       0.96875000000000000        0.0000000000000000     
  0.93750000000000000       0.96875000000000000        0.0000000000000000     
  0.96875000000000000       0.96875000000000000        0.0000000000000000     
   1.0000000000000000       0.96875000000000000        0.0000000000000000     
  0.87500000000000000        1.0000000000000000        0.0000000000000000     
  0.90625000000000000        1.0000000000000000        0.0000000000000000     
  0.93750000000000000        1.0000000000000000        0.0000000000000000     
  0.96875000000000000        1.0000000000000000        0.0000000000000000     
   1.0000000000000000        1.0000000000000000        0.0000000000000000     
   1.0000000000000000       0.87500000000000000        0.0000000000000000     
   1.0312500000000000       0.87500000000000000        0.0000000000000000     
   1.0625000000000000       0.87500000000000000        0.0000000000000000     
   1.0937500000000000       0.87500000000000000        0.0000000000000000     
   1.1250000000000000       0.87500000000000000        0.0000000000000000     
   1.0000000000000000       0.90625000000000000        0.0000000000000000     
   1.0312500000000000       0.90625000000000000        0.0000000000000000     
   1.0625000000000000       0.90625000000000000        0.0000000000000000     
   1.0937500000000000       0.90625000000000000        0.0000000000000000     
   1.1250000000000000       0.90625000000000000        0.0000000000000000     
   1.0000000000000000       0.93750000000000000        0.0000000000000000     
   1.0312500000000000       0.93750000000000000        0.0000000000000000     
   1.0625000000000000       0.93750000000000000        0.0000000000000000     
   1.0937500000000000       0.93750000000000000        0.0000000000000000     
   1.1250000000000000       0.93750000000000000        0.0000000000000000     
   1.0000000000000000       0.96875000000000000        0.0000000000000000     
   1.0312500000000000       0.96875000000000000        0.0000000000000000     
   1.0625000000000000       0.96875000000000000        0.0000000000000000     
   1.0937500000000000       0.96875000000000000        0.0000000000000000     
   1.1250000000000000       0.96875000000000000        0.0000000000000000     
   1.0000000000000000        1.0000000000000000        0.0000000000000000     
   1.0312500000000000        1.0000000000000000        0.0000000000000000     
   1.0625000000000000        1.0000000000000000        0.0000000000000000     
   1.0937500000000000        1.0000000000000000        0.0000000000000000     
   1.1250000000000000        1.0000000000000000        0.0000000000000000     
   1.1250000000000000       0.87500000000000000        0.0000000000000000     
   1.1562500000000000       0.87500000000000000        0.0000000000000000     
   1.1875000000000000       0.87500000000000000        0.0000000000000000     
   1.2187500000000000       0.87500000000000000        0.0000000000000000     
   1.2500000000000000       0.87500000000000000        0.0000000000000000     
   1.1250000000000000       0.90625000000000000        0.0000000000000000     
   1.1562500000000000       0.90625000000000000        0.0000000000000000     
   1.1875000000000000       0.90625000000000000        0.0000000000000000     
   1.2187500000000000       0.90625000000000000        0.0000000000000000     
   1.2500000000000000       0.90625000000000000        0.0000000000000000     
   1.1250000000000000       0.93750000000000000        0.0000000000000000     
   1.1562500000000000       0.93750000000000000        0.0000000000000000     
   1.1875000000000000       0.93750000000000000        0.0000000000000000     
   1.2187500000000000       0.93750000000000000        0.0000000000000000     
   1.2500000000000000       0.93750000000000000        0.0000000000000000     
   1.1250000000000000       0.96875000000000000        0.0000000000000000     
   1.1562500000000000       0.96875000000000000        0.0000000000000000     
   1.1875000000000000       0.96875000000000000        0.0000000000000000     
   1.2187500000000000       0.96875000000000000        0.0000000000000000     
   1.2500000000000000       0.96875000000000000        0.0000000000000000     
   1.1250000000000000        1.0000000000000000        0.0000000000000000     
   1.1562500000000000        1.0000000000000000        0.0000000000000000     
   1.1875000000000000        1.0000000000000000        0.0000000000000000     
   1.2187500000000000        1.0000000000000000        0.0000000000000000     
   1.2500000000000000        1.0000000000000000        0.0000000000000000     
   1.2500000000000000       0.87500000000000000        0.0000000000000000     
   1.2812500000000000       0.87500000000000000        0.0000000000000000     
   1.3125000000000000       0.87500000000000000        0.0000000000000000     
   1.3437500000000000       0.87500000000000000        0.0000000000000000     
   1.3750000000000000       0.87500000000000000        0.0000000000000000     
   1.2500000000000000       0.90625000000000000        0.0000000000000000     
   1.2812500000000000       0.90625000000000000        0.0000000000000000     
   1.3125000000000000       0.90625000000000000        0.0000000000000000     
   1.3437500000000000       0.90625000000000000        0.0000000000000000     
   1.3750000000000000       0.90625000000000000        0.0000000000000000     
   1.2500000000000000       0.93750000000000000        0.0000000000000000     
   1.2812500000000000       0.93750000000000000        0.0000000000000000     
   1.3125000000000000       0.93750000000000000        0.0000000000000000     
   1.3437500000000000       0.93750000000000000        0.0000000000000000     
   1.3750000000000000       0.93750000000000000        0.0000000000000000     
   1.2500000000000000       0.96875000000000000        0.0000000000000000     
   1.2812500000000000       0.96875000000000000        0.0000000000000000     
   1.3125000000000000       0.96875000000000000        0.0000000000000000     
   1.3437500000000000       0.96875000000000000        0.0000000000000000     
   1.3750000000000000       0.96875000000000000        0.0000000000000000     
   1.2500000000000000        1.0000000000000000        0.0000000000000000     
   1.2812500000000000        1.0000000000000000        0.0000000000000000     
   1.3125000000000000        1.0000000000000000        0.0000000000000000     
   1.3437500000000000        1.0000000000000000        0.0000000000000000     
   1.3750000000000000        1.0000000000000000        0.0000000000000000     
   1.3750000000000000       0.87500000000000000        0.0000000000000000     
   1.4062500000000000       0.87500000000000000        0.0000000000000000     
   1.4375000000000000       0.87500000000000000        0.0000000000000000     
   1.4687500000000000       0.87500000000000000        0.0000000000000000     
   1.5000000000000000       0.87500000000000000        0.0000000000000000     
   1.3750000000000000       0.90625000000000000        0.0000000000000000     
   1.4062500000000000       0.90625000000000000        0.0000000000000000     
   1.4375000000000000       0.90625000000000000        0.0000000000000000     
   1.4687500000000000       0.90625000000000000        0.0000000000000000     
   1.5000000000000000       0.90625000000000000        0.0000000000000000     
   1.3750000000000000       0.93750000000000000        0.0000000000000000     
   1.4062500000000000       0.93750000000000000        0.0000000000000000     
   1.4375000000000000       0.93750000000000000        0.0000000000000000     
   1.4687500000000000       0.93750000000000000        0.0000000000000000     
   1.5000000000000000       0.93750000000000000        0.0000000000000000     
   1.3750000000000000       0.96875000000000000        0.0000000000000000     
   1.4062500000000000       0.96875000000000000        0.0000000000000000     
   1.4375000000000000       0.96875000000000000        0.0000000000000000     
   1.4687500000000000       0.96875000000000000        0.0000000000000000     
   1.5000000000000000       0.96875000000000000        0.0000000000000000     
   1.3750000000000000        1.0000000000000000        0.0000000000000000     
   1.4062500000000000        1.0000000000000000        0.0000000000000000     
   1.4375000000000000        1.0000000000000000        0.0000000000000000     
   1.4687500000000000        1.0000000000000000        0.0000000000000000     
   1.5000000000000000        1.0000000000000000        0.0000000000000000     
 </DataArray>
 </Points>
 <Cells>
 <DataArray  type="Int32"  Name="connectivity"  format="ascii">
           0           1           6           5
           1           2           7           6
           2           3           8           7
           3           4           9           8
           5           6          11          10
           6           7          12          11
           7           8          13          12
           8           9          14          13
          10          11          16          15
          11          12          17          16
          12          13          18          17
          13          14          19          18
          15          16          21          20
          16          17          22          21
          17          18          23          22
          18          19          24          23
          25          26          31          30
          26          27          32          31
          27          28          33          32
          28          29          34          33
          30          31          36          35
          31          32          37          36
          32          33          38          37
          33          34          39          38
          35          36          41          40
          36          37          42          41
          37          38          43          42
          38          39          44          43
          40          41          46          45
          41          42          47          46
          42          43          48          47
          43          44          49          48
          50          51          56          55
          51          52          57          56
          52          53          58          57
          53          54          59          58
          55          56          61          60
          56          57          62          61
          57          58          63          62
          58          59          64          63
          60          61          66          65
          61          62          67          66
          62          63          68          67
          63          64          69          68
          65          66          71          70
          66          67          72          71
          67          68          73          72
          68          69          74          73
          75          76          81          80
          76          77          82          81
          77          78          83          82
          78          79          84          83
          80          81          86          85
          81          82          87          86
          82          83          88          87
          83          84          89          88
          85          86          91          90
          86          87          92          91
          87          88          93          92
          88          89          94          93
          90          91          96          95
          91          92          97          96
          92          93          98          97
          93          94          99          98
         100         101         106         105
         101         102         107         106
         102         103         108         107
         103         104         109         108
         105         106         111         110
         106         107         112         111
         107         108         113         112
         108         109         114         113
         110         111         116         115
         111         112         117         116
         112         113         118         117
         113         114         119         118
         115         116         121         120
         116         117         122         121
         117         118         123         122
         118         119         124         123
         125         126         131         130
         126         127         132         131
         127         128         133         132
         128         129         134         133
         130         131         136         135
         131         132         137         136
         132         133         138         137
         133         134         139         138
         135         136         141         140
         136         137         142         141
         137         138         143         142
         138         139         144         143
         140         141         146         145
         141         142         147         146
         142         143         148         147
         143         144         149         148
         150         151         156         155
         151         152         157         156
         152         153         158         157
         153         154         159         158
         155         156         161         160
         156         157         162         161
         157         158         163         162
         158         159         164         163
         160         161         166         165
         161         162         167         166
         162         163         168         167
         163         164         169         168
         165         166         171         170
         166         167         172         171
         167         168         173         172
         168         169         174         173
         175         176         181         180
         176         177         182         181
         177         178         183         182
         178         179         184         183
         180         181         186         185
         181         182         187         186
         182         183         188         187
         183         184         189         188
         185         186         191         190
         186         187         192         191
         187         188         193         192
         188         189         194         193
         190         191         196         195
         191         192         197         196
         192         193         198         197
         193         194         199         198
         200         201         206         205
         201         202         207         206
         202         203         208         207
         203         204         209         208
         205         206         211         210
         206         207         212         211
         207         208         213         212
         208         209         214         213
         210         211         216         215
         211         212         217         216
         212         213         218         217
         213         214         219         218
         215         216         221         220
         216         217         222         221
         217         218         223         222
         218         219         224         223
         225         226         231         230
         226         227         232         231
         227         228         233         232
         228         229         234         233
         230         231         236         235
         231         232         237         236
         232         233         238         237
         233         234         239         238
         235         236         241         240
         236         237         242         241
         237         238         243         242
         238         239         244         243
         240         241         246         245
         241         242         247         246
         242         243         248         247
         243         244         249         248
         250         251         256         255
         251         252         257         256
         252         253         258         257
         253         254         259         258
         255         256         261         260
         256         257         262         261
         257         258         263         262
         258         259         264         263
         260         261         266         265
         261         262         267         266
         262         263         268         267
         263         264         269         268
         265         266         271         270
         266         267         272         271
         267         268         273         272
         268         269         274         273
         275         276         281         280
         276         277         282         281
         277         278         283         282
         278         279         284         283
         280         281         286         285
         281         282         287         286
         282         283         288         287
         283         284         289         288
         285         286         291         290
         286         287         292         291
         287         288         293         292
         288         289         294         293
         290         291         296         295
         291         292         297         296
         292         293         298         297
         293         294         299         298
         300         301         306         305
         301         302         307         306
         302         303         308         307
         303         304         309         308
         305         306         311         310
         306         307         312         311
         307         308         313         312
         308         309         314         313
         310         311         316         315
         311         312         317         316
         312         313         318         317
         313         314         319         318
         315         316         321         320
         316         317         322         321
         317         318         323         322
         318         319         324         323
         325         326         331         330
         326         327         332         331
         327         328         333         332
         328         329         334         333
         330         331         336         335
         331         332         337         336
         332         333         338         337
         333         334         339         338
         335         336         341         340
         336         337         342         341
         337         338         343         342
         338         339         344         343
         340         341         346         345
         341         342         347         346
         342         343         348         347
         343         344         349         348
         350         351         356         355
         351         352         357         356
         352         353         358         357
         353         354         359         358
         355         356         361         360
         356         357         362         361
         357         358         363         362
         358         359         364         363
         360         361         366         365
         361         362         367         366
         362         363         368         367
         363         364         369         368
         365         366         371         370
         366         367         372         371
         367         368         373         372
         368         369         374         373
         375         376         381         380
         376         377         382         381
         377         378         383         382
         378         379         384         383
         380         381         386         385
         381         382         387         386
         382         383         388         387
         383         384         389         388
         385         386         391         390
         386         387         392         391
         387         388         393         392
         388         389         394         393
         390         391         396         395
         391         392         397         396
         392         393         398         397
         393         394         399         398
         400         401         406         405
         401         402         407         406
         402         403         408         407
         403         404         409         408
         405         406         411         410
         406         407         412         411
         407         408         413         412
         408         409         414         413
         410         411         416         415
         411         412         417         416
         412         413         418         417
         413         414         419         418
         415         416         421         420
         416         417         422         421
         417         418         423         422
         418         419         424         423
         425         426         431         430
         426         427         432         431
         427         428         433         432
         428         429         434         433
         430         431         436         435
         431         432         437         436
         432         433         438         437
         433         434         439         438
         435         436         441         440
         436         437         442         441
         437         438         443         442
         438         439         444         443
         440         441         446         445
         441         442         447         446
         442         443         448         447
         443         444         449         448
         450         451         456         455
         451         452         457         456
         452         453         458         457
         453         454         459         458
         455         456         461         460
         456         457         462         461
         457         458         463         462
         458         459         464         463
         460         461         466         465
         461         462         467         466
         462         463         468         467
         463         464         469         468
         465         466         471         470
         466         467         472         471
         467         468         473         472
         468         469         474         473
         475         476         481         480
         476         477         482         481
         477         478         483         482
         478         479         484         483
         480         481         486         485
         481         482         487         486
         482         483         488         487
         483         484         489         488
         485         486         491         490
         486         487         492         491
         487         488         493         492
         488         489         494         493
         490         491         496         495
         491         492         497         496
         492         493         498         497
         493         494         499         498
         500         501         506         505
         501         502         507         506
         502         503         508         507
         503         504         509         508
         505         506         511         510
         506         507         512         511
         507         508         513         512
         508         509         514         513
         510         511         516         515
         511         512         517         516
         512         513         518         517
         513         514         519         518
         515         516         521         520
         516         517         522         521
         517         518         523         522
         518         519         524         523
         525         526         531         530
         526         527         532         531
         527         528         533         532
         528         529         534         533
         530         531         536         535
         531         532         537         536
         532         533         538         537
         533         534         539         538
         535         536         541         540
         536         537         542         541
         537         538         543         542
         538         539         544         543
         540         541         546         545
         541         542         547         546
         542         543         548         547
         543         544         549         548
         550         551         556         555
         551         552         557         556
         552         553         558         557
         553         554         559         558
         555         556         561         560
         556         557         562         561
         557         558         563         562
         558         559         564         563
         560         561         566         565
         561         562         567         566
         562         563         568         567
         563         564         569         568
         565         566         571         570
         566         567         572         571
         567         568         573         572
         568         569         574         573
         575         576         581         580
         576         577         582         581
         577         578         583         582
         578         579         584         583
         580         581         586         585
         581         582         587         586
         582         583         588         587
         583         584         589         588
         585         586         591         590
         586         587         592         591
         587         588         593         592
         588         589         594         593
         590         591         596         595
         591         592         597         596
         592         593         598         597
         593         594         599         598
         600         601         606         605
         601         602         607         606
         602         603         608         607
         603         604         609         608
         605         606         611         610
         606         607         612         611
         607         608         613         612
         608         609         614         613
         610         611         616         615
         611         612         617         616
         612         613         618         617
         613         614         619         618
         615         616         621         620
         616         617         622         621
         617         618         623         622
         618         619         624         623
         625         626         631         630
         626         627         632         631
         627         628         633         632
         628         629         634         633
         630         631         636         635
         631         632         637         636
         632         633         638         637
         633         634         639         638
         635         636         641         640
         636         637         642         641
         637         638         643         642
         638         639         644         643
         640         641         646         645
         641         642         647         646
         642         643         648         647
         643         644         649         648
         650         651         656         655
         651         652         657         656
         652         653         658         657
         653         654         659         658
         655         656         661         660
         656         657         662         661
         657         658         663         662
         658         659         664         663
         660         661         666         665
         661         662         667         666
         662         663         668         667
         663         664         669         668
         665         666         671         670
         666         667         672         671
         667         668         673         672
         668         669         674         673
         675         676         681         680
         676         677         682         681
         677         678         683         682
         678         679         684         683
         680         681         686         685
         681         682         687         686
         682         683         688         687
         683         684         689         688
         685         686         691         690
         686         687         692         691
         687         688         693         692
         688         689         694         693
         690         691         696         695
         691         692         697         696
         692         693         698         697
         693         694         699         698
         700         701         706         705
         701         702         707         706
         702         703         708         707
         703         704         709         708
         705         706         711         710
         706         707         712         711
         707         708         713         712
         708         709         714         713
         710         711         716         715
         711         712         717         716
         712         713         718         717
         713         714         719         718
         715         716         721         720
         716         717         722         721
         717         718         723         722
         718         719         724         723
         725         726         731         730
         726         727         732         731
         727         728         733         732
         728         729         734         733
         730         731         736         735
         731         732         737         736
         732         733         738         737
         733         734         739         738
         735         736         741         740
         736         737         742         741
         737         738         743         742
         738         739         744         743
         740         741         746         745
         741         742         747         746
         742         743         748         747
         743         744         749         748
         750         751         756         755
         751         752         757         756
         752         753         758         757
         753         754         759         758
         755         756         761         760
         756         757         762         761
         757         758         763         762
         758         759         764         763
         760         761         766         765
         761         762         767         766
         762         763         768         767
         763         764         769         768
         765         766         771         770
         766         767         772         771
         767         768         773         772
         768         769         774         773
         775         776         781         780
         776         777         782         781
         777         778         783         782
         778         779         784         783
         780         781         786         785
         781         782         787         786
         782         783         788         787
         783         784         789         788
         785         786         791         790
         786         787         792         791
         787         788         793         792
         788         789         794         793
         790         791         796         795
         791         792         797         796
         792         793         798         797
         793         794         799         798
         800         801         806         805
         801         802         807         806
         802         803         808         807
         803         804         809         808
         805         806         811         810
         806         807         812         811
         807         808         813         812
         808         809         814         813
         810         811         816         815
         811         812         817         816
         812         813         818         817
         813         814         819         818
         815         816         821         820
         816         817         822         821
         817         818         823         822
         818         819         824         823
         825         826         831         830
         826         827         832         831
         827         828         833         832
         828         829         834         833
         830         831         836         835
         831         832         837         836
         832         833         838         837
         833         834         839         838
         835         836         841         840
         836         837         842         841
         837         838         843         842
         838         839         844         843
         840         841         846         845
         841         842         847         846
         842         843         848         847
         843         844         849         848
         850         851         856         855
         851         852         857         856
         852         853         858         857
         853         854         859         858
         855         856         861         860
         856         857         862         861
         857         858         863         862
         858         859         864         863
         860         861         866         865
         861         862         867         866
         862         863         868         867
         863         864         869         868
         865         866         871         870
         866         867         872         871
         867         868         873         872
         868         869         874         873
         875         876         881         880
         876         877         882         881
         877         878         883         882
         878         879         884         883
         880         881         886         885
         881         882         887         886
         882         883         888         887
         883         884         889         888
         885         886         891         890
         886         887         892         891
         887         888         893         892
         888         889         894         893
         890         891         896         895
         891         892         897         896
         892         893         898         897
         893         894         899         898
         900         901         906         905
         901         902         907         906
         902         903         908         907
         903         904         909         908
         905         906         911         910
         906         907         912         911
         907         908         913         912
         908         909         914         913
         910         911         916         915
         911         912         917         916
         912         913         918         917
         913         914         919         918
         915         916         921         920
         916         917         922         921
         917         918         923         922
         918         919         924         923
         925         926         931         930
         926         927         932         931
         927         928         933         932
         928         929         934         933
         930         931         936         935
         931         932         937         936
         932         933         938         937
         933         934         939         938
         935         936         941         940
         936         937         942         941
         937         938         943         942
         938         939         944         943
         940         941         946         945
         941         942         947         946
         942         943         948         947
         943         944         949         948
         950         951         956         955
         951         952         957         956
         952         953         958         957
         953         954         959         958
         955         956         961         960
         956         957         962         961
         957         958         963         962
         958         959         964         963
         960         961         966         965
         961         962         967         966
         962         963         968         967
         963         964         969         968
         965         966         971         970
         966         967         972         971
         967         968         973         972
         968         969         974         973
         975         976         981         980
         976         977         982         981
         977         978         983         982
         978         979         984         983
         980         981         986         985
         981         982         987         986
         982         983         988         987
         983         984         989         988
         985         986         991         990
         986         987         992         991
         987         988         993         992
         988         989         994         993
         990         991         996         995
         991         992         997         996
         992         993         998         997
         993         994         999         998
        1000        1001        1006        1005
        1001        1002        1007        1006
        1002        1003        1008        1007
        1003        1004        1009        1008
        1005        1006        1011        1010
        1006        1007        1012        1011
        1007        1008        1013        1012
        1008        1009        1014        1013
        1010        1011        1016        1015
        1011        1012        1017        1016
        1012        1013        1018        1017
        1013        1014        1019        1018
        1015        1016        1021        1020
        1016        1017        1022        1021
        1017        1018        1023        1022
        1018        1019        1024        1023
        1025        1026        1031        1030
        1026        1027        1032        1031
        1027        1028        1033        1032
        1028        1029        1034        1033
        1030        1031        1036        1035
        1031        1032        1037        1036
        1032        1033        1038        1037
        1033        1034        1039        1038
        1035        1036        1041        1040
        1036        1037        1042        1041
        1037        1038        1043        1042
        1038        1039        1044        1043
        1040        1041        1046        1045
        1041        1042        1047        1046
        1042        1043        1048        1047
        1043        1044        1049        1048
        1050        1051        1056        1055
        1051        1052        1057        1056
        1052        1053        1058        1057
        1053        1054        1059        1058
        1055        1056        1061        1060
        1056        1057        1062        1061
        1057        1058        1063        1062
        1058        1059        1064        1063
        1060        1061        1066        1065
        1061        1062        1067        1066
        1062        1063        1068        1067
        1063        1064        1069        1068
        1065        1066        1071        1070
        1066        1067        1072        1071
        1067        1068        1073        1072
        1068        1069        1074        1073
        1075        1076        1081        1080
        1076        1077        1082        1081
        1077        1078        1083        1082
        1078        1079        1084        1083
        1080        1081        1086        1085
        1081        1082        1087        1086
        1082        1083        1088        1087
        1083        1084        1089        1088
        1085        1086        1091        1090
        1086        1087        1092        1091
        1087        1088        1093        1092
        1088        1089        1094        1093
        1090        1091        1096        1095
        1091        1092        1097        1096
        1092        1093        1098        1097
        1093        1094        1099        1098
        1100        1101        1106        1105
        1101        1102        1107        1106
        1102        1103        1108        1107
        1103        1104        1109        1108
        1105        1106        1111        1110
        1106        1107        1112        1111
        1107        1108        1113        1112
        1108        1109        1114        1113
        1110        1111        1116        1115
        1111        1112        1117        1116
        1112        1113        1118        1117
        1113        1114        1119        1118
        1115        1116        1121        1120
        1116        1117        1122        1121
        1117        1118        1123        1122
        1118        1119        1124        1123
        1125        1126        1131        1130
        1126        1127        1132        1131
        1127        1128        1133        1132
        1128        1129        1134        1133
        1130        1131        1136        1135
        1131        1132        1137        1136
        1132        1133        1138        1137
        1133        1134        1139        1138
        1135        1136        1141        1140
        1136        1137        1142        1141
        1137        1138        1143        1142
        1138        1139        1144        1143
        1140        1141        1146        1145
        1141        1142        1147        1146
        1142        1143        1148        1147
        1143        1144        1149        1148
        1150        1151        1156        1155
        1151        1152        1157        1156
        1152        1153        1158        1157
        1153        1154        1159        1158
        1155        1156        1161        1160
        1156        1157        1162        1161
        1157        1158        1163        1162
        1158        1159        1164        1163
        1160        1161        1166        1165
        1161        1162        1167        1166
        1162        1163        1168        1167
        1163        1164        1169        1168
        1165        1166        1171        1170
        1166        1167        1172        1171
        1167        1168        1173        1172
        1168        1169        1174        1173
        1175        1176        1181        1180
        1176        1177        1182        1181
        1177        1178        1183        1182
        1178        1179        1184        1183
        1180        1181        1186        1185
        1181        1182        1187        1186
        1182        1183        1188        1187
        1183        1184        1189        1188
        1185        1186        1191        1190
        1186        1187        1192        1191
        1187        1188        1193        1192
        1188        1189        1194        1193
        1190        1191        1196        1195
        1191        1192        1197        1196
        1192        1193        1198        1197
        1193        1194        1199        1198
        1200        1201        1206        1205
        1201        1202        1207        1206
        1202        1203        1208        1207
        1203        1204        1209        1208
        1205        1206        1211        1210
        1206        1207        1212        1211
        1207        1208        1213        1212
        1208        1209        1214        1213
        1210        1211        1216        1215
        1211        1212        1217        1216
        1212        1213        1218        1217
        1213        1214        1219        1218
        1215        1216        1221        1220
        1216        1217        1222        1221
        1217        1218        1223        1222
        1218        1219        1224        1223
        1225        1226        1231        1230
        1226        1227        1232        1231
        1227        1228        1233        1232
        1228        1229        1234        1233
        1230        1231        1236        1235
        1231        1232        1237        1236
        1232        1233        1238        1237
        1233        1234        1239        1238
        1235        1236        1241        1240
        1236        1237        1242        1241
        1237        1238        1243        1242
        1238        1239        1244        1243
        1240        1241        1246        1245
        1241        1242        1247        1246
        1242        1243        1248        1247
        1243        1244        1249        1248
        1250        1251        1256        1255
        1251        1252        1257        1256
        1252        1253        1258        1257
        1253        1254        1259        1258
        1255        1256        1261        1260
        1256        1257        1262        1261
        1257        1258        1263        1262
        1258        1259        1264        1263
        1260        1261        1266        1265
        1261        1262        1267        1266
        1262        1263        1268        1267
        1263        1264        1269        1268
        1265        1266        1271        1270
        1266        1267        1272        1271
        1267        1268        1273        1272
        1268        1269        1274        1273
        1275        1276        1281        1280
        1276        1277        1282        1281
        1277        1278        1283        1282
        1278        1279        1284        1283
        1280        1281        1286        1285
        1281        1282        1287        1286
        1282        1283        1288        1287
        1283        1284        1289        1288
        1285        1286        1291        1290
        1286        1287        1292        1291
        1287        1288        1293        1292
        1288        1289        1294        1293
        1290        1291        1296        1295
        1291        1292        1297        1296
        1292        1293        1298        1297
        1293        1294        1299        1298
        1300        1301        1306        1305
        1301        1302        1307        1306
        1302        1303        1308        1307
        1303        1304        1309        1308
        1305        1306        1311        1310
        1306        1307        1312        1311
        1307        1308        1313        1312
        1308        1309        1314        1313
        1310        1311        1316        1315
        1311        1312        1317        1316
        1312        1313        1318        1317
        1313        1314        1319        1318
        1315        1316        1321        1320
        1316        1317        1322        1321
        1317        1318        1323        1322
        1318        1319        1324        1323
        1325        1326        1331        1330
        1326        1327        1332        1331
        1327        1328        1333        1332
        1328        1329        1334        1333
        1330        1331        1336        1335
        1331        1332        1337        1336
        1332        1333        1338        1337
        1333        1334        1339        1338
        1335        1336        1341        1340
        1336        1337        1342        1341
        1337        1338        1343        1342
        1338        1339        1344        1343
        1340        1341        1346        1345
        1341        1342        1347        1346
        1342        1343        1348        1347
        1343        1344        1349        1348
        1350        1351        1356        1355
        1351        1352        1357        1356
        1352        1353        1358        1357
        1353        1354        1359        1358
        1355        1356        1361        1360
        1356        1357        1362        1361
        1357        1358        1363        1362
        1358        1359        1364        1363
        1360        1361        1366        1365
        1361        1362        1367        1366
        1362        1363        1368        1367
        1363        1364        1369        1368
        1365        1366        1371        1370
        1366        1367        1372        1371
        1367        1368        1373        1372
        1368        1369        1374        1373
        1375        1376        1381        1380
        1376        1377        1382        1381
        1377        1378        1383        1382
        1378        1379        1384        1383
        1380        1381        1386        1385
        1381        1382        1387        1386
        1382        1383        1388        1387
        1383        1384        1389        1388
        1385        1386        1391        1390
        1386        1387        1392        1391
        1387        1388        1393        1392
        1388        1389        1394        1393
        1390        1391        1396        1395
        1391        1392        1397        1396
        1392        1393        1398        1397
        1393        1394        1399        1398
        1400        1401        1406        1405
        1401        1402        1407        1406
        1402        1403        1408        1407
        1403        1404        1409        1408
        1405        1406        1411        1410
        1406        1407        1412        1411
        1407        1408        1413        1412
        1408        1409        1414        1413
        1410        1411        1416        1415
        1411        1412        1417        1416
        1412        1413        1418        1417
        1413        1414        1419        1418
        1415        1416        1421        1420
        1416        1417        1422        1421
        1417        1418        1423        1422
        1418        1419        1424        1423
        1425        1426        1431        1430
        1426        1427        1432        1431
        1427        1428        1433        1432
        1428        1429        1434        1433
        1430        1431        1436        1435
        1431        1432        1437        1436
        1432        1433        1438        1437
        1433        1434        1439        1438
        1435        1436        1441        1440
        1436        1437        1442        1441
        1437        1438        1443        1442
        1438        1439        1444        1443
        1440        1441        1446        1445
        1441        1442        1447        1446
        1442        1443        1448        1447
        1443        1444        1449        1448
        1450        1451        1456        1455
        1451        1452        1457        1456
        1452        1453        1458        1457
        1453        1454        1459        1458
        1455        1456        1461        1460
        1456        1457        1462        1461
        1457        1458        1463        1462
        1458        1459        1464        1463
        1460        1461        1466        1465
        1461        1462        1467        1466
        1462        1463        1468        1467
        1463        1464        1469        1468
        1465        1466        1471        1470
        1466        1467        1472        1471
        1467        1468        1473        1472
        1468        1469        1474        1473
        1475        1476        1481        1480
        1476        1477        1482        1481
        1477        1478        1483        1482
        1478        1479        1484        1483
        1480        1481        1486        1485
        1481        1482        1487        1486
        1482        1483        1488        1487
        1483        1484        1489        1488
        1485        1486        1491        1490
        1486        1487        1492        1491
        1487        1488        1493        1492
        1488        1489        1494        1493
        1490        1491        1496        1495
        1491        1492        1497        1496
        1492        1493        1498        1497
        1493        1494        1499        1498
        1500        1501        1506        1505
        1501        1502        1507        1506
        1502        1503        1508        1507
        1503        1504        1509        1508
        1505        1506        1511        1510
        1506        1507        1512        1511
        1507        1508        1513        1512
        1508        1509        1514        1513
        1510        1511        1516        1515
        1511        1512        1517        1516
        1512        1513        1518        1517
        1513        1514        1519        1518
        1515        1516        1521        1520
        1516        1517        1522        1521
        1517        1518        1523        1522
        1518        1519        1524        1523
        1525        1526        1531        1530
        1526        1527        1532        1531
        1527        1528        1533        1532
        1528        1529        1534        1533
        1530        1531        1536        1535
        1531        1532        1537        1536
        1532        1533        1538        1537
        1533        1534        1539        1538
        1535        1536        1541        1540
        1536        1537        1542        1541
        1537        1538        1543        1542
        1538        1539        1544        1543
        1540        1541        1546        1545
        1541        1542        1547        1546
        1542        1543        1548        1547
        1543        1544        1549        1548
        1550        1551        1556        1555
        1551        1552        1557        1556
        1552        1553        1558        1557
        1553        1554        1559        1558
        1555        1556        1561        1560
        1556        1557        1562        1561
        1557        1558        1563        1562
        1558        1559        1564        1563
        1560        1561        1566        1565
        1561        1562        1567        1566
        1562        1563        1568        1567
        1563        1564        1569        1568
        1565        1566        1571        1570
        1566        1567        1572        1571
        1567        1568        1573        1572
        1568        1569        1574        1573
        1575        1576        1581        1580
        1576        1577        1582        1581
        1577        1578        1583        1582
        1578        1579        1584        1583
        1580        1581        1586        1585
        1581        1582        1587        1586
        1582        1583        1588        1587
        1583        1584        1589        1588
        1585        1586        1591        1590
        1586        1587        1592        1591
        1587        1588        1593        1592
        1588        1589        1594        1593
        1590        1591        1596        1595
        1591        1592        1597        1596
        1592        1593        1598        1597
        1593        1594        1599        1598
 </DataArray>
 <DataArray  type="Int32"  Name="offsets"  format="ascii"> 
           4
           8
          12
          16
          20
          24
          28
          32
          36
          40
          44
          48
          52
          56
          60
          64
          68
          72
          76
          80
          84
          88
          92
          96
         100
         104
         108
         112
         116
         120
         124
         128
         132
         136
         140
         144
         148
         152
         156
         160
         164
         168
         172
         176
         180
         184
         188
         192
         196
         200
         204
         208
         212
         216
         220
         224
         228
         232
         236
         240
         244
         248
         252
         256
         260
         264
         268
         272
         276
         280
         284
         288
         292
         296
         300
         304
         308
         312
         316
         320
         324
         328
         332
         336
         340
         344
         348
         352
         356
         360
         364
         368
         372
         376
         380
         384
         388
         392
         396
         400
         404
         408
         412
         416
         420
         424
         428
         432
         436
         440
         444
         448
         452
         456
         460
         464
         468
         472
         476
         480
         484
         488
         492
         496
         500
         504
         508
         512
         516
         520
         524
         528
         532
         536
         540
         544
         548
         552
         556
         560
         564
         568
         572
         576
         580
         584
         588
         592
         596
         600
         604
         608
         612
         616
         620
         624
         628
         632
         636
         640
         644
         648
         652
         656
         660
         664
         668
         672
         676
         680
         684
         688
         692
         696
         700
         704
         708
         712
         716
         720
         724
         728
         732
         736
         740
         744
         748
         752
         756
         760
         764
         768
         772
         776
         780
         784
         788
         792
         796
         800
         804
         808
         812
         816
         820
         824
         828
         832
         836
         840
         844
         848
         852
         856
         860
         864
         868
         872
         876
         880
         884
         888
         892
         896
         900
         904
         908
         912
         916
         920
         924
         928
         932
         936
         940
         944
         948
         952
         956
         960
         964
         968
         972
         976
         980
         984
         988
         992
         996
        1000
        1004
        1008
        1012
        1016
        1020
        1024
        1028
        1032
        1036
        1040
        1044
        1048
        1052
        1056
        1060
        1064
        1068
        1072
        1076
        1080
        1084
        1088
        1092
        1096
        1100
        1104
        1108
        1112
        1116
        1120
        1124
        1128
        1132
        1136
        1140
        1144
        1148
        1152
        1156
        1160
        1164
        1168
        1172
        1176
        1180
        1184
        1188
        1192
        1196
        1200
        1204
        1208
        1212
        1216
        1220
        1224
        1228
        1232
        1236
        1240
        1244
        1248
        1252
        1256
        1260
        1264
        1268
        1272
        1276
        1280
        1284
        1288
        1292
        1296
        1300
        1304
        1308
        1312
        1316
        1320
        1324
        1328
        1332
        1336
        1340
        1344
        1348
        1352
        1356
        1360
        1364
        1368
        1372
        1376
        1380
        1384
        1388
        1392
        1396
        1400
        1404
        1408
        1412
        1416
        1420
        1424
        1428
        1432
        1436
        1440
        1444
        1448
        1452
        1456
        1460
        1464
        1468
        1472
        1476
        1480
        1484
        1488
        1492
        1496
        1500
        1504
        1508
        1512
        1516
        1520
        1524
        1528
        1532
        1536
        1540
        1544
        1548
        1552
        1556
        1560
        1564
        1568
        1572
        1576
        1580
        1584
        1588
        1592
        1596
        1600
        1604
        1608
        1612
        1616
        1620
        1624
        1628
        1632
        1636
        1640
        1644
        1648
        1652
        1656
        1660
        1664
        1668
        1672
        1676
        1680
        1684
        1688
        1692
        1696
        1700
        1704
        1708
        1712
        1716
        1720
        1724
        1728
        1732
        1736
        1740
        1744
        1748
        1752
        1756
        1760
        1764
        1768
        1772
        1776
        1780
        1784
        1788
        1792
        1796
        1800
        1804
        1808
        1812
        1816
        1820
        1824
        1828
        1832
        1836
        1840
        1844
        1848
        1852
        1856
        1860
        1864
        1868
        1872
        1876
        1880
        1884
        1888
        1892
        1896
        1900
        1904
        1908
        1912
        1916
        1920
        1924
        1928
        1932
        1936
        1940
        1944
        1948
        1952
        1956
        1960
        1964
        1968
        1972
        1976
        1980
        1984
        1988
        1992
        1996
        2000
        2004
        2008
        2012
        2016
        2020
        2024
        2028
        2032
        2036
        2040
        2044
        2048
        2052
        2056
        2060
        2064
        2068
        2072
        2076
        2080
        2084
        2088
        2092
        2096
        2100
        2104
        2108
        2112
        2116
        2120
        2124
        2128
        2132
        2136
        2140
        2144
        2148
        2152
        2156
        2160
        2164
        2168
        2172
        2176
        2180
        2184
        2188
        2192
        2196
        2200
        2204
        2208
        2212
        2216
        2220
        2224
        2228
        2232
        2236
        2240
        2244
        2248
        2252
        2256
        2260
        2264
        2268
        2272
        2276
        2280
        2284
        2288
        2292
        2296
        2300
        2304
        2308
        2312
        2316
        2320
        2324
        2328
        2332
        2336
        2340
        2344
        2348
        2352
        2356
        2360
        2364
        2368
        2372
        2376
        2380
        2384
        2388
        2392
        2396
        2400
        2404
        2408
        2412
        2416
        2420
        2424
        2428
        2432
        2436
        2440
        2444
        2448
        2452
        2456
        2460
        2464
        2468
        2472
        2476
        2480
        2484
        2488
        2492
        2496
        2500
        2504
        2508
        2512
        2516
        2520
        2524
        2528
        2532
        2536
        2540
        2544
        2548
        2552
        2556
        2560
        2564
        2568
        2572
        2576
        2580
        2584
        2588
        2592
        2596
        2600
        2604
        2608
        2612
        2616
        2620
        2624
        2628
        2632
        2636
        2640
        2644
        2648
        2652
        2656
        2660
        2664
        2668
        2672
        2676
        2680
        2684
        2688
        2692
        2696
        2700
        2704
        2708
        2712
        2716
        2720
        2724
        2728
        2732
        2736
        2740
        2744
        2748
        2752
        2756
        2760
        2764
        2768
        2772
        2776
        2780
        2784
        2788
        2792
        2796
        2800
        2804
        2808
        2812
        2816
        2820
        2824
        2828
        2832
        2836
        2840
        2844
        2848
        2852
        2856
        2860
        2864
        2868
        2872
        2876
        2880
        2884
        2888
        2892
        2896
        2900
        2904
        2908
        2912
        2916
        2920
        2924
        2928
        2932
        2936
        2940
        2944
        2948
        2952
        2956
        2960
        2964
        2968
        2972
        2976
        2980
        2984
        2988
        2992
        2996
        3000
        3004
        3008
        3012
        3016
        3020
        3024
        3028
        3032
        3036
        3040
        3044
        3048
        3052
        3056
        3060
        3064
        3068
        3072
        3076
        3080
        3084
        3088
        3092
        3096
        3100
        3104
        3108
        3112
        3116
        3120
        3124
        3128
        3132
        3136
        3140
        3144
        3148
        3152
        3156
        3160
        3164
        3168
        3172
        3176
        3180
        3184
        3188
        3192
        3196
        3200
        3204
        3208
        3212
        3216
        3220
        3224
        3228
        3232
        3236
        3240
        3244
        3248
        3252
        3256
        3260
        3264
        3268
        3272
        3276
        3280
        3284
        3288
        3292
        3296
        3300
        3304
        3308
        3312
        3316
        3320
        3324
        3328
        3332
        3336
        3340
        3344
        3348
        3352
        3356
        3360
        3364
        3368
        3372
        3376
        3380
        3384
        3388
        3392
        3396
        3400
        3404
        3408
        3412
        3416
        3420
        3424
        3428
        3432
        3436
        3440
        3444
        3448
        3452
        3456
        3460
        3464
        3468
        3472
        3476
        3480
        3484
        3488
        3492
        3496
        3500
        3504
        3508
        3512
        3516
        3520
        3524
        3528
        3532
        3536
        3540
        3544
        3548
        3552
        3556
        3560
        3564
        3568
        3572
        3576
        3580
        3584
        3588
        3592
        3596
        3600
        3604
        3608
        3612
        3616
        3620
        3624
        3628
        3632
        3636
        3640
        3644
        3648
        3652
        3656
        3660
        3664
        3668
        3672
        3676
        3680
        3684
        3688
        3692
        3696
        3700
        3704
        3708
        3712
        3716
        3720
        3724
        3728
        3732
        3736
        3740
        3744
        3748
        3752
        3756
        3760
        3764
        3768
        3772
        3776
        3780
        3784
        3788
        3792
        3796
        3800
        3804
        3808
        3812
        3816
        3820
        3824
        3828
        3832
        3836
        3840
        3844
        3848
        3852
        3856
        3860
        3864
        3868
        3872
        3876
        3880
        3884
        3888
        3892
        3896
        3900
        3904
        3908
        3912
        3916
        3920
        3924
        3928
        3932
        3936
        3940
        3944
        3948
        3952
        3956
        3960
        3964
        3968
        3972
        3976
        3980
        3984
        3988
        3992
        3996
        4000
        4004
        4008
        4012
        4016
        4020
        4024
        4028
        4032
        4036
        4040
        4044
        4048
        4052
        4056
        4060
        4064
        4068
        4072
        4076
        4080
        4084
        4088
        4092
        4096
 </DataArray>
 <DataArray  type="UInt8"  Name="types"  format="ascii">
 9
 9
 9
 9
 9
 9
 9
 9
 9
 9
 9
 9
 9
 9
 9
 9
 9
 9
 9
 9
 9
 9
 9
 9
 9
 9
 9
 9
 9
 9
 9
 9
 9
 9
 9
 9
 9
 9
 9
 9
 9
 9
 9
 9
 9
 9
 9
 9
 9
 9
 9
 9
 9
 9
 9
 9
 9
 9
 9
 9
 9
 9
 9
 9
 9
 9
 9
 9
 9
 9
 9
 9
 9
 9
 9
 9
 9
 9
 9
 9
 9
 9
 9
 9
 9
 9
 9
 9
 9
 9
 9
 9
 9
 9
 9
 9
 9
 9
 9
 9
 9
 9
 9
 9
 9
 9
 9
 9
 9
 9
 9
 9
 9
 9
 9
 9
 9
 9
 9
 9
 9
 9
 9
 9
 9
 9
 9
 9
 9
 9
 9
 9
 9
 9
 9
 9
 9
 9
 9
 9
 9
 9
 9
 9
 9
 9
 9
 9
 9
 9
 9
 9
 9
 9
 9
 9
 9
 9
 9
 9
 9
 9
 9
 9
 9
 9
 9
 9
 9
 9
 9
 9
 9
 9
 9
 9
 9
 9
 9
 9
 9
 9
 9
 9
 9
 9
 9
 9
 9
 9
 9
 9
 9
 9
 9
 9
 9
 9
 9
 9
 9
 9
 9
 9
 9
 9
 9
 9
 9
 9
 9
 9
 9
 9
 9
 9
 9
 9
 9
 9
 9
 9
 9
 9
 9
 9
 9
 9
 9
 9
 9
 9
 9
 9
 9
 9
 9
 9
 9
 9
 9
 9
 9
 9
 9
 9
 9
 9
 9
 9
 9
 9
 9
 9
 9
 9
 9
 9
 9
 9
 9
 9
 9
 9
 9
 9
 9
 9
 9
 9
 9
 9
 9
 9
 9
 9
 9
 9
 9
 9
 9
 9
 9
 9
 9
 9
 9
 9
 9
 9
 9
 9
 9
 9
 9
 9
 9
 9
 9
 9
 9
 9
 9
 9
 9
 9
 9
 9
 9
 9
 9
 9
 9
 9
 9
 9
 9
 9
 9
 9
 9
 9
 9
 9
 9
 9
 9
 9
 9
 9
 9
 9
 9
 9
 9
 9
 9
 9
 9
 9
 9
 9
 9
 9
 9
 9
 9
 9
 9
 9
 9
 9
 9
 9
 9
 9
 9
 9
 9
 9
 9
 9
 9
 9
 9
 9
 9
 9
 9
 9
 9
 9
 9
 9
 9
 9
 9
 9
 9
 9
 9
 9
 9
 9
 9
 9
 9
 9
 9
 9
 9
 9
 9
 9
 9
 9
 9
 9
 9
 9
 9
 9
 9
 9
 9
 9
 9
 9
 9
 9
 9
 9
 9
 9
 9
 9
 9
 9
 9
 9
 9
 9
 9
 9
 9
 9
 9
 9
 9
 9
 9
 9
 9
 9
 9
 9
 9
 9
 9
 9
 9
 9
 9
 9
 9
 9
 9
 9
 9
 9
 9
 9
 9
 9
 9
 9
 9
 9
 9
 9
 9
 9
 9
 9
 9
 9
 9
 9
 9
 9
 9
 9
 9
 9
 9
 9
 9
 9
 9
 9
 9
 9
 9
 9
 9
 9
 9
 9
 9
 9
 9
 9
 9
 9
 9
 9
 9
 9
 9
 9
 9
 9
 9
 9
 9
 9
 9
 9
 9
 9
 9
 9
 9
 9
 9
 9
 9
 9
 9
 9
 9
 9
 9
 9
 9
 9
 9
 9
 9
 9
 9
 9
 9
 9
 9
 9
 9
 9
 9
 9
 9
 9
 9
 9
 9
 9
 9
 9
 9
 9
 9
 9
 9
 9
 9
 9
 9
 9
 9
 9
 9
 9
 9
 9
 9
 9
 9
 9
 9
 9
 9
 9
 9
 9
 9
 9
 9
 9
 9
 9
 9
 9
 9
 9
 9
 9
 9
 9
 9
 9
 9
 9
 9
 9
 9
 9
 9
 9
 9
 9
 9
 9
 9
 9
 9
 9
 9
 9
 9
 9
 9
 9
 9
 9
 9
 9
 9
 9
 9
 9
 9
 9
 9
 9
 9
 9
 9
 9
 9
 9
 9
 9
 9
 9
 9
 9
 9
 9
 9
 9
 9
 9
 9
 9
 9
 9
 9
 9
 9
 9
 9
 9
 9
 9
 9
 9
 9
 9
 9
 9
 9
 9
 9
 9
 9
 9
 9
 9
 9
 9
 9
 9
 9
 9
 9
 9
 9
 9
 9
 9
 9
 9
 9
 9
 9
 9
 9
 9
 9
 9
 9
 9
 9
 9
 9
 9
 9
 9
 9
 9
 9
 9
 9
 9
 9
 9
 9
 9
 9
 9
 9
 9
 9
 9
 9
 9
 9
 9
 9
 9
 9
 9
 9
 9
 9
 9
 9
 9
 9
 9
 9
 9
 9
 9
 9
 9
 9
 9
 9
 9
 9
 9
 9
 9
 9
 9
 9
 9
 9
 9
 9
 9
 9
 9
 9
 9
 9
 9
 9
 9
 9
 9
 9
 9
 9
 9
 9
 9
 9
 9
 9
 9
 9
 9
 9
 9
 9
 9
 9
 9
 9
 9
 9
 9
 9
 9
 9
 9
 9
 9
 9
 9
 9
 9
 9
 9
 9
 9
 9
 9
 9
 9
 9
 9
 9
 9
 9
 9
 9
 9
 9
 9
 9
 9
 9
 9
 9
 9
 9
 9
 9
 9
 9
 9
 9
 9
 9
 9
 9
 9
 9
 9
 9
 9
 9
 9
 9
 9
 9
 9
 9
 9
 9
 9
 9
 9
 9
 9
 9
 9
 9
 9
 9
 9
 9
 9
 9
 9
 9
 9
 9
 9
 9
 9
 9
 9
 9
 9
 9
 9
 9
 9
 9
 9
 9
 9
 9
 9
 9
 9
 9
 9
 9
 9
 9
 9
 9
 9
 9
 9
 9
 9
 9
 9
 9
 9
 9
 9
 9
 9
 9
 9
 9
 9
 9
 9
 9
 9
 9
 9
 9
 9
 9
 9
 9
 9
 9
 9
 9
 9
 9
 9
 9
 9
 9
 9
 9
 9
 9
 9
 9
 9
 9
 9
 9
 9
 9
 9
 9
 9
 9
 9
 9
 9
 9
 9
 9
 9
 9
 9
 9
 9
 9
 9
 9
 9
 9
 9
 9
 9
 9
 9
 9
 9
 9
 9
 9
 9
 9
 9
 9
 9
 9
 9
 9
 9
 9
 9
 9
 9
 9
 9
 9
 9
 9
 9
 9
 9
 9
 9
 9
 9
 9
 9
 9
 9
 9
 9
 9
 9
 9
 9
 9
 9
 9
 9
 9
 9
 9
 9
 9
 9
 9
 9
 9
 9
 9
 9
 9
 9
 9
 9
 9
 9
 </DataArray>
 </Cells> 
 <PointData>
 <DataArray  type="Float64" Name="disp" NumberOfComponents="3" format="ascii">
   6.5293009871200569E-002   6.2750537734470438E-002   0.0000000000000000     
   6.8376425950081199E-002   6.8162161764895243E-002   0.0000000000000000     
   7.1352952227841521E-002   7.3744626412210273E-002   0.0000000000000000     
   7.4222588704481562E-002   7.9497931676415515E-002   0.0000000000000000     
   7.6985335380001282E-002   8.5422077557510995E-002   0.0000000000000000     
   6.0123529184816941E-002   6.1885770390085464E-002   0.0000000000000000     
   6.3015977492228370E-002   6.7300964717988743E-002   0.0000000000000000     
   6.5807794608341880E-002   7.2895554740614127E-002   0.0000000000000000     
   6.8498980533157464E-002   7.8669540457961651E-002   0.0000000000000000     
   7.1089535266675136E-002   8.4622921870031287E-002   0.0000000000000000     
   5.5145565058071278E-002   6.1058839605244372E-002   0.0000000000000000     
   5.7848454976222943E-002   6.6487218581866681E-002   0.0000000000000000     
   6.0456627751751216E-002   7.2099678928085359E-002   0.0000000000000000     
   6.2970083384656109E-002   7.7896220643900435E-002   0.0000000000000000     
   6.5388821874937622E-002   8.3876843729311909E-002   0.0000000000000000     
   5.0359117490963570E-002   6.0269745379947157E-002   0.0000000000000000     
   5.2873858402064926E-002   6.5720923356529057E-002   0.0000000000000000     
   5.5299451658069557E-002   7.1356998974623956E-002   0.0000000000000000     
   5.7635897258977491E-002   7.7177972234231867E-002   0.0000000000000000     
   5.9883195204788693E-002   8.3183843135352806E-002   0.0000000000000000     
   4.5764186483493813E-002   5.9518487714193824E-002   0.0000000000000000     
   4.8092187769754303E-002   6.5002079041975871E-002   0.0000000000000000     
   5.0336266327296895E-002   7.0667514880229931E-002   0.0000000000000000     
   5.2496422156121589E-002   7.6514795228955976E-002   0.0000000000000000     
   5.4572655256228397E-002   8.2543920088154032E-002   0.0000000000000000     
   7.6985335380001282E-002   8.5422077557510995E-002   0.0000000000000000     
   7.9650457878399278E-002   9.1511601437113149E-002   0.0000000000000000     
   8.2227221823674174E-002   9.7761040696838428E-002   0.0000000000000000     
   8.4715627215825928E-002  0.10417039533668683        0.0000000000000000     
   8.7115674054854569E-002  0.11073966535665837        0.0000000000000000     
   7.1089535266675136E-002   8.4622921870031287E-002   0.0000000000000000     
   7.3588606474124074E-002   9.0745037245798077E-002   0.0000000000000000     
   7.6005341820733444E-002   9.7025224854237035E-002   0.0000000000000000     
   7.8339741306503258E-002  0.10346348469534816        0.0000000000000000     
   8.0591804931433503E-002  0.11005981676913146        0.0000000000000000     
   6.5388821874937622E-002   8.3876843729311909E-002   0.0000000000000000     
   6.7721909198670244E-002   9.0028001839615956E-002   0.0000000000000000     
   6.9978411331928517E-002   9.6336148630108823E-002   0.0000000000000000     
   7.2158328274712441E-002  0.10280128410079054        0.0000000000000000     
   7.4261660027022003E-002  0.10942340825166108        0.0000000000000000     
   5.9883195204788693E-002   8.3183843135352806E-002   0.0000000000000000     
   6.2050366052037807E-002   8.9360495218566788E-002   0.0000000000000000     
   6.4146430357259407E-002   9.5693812024453831E-002   0.0000000000000000     
   6.6171388120453506E-002  0.10218379355301399        0.0000000000000000     
   6.8125239341620111E-002  0.10883043980424720        0.0000000000000000     
   5.4572655256228397E-002   8.2543920088154032E-002   0.0000000000000000     
   5.6573977034226744E-002   8.8742517382650557E-002   0.0000000000000000     
   5.8509398896726114E-002   9.5098215037272033E-002   0.0000000000000000     
   6.0378920843726466E-002  0.10161101305201847        0.0000000000000000     
   6.2182542875227828E-002  0.10828091142688986        0.0000000000000000     
   8.7115674054854569E-002  0.11073966535665837        0.0000000000000000     
   8.9421342844532903E-002  0.11745521071383141        0.0000000000000000     
   9.1626614088633734E-002  0.12430339136528437        0.0000000000000000     
   9.3731487787157064E-002  0.13128420731101725        0.0000000000000000     
   9.5735963940102919E-002  0.13839765855103003        0.0000000000000000     
   8.0591804931433503E-002  0.11005981676913146        0.0000000000000000     
   8.2755224478244321E-002  0.11680179647491738        0.0000000000000000     
   8.4823691729655856E-002  0.12367699921203631        0.0000000000000000     
   8.6797206685668107E-002  0.13068542498048821        0.0000000000000000     
   8.8675769346281075E-002  0.13782707378027317        0.0000000000000000     
   7.4261660027022003E-002  0.10942340825166108        0.0000000000000000     
   7.6282019802471929E-002  0.11619082191471469        0.0000000000000000     
   7.8213020814676917E-002  0.12309182592194558        0.0000000000000000     
   8.0054663063636955E-002  0.13012642027335380        0.0000000000000000     
   8.1806946549352069E-002  0.13729460496893933        0.0000000000000000     
   6.8125239341620111E-002  0.10883043980424720        0.0000000000000000     
   7.0001728817215753E-002  0.11562228703322336        0.0000000000000000     
   7.1794601343696904E-002  0.12254787149501231        0.0000000000000000     
   7.3503856921063621E-002  0.12960719318961403        0.0000000000000000     
   7.5129495549315833E-002  0.13680025211702851        0.0000000000000000     
   6.2182542875227828E-002  0.10828091142688986        0.0000000000000000     
   6.3914351522475765E-002  0.11509619183044342        0.0000000000000000     
   6.5568433316715830E-002  0.12204513593123643        0.0000000000000000     
   6.7144788257948063E-002  0.12912774372926886        0.0000000000000000     
   6.8643416346172437E-002  0.13634401522454073        0.0000000000000000     
   9.5735963940102919E-002  0.13839765855103003        0.0000000000000000     
   9.7644553518404148E-002  0.14563252324435122        0.0000000000000000     
   9.9461767492993694E-002  0.15297757955000932        0.0000000000000000     
  0.10118760586387153       0.16043282746800433        0.0000000000000000     
  0.10282206863103766       0.16799826699833628        0.0000000000000000     
   8.8675769346281075E-002  0.13782707378027317        0.0000000000000000     
   9.0464171224140313E-002  0.14508999480908930        0.0000000000000000     
   9.2167203831891337E-002  0.15246223726463484        0.0000000000000000     
   9.3784867169534158E-002  0.15994380114690979        0.0000000000000000     
   9.5317161237068779E-002  0.16753468645591413        0.0000000000000000     
   8.1806946549352069E-002  0.13729460496893933        0.0000000000000000     
   8.3474565639857112E-002  0.14458402092010078        0.0000000000000000     
   8.5062214703187033E-002  0.15198230903823673        0.0000000000000000     
   8.6569893739341791E-002  0.15948946932334729        0.0000000000000000     
   8.7997602748321399E-002  0.16710550177543243        0.0000000000000000     
   7.5129495549315833E-002  0.13680025211702851        0.0000000000000000     
   7.6675736765554586E-002  0.14411460157738559        0.0000000000000000     
   7.8146800106880757E-002  0.15153779487081503        0.0000000000000000     
   7.9542685573294414E-002  0.15906983199731692        0.0000000000000000     
   8.0863393164795516E-002  0.16671071295689122        0.0000000000000000     
   6.8643416346172437E-002  0.13634401522454073        0.0000000000000000     
   7.0067684601232694E-002  0.14368173678094376        0.0000000000000000     
   7.1420960042972575E-002  0.15112869476236976        0.0000000000000000     
   7.2703242671392054E-002  0.15868488916881862        0.0000000000000000     
   7.3914532486491158E-002  0.16635032000029043        0.0000000000000000     
  0.10282206863103766       0.16799826699833628        0.0000000000000000     
  0.10436802935722435       0.17566357756274664        0.0000000000000000     
  0.10582836160516390       0.18341843858297693        0.0000000000000000     
  0.10720306537485629       0.19126285005902710        0.0000000000000000     
  0.10849214066630153       0.19919681199089717        0.0000000000000000     
   9.5317161237068779E-002  0.16753468645591413        0.0000000000000000     
   9.6764799130908519E-002  0.17522532623396683        0.0000000000000000     
   9.8128493947466672E-002  0.18300615352338695        0.0000000000000000     
   9.9408245686743280E-002  0.19087716832417448        0.0000000000000000     
  0.10060405434873831       0.19883837063632934        0.0000000000000000     
   8.7997602748321399E-002  0.16710550177543243        0.0000000000000000     
   8.9344537727553922E-002  0.17482117543506828        0.0000000000000000     
   9.0609894674467450E-002  0.18262725934283111        0.0000000000000000     
   9.1793673589061958E-002  0.19052375349872086        0.0000000000000000     
   9.2895874471337431E-002  0.19851065790273759        0.0000000000000000     
   8.0863393164795516E-002  0.16671071295689122        0.0000000000000000     
   8.2107245147160626E-002  0.17445112516605096        0.0000000000000000     
   8.3272563786166223E-002  0.18228175604130939        0.0000000000000000     
   8.4359349081812335E-002  0.19020260558266636        0.0000000000000000     
   8.5367601034098933E-002  0.19821367379012200        0.0000000000000000     
   7.3914532486491158E-002  0.16635032000029043        0.0000000000000000     
   7.5052921389728564E-002  0.17411517542691490        0.0000000000000000     
   7.6116501282562976E-002  0.18196964361882176        0.0000000000000000     
   7.7105272164994382E-002  0.18991372457601094        0.0000000000000000     
   7.8019234037022808E-002  0.19794741829848250        0.0000000000000000     
  0.10849214066630153       0.19919681199089717        0.0000000000000000     
  0.10970063527968629       0.20721638230200698        0.0000000000000000     
  0.11083359701519724       0.21531761891577614        0.0000000000000000     
  0.11189102587283439       0.22350052183220478        0.0000000000000000     
  0.11287292185259773       0.23176509105129284        0.0000000000000000     
  0.10060405434873831       0.19883837063632934        0.0000000000000000     
  0.10172128276706718       0.20688342281693828        0.0000000000000000     
  0.10276529377534534       0.21500598722308792        0.0000000000000000     
  0.10373608737357275       0.22320606385477820        0.0000000000000000     
  0.10463366356174944       0.23148365271200921        0.0000000000000000     
   9.2895874471337431E-002  0.19851065790273759        0.0000000000000000     
   9.3921255853847349E-002  0.20658030293737434        0.0000000000000000     
   9.4874576269145139E-002  0.21472501898512414        0.0000000000000000     
   9.5755835717230786E-002  0.22294480604598693        0.0000000000000000     
   9.6565034198104333E-002  0.23123966411996277        0.0000000000000000     
   8.5367601034098933E-002  0.19821367379012200        0.0000000000000000     
   8.6300554540026830E-002  0.20630702266331513        0.0000000000000000     
   8.7161444496596685E-002  0.21447471420188483        0.0000000000000000     
   8.7950270903808567E-002  0.22271674840583092        0.0000000000000000     
   8.8667033761662448E-002  0.23103312527515346        0.0000000000000000     
   7.8019234037022808E-002  0.19794741829848250        0.0000000000000000     
   7.8859178825605544E-002  0.20606358199476074        0.0000000000000000     
   7.9625898457699962E-002  0.21425507287336998        0.0000000000000000     
   8.0319392933306019E-002  0.22252189093431018        0.0000000000000000     
   8.0939662252423744E-002  0.23086403617758128        0.0000000000000000     
  0.11287292185259773       0.23176509105129284        0.0000000000000000     
  0.11380755546925800       0.24012794188154390        0.0000000000000000     
  0.11472319723758596       0.24860568963146157        0.0000000000000000     
  0.11561984715758158       0.25719833430104594        0.0000000000000000     
  0.11649750522924490       0.26590587589029685        0.0000000000000000     
  0.10463366356174944       0.23148365271200921        0.0000000000000000     
  0.10546306335475719       0.23986225135524386        0.0000000000000000     
  0.10622932776747783       0.24836535734494505        0.0000000000000000     
  0.10693245679991135       0.25699297068111282        0.0000000000000000     
  0.10757245045205775       0.26574509136374713        0.0000000000000000     
   9.6565034198104333E-002  0.23123966411996277        0.0000000000000000     
   9.7292987235641962E-002  0.23963604851660064        0.0000000000000000     
   9.7930510353719885E-002  0.24816041454544960        0.0000000000000000     
   9.8477603552338103E-002  0.25681276220650967        0.0000000000000000     
   9.8934266831496656E-002  0.26559309149978078        0.0000000000000000     
   8.8667033761662448E-002  0.23103312527515346        0.0000000000000000     
   8.9297327111912295E-002  0.23944933336561433        0.0000000000000000     
   8.9826744996312102E-002  0.24799086123297531        0.0000000000000000     
   9.0255287414861871E-002  0.25665770887723649        0.0000000000000000     
   9.0582954367561586E-002  0.26544987629839772        0.0000000000000000     
   8.0939662252423744E-002  0.23086403617758128        0.0000000000000000     
   8.1476082983568218E-002  0.23930210590228482        0.0000000000000000     
   8.1918031695254523E-002  0.24785669740752214        0.0000000000000000     
   8.2265508387482644E-002  0.25652781069329328        0.0000000000000000     
   8.2518513060252582E-002  0.26531544575959809        0.0000000000000000     
  0.11649750522924490       0.26590587589029685        0.0000000000000000     
  0.11729649652578734       0.27489288134704482        0.0000000000000000     
  0.11795714612042037       0.28432391761912035        0.0000000000000000     
  0.11847945401314398       0.29419898470652339        0.0000000000000000     
  0.11886342020395818       0.30451808260925395        0.0000000000000000     
  0.10757245045205775       0.26574509136374713        0.0000000000000000     
  0.10813033389889695       0.27475385180624273        0.0000000000000000     
  0.10858713231540888       0.28415138442199422        0.0000000000000000     
  0.10894284570159354       0.29393768921100177        0.0000000000000000     
  0.10919747405745091       0.30411276617326521        0.0000000000000000     
   9.8934266831496656E-002  0.26559309149978078        0.0000000000000000     
   9.9311535162008774E-002  0.27459969721571659        0.0000000000000000     
   9.9620443514687795E-002  0.28393087414477086        0.0000000000000000     
   9.9860991889533665E-002  0.29358662228694354        0.0000000000000000     
  0.10003318028654644       0.30356694164223463        0.0000000000000000     
   9.0582954367561586E-002  0.26544987629839772        0.0000000000000000     
   9.0840100315122810E-002  0.27443041757546660        0.0000000000000000     
   9.1057079718257092E-002  0.28366238678745015        0.0000000000000000     
   9.1233892576964390E-002  0.29314578393434870        0.0000000000000000     
   9.1370538891244760E-002  0.30288060901616209        0.0000000000000000     
   8.2518513060252582E-002  0.26531544575959809        0.0000000000000000     
   8.2716029358239074E-002  0.27424601288549255        0.0000000000000000     
   8.2897040926116772E-002  0.28334592235003225        0.0000000000000000     
   8.3061547763885732E-002  0.29261517415321725        0.0000000000000000     
   8.3209549871545913E-002  0.30205376829504760        0.0000000000000000     
   4.5764186483493813E-002   5.9518487714193824E-002   0.0000000000000000     
   4.8092187769754303E-002   6.5002079041975871E-002   0.0000000000000000     
   5.0336266327296895E-002   7.0667514880229931E-002   0.0000000000000000     
   5.2496422156121589E-002   7.6514795228955976E-002   0.0000000000000000     
   5.4572655256228397E-002   8.2543920088154032E-002   0.0000000000000000     
   4.1339533116090774E-002   5.8822856744179516E-002   0.0000000000000000     
   4.3479892599637922E-002   6.4339008111634469E-002   0.0000000000000000     
   4.5541823523672725E-002   7.0033220697025306E-002   0.0000000000000000     
   4.7525325888195191E-002   7.5905494500352028E-002   0.0000000000000000     
   4.9430399693205299E-002   8.1955829521614662E-002   0.0000000000000000     
   3.7063918469183200E-002   5.8200642606099362E-002   0.0000000000000000     
   3.9013422412062626E-002   6.3740033038932151E-002   0.0000000000000000     
   4.0890875011436567E-002   6.9456110477132127E-002   0.0000000000000000     
   4.2696276267305044E-002   7.5348874920699360E-002   0.0000000000000000     
   4.4429626179668044E-002   8.1418326369633823E-002   0.0000000000000000     
   3.2937342542771079E-002   5.7651845299953389E-002   0.0000000000000000     
   3.4692777207028389E-002   6.3205153823868918E-002   0.0000000000000000     
   3.6383420790588421E-002   6.8936184220550437E-002   0.0000000000000000     
   3.8009273293451155E-002   7.4844936489997946E-002   0.0000000000000000     
   3.9570334715616620E-002   8.0931410632211445E-002   0.0000000000000000     
   2.8959805336854418E-002   5.7176464825741569E-002   0.0000000000000000     
   3.0517956984535227E-002   6.2734370466444783E-002   0.0000000000000000     
   3.2019460861128266E-002   6.8473441927280179E-002   0.0000000000000000     
   3.3464316966633524E-002   7.4393679208247798E-002   0.0000000000000000     
   3.4852525301051006E-002   8.0495082309347613E-002   0.0000000000000000     
   5.4572655256228397E-002   8.2543920088154032E-002   0.0000000000000000     
   5.6573977034226744E-002   8.8742517382650557E-002   0.0000000000000000     
   5.8509398896726114E-002   9.5098215037272033E-002   0.0000000000000000     
   6.0378920843726466E-002  0.10161101305201847        0.0000000000000000     
   6.2182542875227828E-002  0.10828091142688986        0.0000000000000000     
   4.9430399693205299E-002   8.1955829521614662E-002   0.0000000000000000     
   5.1265857693020452E-002   8.8174091995810222E-002   0.0000000000000000     
   5.3040512641958006E-002   9.4550148157935734E-002   0.0000000000000000     
   5.4754364540017947E-002  0.10108399800799117        0.0000000000000000     
   5.6407413387200296E-002  0.10777564154597657        0.0000000000000000     
   4.4429626179668044E-002   8.1418326369633823E-002   0.0000000000000000     
   4.6099123576202293E-002   8.7655242721988685E-002   0.0000000000000000     
   4.7712967284584490E-002   9.4050401875817161E-002   0.0000000000000000     
   4.9271157304814635E-002  0.10060380383111926        0.0000000000000000     
   5.0773693636892721E-002  0.10731544858789498        0.0000000000000000     
   3.9570334715616620E-002   8.0931410632211445E-002   0.0000000000000000     
   4.1073774683772254E-002   8.7185969561185947E-002   0.0000000000000000     
   4.2526762824605546E-002   9.3598976190916353E-002   0.0000000000000000     
   4.3929299138116489E-002  0.10017043052140273        0.0000000000000000     
   4.5281383624305088E-002  0.10690033255264501        0.0000000000000000     
   3.4852525301051006E-002   8.0495082309347613E-002   0.0000000000000000     
   3.6189811015730357E-002   8.6766272513401993E-002   0.0000000000000000     
   3.7481899262021202E-002   9.3195871103233310E-002   0.0000000000000000     
   3.8728790039923564E-002   9.9783878078841551E-002   0.0000000000000000     
   3.9930483349437426E-002  0.10653029344022671        0.0000000000000000     
   6.2182542875227828E-002  0.10828091142688986        0.0000000000000000     
   6.3914351522475765E-002  0.11509619183044342        0.0000000000000000     
   6.5568433316715830E-002  0.12204513593123643        0.0000000000000000     
   6.7144788257948063E-002  0.12912774372926886        0.0000000000000000     
   6.8643416346172437E-002  0.13634401522454073        0.0000000000000000     
   5.6407413387200296E-002  0.10777564154597657        0.0000000000000000     
   5.7994180400498772E-002  0.11461296852307420        0.0000000000000000     
   5.9509186796907088E-002  0.12158386869046631        0.0000000000000000     
   6.0952432576425256E-002  0.12868834204815288        0.0000000000000000     
   6.2323917739053269E-002  0.13592638859613396        0.0000000000000000     
   5.0773693636892721E-002  0.10731544858789498        0.0000000000000000     
   5.2215507933531580E-002  0.11417304932781505        0.0000000000000000     
   5.3591531847444050E-002  0.12116431923255030        0.0000000000000000     
   5.4901765378630112E-002  0.12828925830210069        0.0000000000000000     
   5.6146208527089757E-002  0.13554786653646619        0.0000000000000000     
   4.5281383624305088E-002  0.10690033255264501        0.0000000000000000     
   4.6578334121574215E-002  0.11377643424466599        0.0000000000000000     
   4.7815468468326718E-002  0.12078648755748837        0.0000000000000000     
   4.8992786664562610E-002  0.12793049249111216        0.0000000000000000     
   5.0110288710281892E-002  0.13520844904553744        0.0000000000000000     
   3.9930483349437426E-002  0.10653029344022671        0.0000000000000000     
   4.1082658964626644E-002  0.11342312327362701        0.0000000000000000     
   4.2180996659555103E-002  0.12045037366528058        0.0000000000000000     
   4.3225496434222778E-002  0.12761204461518746        0.0000000000000000     
   4.4216158288629681E-002  0.13490813612334765        0.0000000000000000     
   6.8643416346172437E-002  0.13634401522454073        0.0000000000000000     
   7.0067684601232694E-002  0.14368173678094376        0.0000000000000000     
   7.1420960042972575E-002  0.15112869476236976        0.0000000000000000     
   7.2703242671392054E-002  0.15868488916881862        0.0000000000000000     
   7.3914532486491158E-002  0.16635032000029043        0.0000000000000000     
   6.2323917739053269E-002  0.13592638859613396        0.0000000000000000     
   6.3626084492505341E-002  0.14328611016659817        0.0000000000000000     
   6.4861375044495670E-002  0.15075560859173423        0.0000000000000000     
   6.6029789395024269E-002  0.15833488387154207        0.0000000000000000     
   6.7131327544091124E-002  0.16602393600602175        0.0000000000000000     
   5.6146208527089757E-002  0.13554786653646619        0.0000000000000000     
   5.7326611784986367E-002  0.14292840537017165        0.0000000000000000     
   5.8444725644483317E-002  0.15041913623774195        0.0000000000000000     
   5.9500550105580620E-002  0.15802005913917688        0.0000000000000000     
   6.0494085168278248E-002  0.16573117407447671        0.0000000000000000     
   5.0110288710281892E-002  0.13520844904553744        0.0000000000000000     
   5.1169266478675784E-002  0.14260862239166425        0.0000000000000000     
   5.2171011842935523E-002  0.15011927770039279        0.0000000000000000     
   5.3115524803061108E-002  0.15774041497172320        0.0000000000000000     
   5.4002805359052539E-002  0.16547203420565534        0.0000000000000000     
   4.4216158288629681E-002  0.13490813612334765        0.0000000000000000     
   4.5154048573573587E-002  0.14232676123107588        0.0000000000000000     
   4.6040233639852282E-002  0.14985603297968697        0.0000000000000000     
   4.6874713487465740E-002  0.15749595136918082        0.0000000000000000     
   4.7657488116413987E-002  0.16524651639955754        0.0000000000000000     
   7.3914532486491158E-002  0.16635032000029043        0.0000000000000000     
   7.5052921389728564E-002  0.17411517542691490        0.0000000000000000     
   7.6116501282562976E-002  0.18196964361882176        0.0000000000000000     
   7.7105272164994382E-002  0.18991372457601094        0.0000000000000000     
   7.8019234037022808E-002  0.19794741829848250        0.0000000000000000     
   6.7131327544091124E-002  0.16602393600602175        0.0000000000000000     
   6.8164134117645256E-002  0.17381234775102564        0.0000000000000000     
   6.9126353741635671E-002  0.18168970186240616        0.0000000000000000     
   7.0017986416062356E-002  0.18965599834016322        0.0000000000000000     
   7.0839032140925337E-002  0.19771123718429703        0.0000000000000000     
   6.0494085168278248E-002  0.16573117407447671        0.0000000000000000     
   6.1423450993298150E-002  0.17354166367174875        0.0000000000000000     
   6.2286767741362208E-002  0.18144071055910052        0.0000000000000000     
   6.3084035412470443E-002  0.18942831473653210        0.0000000000000000     
   6.3815254006622843E-002  0.19750447620404343        0.0000000000000000     
   5.4002805359052539E-002  0.16547203420565534        0.0000000000000000     
   5.4830872016687224E-002  0.17330312318908420        0.0000000000000000     
   5.5597743281742593E-002  0.18122266970890491        0.0000000000000000     
   5.6303419154218631E-002  0.18923067376511743        0.0000000000000000     
   5.6947899634115340E-002  0.19732713535772173        0.0000000000000000     
   4.7657488116413987E-002  0.16524651639955754        0.0000000000000000     
   4.8386397187812513E-002  0.17309672630303205        0.0000000000000000     
   4.9059280362776833E-002  0.18103557931181927        0.0000000000000000     
   4.9676137641306926E-002  0.18906307542591921        0.0000000000000000     
   5.0236969023402814E-002  0.19717921464533184        0.0000000000000000     
   7.8019234037022808E-002  0.19794741829848250        0.0000000000000000     
   7.8859178825605544E-002  0.20606358199476074        0.0000000000000000     
   7.9625898457699962E-002  0.21425507287336998        0.0000000000000000     
   8.0319392933306019E-002  0.22252189093431018        0.0000000000000000     
   8.0939662252423744E-002  0.23086403617758128        0.0000000000000000     
   7.0839032140925337E-002  0.19771123718429703        0.0000000000000000     
   7.1587912814367105E-002  0.20584918567107208        0.0000000000000000     
   7.2263050334530177E-002  0.21406361107675315        0.0000000000000000     
   7.2864444701414524E-002  0.22235451340134019        0.0000000000000000     
   7.3392095915020189E-002  0.23072189264483314        0.0000000000000000     
   6.3815254006622843E-002  0.19750447620404343        0.0000000000000000     
   6.4477540610095030E-002  0.20566303843161010        0.0000000000000000     
   6.5068012309162551E-002  0.21389784488920777        0.0000000000000000     
   6.5586669103825448E-002  0.22220889557683632        0.0000000000000000     
   6.6033510994083708E-002  0.23059619049449598        0.0000000000000000     
   5.6947899634115340E-002  0.19732713535772173        0.0000000000000000     
   5.7528062212789312E-002  0.20550514027637484        0.0000000000000000     
   5.8040784381597141E-002  0.21375777431073389        0.0000000000000000     
   5.8486066140538792E-002  0.22208503746079883        0.0000000000000000     
   5.8863907489614301E-002  0.23048692972656967        0.0000000000000000     
   5.0236969023402814E-002  0.19717921464533184        0.0000000000000000     
   5.0739477622449972E-002  0.20537549120536630        0.0000000000000000     
   5.1181366551833876E-002  0.21364339934133153        0.0000000000000000     
   5.1562635811554541E-002  0.22198293905322750        0.0000000000000000     
   5.1883285401611967E-002  0.23039411034105428        0.0000000000000000     
   8.0939662252423744E-002  0.23086403617758128        0.0000000000000000     
   8.1476082983568218E-002  0.23930210590228482        0.0000000000000000     
   8.1918031695254523E-002  0.24785669740752214        0.0000000000000000     
   8.2265508387482644E-002  0.25652781069329328        0.0000000000000000     
   8.2518513060252582E-002  0.26531544575959809        0.0000000000000000     
   7.3392095915020189E-002  0.23072189264483314        0.0000000000000000     
   7.3842763822807272E-002  0.23917939594565760        0.0000000000000000     
   7.4213208272235903E-002  0.24774067044223883        0.0000000000000000     
   7.4503429263306081E-002  0.25640571613457680        0.0000000000000000     
   7.4713426796017834E-002  0.26517453302267158        0.0000000000000000     
   6.6033510994083708E-002  0.23059619049449598        0.0000000000000000     
   6.6410878601827011E-002  0.23906623331477803        0.0000000000000000     
   6.6721112548945083E-002  0.24762552771027407        0.0000000000000000     
   6.6964212835437922E-002  0.25627407368098404        0.0000000000000000     
   6.7140179461305516E-002  0.26501187122690800        0.0000000000000000     
   5.8863907489614301E-002  0.23048692972656967        0.0000000000000000     
   5.9180427320627449E-002  0.23896261800964613        0.0000000000000000     
   5.9441744525382062E-002  0.24751126921162789        0.0000000000000000     
   5.9647859103878133E-002  0.25613288333251494        0.0000000000000000     
   5.9798771056115675E-002  0.26482746037230726        0.0000000000000000     
   5.1883285401611967E-002  0.23039411034105428        0.0000000000000000     
   5.2151409979208585E-002  0.23886855003026186        0.0000000000000000     
   5.2375104201546840E-002  0.24739789494630030        0.0000000000000000     
   5.2554368068626740E-002  0.25598214508916944        0.0000000000000000     
   5.2689201580448271E-002  0.26462130045886956        0.0000000000000000     
   8.2518513060252582E-002  0.26531544575959809        0.0000000000000000     
   8.2716029358239074E-002  0.27424601288549255        0.0000000000000000     
   8.2897040926116772E-002  0.28334592235003225        0.0000000000000000     
   8.3061547763885732E-002  0.29261517415321725        0.0000000000000000     
   8.3209549871545913E-002  0.30205376829504760        0.0000000000000000     
   7.4713426796017834E-002  0.26517453302267158        0.0000000000000000     
   7.4884137928042493E-002  0.27404079500681527        0.0000000000000000     
   7.5056499717051459E-002  0.28299817598729998        0.0000000000000000     
   7.5230512163044716E-002  0.29204667596412559        0.0000000000000000     
   7.5406175266022252E-002  0.30118629493729238        0.0000000000000000     
   6.7140179461305516E-002  0.26501187122690800        0.0000000000000000     
   6.7289241661218066E-002  0.27380907580045555        0.0000000000000000     
   6.7451628669845679E-002  0.28263584285403631        0.0000000000000000     
   6.7627340487188409E-002  0.29149217238765041        0.0000000000000000     
   6.7816377113246215E-002  0.30037806440129766        0.0000000000000000     
   5.9798771056115675E-002  0.26482746037230726        0.0000000000000000     
   5.9931340557765743E-002  0.27355085526641332        0.0000000000000000     
   6.0082427784499466E-002  0.28225892295024141        0.0000000000000000     
   6.0252032736316817E-002  0.29095166342379136        0.0000000000000000     
   6.0440155413217810E-002  0.29962907668706340        0.0000000000000000     
   5.2689201580448271E-002  0.26462130045886956        0.0000000000000000     
   5.2810434617685587E-002  0.27326613340468864        0.0000000000000000     
   5.2948897061012815E-002  0.28186741627591499        0.0000000000000000     
   5.3104588910429948E-002  0.29042514907254868        0.0000000000000000     
   5.3277510165937007E-002  0.29893933179458965        0.0000000000000000     
   2.8959805336854418E-002   5.7176464825741569E-002   0.0000000000000000     
   3.0517956984535227E-002   6.2734370466444783E-002   0.0000000000000000     
   3.2019460861128266E-002   6.8473441927280179E-002   0.0000000000000000     
   3.3464316966633524E-002   7.4393679208247798E-002   0.0000000000000000     
   3.4852525301051006E-002   8.0495082309347613E-002   0.0000000000000000     
   2.5098327097641787E-002   5.6758980074209313E-002   0.0000000000000000     
   2.6458649721161499E-002   6.2319108588971155E-002   0.0000000000000000     
   2.7770537091212289E-002   6.8064147746838000E-002   0.0000000000000000     
   2.9033989207794167E-002   7.3994097547809834E-002   0.0000000000000000     
   3.0249006070907119E-002   8.0108957991886678E-002   0.0000000000000000     
   2.1319928071341771E-002   5.6383869936102025E-002   0.0000000000000000     
   2.2484543393485556E-002   6.1950793813759474E-002   0.0000000000000000     
   2.3608191348996669E-002   6.7704565828740473E-002   0.0000000000000000     
   2.4690871937875100E-002   7.3645185981045025E-002   0.0000000000000000     
   2.5732585160120856E-002   7.9772654270673107E-002   0.0000000000000000     
   1.7624608257954356E-002   5.6051134411419692E-002   0.0000000000000000     
   1.8595638001507403E-002   6.1629426140809719E-002   0.0000000000000000     
   1.9532423634481395E-002   6.7394696172987614E-002   0.0000000000000000     
   2.0434965156876334E-002   7.3346944507953316E-002   0.0000000000000000     
   2.1303262568692211E-002   7.9486171145706858E-002   0.0000000000000000     
   1.4012367657479548E-002   5.5760773500162314E-002   0.0000000000000000     
   1.4791933545227032E-002   6.1355005570121919E-002   0.0000000000000000     
   1.5543233947666466E-002   6.7134538779579395E-002   0.0000000000000000     
   1.6266268864797852E-002   7.3099373128534748E-002   0.0000000000000000     
   1.6961038296621191E-002   7.9249508616987957E-002   0.0000000000000000     
   3.4852525301051006E-002   8.0495082309347613E-002   0.0000000000000000     
   3.6189811015730357E-002   8.6766272513401993E-002   0.0000000000000000     
   3.7481899262021202E-002   9.3195871103233310E-002   0.0000000000000000     
   3.8728790039923564E-002   9.9783878078841551E-002   0.0000000000000000     
   3.9930483349437426E-002  0.10653029344022671        0.0000000000000000     
   3.0249006070907119E-002   8.0108957991886678E-002   0.0000000000000000     
   3.1419879547113234E-002   8.6395399556357944E-002   0.0000000000000000     
   3.2550901502974579E-002   9.2840092718513012E-002   0.0000000000000000     
   3.3642071938491162E-002   9.9443037478351898E-002   0.0000000000000000     
   3.4693390853662971E-002  0.10620423383587459        0.0000000000000000     
   2.5732585160120856E-002   7.9772654270673107E-002   0.0000000000000000     
   2.6736627252957553E-002   8.6072598667774877E-002   0.0000000000000000     
   2.7706294453608817E-002   9.2530647142500477E-002   0.0000000000000000     
   2.8641586762074633E-002   9.9146799694849880E-002   0.0000000000000000     
   2.9542504178355009E-002  0.10592105632482315        0.0000000000000000     
   2.1303262568692211E-002   7.9486171145706858E-002   0.0000000000000000     
   2.2140054133263316E-002   8.5797869847652794E-002   0.0000000000000000     
   2.2948078113923902E-002   9.2267534375195692E-002   0.0000000000000000     
   2.3727334510673978E-002   9.8895164728335552E-002   0.0000000000000000     
   2.4477823323513542E-002  0.10568076090707236        0.0000000000000000     
   1.6961038296621191E-002   7.9249508616987957E-002   0.0000000000000000     
   1.7630160188030514E-002   8.5571213095991722E-002   0.0000000000000000     
   1.8276252483919845E-002   9.2050754416598671E-002   0.0000000000000000     
   1.8899315184289198E-002   9.8688132578808832E-002   0.0000000000000000     
   1.9499348289138567E-002  0.10548334758262223        0.0000000000000000     
   3.9930483349437426E-002  0.10653029344022671        0.0000000000000000     
   4.1082658964626644E-002  0.11342312327362701        0.0000000000000000     
   4.2180996659555103E-002  0.12045037366528058        0.0000000000000000     
   4.3225496434222778E-002  0.12761204461518746        0.0000000000000000     
   4.4216158288629681E-002  0.13490813612334765        0.0000000000000000     
   3.4693390853662971E-002  0.10620423383587459        0.0000000000000000     
   3.5700915271428810E-002  0.11311202642336728        0.0000000000000000     
   3.6660702214727468E-002  0.12015475987311615        0.0000000000000000     
   3.7572751683558954E-002  0.12733243418512119        0.0000000000000000     
   3.8437063677923267E-002  0.13464504935938240        0.0000000000000000     
   2.9542504178355009E-002  0.10592105632482315        0.0000000000000000     
   3.0405535850720616E-002  0.11284205370255600        0.0000000000000000     
   3.1227170927442108E-002  0.11989842849818430        0.0000000000000000     
   3.2007409408519510E-002  0.12709018071170805        0.0000000000000000     
   3.2746251293952797E-002  0.13441731034312721        0.0000000000000000     
   2.4477823323513542E-002  0.10568076090707236        0.0000000000000000     
   2.5196520702502074E-002  0.11261320511119316        0.0000000000000000     
   2.5880402797699025E-002  0.11968137954048506        0.0000000000000000     
   2.6529469609104416E-002  0.12688528419494802        0.0000000000000000     
   2.7143721136718247E-002  0.13422491907458203        0.0000000000000000     
   1.9499348289138567E-002  0.10548334758262223        0.0000000000000000     
   2.0073869826773161E-002  0.11242548064927878        0.0000000000000000     
   2.0620397825498203E-002  0.11950361300001842        0.0000000000000000     
   2.1138932285313695E-002  0.12671774463484115        0.0000000000000000     
   2.1629473206219635E-002  0.13406787555374697        0.0000000000000000     
   4.4216158288629681E-002  0.13490813612334765        0.0000000000000000     
   4.5154048573573587E-002  0.14232676123107588        0.0000000000000000     
   4.6040233639852282E-002  0.14985603297968697        0.0000000000000000     
   4.6874713487465740E-002  0.15749595136918082        0.0000000000000000     
   4.7657488116413987E-002  0.16524651639955754        0.0000000000000000     
   3.8437063677923267E-002  0.13464504935938240        0.0000000000000000     
   3.9254584901475265E-002  0.14208052744608882        0.0000000000000000     
   4.0026262057869785E-002  0.14962679049542948        0.0000000000000000     
   4.0752095147106857E-002  0.15728383850740438        0.0000000000000000     
   4.1432084169186464E-002  0.16505167148201350        0.0000000000000000     
   3.2746251293952797E-002  0.13441731034312721        0.0000000000000000     
   3.3444502294176282E-002  0.14186762659438520        0.0000000000000000     
   3.4102968119624280E-002  0.14942893866742557        0.0000000000000000     
   3.4721648770296806E-002  0.15710124656224822        0.0000000000000000     
   3.5300544246193832E-002  0.16488455027885321        0.0000000000000000     
   2.7143721136718247E-002  0.13422491907458203        0.0000000000000000     
   2.7723800751676644E-002  0.14168805867596515        0.0000000000000000     
   2.8270351825115749E-002  0.14926247749567528        0.0000000000000000     
   2.8783374357035568E-002  0.15694817553371246        0.0000000000000000     
   2.9262868347436091E-002  0.16474515279007670        0.0000000000000000     
   2.1629473206219635E-002  0.13406787555374697        0.0000000000000000     
   2.2092480273976353E-002  0.14154182369082854        0.0000000000000000     
   2.2528413174344196E-002  0.14912740698017857        0.0000000000000000     
   2.2937271907323163E-002  0.15682462542179701        0.0000000000000000     
   2.3319056472913241E-002  0.16463347901568393        0.0000000000000000     
   4.7657488116413987E-002  0.16524651639955754        0.0000000000000000     
   4.8386397187812513E-002  0.17309672630303205        0.0000000000000000     
   4.9059280362776833E-002  0.18103557931181927        0.0000000000000000     
   4.9676137641306926E-002  0.18906307542591921        0.0000000000000000     
   5.0236969023402814E-002  0.19717921464533184        0.0000000000000000     
   4.1432084169186464E-002  0.16505167148201350        0.0000000000000000     
   4.2063936323649194E-002  0.17291931534968824        0.0000000000000000     
   4.2645358810035609E-002  0.18087579604086007        0.0000000000000000     
   4.3176351628345738E-002  0.18892111355552887        0.0000000000000000     
   4.3656914778579560E-002  0.19705526789369465        0.0000000000000000     
   3.5300544246193832E-002  0.16488455027885321        0.0000000000000000     
   3.5837399241172421E-002  0.17276773266514894        0.0000000000000000     
   3.6329958449089629E-002  0.18073967656904377        0.0000000000000000     
   3.6778221869945456E-002  0.18880038199053775        0.0000000000000000     
   3.7182189503739888E-002  0.19694984892963086        0.0000000000000000     
   2.9262868347436091E-002  0.16474515279007670        0.0000000000000000     
   2.9706785940382233E-002  0.17264197824941399        0.0000000000000000     
   3.0113079279938899E-002  0.18062722089637037        0.0000000000000000     
   3.0481748366106086E-002  0.18870088073094585        0.0000000000000000     
   3.0812793198883793E-002  0.19686295775314039        0.0000000000000000     
   2.3319056472913241E-002  0.16463347901568393        0.0000000000000000     
   2.3672096421278606E-002  0.17254205210248347        0.0000000000000000     
   2.3994721302583396E-002  0.18053842902283990        0.0000000000000000     
   2.4286931116827622E-002  0.18862260977675319        0.0000000000000000     
   2.4548725864011276E-002  0.19679459436422334        0.0000000000000000     
   5.0236969023402814E-002  0.19717921464533184        0.0000000000000000     
   5.0739477622449972E-002  0.20537549120536630        0.0000000000000000     
   5.1181366551833876E-002  0.21364339934133153        0.0000000000000000     
   5.1562635811554541E-002  0.22198293905322750        0.0000000000000000     
   5.1883285401611967E-002  0.23039411034105428        0.0000000000000000     
   4.3656914778579560E-002  0.19705526789369465        0.0000000000000000     
   4.4085953128728594E-002  0.20526783033442486        0.0000000000000000     
   4.4462371546784375E-002  0.21354837215678674        0.0000000000000000     
   4.4786170032746889E-002  0.22189689336078028        0.0000000000000000     
   4.5057348586616142E-002  0.23031339394640554        0.0000000000000000     
   3.7182189503739888E-002  0.19694984892963086        0.0000000000000000     
   3.7541655021276842E-002  0.20517589677939088        0.0000000000000000     
   3.7856412093360214E-002  0.21346634493288566        0.0000000000000000     
   3.8126460719990020E-002  0.22182119339011511        0.0000000000000000     
   3.8351800901166251E-002  0.23024044215107928        0.0000000000000000     
   3.0812793198883793E-002  0.19686295775314039        0.0000000000000000     
   3.1106583300094678E-002  0.20509969054026439        0.0000000000000000     
   3.1363488191561387E-002  0.21339731766962824        0.0000000000000000     
   3.1583507873283928E-002  0.22175583914123190        0.0000000000000000     
   3.1766642345262303E-002  0.23017525495507535        0.0000000000000000     
   2.4548725864011276E-002  0.19679459436422334        0.0000000000000000     
   2.4780737965182119E-002  0.20503921161704539        0.0000000000000000     
   2.4983599841387906E-002  0.21334129036701455        0.0000000000000000     
   2.5157311492628631E-002  0.22170083061413062        0.0000000000000000     
   2.5301872918904296E-002  0.23011783235839381        0.0000000000000000     
   5.1883285401611967E-002  0.23039411034105428        0.0000000000000000     
   5.2151409979208585E-002  0.23886855003026186        0.0000000000000000     
   5.2375104201546840E-002  0.24739789494630030        0.0000000000000000     
   5.2554368068626740E-002  0.25598214508916944        0.0000000000000000     
   5.2689201580448271E-002  0.26462130045886956        0.0000000000000000     
   4.5057348586616142E-002  0.23031339394640554        0.0000000000000000     
   4.5284694517277208E-002  0.23878259325233786        0.0000000000000000     
   4.5476995133615195E-002  0.24728921061725237        0.0000000000000000     
   4.5634250435630082E-002  0.25583324604114915        0.0000000000000000     
   4.5756460423321890E-002  0.26441469952402830        0.0000000000000000     
   3.8351800901166251E-002  0.23024044215107928        0.0000000000000000     
   3.8541148874540139E-002  0.23870331155158650        0.0000000000000000     
   3.8703220877762907E-002  0.24718902192744521        0.0000000000000000     
   3.8838016910834570E-002  0.25569757327865539        0.0000000000000000     
   3.8945536973755107E-002  0.26422896560521708        0.0000000000000000     
   3.1766642345262303E-002  0.23017525495507535        0.0000000000000000     
   3.1920773050997366E-002  0.23863070492800786        0.0000000000000000     
   3.2053781433989993E-002  0.24709732887687888        0.0000000000000000     
   3.2165667494240172E-002  0.25557512680168820        0.0000000000000000     
   3.2256431231747915E-002  0.26406409870243597        0.0000000000000000     
   2.5301872918904296E-002  0.23011783235839381        0.0000000000000000     
   2.5423567046648901E-002  0.23856477338160204        0.0000000000000000     
   2.5528676802296438E-002  0.24701413146555329        0.0000000000000000     
   2.5617202185846906E-002  0.25546590661024765        0.0000000000000000     
   2.5689143197300306E-002  0.26392009881568496        0.0000000000000000     
   5.2689201580448271E-002  0.26462130045886956        0.0000000000000000     
   5.2810434617685587E-002  0.27326613340468864        0.0000000000000000     
   5.2948897061012815E-002  0.28186741627591499        0.0000000000000000     
   5.3104588910429948E-002  0.29042514907254868        0.0000000000000000     
   5.3277510165937007E-002  0.29893933179458965        0.0000000000000000     
   4.5756460423321890E-002  0.26441469952402830        0.0000000000000000     
   4.5867769733261649E-002  0.27298361930441878        0.0000000000000000     
   4.5992323002020379E-002  0.28149005362084994        0.0000000000000000     
   4.6130120229598066E-002  0.28993400247332191        0.0000000000000000     
   4.6281161415994740E-002  0.29831546586183438        0.0000000000000000     
   3.8945536973755107E-002  0.26422896560521708        0.0000000000000000     
   3.9044591796778029E-002  0.27273202205474129        0.0000000000000000     
   3.9153992110156799E-002  0.28115556577483902        0.0000000000000000     
   3.9273737913891431E-002  0.28949959676551051        0.0000000000000000     
   3.9403829207981911E-002  0.29776411502675554        0.0000000000000000     
   3.2256431231747915E-002  0.26406409870243597        0.0000000000000000     
   3.2340900808234721E-002  0.27251134165565599        0.0000000000000000     
   3.2433904385422090E-002  0.28086395273788223        0.0000000000000000     
   3.2535441963310027E-002  0.28912193194911456        0.0000000000000000     
   3.2645513541898534E-002  0.29728527928935305        0.0000000000000000     
   2.5689143197300306E-002  0.26392009881568496        0.0000000000000000     
   2.5756696767631721E-002  0.27232157810716301        0.0000000000000000     
   2.5832059827816240E-002  0.28061521450997939        0.0000000000000000     
   2.5915232377853859E-002  0.28880100802413405        0.0000000000000000     
   2.6006214417744585E-002  0.29687895864962704        0.0000000000000000     
   1.4012367657479548E-002   5.5760773500162314E-002   0.0000000000000000     
   1.4791933545227032E-002   6.1355005570121919E-002   0.0000000000000000     
   1.5543233947666466E-002   6.7134538779579395E-002   0.0000000000000000     
   1.6266268864797852E-002   7.3099373128534748E-002   0.0000000000000000     
   1.6961038296621191E-002   7.9249508616987957E-002   0.0000000000000000     
   1.0458667111338978E-002   5.5533052908125304E-002   0.0000000000000000     
   1.1046657926510326E-002   6.1141274989978518E-002   0.0000000000000000     
   1.1612364317471060E-002   6.6932925107113350E-002   0.0000000000000000     
   1.2155786284221178E-002   7.2908003259529813E-002   0.0000000000000000     
   1.2676923826760675E-002   7.9066509447227928E-002   0.0000000000000000     
   6.9389674609542764E-003   5.5388238341104019E-002   0.0000000000000000     
   7.3330390472231676E-003   6.1001977288661940E-002   0.0000000000000000     
   7.7115567728143417E-003   6.6798686614186961E-002   0.0000000000000000     
   8.0745206377278028E-003   7.2778366317679061E-002   0.0000000000000000     
   8.4219306419635494E-003   7.8941016399138295E-002   0.0000000000000000     
   3.4532687063254489E-003   5.5326329799098503E-002   0.0000000000000000     
   3.6510769073655530E-003   6.0937112466172207E-002   0.0000000000000000     
   3.8408113136963163E-003   6.6731823300800214E-002   0.0000000000000000     
   4.0224719253177362E-003   7.2710462302982504E-002   0.0000000000000000     
   4.1960587422298148E-003   7.8873029472719083E-002   0.0000000000000000     
   1.5708474524916451E-006   5.5347327282108734E-002   0.0000000000000000     
   7.7150693748515020E-007   6.0946680522509331E-002   0.0000000000000000     
   1.2794011697921277E-007   6.6732335166953108E-002   0.0000000000000000     
  -3.5985300902557091E-007   7.2704291215440087E-002   0.0000000000000000     
  -6.9187244052925506E-007   7.8862548667970253E-002   0.0000000000000000     
   1.6961038296621191E-002   7.9249508616987957E-002   0.0000000000000000     
   1.7630160188030514E-002   8.5571213095991722E-002   0.0000000000000000     
   1.8276252483919845E-002   9.2050754416598671E-002   0.0000000000000000     
   1.8899315184289198E-002   9.8688132578808832E-002   0.0000000000000000     
   1.9499348289138567E-002  0.10548334758262223        0.0000000000000000     
   1.2676923826760675E-002   7.9066509447227928E-002   0.0000000000000000     
   1.3178303169551821E-002   8.5395663012116027E-002   0.0000000000000000     
   1.3662450537056873E-002   9.1882683296102510E-002   0.0000000000000000     
   1.4129365929275835E-002   9.8527570299187364E-002   0.0000000000000000     
   1.4579049346208701E-002  0.10533032402137062        0.0000000000000000     
   8.4219306419635494E-003   7.8941016399138295E-002   0.0000000000000000     
   8.7558408301199060E-003   8.5274254195350188E-002   0.0000000000000000     
   9.0783052467951937E-003   9.1765697043100322E-002   0.0000000000000000     
   9.3893238919894144E-003   9.8415344942388697E-002   0.0000000000000000     
   9.6888967657025662E-003  0.10522319789321531        0.0000000000000000     
   4.1960587422298148E-003   7.8873029472719083E-002   0.0000000000000000     
   4.3627731697347674E-003   8.5206986645694177E-002   0.0000000000000000     
   4.5238166131348094E-003   9.1699795657592106E-002   0.0000000000000000     
   4.6791890724299399E-003   9.8351456508412802E-002   0.0000000000000000     
   4.8288905476201599E-003  0.10516196919815632        0.0000000000000000     
  -6.9187244052925506E-007   7.8862548667970253E-002   0.0000000000000000     
  -8.9981160359331111E-007   8.5193860363148022E-002   0.0000000000000000     
  -1.0153639242787768E-006   9.1684979139577835E-002   0.0000000000000000     
  -1.0385294025857606E-006   9.8335904997259707E-002   0.0000000000000000     
  -9.6930803851480452E-007  0.10514663793619361        0.0000000000000000     
   1.9499348289138567E-002  0.10548334758262223        0.0000000000000000     
   2.0073869826773161E-002  0.11242548064927878        0.0000000000000000     
   2.0620397825498203E-002  0.11950361300001842        0.0000000000000000     
   2.1138932285313695E-002  0.12671774463484115        0.0000000000000000     
   2.1629473206219635E-002  0.13406787555374697        0.0000000000000000     
   1.4579049346208701E-002  0.10533032402137062        0.0000000000000000     
   1.5009598888798808E-002  0.11228011057443013        0.0000000000000000     
   1.5419112657989486E-002  0.11936609607014383        0.0000000000000000     
   1.5807590653780738E-002  0.12658828050851170        0.0000000000000000     
   1.6175032876172560E-002  0.13394666388953375        0.0000000000000000     
   9.6888967657025662E-003  0.10522319789321531        0.0000000000000000     
   9.9757235538439088E-003  0.11217832514426454        0.0000000000000000     
   1.0248503942322702E-002  0.11926979594422080        0.0000000000000000     
   1.0507237931138946E-002  0.12649761029308398        0.0000000000000000     
   1.0751925520292638E-002  0.13386176819085424        0.0000000000000000     
   4.8288905476201599E-003  0.10516196919815632        0.0000000000000000     
   4.9722438219084661E-003  0.11212012435878198        0.0000000000000000     
   5.1085716784978518E-003  0.11921471262224924        0.0000000000000000     
   5.2378741173883187E-003  0.12644573398855805        0.0000000000000000     
   5.3601511385798651E-003  0.13381318845770843        0.0000000000000000     
  -9.6930803851480452E-007  0.10514663793619361        0.0000000000000000     
  -8.4030700752183406E-007  0.11210550821798249        0.0000000000000000     
  -6.8413348506559356E-007  0.11920084610422924        0.0000000000000000     
  -5.0078747114418566E-007  0.12643265159493383        0.0000000000000000     
  -2.9026896575853195E-007  0.13380092469009633        0.0000000000000000     
   2.1629473206219635E-002  0.13406787555374697        0.0000000000000000     
   2.2092480273976353E-002  0.14154182369082854        0.0000000000000000     
   2.2528413174344196E-002  0.14912740698017857        0.0000000000000000     
   2.2937271907323163E-002  0.15682462542179701        0.0000000000000000     
   2.3319056472913241E-002  0.16463347901568393        0.0000000000000000     
   1.6175032876172560E-002  0.13394666388953375        0.0000000000000000     
   1.6521721283612914E-002  0.14142911894427626        0.0000000000000000     
   1.6847937834549759E-002  0.14902351840380551        0.0000000000000000     
   1.7153682528983100E-002  0.15672986226812152        0.0000000000000000     
   1.7438955366912930E-002  0.16454815053722427        0.0000000000000000     
   1.0751925520292638E-002  0.13386176819085424        0.0000000000000000     
   1.0982704203123835E-002  0.14135014174160909        0.0000000000000000     
   1.1199711472972594E-002  0.14895060304942614        0.0000000000000000     
   1.1402947329838913E-002  0.15666315211430545        0.0000000000000000     
   1.1592411773722793E-002  0.16448778893624702        0.0000000000000000     
   5.3601511385798651E-003  0.13381318845770843        0.0000000000000000     
   5.4754290325091165E-003  0.14130489208282707        0.0000000000000000     
   5.5837340896126957E-003  0.14890866091704055        0.0000000000000000     
   5.6850663098906027E-003  0.15662449496034897        0.0000000000000000     
   5.7794256933428375E-003  0.16445239421275221        0.0000000000000000     
  -2.9026896575853195E-007  0.13380092469009633        0.0000000000000000     
  -1.0422823124391946E-007  0.14129336996793013        0.0000000000000000     
   5.6844700637142392E-009  0.14889769200664865        0.0000000000000000     
   3.9469138165399136E-008  0.15661389080625188        0.0000000000000000     
  -2.8742269397863396E-009  0.16444196636673986        0.0000000000000000     
   2.3319056472913241E-002  0.16463347901568393        0.0000000000000000     
   2.3672096421278606E-002  0.17254205210248347        0.0000000000000000     
   2.3994721302583396E-002  0.18053842902283990        0.0000000000000000     
   2.4286931116827622E-002  0.18862260977675319        0.0000000000000000     
   2.4548725864011276E-002  0.19679459436422334        0.0000000000000000     
   1.7438955366912930E-002  0.16454815053722427        0.0000000000000000     
   1.7702540652802662E-002  0.17246601420634949        0.0000000000000000     
   1.7943222691115712E-002  0.18047108427073300        0.0000000000000000     
   1.8161001481852075E-002  0.18856336073037475        0.0000000000000000     
   1.8355877025011756E-002  0.19674284358527469        0.0000000000000000     
   1.1592411773722793E-002  0.16448778893624702        0.0000000000000000     
   1.1767328603895530E-002  0.17241192454300419        0.0000000000000000     
   1.1926921619628418E-002  0.18042296996233034        0.0000000000000000     
   1.2071190820921457E-002  0.18852092519422545        0.0000000000000000     
   1.2200136207774648E-002  0.19670579023868956        0.0000000000000000     
   5.7794256933428375E-003  0.16445239421275221        0.0000000000000000     
   5.8664602745572064E-003  0.17237978311244745        0.0000000000000000     
   5.9458180881215156E-003  0.18039408609763186        0.0000000000000000     
   6.0174991340357625E-003  0.18849530316830537        0.0000000000000000     
   6.0815034122999488E-003  0.19668343432446792        0.0000000000000000     
  -2.8742269397863396E-009  0.16444196636673986        0.0000000000000000     
  -6.4335212306403794E-008  0.17236958991467946        0.0000000000000000     
  -8.7903404997688450E-008  0.18038443267663765        0.0000000000000000     
  -7.3578805007568776E-008  0.18848649465261444        0.0000000000000000     
  -2.1361412337779495E-008  0.19667577584260981        0.0000000000000000     
   2.4548725864011276E-002  0.19679459436422334        0.0000000000000000     
   2.4780737965182119E-002  0.20503921161704539        0.0000000000000000     
   2.4983599841387906E-002  0.21334129036701455        0.0000000000000000     
   2.5157311492628631E-002  0.22170083061413062        0.0000000000000000     
   2.5301872918904296E-002  0.23011783235839381        0.0000000000000000     
   1.8355877025011756E-002  0.19674284358527469        0.0000000000000000     
   1.8528520053913051E-002  0.20499316776023577        0.0000000000000000     
   1.8679601301874252E-002  0.21329796818006086        0.0000000000000000     
   1.8809120768895359E-002  0.22165724484474991        0.0000000000000000     
   1.8917078454976373E-002  0.23007099775430301        0.0000000000000000     
   1.2200136207774648E-002  0.19670579023868956        0.0000000000000000     
   1.2314330603661350E-002  0.20496026672033735        0.0000000000000000     
   1.2414346832054925E-002  0.21326705626378353        0.0000000000000000     
   1.2500184892955365E-002  0.22162615886902814        0.0000000000000000     
   1.2571844786362679E-002  0.23003757453607115        0.0000000000000000     
   6.0815034122999488E-003  0.19668343432446792        0.0000000000000000     
   6.1381696144270220E-003  0.20494050849735021        0.0000000000000000     
   6.1878364319299219E-003  0.21324855461818268        0.0000000000000000     
   6.2305038648086527E-003  0.22160757268696535        0.0000000000000000     
   6.2661719130632119E-003  0.23001756270369825        0.0000000000000000     
  -2.1361412337779495E-008  0.19667577584260981        0.0000000000000000     
   3.7086210063434072E-008  0.20493389309127424        0.0000000000000000     
   7.0101499248260285E-008  0.21324246324325813        0.0000000000000000     
   7.7684455218975969E-008  0.22160148629856152        0.0000000000000000     
   5.9835077974388501E-008  0.23001096225718437        0.0000000000000000     
   2.5301872918904296E-002  0.23011783235839381        0.0000000000000000     
   2.5423567046648901E-002  0.23856477338160204        0.0000000000000000     
   2.5528676802296438E-002  0.24701413146555329        0.0000000000000000     
   2.5617202185846906E-002  0.25546590661024765        0.0000000000000000     
   2.5689143197300306E-002  0.26392009881568496        0.0000000000000000     
   1.8917078454976373E-002  0.23007099775430301        0.0000000000000000     
   1.9007880464716874E-002  0.23851000519678167        0.0000000000000000     
   1.9085932902716429E-002  0.24694504546024731        0.0000000000000000     
   1.9151235768975042E-002  0.25537611854470016        0.0000000000000000     
   1.9203789063492710E-002  0.26380322445014009        0.0000000000000000     
   1.2571844786362679E-002  0.23003757453607115        0.0000000000000000     
   1.2632062908423421E-002  0.23847088865795940        0.0000000000000000     
   1.2683575655284147E-002  0.24689568662773989        0.0000000000000000     
   1.2726383026944862E-002  0.25531196844541254        0.0000000000000000     
   1.2760485023405559E-002  0.26371973411097743        0.0000000000000000     
   6.2661719130632119E-003  0.23001756270369825        0.0000000000000000     
   6.2961143777685458E-003  0.23844742376513550        0.0000000000000000     
   6.3216050599995957E-003  0.24686605496803096        0.0000000000000000     
   6.3426439597563614E-003  0.25527345631238485        0.0000000000000000     
   6.3592310770388431E-003  0.26366962779819697        0.0000000000000000     
   5.9835077974388501E-008  0.23001096225718437        0.0000000000000000     
   3.4872752246659089E-008  0.23843961051830970        0.0000000000000000     
   2.1116862769900505E-008  0.24685615048112058        0.0000000000000000     
   1.8567409544383798E-008  0.25526058214561692        0.0000000000000000     
   2.7224392569295819E-008  0.26365290551179871        0.0000000000000000     
   2.5689143197300306E-002  0.26392009881568496        0.0000000000000000     
   2.5756696767631721E-002  0.27232157810716301        0.0000000000000000     
   2.5832059827816240E-002  0.28061521450997939        0.0000000000000000     
   2.5915232377853859E-002  0.28880100802413405        0.0000000000000000     
   2.6006214417744585E-002  0.29687895864962704        0.0000000000000000     
   1.9203789063492710E-002  0.26380322445014009        0.0000000000000000     
   1.9253560186312198E-002  0.27216906168579552        0.0000000000000000     
   1.9310516537476244E-002  0.28041632876089495        0.0000000000000000     
   1.9374658116984859E-002  0.28854502567543838        0.0000000000000000     
   1.9445984924838042E-002  0.29655515242942571        0.0000000000000000     
   1.2760485023405559E-002  0.26371973411097743        0.0000000000000000     
   1.2793071575619281E-002  0.27206012266808693        0.0000000000000000     
   1.2831332614539077E-002  0.28027427316039338        0.0000000000000000     
   1.2875268140164939E-002  0.28836218558789689        0.0000000000000000     
   1.2924878152496870E-002  0.29632385995059740        0.0000000000000000     
   6.3592310770388431E-003  0.26366962779819697        0.0000000000000000     
   6.3752309355529883E-003  0.27199476105403708        0.0000000000000000     
   6.3945080590047396E-003  0.28018904770847458        0.0000000000000000     
   6.4170624473940995E-003  0.28825248776150952        0.0000000000000000     
   6.4428941007210663E-003  0.29618508121314197        0.0000000000000000     
   2.7224392569295819E-008  0.26365290551179871        0.0000000000000000     
   3.8266113311239205E-008  0.27197297684364596        0.0000000000000000     
   4.2870873233672412E-008  0.28016065240513849        0.0000000000000000     
   4.1038672340254620E-008  0.28821593219627639        0.0000000000000000     
   3.2769510629332421E-008  0.29613881621705951        0.0000000000000000     
   1.5708474524916451E-006   5.5347327282108734E-002   0.0000000000000000     
   7.7150693748515020E-007   6.0946680522509331E-002   0.0000000000000000     
   1.2794011697921277E-007   6.6732335166953108E-002   0.0000000000000000     
  -3.5985300902557091E-007   7.2704291215440087E-002   0.0000000000000000     
  -6.9187244052925506E-007   7.8862548667970253E-002   0.0000000000000000     
  -3.4504001828444650E-003   5.5421841788967238E-002   0.0000000000000000     
  -3.6496606894577859E-003   6.1008987213285702E-002   0.0000000000000000     
  -3.8405673550478288E-003   6.6784640480067811E-002   0.0000000000000000     
  -4.0231201796145956E-003   7.2748801589313544E-002   0.0000000000000000     
  -4.1973191631580874E-003   7.8901470541022894E-002   0.0000000000000000     
  -6.9369184517452942E-003   5.5520484318506542E-002   0.0000000000000000     
  -7.3320032172170049E-003   6.1102338294113774E-002   0.0000000000000000     
  -7.7113485789222719E-003   6.6873157507566436E-002   0.0000000000000000     
  -8.0749545368610891E-003   7.2832941958864542E-002   0.0000000000000000     
  -8.4228210910334625E-003   7.8981691648008084E-002   0.0000000000000000     
  -1.0457983959249996E-002   5.5643254870726647E-002   0.0000000000000000     
  -1.1046256076340178E-002   6.1226733764993518E-002   0.0000000000000000     
  -1.1612215731506347E-002   6.6997886249448996E-002   0.0000000000000000     
  -1.2155862924748507E-002   7.2956712324093079E-002   0.0000000000000000     
  -1.2677197656066654E-002   7.9103211988925767E-002   0.0000000000000000     
  -1.4013596705358568E-002   5.5790153445627551E-002   0.0000000000000000     
  -1.4792419266827301E-002   6.1382173625924935E-002   0.0000000000000000     
  -1.5543168812800061E-002   6.7158826705715463E-002   0.0000000000000000     
  -1.6265845343276845E-002   7.3120112684999156E-002   0.0000000000000000     
  -1.6960448858257662E-002   7.9266031563776013E-002   0.0000000000000000     
  -6.9187244052925506E-007   7.8862548667970253E-002   0.0000000000000000     
  -8.9981160359331111E-007   8.5193860363148022E-002   0.0000000000000000     
  -1.0153639242787768E-006   9.1684979139577835E-002   0.0000000000000000     
  -1.0385294025857606E-006   9.8335904997259707E-002   0.0000000000000000     
  -9.6930803851480452E-007  0.10514663793619361        0.0000000000000000     
  -4.1973191631580874E-003   7.8901470541022894E-002   0.0000000000000000     
  -4.3644197676262963E-003   8.5228684561263521E-002   0.0000000000000000     
  -4.5256774549672207E-003   9.1716480876103054E-002   0.0000000000000000     
  -4.6810922251808613E-003   9.8364859485541509E-002   0.0000000000000000     
  -4.8306640782672158E-003  0.10517382038957887        0.0000000000000000     
  -8.4228210910334625E-003   7.8981691648008084E-002   0.0000000000000000     
  -8.7570283520644627E-003   8.5305268453592487E-002   0.0000000000000000     
  -9.0796564305791680E-003   9.1789534254213226E-002   0.0000000000000000     
  -9.3907053265775784E-003   9.8434489049870344E-002   0.0000000000000000     
  -9.6901750400596991E-003  0.10524013284056377        0.0000000000000000     
  -1.2677197656066654E-002   7.9103211988925767E-002   0.0000000000000000     
  -1.3178725564918090E-002   8.5423612040134933E-002   0.0000000000000000     
  -1.3662952290760118E-002   9.1904139273908378E-002   0.0000000000000000     
  -1.4129877833592746E-002   9.8544793690246157E-002   0.0000000000000000     
  -1.4579502193415961E-002  0.10534557528914824        0.0000000000000000     
  -1.6960448858257662E-002   7.9266031563776013E-002   0.0000000000000000     
  -1.7629511406187178E-002   8.5583715320890860E-002   0.0000000000000000     
  -1.8275565035510075E-002   9.2060295935188510E-002   0.0000000000000000     
  -1.8898609746226352E-002   9.8695773406669032E-002   0.0000000000000000     
  -1.9498645538336006E-002  0.10549014773533237        0.0000000000000000     
  -9.6930803851480452E-007  0.10514663793619361        0.0000000000000000     
  -8.4030700752183406E-007  0.11210550821798249        0.0000000000000000     
  -6.8413348506559356E-007  0.11920084610422924        0.0000000000000000     
  -5.0078747114418566E-007  0.12643265159493383        0.0000000000000000     
  -2.9026896575853195E-007  0.13380092469009633        0.0000000000000000     
  -4.8306640782672158E-003  0.10517382038957887        0.0000000000000000     
  -4.9737767241052541E-003  0.11213129141122899        0.0000000000000000     
  -5.1098138725739414E-003  0.11922520037350560        0.0000000000000000     
  -5.2387755236732829E-003  0.12645554727640884        0.0000000000000000     
  -5.3606616774032733E-003  0.13382233211993858        0.0000000000000000     
  -9.6901750400596991E-003  0.10524013284056377        0.0000000000000000     
  -9.9768133205859252E-003  0.11219428862788444        0.0000000000000000     
  -1.0249367917716674E-002  0.11928477941342333        0.0000000000000000     
  -1.0507838831451937E-002  0.12651160519718041        0.0000000000000000     
  -1.0752226061791718E-002  0.13387476597915571        0.0000000000000000     
  -1.4579502193415961E-002  0.10534557528914824        0.0000000000000000     
  -1.5009950096449542E-002  0.11229449986794891        0.0000000000000000     
  -1.5419346268913257E-002  0.11937958322398237        0.0000000000000000     
  -1.5807690710807107E-002  0.12660082535724865        0.0000000000000000     
  -1.6174983422131094E-002  0.13395822626774775        0.0000000000000000     
  -1.9498645538336006E-002  0.10549014773533237        0.0000000000000000     
  -2.0073187051696102E-002  0.11243192513142235        0.0000000000000000     
  -2.0619748926163698E-002  0.11950961180518273        0.0000000000000000     
  -2.1138331161738796E-002  0.12672320775661353        0.0000000000000000     
  -2.1628933758421402E-002  0.13407271298571477        0.0000000000000000     
  -2.9026896575853195E-007  0.13380092469009633        0.0000000000000000     
  -1.0422823124391946E-007  0.14129336996793013        0.0000000000000000     
   5.6844700637142392E-009  0.14889769200664865        0.0000000000000000     
   3.9469138165399136E-008  0.15661389080625188        0.0000000000000000     
  -2.8742269397863396E-009  0.16444196636673986        0.0000000000000000     
  -5.3606616774032733E-003  0.13382233211993858        0.0000000000000000     
  -5.4755943626272618E-003  0.14131316236896155        0.0000000000000000     
  -5.5836956082085986E-003  0.14891564548834457        0.0000000000000000     
  -5.6849654141472791E-003  0.15662978147808751        0.0000000000000000     
  -5.7794037804433061E-003  0.16445557033819050        0.0000000000000000     
  -1.0752226061791718E-002  0.13387476597915571        0.0000000000000000     
  -1.0982740154208956E-002  0.14136185625796455        0.0000000000000000     
  -1.1199591654176586E-002  0.14896047053222233        0.0000000000000000     
  -1.1402780561694612E-002  0.15667060880192907        0.0000000000000000     
  -1.1592306876763030E-002  0.16449227106708472        0.0000000000000000     
  -1.6174983422131094E-002  0.13395822626774775        0.0000000000000000     
  -1.6521541602976322E-002  0.14143945163493910        0.0000000000000000     
  -1.6847682453433894E-002  0.14903216713828202        0.0000000000000000     
  -1.7153405973503830E-002  0.15673637277777649        0.0000000000000000     
  -1.7438712163186116E-002  0.16455206855342261        0.0000000000000000     
  -2.1628933758421402E-002  0.13407271298571477        0.0000000000000000     
  -2.2091998708929361E-002  0.14154594849988517        0.0000000000000000     
  -2.2527968005980538E-002  0.14913073530652354        0.0000000000000000     
  -2.2936841649574942E-002  0.15682707340562982        0.0000000000000000     
  -2.3318619639712556E-002  0.16463496279720408        0.0000000000000000     
  -2.8742269397863396E-009  0.16444196636673986        0.0000000000000000     
  -6.4335212306403794E-008  0.17236958991467946        0.0000000000000000     
  -8.7903404997688450E-008  0.18038443267663765        0.0000000000000000     
  -7.3578805007568776E-008  0.18848649465261444        0.0000000000000000     
  -2.1361412337779495E-008  0.19667577584260981        0.0000000000000000     
  -5.7794037804433061E-003  0.16445557033819050        0.0000000000000000     
  -5.8665535582135718E-003  0.17238099370041943        0.0000000000000000     
  -5.9459575985749691E-003  0.18039403319654032        0.0000000000000000     
  -6.0176159015274963E-003  0.18849468882655326        0.0000000000000000     
  -6.0815284670711588E-003  0.19668296059045814        0.0000000000000000     
  -1.1592306876763030E-002  0.16449227106708472        0.0000000000000000     
  -1.1767315727247143E-002  0.17241364322038677        0.0000000000000000     
  -1.1926952241012253E-002  0.18042291115453263        0.0000000000000000     
  -1.2071216418058354E-002  0.18852007486952232        0.0000000000000000     
  -1.2200108258385453E-002  0.19670513436535586        0.0000000000000000     
  -1.7438712163186116E-002  0.16455206855342261        0.0000000000000000     
  -1.7702350842313027E-002  0.17246753847458154        0.0000000000000000     
  -1.7943071830716847E-002  0.18047106655061457        0.0000000000000000     
  -1.8160875128397584E-002  0.18856265278152171        0.0000000000000000     
  -1.8355760735355220E-002  0.19674229716730296        0.0000000000000000     
  -2.3318619639712556E-002  0.16463496279720408        0.0000000000000000     
  -2.3671658903411216E-002  0.17254267946300370        0.0000000000000000     
  -2.3994316367688756E-002  0.18053849938478611        0.0000000000000000     
  -2.4286592032545171E-002  0.18862242256255132        0.0000000000000000     
  -2.4548485897980470E-002  0.19679444899629939        0.0000000000000000     
  -2.1361412337779495E-008  0.19667577584260981        0.0000000000000000     
   3.7086210063434072E-008  0.20493389309127424        0.0000000000000000     
   7.0101499248260285E-008  0.21324246324325813        0.0000000000000000     
   7.7684455218975969E-008  0.22160148629856152        0.0000000000000000     
   5.9835077974388501E-008  0.23001096225718437        0.0000000000000000     
  -6.0815284670711588E-003  0.19668296059045814        0.0000000000000000     
  -6.1380911564921422E-003  0.20494044334336492        0.0000000000000000     
  -6.1876998310766464E-003  0.21324873194038355        0.0000000000000000     
  -6.2303544908246678E-003  0.22160782638151391        0.0000000000000000     
  -6.2660551357362117E-003  0.23001772666675613        0.0000000000000000     
  -1.2200108258385453E-002  0.19670513436535586        0.0000000000000000     
  -1.2314239289182216E-002  0.20496018209487771        0.0000000000000000     
  -1.2414221037637313E-002  0.21326731051093234        0.0000000000000000     
  -1.2500053503750748E-002  0.22162651961351984        0.0000000000000000     
  -1.2571736687522520E-002  0.23003780940264018        0.0000000000000000     
  -1.8355760735355220E-002  0.19674229716730296        0.0000000000000000     
  -1.8528407311860152E-002  0.20499310934581250        0.0000000000000000     
  -1.8679493518182756E-002  0.21329819895490465        0.0000000000000000     
  -1.8809019354323015E-002  0.22165756599457928        0.0000000000000000     
  -1.8916984820280949E-002  0.23007121046483653        0.0000000000000000     
  -2.4548485897980470E-002  0.19679444899629939        0.0000000000000000     
  -2.4780595224525963E-002  0.20503922509616934        0.0000000000000000     
  -2.4983517272712960E-002  0.21334139727230031        0.0000000000000000     
  -2.5157252042541475E-002  0.22170096552469226        0.0000000000000000     
  -2.5301799534011505E-002  0.23011792985334520        0.0000000000000000     
   5.9835077974388501E-008  0.23001096225718437        0.0000000000000000     
   3.4872752246659089E-008  0.23843961051830970        0.0000000000000000     
   2.1116862769900505E-008  0.24685615048112058        0.0000000000000000     
   1.8567409544383798E-008  0.25526058214561692        0.0000000000000000     
   2.7224392569295819E-008  0.26365290551179871        0.0000000000000000     
  -6.2660551357362117E-003  0.23001772666675613        0.0000000000000000     
  -6.2960428124250144E-003  0.23844744505705026        0.0000000000000000     
  -6.3215585675048189E-003  0.24686599381333657        0.0000000000000000     
  -6.3426024009756252E-003  0.25527337293561503        0.0000000000000000     
  -6.3591743128374352E-003  0.26366958242388572        0.0000000000000000     
  -1.2571736687522520E-002  0.23003780940264018        0.0000000000000000     
  -1.2631985883562773E-002  0.23847092352092525        0.0000000000000000     
  -1.2683516386481663E-002  0.24689560561100710        0.0000000000000000     
  -1.2726328196279184E-002  0.25531185567288567        0.0000000000000000     
  -1.2760421312955336E-002  0.26371967370656102        0.0000000000000000     
  -1.8916984820280949E-002  0.23007121046483653        0.0000000000000000     
  -1.9007794340661036E-002  0.23851004590993469        0.0000000000000000     
  -1.9085852340067763E-002  0.24694498587413205        0.0000000000000000     
  -1.9151158818501133E-002  0.25537603035742862        0.0000000000000000     
  -1.9203713775961140E-002  0.26380317935982461        0.0000000000000000     
  -2.5301799534011505E-002  0.23011792985334520        0.0000000000000000     
  -2.5423468183719797E-002  0.23856481222407849        0.0000000000000000     
  -2.5528566428263118E-002  0.24701413460271146        0.0000000000000000     
  -2.5617094267641465E-002  0.25546589698924416        0.0000000000000000     
  -2.5689051701854836E-002  0.26392009938367644        0.0000000000000000     
   2.7224392569295819E-008  0.26365290551179871        0.0000000000000000     
   3.8266113311239205E-008  0.27197297684364596        0.0000000000000000     
   4.2870873233672412E-008  0.28016065240513849        0.0000000000000000     
   4.1038672340254620E-008  0.28821593219627639        0.0000000000000000     
   3.2769510629332421E-008  0.29613881621705951        0.0000000000000000     
  -6.3591743128374352E-003  0.26366958242388572        0.0000000000000000     
  -6.3751546348683619E-003  0.27199476892110558        0.0000000000000000     
  -6.3944236988465282E-003  0.28018907907023161        0.0000000000000000     
  -6.4169815047719235E-003  0.28825251287126397        0.0000000000000000     
  -6.4428280526445565E-003  0.29618507032420238        0.0000000000000000     
  -1.2760421312955336E-002  0.26371967370656102        0.0000000000000000     
  -1.2792995969560643E-002  0.27206013617060765        0.0000000000000000     
  -1.2831252399145621E-002  0.28027431952360027        0.0000000000000000     
  -1.2875190601710275E-002  0.28836222376553872        0.0000000000000000     
  -1.2924810577254605E-002  0.29632384889642321        0.0000000000000000     
  -1.9203713775961140E-002  0.26380317935982461        0.0000000000000000     
  -1.9253485737963531E-002  0.27216907859215228        0.0000000000000000     
  -1.9310443230024066E-002  0.28041637376524442        0.0000000000000000     
  -1.9374586252142726E-002  0.28854506487910087        0.0000000000000000     
  -1.9445914804319522E-002  0.29655515193372173        0.0000000000000000     
  -2.5689051701854836E-002  0.26392009938367644        0.0000000000000000     
  -2.5756623940077029E-002  0.27232159618573948        0.0000000000000000     
  -2.5831996191481837E-002  0.28061524179516406        0.0000000000000000     
  -2.5915168456069261E-002  0.28880103621195030        0.0000000000000000     
  -2.6006140733839299E-002  0.29687897943609809        0.0000000000000000     
  -1.4013596705358568E-002   5.5790153445627551E-002   0.0000000000000000     
  -1.4792419266827301E-002   6.1382173625924935E-002   0.0000000000000000     
  -1.5543168812800061E-002   6.7158826705715463E-002   0.0000000000000000     
  -1.6265845343276845E-002   7.3120112684999156E-002   0.0000000000000000     
  -1.6960448858257662E-002   7.9266031563776013E-002   0.0000000000000000     
  -1.7627415565409948E-002   5.5994610755375318E-002   0.0000000000000000     
  -1.8596872103186467E-002   6.1593536003001846E-002   0.0000000000000000     
  -1.9532448110925155E-002   6.7374009498704895E-002   0.0000000000000000     
  -2.0434143588626011E-002   7.3336031242484473E-002   0.0000000000000000     
  -2.1301958536289040E-002   7.9479601234340599E-002   0.0000000000000000     
  -2.1323099414743071E-002   5.6290057512136019E-002   0.0000000000000000     
  -2.2485993899925772E-002   6.1885699022318039E-002   0.0000000000000000     
  -2.3608293914003382E-002   6.7661465250756239E-002   0.0000000000000000     
  -2.4689999456975906E-002   7.3617356197450690E-002   0.0000000000000000     
  -2.5731110528843339E-002   7.9753371862401334E-002   0.0000000000000000     
  -2.5100648253357939E-002   5.6676493715909652E-002   0.0000000000000000     
  -2.6459784657045217E-002   6.2258662683873499E-002   0.0000000000000000     
  -2.7770706222034747E-002   6.8021193961869564E-002   0.0000000000000000     
  -2.9033412948326533E-002   7.3964087549897806E-002   0.0000000000000000     
  -3.0247904835920575E-002   8.0087343447958245E-002   0.0000000000000000     
  -2.8960062081254546E-002   5.7153919366696199E-002   0.0000000000000000     
  -3.0518244374544798E-002   6.2712426987668268E-002   0.0000000000000000     
  -3.2019685035019244E-002   6.8453195632044800E-002   0.0000000000000000     
  -3.3464384062677884E-002   7.4376225299825821E-002   0.0000000000000000     
  -3.4852341457520718E-002   8.0481515991011304E-002   0.0000000000000000     
  -1.6960448858257662E-002   7.9266031563776013E-002   0.0000000000000000     
  -1.7629511406187178E-002   8.5583715320890860E-002   0.0000000000000000     
  -1.8275565035510075E-002   9.2060295935188510E-002   0.0000000000000000     
  -1.8898609746226352E-002   9.8695773406669032E-002   0.0000000000000000     
  -1.9498645538336006E-002  0.10549014773533237        0.0000000000000000     
  -2.1301958536289040E-002   7.9479601234340599E-002   0.0000000000000000     
  -2.2138500901870865E-002   8.5792756571749354E-002   0.0000000000000000     
  -2.2946378633328105E-002   9.2263534352186830E-002   0.0000000000000000     
  -2.3725591730660772E-002   9.8891934575653040E-002   0.0000000000000000     
  -2.4476140193868855E-002  0.10567795724214800        0.0000000000000000     
  -2.5731110528843339E-002   7.9753371862401334E-002   0.0000000000000000     
  -2.6734809077968272E-002   8.6057914068599514E-002   0.0000000000000000     
  -2.7704277052713285E-002   9.2519384639036487E-002   0.0000000000000000     
  -2.8639514453078368E-002   9.9137783573712321E-002   0.0000000000000000     
  -2.9540521279063540E-002  0.10591311087262699        0.0000000000000000     
  -3.0247904835920575E-002   8.0087343447958245E-002   0.0000000000000000     
  -3.1418435934479412E-002   8.6379187811441341E-002   0.0000000000000000     
  -3.2549260293665609E-002   9.2827846795737565E-002   0.0000000000000000     
  -3.3640377913479153E-002   9.9433320400846917E-002   0.0000000000000000     
  -3.4691788793920056E-002  0.10619560862676937        0.0000000000000000     
  -3.4852341457520718E-002   8.0481515991011304E-002   0.0000000000000000     
  -3.6189381471404269E-002   8.6756577800274848E-002   0.0000000000000000     
  -3.7481328356185069E-002   9.3188920822289995E-002   0.0000000000000000     
  -3.8728182111863123E-002   9.9778545057056758E-002   0.0000000000000000     
  -3.9929942738438404E-002  0.10652545050457514        0.0000000000000000     
  -1.9498645538336006E-002  0.10549014773533237        0.0000000000000000     
  -2.0073187051696102E-002  0.11243192513142235        0.0000000000000000     
  -2.0619748926163698E-002  0.11950961180518273        0.0000000000000000     
  -2.1138331161738796E-002  0.12672320775661353        0.0000000000000000     
  -2.1628933758421402E-002  0.13407271298571477        0.0000000000000000     
  -2.4476140193868855E-002  0.10567795724214800        0.0000000000000000     
  -2.5194968110736255E-002  0.11261059600002593        0.0000000000000000     
  -2.5879019569046865E-002  0.11967884449764117        0.0000000000000000     
  -2.6528294568800691E-002  0.12688270273499372        0.0000000000000000     
  -2.7142793109997721E-002  0.13422217071208353        0.0000000000000000     
  -2.9540521279063540E-002  0.10591311087262699        0.0000000000000000     
  -3.0403737197980670E-002  0.11283454405548089        0.0000000000000000     
  -3.1225601877141650E-002  0.11989126064197451        0.0000000000000000     
  -3.2006115316546471E-002  0.12708326063210784        0.0000000000000000     
  -3.2745277516195145E-002  0.13441054402588087        0.0000000000000000     
  -3.4691788793920056E-002  0.10619560862676937        0.0000000000000000     
  -3.5699494313429343E-002  0.11310376929778723        0.0000000000000000     
  -3.6659495850448039E-002  0.12014686023818276        0.0000000000000000     
  -3.7571793404976149E-002  0.12732488144795595        0.0000000000000000     
  -3.8436386977013667E-002  0.13463783292710685        0.0000000000000000     
  -3.9929942738438404E-002  0.10652545050457514        0.0000000000000000     
  -4.1082239457082267E-002  0.11341827172694494        0.0000000000000000     
  -4.2180701488966049E-002  0.12044564328626590        0.0000000000000000     
  -4.3225328834089714E-002  0.12760756518253805        0.0000000000000000     
  -4.4216121492453297E-002  0.13490403741576140        0.0000000000000000     
  -2.1628933758421402E-002  0.13407271298571477        0.0000000000000000     
  -2.2091998708929361E-002  0.14154594849988517        0.0000000000000000     
  -2.2527968005980538E-002  0.14913073530652354        0.0000000000000000     
  -2.2936841649574942E-002  0.15682707340562982        0.0000000000000000     
  -2.3318619639712556E-002  0.16463496279720408        0.0000000000000000     
  -2.7142793109997721E-002  0.13422217071208353        0.0000000000000000     
  -2.7723094883009773E-002  0.14168523622121734        0.0000000000000000     
  -2.8269779578208653E-002  0.14925988705470189        0.0000000000000000     
  -2.8782847195594364E-002  0.15694612321253718        0.0000000000000000     
  -2.9262297735166896E-002  0.16474394469472320        0.0000000000000000     
  -3.2745277516195145E-002  0.13441054402588087        0.0000000000000000     
  -3.3443813536159245E-002  0.14186120416735010        0.0000000000000000     
  -3.4102448436510370E-002  0.14942333440057204        0.0000000000000000     
  -3.4721182217248514E-002  0.15709693472554670        0.0000000000000000     
  -3.5300014878373677E-002  0.16488200514227402        0.0000000000000000     
  -3.8436386977013667E-002  0.13463783292710685        0.0000000000000000     
  -3.9254154668377790E-002  0.14207385233828349        0.0000000000000000     
  -4.0025974580885706E-002  0.14962107734413399        0.0000000000000000     
  -4.0751846714537417E-002  0.15727950794465836        0.0000000000000000     
  -4.1431771069332893E-002  0.16504914413985664        0.0000000000000000     
  -4.4216121492453297E-002  0.13490403741576140        0.0000000000000000     
  -4.5154118279665402E-002  0.14232318073401745        0.0000000000000000     
  -4.6040358011334652E-002  0.14985311588538772        0.0000000000000000     
  -4.6874840687461033E-002  0.15749384286987220        0.0000000000000000     
  -4.7657566308044561E-002  0.16524536168747087        0.0000000000000000     
  -2.3318619639712556E-002  0.16463496279720408        0.0000000000000000     
  -2.3671658903411216E-002  0.17254267946300370        0.0000000000000000     
  -2.3994316367688756E-002  0.18053849938478611        0.0000000000000000     
  -2.4286592032545171E-002  0.18862242256255132        0.0000000000000000     
  -2.4548485897980470E-002  0.19679444899629939        0.0000000000000000     
  -2.9262297735166896E-002  0.16474394469472320        0.0000000000000000     
  -2.9706164240499076E-002  0.17264161216943041        0.0000000000000000     
  -3.0112479755163721E-002  0.18062738630482947        0.0000000000000000     
  -3.0481244279160831E-002  0.18870126710092025        0.0000000000000000     
  -3.0812457812490413E-002  0.19686325455770282        0.0000000000000000     
  -3.5300014878373677E-002  0.16488200514227402        0.0000000000000000     
  -3.5836791183533966E-002  0.17276688257763911        0.0000000000000000     
  -3.6329355896377501E-002  0.18073990395852693        0.0000000000000000     
  -3.6777709016904261E-002  0.18880106928493751        0.0000000000000000     
  -3.7181850545114276E-002  0.19695037855687084        0.0000000000000000     
  -4.1431771069332893E-002  0.16504914413985664        0.0000000000000000     
  -4.2063539732515885E-002  0.17291849068762963        0.0000000000000000     
  -4.2644944791330068E-002  0.18087605234587845        0.0000000000000000     
  -4.3175986245775462E-002  0.18892182911460303        0.0000000000000000     
  -4.3656664095852053E-002  0.19705582099380339        0.0000000000000000     
  -4.7657566308044561E-002  0.16524536168747087        0.0000000000000000     
  -4.8386409887444831E-002  0.17309643649940207        0.0000000000000000     
  -4.9059246440021458E-002  0.18103583146688410        0.0000000000000000     
  -4.9676075965774426E-002  0.18906354658991689        0.0000000000000000     
  -5.0236898464703757E-002  0.19717958186850054        0.0000000000000000     
  -2.4548485897980470E-002  0.19679444899629939        0.0000000000000000     
  -2.4780595224525963E-002  0.20503922509616934        0.0000000000000000     
  -2.4983517272712960E-002  0.21334139727230031        0.0000000000000000     
  -2.5157252042541475E-002  0.22170096552469226        0.0000000000000000     
  -2.5301799534011505E-002  0.23011792985334520        0.0000000000000000     
  -3.0812457812490413E-002  0.19686325455770282        0.0000000000000000     
  -3.1106419435546550E-002  0.20509978322162736        0.0000000000000000     
  -3.1363428228723352E-002  0.21339728763914401        0.0000000000000000     
  -3.1583484192020804E-002  0.22175576781025280        0.0000000000000000     
  -3.1766587325438918E-002  0.23017522373495372        0.0000000000000000     
  -3.7181850545114276E-002  0.19695037855687084        0.0000000000000000     
  -3.7541496353288850E-002  0.20517603759786551        0.0000000000000000     
  -3.7856362313709313E-002  0.21346625223146026        0.0000000000000000     
  -3.8126448426375692E-002  0.22182102245765492        0.0000000000000000     
  -3.8351754691287945E-002  0.23024034827644965        0.0000000000000000     
  -4.3656664095852053E-002  0.19705582099380339        0.0000000000000000     
  -4.4085825977752853E-002  0.20526798822488393        0.0000000000000000     
  -4.4462319527670879E-002  0.21354829104924902        0.0000000000000000     
  -4.4786144745606112E-002  0.22189672946689867        0.0000000000000000     
  -4.5057301631558577E-002  0.23031330347783294        0.0000000000000000     
  -5.0236898464703757E-002  0.19717958186850054        0.0000000000000000     
  -5.0739408308938569E-002  0.20537563510268253        0.0000000000000000     
  -5.1181299870608016E-002  0.21364340409251037        0.0000000000000000     
  -5.1562573149712097E-002  0.22198288883798403        0.0000000000000000     
  -5.1883228146250807E-002  0.23039408933910363        0.0000000000000000     
  -2.5301799534011505E-002  0.23011792985334520        0.0000000000000000     
  -2.5423468183719797E-002  0.23856481222407849        0.0000000000000000     
  -2.5528566428263118E-002  0.24701413460271146        0.0000000000000000     
  -2.5617094267641465E-002  0.25546589698924416        0.0000000000000000     
  -2.5689051701854836E-002  0.26392009938367644        0.0000000000000000     
  -3.1766587325438918E-002  0.23017522373495372        0.0000000000000000     
  -3.1920666165495423E-002  0.23863073939081897        0.0000000000000000     
  -3.2053649248708037E-002  0.24709739875542058        0.0000000000000000     
  -3.2165536575076766E-002  0.25557520182875865        0.0000000000000000     
  -3.2256328144601609E-002  0.26406414861083310        0.0000000000000000     
  -3.8351754691287945E-002  0.23024034827644965        0.0000000000000000     
  -3.8541047038744260E-002  0.23870334433761822        0.0000000000000000     
  -3.8703091399042815E-002  0.24718912529093465        0.0000000000000000     
  -3.8837887772183610E-002  0.25569769113639890        0.0000000000000000     
  -3.8945436158166639E-002  0.26422904187401092        0.0000000000000000     
  -4.5057301631558577E-002  0.23031330347783294        0.0000000000000000     
  -4.5284610803466331E-002  0.23878262706447639        0.0000000000000000     
  -4.5476892879267469E-002  0.24728931420925371        0.0000000000000000     
  -4.5634147858961992E-002  0.25583336491216491        0.0000000000000000     
  -4.5756375742549905E-002  0.26441477917320999        0.0000000000000000     
  -5.1883228146250807E-002  0.23039408933910363        0.0000000000000000     
  -5.2151357459661624E-002  0.23886858757139343        0.0000000000000000     
  -5.2375053689381994E-002  0.24739796551037774        0.0000000000000000     
  -5.2554316835411931E-002  0.25598222315605673        0.0000000000000000     
  -5.2689146897751421E-002  0.26462136050843021        0.0000000000000000     
  -2.5689051701854836E-002  0.26392009938367644        0.0000000000000000     
  -2.5756623940077029E-002  0.27232159618573948        0.0000000000000000     
  -2.5831996191481837E-002  0.28061524179516406        0.0000000000000000     
  -2.5915168456069261E-002  0.28880103621195030        0.0000000000000000     
  -2.6006140733839299E-002  0.29687897943609809        0.0000000000000000     
  -3.2256328144601609E-002  0.26406414861083310        0.0000000000000000     
  -3.2340830301757745E-002  0.27251136091330885        0.0000000000000000     
  -3.2433849391020328E-002  0.28086396054785084        0.0000000000000000     
  -3.2535385412389373E-002  0.28912194751445897        0.0000000000000000     
  -3.2645438365864872E-002  0.29728532181313333        0.0000000000000000     
  -3.8945436158166639E-002  0.26422904187401092        0.0000000000000000     
  -3.9044524548862279E-002  0.27273204473680024        0.0000000000000000     
  -3.9153940936140906E-002  0.28115556695779625        0.0000000000000000     
  -3.9273685320002541E-002  0.28949960853699891        0.0000000000000000     
  -3.9403757700447184E-002  0.29776416947440831        0.0000000000000000     
  -4.5756375742549905E-002  0.26441477917320999        0.0000000000000000     
  -4.5867706681390626E-002  0.27298364765621347        0.0000000000000000     
  -4.5992270826843588E-002  0.28149006102500029        0.0000000000000000     
  -4.6130068178908780E-002  0.28993401927957008        0.0000000000000000     
  -4.6281098737586221E-002  0.29831552241992321        0.0000000000000000     
  -5.2689146897751421E-002  0.26462136050843021        0.0000000000000000     
  -5.2810376699342784E-002  0.27326616967154882        0.0000000000000000     
  -5.2948839063128333E-002  0.28186744274946290        0.0000000000000000     
  -5.3104533989108076E-002  0.29042517974217258        0.0000000000000000     
  -5.3277461477282004E-002  0.29893938064967773        0.0000000000000000     
  -2.8960062081254546E-002   5.7153919366696199E-002   0.0000000000000000     
  -3.0518244374544798E-002   6.2712426987668268E-002   0.0000000000000000     
  -3.2019685035019244E-002   6.8453195632044800E-002   0.0000000000000000     
  -3.3464384062677884E-002   7.4376225299825821E-002   0.0000000000000000     
  -3.4852341457520718E-002   8.0481515991011304E-002   0.0000000000000000     
  -3.2935670921323067E-002   5.7693926699854986E-002   0.0000000000000000     
  -3.4692235387719338E-002   6.3226556355587618E-002   0.0000000000000000     
  -3.6383652458504646E-002   6.8943294397199414E-002   0.0000000000000000     
  -3.8009922133679007E-002   7.4844140824690333E-002   0.0000000000000000     
  -3.9571044413242419E-002   8.0929095638060430E-002   0.0000000000000000     
  -3.7061804796453685E-002   5.8268107950745336E-002   0.0000000000000000     
  -3.9012620031863648E-002   6.3780615209516875E-002   0.0000000000000000     
  -4.0891030598038745E-002   6.9477314393250736E-002   0.0000000000000000     
  -4.2697036494978954E-002   7.5358205501946926E-002   0.0000000000000000     
  -4.4430637722684289E-002   8.1423288535605473E-002   0.0000000000000000     
  -4.1338463706646386E-002   5.8876463119367221E-002   0.0000000000000000     
  -4.3479398306977744E-002   6.4374603549456011E-002   0.0000000000000000     
  -4.5541819453621527E-002   7.0055255620198820E-002   0.0000000000000000     
  -4.7525727146577719E-002   7.5918419331595613E-002   0.0000000000000000     
  -4.9431121385846329E-002   8.1964094683646418E-002   0.0000000000000000     
  -4.5765647651901178E-002   5.9518992205720676E-002   0.0000000000000000     
  -4.8092570213061625E-002   6.5008521375405054E-002   0.0000000000000000     
  -5.0336019025252990E-002   7.0677118078043638E-002   0.0000000000000000     
  -5.2495994088475294E-002   7.6524782313636394E-002   0.0000000000000000     
  -5.4572495402728537E-002   8.2551514082183308E-002   0.0000000000000000     
  -3.4852341457520718E-002   8.0481515991011304E-002   0.0000000000000000     
  -3.6189381471404269E-002   8.6756577800274848E-002   0.0000000000000000     
  -3.7481328356185069E-002   9.3188920822289995E-002   0.0000000000000000     
  -3.8728182111863123E-002   9.9778545057056758E-002   0.0000000000000000     
  -3.9929942738438404E-002  0.10652545050457514        0.0000000000000000     
  -3.9571044413242419E-002   8.0929095638060430E-002   0.0000000000000000     
  -4.1074388041447460E-002   8.7185055724550292E-002   0.0000000000000000     
  -4.2527321762546713E-002   9.3598917971400547E-002   0.0000000000000000     
  -4.3929845576540165E-002  0.10017068237861121        0.0000000000000000     
  -4.5281959483427836E-002  0.10690034894618228        0.0000000000000000     
  -4.4430637722684289E-002   8.1423288535605473E-002   0.0000000000000000     
  -4.6100197997313540E-002   8.7659593273717931E-002   0.0000000000000000     
  -4.7714081035025502E-002   9.4054149495775966E-002   0.0000000000000000     
  -4.9272286835820182E-002  0.10060695720177956        0.0000000000000000     
  -5.0774815399697588E-002  0.10731801639172875        0.0000000000000000     
  -4.9431121385846329E-002   8.1964094683646418E-002   0.0000000000000000     
  -5.1266811339002530E-002   8.8180190447777793E-002   0.0000000000000000     
  -5.3041606173621469E-002   9.4554615395416264E-002   0.0000000000000000     
  -5.4755505889703182E-002  0.10108736952656185        0.0000000000000000     
  -5.6408510487247633E-002  0.10777845284121454        0.0000000000000000     
  -5.4572495402728537E-002   8.2551514082183308E-002   0.0000000000000000     
  -5.6574228066514402E-002   8.8746847246729849E-002   0.0000000000000000     
  -5.8509897178334609E-002   9.5100315670321442E-002   0.0000000000000000     
  -6.0379502738189150E-002  0.10161191935295803        0.0000000000000000     
  -6.2183044746078019E-002  0.10828165829463966        0.0000000000000000     
  -3.9929942738438404E-002  0.10652545050457514        0.0000000000000000     
  -4.1082239457082267E-002  0.11341827172694494        0.0000000000000000     
  -4.2180701488966049E-002  0.12044564328626590        0.0000000000000000     
  -4.3225328834089714E-002  0.12760756518253805        0.0000000000000000     
  -4.4216121492453297E-002  0.13490403741576140        0.0000000000000000     
  -4.5281959483427836E-002  0.10690034894618228        0.0000000000000000     
  -4.6578948393626141E-002  0.11377606439890001        0.0000000000000000     
  -4.7816097217551493E-002  0.12078597546155069        0.0000000000000000     
  -4.8993405955203920E-002  0.12793008213413426        0.0000000000000000     
  -5.0110874606583380E-002  0.13520838441665084        0.0000000000000000     
  -5.0774815399697588E-002  0.10731801639172875        0.0000000000000000     
  -5.2216596887747629E-002  0.11417516036959847        0.0000000000000000     
  -5.3592561461060256E-002  0.12116622243936381        0.0000000000000000     
  -5.4902709119635476E-002  0.12829120260102478        0.0000000000000000     
  -5.6147039863473289E-002  0.13555010085458130        0.0000000000000000     
  -5.6408510487247633E-002  0.10777845284121454        0.0000000000000000     
  -5.7995184939446734E-002  0.11461555963904035        0.0000000000000000     
  -5.9510094219492320E-002  0.12158638421970537        0.0000000000000000     
  -6.0953238327384425E-002  0.12869092658320955        0.0000000000000000     
  -6.2324617263123008E-002  0.13592918672955287        0.0000000000000000     
  -6.2183044746078019E-002  0.10828165829463966        0.0000000000000000     
  -6.3914712548723454E-002  0.11509726220722566        0.0000000000000000     
  -6.5568695492847689E-002  0.12204646080257527        0.0000000000000000     
  -6.7144993578450718E-002  0.12912925408068854        0.0000000000000000     
  -6.8643606805532553E-002  0.13634564204156546        0.0000000000000000     
  -4.4216121492453297E-002  0.13490403741576140        0.0000000000000000     
  -4.5154118279665402E-002  0.14232318073401745        0.0000000000000000     
  -4.6040358011334652E-002  0.14985311588538772        0.0000000000000000     
  -4.6874840687461033E-002  0.15749384286987220        0.0000000000000000     
  -4.7657566308044561E-002  0.16524536168747087        0.0000000000000000     
  -5.0110874606583380E-002  0.13520838441665084        0.0000000000000000     
  -5.1169809609418762E-002  0.14260894369989061        0.0000000000000000     
  -5.2171517401438890E-002  0.15011982137464400        0.0000000000000000     
  -5.3115997982643770E-002  0.15774101744091093        0.0000000000000000     
  -5.4003251353033410E-002  0.16547253189869143        0.0000000000000000     
  -5.6147039863473289E-002  0.13555010085458130        0.0000000000000000     
  -5.7327333897034545E-002  0.14293089558124153        0.0000000000000000     
  -5.8445371424780103E-002  0.15042156516221350        0.0000000000000000     
  -5.9501152446709997E-002  0.15802210959749724        0.0000000000000000     
  -6.0494676962824179E-002  0.16573252888709281        0.0000000000000000     
  -6.2324617263123008E-002  0.13592918672955287        0.0000000000000000     
  -6.3626691142512765E-002  0.14328903637807017        0.0000000000000000     
  -6.4861920081358312E-002  0.15075834724809631        0.0000000000000000     
  -6.6030304079659694E-002  0.15833711933963127        0.0000000000000000     
  -6.7131843137416894E-002  0.16602535265267504        0.0000000000000000     
  -6.8643606805532553E-002  0.13634564204156546        0.0000000000000000     
  -7.0067881345853414E-002  0.14368336609037655        0.0000000000000000     
  -7.1421163371173518E-002  0.15113016763229237        0.0000000000000000     
  -7.2703452881492880E-002  0.15868604666731287        0.0000000000000000     
  -7.3914749876811500E-002  0.16635100319543811        0.0000000000000000     
  -4.7657566308044561E-002  0.16524536168747087        0.0000000000000000     
  -4.8386409887444831E-002  0.17309643649940207        0.0000000000000000     
  -4.9059246440021458E-002  0.18103583146688410        0.0000000000000000     
  -4.9676075965774426E-002  0.18906354658991689        0.0000000000000000     
  -5.0236898464703757E-002  0.19717958186850054        0.0000000000000000     
  -5.4003251353033410E-002  0.16547253189869143        0.0000000000000000     
  -5.4831278608659995E-002  0.17330345736280117        0.0000000000000000     
  -5.5598080845575756E-002  0.18122288644805579        0.0000000000000000     
  -5.6303658063780675E-002  0.18923081915445533        0.0000000000000000     
  -5.6948010263274750E-002  0.19732725548199975        0.0000000000000000     
  -6.0494676962824179E-002  0.16573252888709281        0.0000000000000000     
  -6.1424022856500581E-002  0.17354229062767176        0.0000000000000000     
  -6.2287268011117079E-002  0.18144086241590568        0.0000000000000000     
  -6.3084412426673689E-002  0.18942824425179464        0.0000000000000000     
  -6.3815456103170423E-002  0.19750443613533852        0.0000000000000000     
  -6.7131843137416894E-002  0.16602535265267504        0.0000000000000000     
  -6.8164642630966568E-002  0.17381293629401379        0.0000000000000000     
  -6.9126807936645440E-002  0.18168975937043372        0.0000000000000000     
  -7.0018339054453496E-002  0.18965582188193472        0.0000000000000000     
  -7.0839235984390778E-002  0.19771112382851694        0.0000000000000000     
  -7.3914749876811500E-002  0.16635100319543811        0.0000000000000000     
  -7.5053137932057951E-002  0.17411539436182735        0.0000000000000000     
  -7.6116700622160818E-002  0.18196957731163987        0.0000000000000000     
  -7.7105437947120090E-002  0.18991355204487570        0.0000000000000000     
  -7.8019349906935778E-002  0.19794731856153483        0.0000000000000000     
  -5.0236898464703757E-002  0.19717958186850054        0.0000000000000000     
  -5.0739408308938569E-002  0.20537563510268253        0.0000000000000000     
  -5.1181299870608016E-002  0.21364340409251037        0.0000000000000000     
  -5.1562573149712097E-002  0.22198288883798403        0.0000000000000000     
  -5.1883228146250807E-002  0.23039408933910363        0.0000000000000000     
  -5.6948010263274750E-002  0.19732725548199975        0.0000000000000000     
  -5.7528054480898434E-002  0.20550525515731835        0.0000000000000000     
  -5.8040707753492182E-002  0.21375787790704021        0.0000000000000000     
  -5.8485970081056007E-002  0.22208512373116548        0.0000000000000000     
  -5.8863841463589875E-002  0.23048699262969410        0.0000000000000000     
  -6.3815456103170423E-002  0.19750443613533852        0.0000000000000000     
  -6.4477575627684899E-002  0.20566312531484826        0.0000000000000000     
  -6.5067947587294853E-002  0.21389799903863452        0.0000000000000000     
  -6.5586571982000214E-002  0.22220905730669732        0.0000000000000000     
  -6.6033448811800996E-002  0.23059630011903670        0.0000000000000000     
  -7.0839235984390778E-002  0.19771112382851694        0.0000000000000000     
  -7.1587971749297985E-002  0.20584924557527237        0.0000000000000000     
  -7.2263019372015971E-002  0.21406376748729330        0.0000000000000000     
  -7.2864378852544709E-002  0.22235468956457966        0.0000000000000000     
  -7.3392050190884184E-002  0.23072201180713148        0.0000000000000000     
  -7.8019349906935778E-002  0.19794731856153483        0.0000000000000000     
  -7.8859242845737670E-002  0.20606361593859063        0.0000000000000000     
  -7.9625923107655580E-002  0.21425518325301651        0.0000000000000000     
  -8.0319390692689493E-002  0.22252202050481243        0.0000000000000000     
  -8.0939645600839411E-002  0.23086412769397840        0.0000000000000000     
  -5.1883228146250807E-002  0.23039408933910363        0.0000000000000000     
  -5.2151357459661624E-002  0.23886858757139343        0.0000000000000000     
  -5.2375053689381994E-002  0.24739796551037774        0.0000000000000000     
  -5.2554316835411931E-002  0.25598222315605673        0.0000000000000000     
  -5.2689146897751421E-002  0.26462136050843021        0.0000000000000000     
  -5.8863841463589875E-002  0.23048699262969410        0.0000000000000000     
  -5.9180404907655977E-002  0.23896265932114136        0.0000000000000000     
  -5.9441743419816465E-002  0.24751129852402257        0.0000000000000000     
  -5.9647857000071337E-002  0.25613291023833767        0.0000000000000000     
  -5.9798745648420602E-002  0.26482749446408682        0.0000000000000000     
  -6.6033448811800996E-002  0.23059630011903670        0.0000000000000000     
  -6.6410871047775252E-002  0.23906627577649231        0.0000000000000000     
  -6.6721131661000993E-002  0.24762553257990383        0.0000000000000000     
  -6.6964230651478177E-002  0.25627407052927137        0.0000000000000000     
  -6.7140168019206858E-002  0.26501188962459482        0.0000000000000000     
  -7.3392050190884184E-002  0.23072201180713148        0.0000000000000000     
  -7.3842755880019442E-002  0.23917943693744628        0.0000000000000000     
  -7.4213218412935530E-002  0.24774066767802172        0.0000000000000000     
  -7.4503437789632462E-002  0.25640570402885771        0.0000000000000000     
  -7.4713414010110210E-002  0.26517454598995432        0.0000000000000000     
  -8.0939645600839411E-002  0.23086412769397840        0.0000000000000000     
  -8.1476059404388554E-002  0.23930214280400330        0.0000000000000000     
  -8.1918003675620132E-002  0.24785670381837610        0.0000000000000000     
  -8.2265478414534160E-002  0.25652781073709668        0.0000000000000000     
  -8.2518483621130623E-002  0.26531546356016522        0.0000000000000000     
  -5.2689146897751421E-002  0.26462136050843021        0.0000000000000000     
  -5.2810376699342784E-002  0.27326616967154882        0.0000000000000000     
  -5.2948839063128333E-002  0.28186744274946290        0.0000000000000000     
  -5.3104533989108076E-002  0.29042517974217258        0.0000000000000000     
  -5.3277461477282004E-002  0.29893938064967773        0.0000000000000000     
  -5.9798745648420602E-002  0.26482749446408682        0.0000000000000000     
  -5.9931288676505844E-002  0.27355089865103627        0.0000000000000000     
  -6.0082365395968701E-002  0.28225897024895247        0.0000000000000000     
  -6.0251975806809140E-002  0.29095170925783542        0.0000000000000000     
  -6.0440119909027173E-002  0.29962911567768508        0.0000000000000000     
  -6.7140168019206858E-002  0.26501188962459482        0.0000000000000000     
  -6.7289196686666899E-002  0.27380912246290606        0.0000000000000000     
  -6.7451569576338161E-002  0.28263590164123709        0.0000000000000000     
  -6.7627286688220670E-002  0.29149222715958778        0.0000000000000000     
  -6.7816348022314399E-002  0.30037809901795809        0.0000000000000000     
  -7.4713414010110210E-002  0.26517454598995432        0.0000000000000000     
  -7.4884100729825931E-002  0.27404084110715832        0.0000000000000000     
  -7.5056451604236754E-002  0.28299823692631682        0.0000000000000000     
  -7.5230466633342666E-002  0.29204673344742960        0.0000000000000000     
  -7.5406145817143694E-002  0.30118633067049666        0.0000000000000000     
  -8.2518483621130623E-002  0.26531546356016522        0.0000000000000000     
  -8.2716000805982903E-002  0.27424605458379309        0.0000000000000000     
  -8.2897011479664384E-002  0.28334597610419160        0.0000000000000000     
  -8.3061515642175121E-002  0.29261522812136087        0.0000000000000000     
  -8.3209513293515031E-002  0.30205381063530090        0.0000000000000000     
  -4.5765647651901178E-002   5.9518992205720676E-002   0.0000000000000000     
  -4.8092570213061625E-002   6.5008521375405054E-002   0.0000000000000000     
  -5.0336019025252990E-002   7.0677118078043638E-002   0.0000000000000000     
  -5.2495994088475294E-002   7.6524782313636394E-002   0.0000000000000000     
  -5.4572495402728537E-002   8.2551514082183308E-002   0.0000000000000000     
  -5.0362201226753785E-002   6.0222534432051736E-002   0.0000000000000000     
  -5.2874958669575839E-002   6.5698845192364366E-002   0.0000000000000000     
  -5.5299231567406300E-002   7.1351858925092382E-002   0.0000000000000000     
  -5.7635019920245160E-002   7.7181575630235810E-002   0.0000000000000000     
  -5.9882323728092393E-002   8.3187995307794610E-002   0.0000000000000000     
  -5.5146969025739900E-002   6.1013929020606476E-002   0.0000000000000000     
  -5.7849386595980989E-002   6.6462051505334310E-002   0.0000000000000000     
  -6.0457059334554614E-002   7.2088435319652297E-002   0.0000000000000000     
  -6.2969987241460745E-002   7.7893080463560457E-002   0.0000000000000000     
  -6.5388170316699398E-002   8.3875986937058764E-002   0.0000000000000000     
  -6.0119951048859546E-002   6.1893175971384891E-002   0.0000000000000000     
  -6.3015853992277077E-002   6.7298140314314886E-002   0.0000000000000000     
  -6.5809502326697938E-002   7.2886847261723398E-002   0.0000000000000000     
  -6.8500896052122076E-002   7.8659296813610335E-002   0.0000000000000000     
  -7.1090035168549531E-002   8.4615488969975783E-002   0.0000000000000000     
  -6.5281147296112702E-002   6.2860275284386979E-002   0.0000000000000000     
  -6.8374360858464087E-002   6.8207111619306093E-002   0.0000000000000000     
  -7.1356560543836239E-002   7.3747094751305586E-002   0.0000000000000000     
  -7.4227746352229146E-002   7.9480224680385458E-002   0.0000000000000000     
  -7.6987918283642792E-002   8.5406501406545682E-002   0.0000000000000000     
  -5.4572495402728537E-002   8.2551514082183308E-002   0.0000000000000000     
  -5.6574228066514402E-002   8.8746847246729849E-002   0.0000000000000000     
  -5.8509897178334609E-002   9.5100315670321442E-002   0.0000000000000000     
  -6.0379502738189150E-002  0.10161191935295803        0.0000000000000000     
  -6.2183044746078019E-002  0.10828165829463966        0.0000000000000000     
  -5.9882323728092393E-002   8.3187995307794610E-002   0.0000000000000000     
  -6.2049784543056298E-002   8.9361633167300725E-002   0.0000000000000000     
  -6.4146043917245113E-002   9.5693004418286071E-002   0.0000000000000000     
  -6.6171101850658873E-002  0.10218210906075068        0.0000000000000000     
  -6.8124958343297543E-002  0.10882894709469450        0.0000000000000000     
  -6.5388170316699398E-002   8.3875986937058764E-002   0.0000000000000000     
  -6.7720817131835309E-002   9.0026617706216963E-002   0.0000000000000000     
  -6.9977136258433187E-002   9.6334435737104790E-002   0.0000000000000000     
  -7.2157127696493115E-002  0.10279944102972224        0.0000000000000000     
  -7.4260791446015023E-002  0.10942163358406934        0.0000000000000000     
  -7.1090035168549531E-002   8.4615488969975783E-002   0.0000000000000000     
  -7.3587325832851422E-002   9.0741800863478578E-002   0.0000000000000000     
  -7.6003174201898893E-002   9.7024609626777586E-002   0.0000000000000000     
  -7.8337580275691904E-002  0.10346391525987279        0.0000000000000000     
  -8.0590544054230481E-002  0.11005971776276423        0.0000000000000000     
  -7.6987918283642792E-002   8.5406501406545682E-002   0.0000000000000000     
  -7.9649310646104643E-002   9.1507182639085596E-002   0.0000000000000000     
  -8.2224157747642107E-002   9.7763526087304459E-002   0.0000000000000000     
  -8.4712459588255185E-002  0.10417553175120231        0.0000000000000000     
  -8.7114216167943875E-002  0.11074319963077914        0.0000000000000000     
  -6.2183044746078019E-002  0.10828165829463966        0.0000000000000000     
  -6.3914712548723454E-002  0.11509726220722566        0.0000000000000000     
  -6.5568695492847689E-002  0.12204646080257527        0.0000000000000000     
  -6.7144993578450718E-002  0.12912925408068854        0.0000000000000000     
  -6.8643606805532553E-002  0.13634564204156546        0.0000000000000000     
  -6.8124958343297543E-002  0.10882894709469450        0.0000000000000000     
  -7.0001418956646036E-002  0.11562142368849354        0.0000000000000000     
  -7.1794289252189308E-002  0.12254744401052385        0.0000000000000000     
  -7.3503569229927332E-002  0.12960700806078534        0.0000000000000000     
  -7.5129258889860079E-002  0.13680011583927815        0.0000000000000000     
  -7.4260791446015023E-002  0.10942163358406934        0.0000000000000000     
  -7.6281543404282767E-002  0.11618919969718329        0.0000000000000000     
  -7.8212799468580119E-002  0.12309032566610137        0.0000000000000000     
  -8.0054559638907147E-002  0.13012501149082353        0.0000000000000000     
  -8.1806823915263782E-002  0.13729325717134985        0.0000000000000000     
  -8.0590544054230481E-002  0.11005971776276423        0.0000000000000000     
  -8.2755085891633565E-002  0.11680059023329488        0.0000000000000000     
  -8.4824226142020134E-002  0.12367510576930786        0.0000000000000000     
  -8.6797964805390149E-002  0.13068326437080310        0.0000000000000000     
  -8.8676301881743663E-002  0.13782506603778061        0.0000000000000000     
  -8.7114216167943875E-002  0.11074319963077914        0.0000000000000000     
  -8.9422046418698498E-002  0.11745559529682831        0.0000000000000000     
  -9.1628569272509341E-002  0.12430178432014324        0.0000000000000000     
  -9.3733784729376421E-002  0.13128176670072395        0.0000000000000000     
  -9.5737692789299708E-002  0.13839554243857041        0.0000000000000000     
  -6.8643606805532553E-002  0.13634564204156546        0.0000000000000000     
  -7.0067881345853414E-002  0.14368336609037655        0.0000000000000000     
  -7.1421163371173518E-002  0.15113016763229237        0.0000000000000000     
  -7.2703452881492880E-002  0.15868604666731287        0.0000000000000000     
  -7.3914749876811500E-002  0.16635100319543811        0.0000000000000000     
  -7.5129258889860079E-002  0.13680011583927815        0.0000000000000000     
  -7.6675555742059531E-002  0.14411442629431970        0.0000000000000000     
  -7.8146657296597574E-002  0.15153759837422770        0.0000000000000000     
  -7.9542563553474235E-002  0.15906963207900213        0.0000000000000000     
  -8.0863274512689487E-002  0.16671052740864295        0.0000000000000000     
  -8.1806823915263782E-002  0.13729325717134985        0.0000000000000000     
  -8.3474365566134190E-002  0.14458275856605862        0.0000000000000000     
  -8.5061957860002410E-002  0.15198121153332836        0.0000000000000000     
  -8.6569600796868457E-002  0.15948861607315898        0.0000000000000000     
  -8.7997294376732316E-002  0.16710497218555051        0.0000000000000000     
  -8.8676301881743663E-002  0.13782506603778061        0.0000000000000000     
  -9.0464310818077348E-002  0.14508836290559338        0.0000000000000000     
  -9.2167065061387971E-002  0.15246100710959434        0.0000000000000000     
  -9.3784564611675503E-002  0.15994299864978345        0.0000000000000000     
  -9.5316809468939959E-002  0.16753433752616079        0.0000000000000000     
  -9.5737692789299708E-002  0.13839554243857041        0.0000000000000000     
  -9.7645391497889061E-002  0.14563123931292388        0.0000000000000000     
  -9.9461978900754297E-002  0.15297698510302560        0.0000000000000000     
 -0.10118745499789542       0.16043277980887558        0.0000000000000000     
 -0.10282181978931243       0.16799862343047378        0.0000000000000000     
  -7.3914749876811500E-002  0.16635100319543811        0.0000000000000000     
  -7.5053137932057951E-002  0.17411539436182735        0.0000000000000000     
  -7.6116700622160818E-002  0.18196957731163987        0.0000000000000000     
  -7.7105437947120090E-002  0.18991355204487570        0.0000000000000000     
  -7.8019349906935778E-002  0.19794731856153483        0.0000000000000000     
  -8.0863274512689487E-002  0.16671052740864295        0.0000000000000000     
  -8.2107129939558224E-002  0.17445096678167488        0.0000000000000000     
  -8.3272469599395271E-002  0.18228163261662259        0.0000000000000000     
  -8.4359293492200615E-002  0.19020252491348602        0.0000000000000000     
  -8.5367601617974270E-002  0.19821364367226524        0.0000000000000000     
  -8.7997294376732316E-002  0.16710497218555051        0.0000000000000000     
  -8.9344239833250849E-002  0.17482095550411894        0.0000000000000000     
  -9.0609638400080794E-002  0.18262724166248015        0.0000000000000000     
  -9.1793490077222220E-002  0.19052383066063422        0.0000000000000000     
  -9.2895794864675071E-002  0.19851072249858109        0.0000000000000000     
  -9.5316809468939959E-002  0.16753433752616079        0.0000000000000000     
  -9.6764467613135785E-002  0.17522536052915946        0.0000000000000000     
  -9.8128207024217443E-002  0.18300640444921262        0.0000000000000000     
  -9.9408027702184876E-002  0.19087746928632024        0.0000000000000000     
 -0.10060392964703818       0.19883855504048234        0.0000000000000000     
 -0.10282181978931243       0.16799862343047378        0.0000000000000000     
 -0.10436781327921307       0.17566418185679647        0.0000000000000000     
 -0.10582817547180516       0.18341912097681992        0.0000000000000000     
 -0.10720290636708867       0.19126344079054408        0.0000000000000000     
 -0.10849200596506359       0.19919714129796898        0.0000000000000000     
  -7.8019349906935778E-002  0.19794731856153483        0.0000000000000000     
  -7.8859242845737670E-002  0.20606361593859063        0.0000000000000000     
  -7.9625923107655580E-002  0.21425518325301651        0.0000000000000000     
  -8.0319390692689493E-002  0.22252202050481243        0.0000000000000000     
  -8.0939645600839411E-002  0.23086412769397840        0.0000000000000000     
  -8.5367601617974270E-002  0.19821364367226524        0.0000000000000000     
  -8.6300604401186004E-002  0.20630703802932482        0.0000000000000000     
  -8.7161512266305516E-002  0.21447475712102923        0.0000000000000000     
  -8.7950325213332806E-002  0.22271680094737850        0.0000000000000000     
  -8.8667043242267901E-002  0.23103316950837263        0.0000000000000000     
  -9.2895794864675071E-002  0.19851072249858109        0.0000000000000000     
  -9.3921271899825021E-002  0.20658031347199657        0.0000000000000000     
  -9.4874640320057629E-002  0.21472499987655649        0.0000000000000000     
  -9.5755900125372911E-002  0.22294478171226073        0.0000000000000000     
  -9.6565051315770839E-002  0.23123965897910934        0.0000000000000000     
 -0.10060392964703818       0.19883855504048234        0.0000000000000000     
 -0.10172124534165471       0.20688344226660599        0.0000000000000000     
 -0.10276530726891189       0.21500591151959822        0.0000000000000000     
 -0.10373611542880973       0.22320596279945909        0.0000000000000000     
 -0.10463366982134822       0.23148359610618857        0.0000000000000000     
 -0.10849200596506359       0.19919714129796898        0.0000000000000000     
 -0.10970052472667510       0.20721642441315299        0.0000000000000000     
 -0.11083351311286836       0.21531749205015455        0.0000000000000000     
 -0.11189097112364335       0.22350034420897361        0.0000000000000000     
 -0.11287289875900008       0.23176498088961026        0.0000000000000000     
  -8.0939645600839411E-002  0.23086412769397840        0.0000000000000000     
  -8.1476059404388554E-002  0.23930214280400330        0.0000000000000000     
  -8.1918003675620132E-002  0.24785670381837610        0.0000000000000000     
  -8.2265478414534160E-002  0.25652781073709668        0.0000000000000000     
  -8.2518483621130623E-002  0.26531546356016522        0.0000000000000000     
  -8.8667043242267901E-002  0.23103316950837263        0.0000000000000000     
  -8.9297287696709596E-002  0.23944936367942088        0.0000000000000000     
  -8.9826679920256725E-002  0.24799088433593250        0.0000000000000000     
  -9.0255219912909301E-002  0.25665773147790749        0.0000000000000000     
  -9.0582907674667285E-002  0.26544990510534588        0.0000000000000000     
  -9.6565051315770839E-002  0.23123965897910934        0.0000000000000000     
  -9.7292946832809590E-002  0.23963606986695654        0.0000000000000000     
  -9.7930439618047274E-002  0.24816045256565650        0.0000000000000000     
  -9.8477529671483863E-002  0.25681280707520909        0.0000000000000000     
  -9.8934216993119356E-002  0.26559313339561441        0.0000000000000000     
 -0.10463366982134822       0.23148359610618857        0.0000000000000000     
 -0.10546303681268852       0.23986226136661026        0.0000000000000000     
 -0.10622928276899170       0.24836540850754799        0.0000000000000000     
 -0.10693240769025783       0.25699303752900143        0.0000000000000000     
 -0.10757241157648686       0.26574514843097091        0.0000000000000000     
 -0.11287289875900008       0.23176498088961026        0.0000000000000000     
 -0.11380755763634640       0.24012793817838213        0.0000000000000000     
 -0.11472320937309012       0.24860575216160691        0.0000000000000000     
 -0.11561985396923123       0.25719842283928468        0.0000000000000000     
 -0.11649749142476976       0.26590595021141533        0.0000000000000000     
  -8.2518483621130623E-002  0.26531546356016522        0.0000000000000000     
  -8.2716000805982903E-002  0.27424605458379309        0.0000000000000000     
  -8.2897011479664384E-002  0.28334597610419160        0.0000000000000000     
  -8.3061515642175121E-002  0.29261522812136087        0.0000000000000000     
  -8.3209513293515031E-002  0.30205381063530090        0.0000000000000000     
  -9.0582907674667285E-002  0.26544990510534588        0.0000000000000000     
  -9.0840078231786303E-002  0.27443045484928441        0.0000000000000000     
  -9.1057066610521917E-002  0.28366243034076005        0.0000000000000000     
  -9.1233872810874139E-002  0.29314583157977259        0.0000000000000000     
  -9.1370496832842957E-002  0.30288065856632218        0.0000000000000000     
  -9.8934216993119356E-002  0.26559313339561441        0.0000000000000000     
  -9.9311514323884520E-002  0.27459973386010689        0.0000000000000000     
  -9.9620434404709982E-002  0.28393091080192046        0.0000000000000000     
  -9.9860977235595810E-002  0.29358666422105550        0.0000000000000000     
 -0.10003314281654198       0.30356699411751181        0.0000000000000000     
 -0.10757241157648686       0.26574514843097091        0.0000000000000000     
 -0.10813030908227757       0.27475389161626018        0.0000000000000000     
 -0.10858711486222866       0.28415141748767303        0.0000000000000000     
 -0.10894282891634019       0.29393772604520968        0.0000000000000000     
 -0.10919745124461212       0.30411281728886991        0.0000000000000000     
 -0.11649749142476976       0.26590595021141533        0.0000000000000000     
 -0.11729646250696542       0.27489292811774452        0.0000000000000000     
 -0.11795710798307789       0.28432395039801772        0.0000000000000000     
 -0.11847942785310721       0.29419901705223506        0.0000000000000000     
 -0.11886342211705338       0.30451812808039641        0.0000000000000000     
 </DataArray>
 <DataArray  type="Float64" Name="stress" NumberOfComponents="3" format="ascii">
   6059088089.0240889        121050028.32594848        45020127.343076997     
   5832779451.7046747        50782631.097846985        29636610.530491527     
   5613110498.8720503        2647515.4923601151        19002058.933653273     
   5400081230.5262041       -23355318.490523815        13116472.552545581     
   5193691646.6671400       -27225870.850800753        11979851.387182545     
   5673513882.0426693        78023960.555771112        185925470.01419553     
   5466495791.0678129        32003281.612916708        177900323.69369158     
   5263668180.0702896       -49130.738824605942        174369697.43357399     
   5065031049.0500984       -18133276.499453783        175333591.23386332     
   4870584398.0072489       -22249155.668954372        180792005.09454671     
   5291276809.7250738        35999033.184747458        335359343.92425281     
   5102822278.9366503        14006976.679696321        331835162.83478367     
   4916109023.6161261       -2180828.2657246590        332551056.65037918     
   4731137043.7634783       -12564381.651540756        337507025.37102944     
   4547906339.3787174       -17143683.477726936        346703068.99674368     
   4912376872.0712996       -5024753.7871346474        493321749.07322532     
   4741758915.3112087       -3206283.7018048763        491441127.95378321     
   4570433029.5095549       -3747577.0883562565        493546136.58406168     
   4398399214.6663418       -6648633.9467811584        499636774.96405959     
   4225657470.7815619       -11909454.277072906        509713043.09377414     
   4536814069.0813484       -45047400.359866619        659812685.46112692     
   4383305700.1914711       -19636499.531603336        656718219.05068243     
   4226640197.7505879       -4749377.2067019939        657354937.23461866     
   4066817561.7586918       -386033.38516449928        661722840.01294410     
   3903837792.2157845       -6546468.0670056343        669821927.38564384     
   5193691646.6671400       -27225870.850800753        11979851.387182545     
   5029017276.4947348       -10645698.104148865        7423828.4143819558     
   4862935855.4625187        1244305.1098036766        7415770.9131324086     
   4695447383.5705070        8444138.7911009789        11955678.883460803     
   4526551860.8186893        10953802.939713240        21043552.325340241     
   4870584398.0072489       -22249155.668954372        180792005.09454671     
   4716370997.6008577       -9344314.3170545101        174924666.26831767     
   4561231344.9075632        473019.41184473038        173404415.18932936     
   4405165439.9273796        7202845.5177700520        176231251.85758498     
   4248173282.6602898        10845164.000694990        183405176.27307108     
   4547906339.3787174       -17143683.477726936        346703068.99674368     
   4403579972.3831434       -8086354.4270997047        340085345.98548108     
   4258808151.6735716       -513871.08979797363        337613832.99713290     
   4113590877.2500067        5573766.5341923237        339288530.03169954     
   3967928149.1124420        10176558.444849730        345109437.08917838     
   4225657470.7815619       -11909454.277072906        509713043.09377414     
   4090644200.8415966       -6871818.4342899323        502905867.56586099     
   3955666275.7605391       -1716366.3951568604        500044024.33653557     
   3820723695.5383801        3556901.8403248787        501127513.40580684     
   3685816460.1751299        8947986.2721545696        506156334.77367175     
   3903837792.2157845       -6546468.0670056343        669821927.38564384     
   3777563682.9762158       -5700706.3386344910        663386231.00946093     
   3651805717.1684537       -3134466.5042428970        660694989.20754933     
   3526563894.7924995        1152251.4361751080        661748201.97991002     
   3401838215.8483567        7159447.4826312065        666545869.32653892     
   4526551860.8186893        10953802.939713240        21043552.325340241     
   4331772750.9281588        4234395.0005567074        14243293.119749948     
   4137435419.8450222       -1012416.9139413834        11409391.469963115     
   3943539867.5692687       -4786632.8038296700        12541847.375972696     
   3750086094.1009288       -7088252.6690170765        17640660.837779332     
   4248173282.6602898        10845164.000694990        183405176.27307108     
   4064249837.5250983        5461704.1054527760        176440394.15773374     
   3880628649.9398551        1085769.3767125607        173551470.13441068     
   3697309719.9045587       -2282640.1855373383        174738404.20311216     
   3514293047.4192047       -4643524.5813124180        180001196.36383432     
   3967928149.1124420        10176558.444849730        345109437.08917838     
   3795173227.4075103        6222904.1960134506        337817357.26373297     
   3622581041.9950747        2811704.2555091381        334710636.06652552     
   3450151592.8751311       -57041.376693725586        335789273.49755824     
   3277884880.0476904       -2383332.7005574703        341053269.55683851     
   3685816460.1751299        8947986.2721545696        506156334.77367175     
   3524542920.5753751        6517995.2722053528        498374182.43775463     
   3363292596.0106688        4165387.7224049568        494886889.26630419     
   3202065486.4810085        1890163.6227582693        495694455.25931633     
   3040861591.9863920       -307677.02673172951        500796880.41679227     
   3401838215.8483567        7159447.4826312065        666545869.32653892     
   3252358917.0286980        6346977.3340209723        658110869.67979717     
   3102763311.9866400        5146819.7774153948        654080229.73374450     
   2953051400.7221775        3558974.8127945662        654453949.48837471     
   2803223183.2353125        1583442.4401632547        659232028.94369078     
   3750086094.1009288       -7088252.6690170765        17640660.837779332     
   3575546508.5028119       -4083007.5744841099        10478658.635424068     
   3400322908.0085526       -3357812.1337466240        7976259.3416619580     
   3224415292.6181216       -4912666.3469257355        10133462.956513500     
   3047823662.3315287       -8747570.2139681578        16950269.479942825     
   3514293047.4192047       -4643524.5813124180        180001196.36383432     
   3351437842.6392431       -1130878.4886715412        171757146.76232722     
   3188165055.1511989        989825.24368751049        167724386.95894125     
   3024474684.9550681        1718586.6157537699        167902916.95366353     
   2860366732.0508509        1055405.6275441647        172292736.74650693     
   3277884880.0476904       -2383332.7005574703        341053269.55683851     
   3125433161.4845009        1252446.0097621679        332038010.10893643     
   2972830292.4013009        4384389.6533964872        326785727.34867120     
   2820076272.7980766        7012498.2302716970        325296421.27603030     
   2667171102.6748400        9136771.7404431105        327570091.89102566     
   3040861591.9863920       -307677.02673172951        500796880.41679227     
   2897532465.0385890        3066965.9208583832        491321248.67524749     
   2754318619.7588372        6825881.0953035355        485160280.51085067     
   2611220056.1471448        10969068.496604323        482313975.92359805     
   2468236774.2035089        15496528.124759555        482782334.91348785     
   2803223183.2353125        1583442.4401632547        659232028.94369078     
   2667735753.3015070        4312681.2446138859        649606862.46125627     
   2532630037.2238202        8314299.5694537163        642848046.44548118     
   2397906035.0022750        13588297.414761186        638955580.89636064     
   2263563746.6368423        20134674.780454993        637929465.81390142     
   3047823662.3315287       -8747570.2139681578        16950269.479942825     
   2883283007.8881583       -9194157.5767689943        11351006.417598546     
   2719276713.6714430       -7859544.1840525866        6745401.6694151312     
   2555804779.6814013       -4743730.0357547998        3133455.2354092333     
   2392867205.9180160        153284.86805570126        515167.11555651319     
   2860366732.0508509        1055405.6275441647        172292736.74650693     
   2699195152.9786940        1052503.3223893642        165406315.49627396     
   2538295683.9993219        1956634.6598333120        160015443.51181841     
   2377668325.1127114        3767799.6398291588        156120120.79313061     
   2217313076.3188968        6485998.2624672651        153720347.34021121     
   2667171102.6748400        9136771.7404431105        327570091.89102566     
   2510802573.1213560        10007746.737172008        319090553.96336991     
   2354443903.5267644        10911588.263550043        312608456.25309843     
   2198095093.8910618        11848296.319565773        308123798.76021034     
   2041756144.2142591        12817870.905230165        305636581.48470199     
   2468236774.2035089        15496528.124759555        482782334.91348785     
   2318105268.3161378        17671572.667597294        472403721.81887645     
   2167721372.2537799        19005316.627131104        464524439.89326555     
   2017085086.0164289        19497760.003373504        459144489.13664430     
   1866196409.6040940        19148902.796337962        456263869.54900992     
   2263563746.6368423        20134674.780454993        637929465.81390142     
   2121103238.5630486        24043981.113654852        625345819.06281185     
   1978128090.1803737        26237819.750610828        615763394.43232739     
   1834638301.4888279        26716190.691313982        609182191.92243898     
   1690633872.4884064        25479093.935769141        605602211.53314817     
   2392867205.9180160        153284.86805570126        515167.11555651319     
   2249911675.9944472        7045270.1818637848       -6359519.9108402468     
   2103784658.7616384        3365631.1315398216       -11096375.319768609     
   1954486154.2195578       -10885632.283029795       -13695399.111259319     
   1802016162.3682384       -35708520.061716199       -14156591.285271384     
   2217313076.3188968        6485998.2624672651        153720347.34021121     
   2078680211.5698371        12967873.423628807        143349105.57033312     
   1937960046.3929176        12492080.491912842        134259800.04473668     
   1795152580.7881243        5058619.4673008919        126452430.76346995     
   1650257814.7554686       -9332509.6502076387        119926997.72651690     
   2041756144.2142591        12817870.905230165        305636581.48470199     
   1905000529.2878470        18156011.308163404        293033669.66625816     
   1767241800.8149686        20150439.889532328        280856798.71899056     
   1628479958.7956009        18801156.649265170        269105968.64287716     
   1488715003.2297468        14108161.587382078        257781179.43792784     
   1866196409.6040940        19148902.796337962        456263869.54900992     
   1728872629.1484816        22609683.835486650        442694172.37698060     
   1591629922.0277884        26340709.324361742        428694620.70296663     
   1454468288.2419858        30341979.262881696        414265214.52696097     
   1317387727.7910981        34613493.651123583        399405953.84897745     
   1690633872.4884064        25479093.935769141        605602211.53314817     
   1550296511.1517441        26328891.005612016        592330613.70247591     
   1411124410.0313797        31062888.796429217        577773265.99667108     
   1273117569.1273043        39681087.308216572        561930168.41572928     
   1136275988.4395177        52183486.540972412        544801320.95965612     
   1802016162.3682384       -35708520.061716199       -14156591.285271384     
   1771268321.3128560       -16653494.252806783       -8419068.6344977655     
   1748545551.0934353        29151767.675985575       -41501013.069946177     
   1733847851.7100027        101707265.72474557       -113402424.59159228     
   1727175223.1625099        201012999.89328188       -224123303.19945273     
   1650257814.7554686       -9332509.6502076387        119926997.72651690     
   1527661921.3138554       -13919053.951349437        135558055.13345820     
   1409207123.7104776       -4701945.4583848119        124811978.58567904     
   1294893421.9453583        18318815.828780651        87688768.083175555     
   1184720816.0184984        55143229.910144866        24188423.625951614     
   1488715003.2297468        14108161.587382078        257781179.43792784     
   1309820580.6347401       -3455095.8539399505        278774467.43703479     
   1131183278.8802528       -20161283.826855481        285832954.61290365     
   952803097.96629035       -36010402.331364691        278956640.96554077     
   774680037.89282107       -51002451.367551893        258145526.49493718     
   1317387727.7910981        34613493.651123583        399405953.84897745     
   1117744299.2755203        14738380.039471567        421230168.27623492     
   914474016.60272491       -17226247.429570436        441561915.01173854     
   707576879.77273035       -61280388.755930960        460401194.05550665     
   497052888.78552735       -117424043.93967700        477748005.40751517     
   1136275988.4395177        52183486.540972412        544801320.95965612     
   951433077.23617160        40661373.728791118        562925157.65104735     
   759079336.87790132        4103163.7335243225        591998859.78217793     
   559214767.36469460       -57491143.444863647        632022427.35305548     
   351839368.69656068       -144121547.80633727        682995860.36366737     
   1727175223.1625099        201012999.89328188       -224123303.19945273     
   1456626653.1284876        184571325.33344835       -96608276.292728603     
   1153931280.6436965        60973642.604397953        60092582.830228999     
   819089105.70812201       -169780048.29392642        245979274.16938549     
   452100128.32176071       -507689747.36156142        461051797.72477293     
   1184720816.0184984        55143229.910144866        24188423.625951614     
   977645669.22478163        11836934.692322314        155568625.64993864     
   732763527.44622850       -157492677.14163125        312788233.48669380     
   450074390.68279696       -452845605.59181362        495847247.13625687     
   129578258.93450928       -874221850.65821612        704745666.59857011     
   774680037.89282107       -51002451.367551893        258145526.49493718     
   621517096.04391205       -124041732.73193285        386787345.67973566     
   424886966.67605793       -341971639.15947294        537922144.27389526     
   184789649.78925166       -704792170.65017390        711549922.27738488     
  -98774854.616492569       -1212503327.2039962        907670679.69024396     
   497052888.78552735       -117424043.93967700        477748005.40751517     
   388240933.58586884       -223064676.93935013        597047883.79669511     
   230301598.33319172       -492463243.44909573        735494315.19180524     
   23234883.027476668       -925619743.46897292        893087299.59282148     
  -232959212.33126575       -1522534176.9989204        1069826836.9997586     
   351839368.69656068       -144121547.80633727        682995860.36366737     
   277817181.85065269       -285231897.92991924        786350240.00080621     
   149007422.41762975       -608967490.01054561        905504746.24043107     
  -34589909.602503121       -1115328324.0482247        1040459379.0825340     
  -272974814.20976365       -1804314400.0429626        1191214138.5271294     
   4536814069.0813484       -45047400.359866619        659812685.46112692     
   4383305700.1914711       -19636499.531603336        656718219.05068243     
   4226640197.7505879       -4749377.2067019939        657354937.23461866     
   4066817561.7586918       -386033.38516449928        661722840.01294410     
   3903837792.2157845       -6546468.0670056343        669821927.38564384     
   4181584872.9792991       -10655841.876887083        795313293.29109275     
   4033768727.9143696       -1433544.5476744175        787051788.97997594     
   3884320317.4975944        2347868.2754027843        783173565.36267674     
   3733239641.7289810        688396.59234428406        783678622.43919468     
   3580526700.6085262       -6411959.5968515873        788566960.20953405     
   3818643477.0951867        21422056.671473503        923041213.65364659     
   3678382687.5678725        15014690.015435219        911391684.34088552     
   3538014500.8878751        8249332.8504838943        904777531.82138193     
   3397538917.0552130        1125985.1766374111        903198756.09512913     
   3256955936.0698795       -6355353.0061175823        906655357.16212761     
   3447989881.4289861        51186295.285209179        1042996446.5487783     
   3317147579.1519585        29708204.157715917        1029737905.1334134     
   3187722747.9214234        12955016.518553376        1022166836.6107308     
   3059715387.7373848        926732.36771202087        1020283240.9807396     
   2933125498.5998492       -6376648.2947970629        1024087118.2434371     
   3069624085.9807186        78636873.964321613        1155178991.9765003     
   2950063402.6666498        42646997.879185081        1142090451.3575516     
   2833445058.5982399        16464919.279591680        1135341479.7307312     
   2719769053.7755051        90638.165573239326        1134932077.0960307     
   2609035388.1984348       -6475845.4628915787        1140862243.4534533     
   3903837792.2157845       -6546468.0670056343        669821927.38564384     
   3777563682.9762158       -5700706.3386344910        663386231.00946093     
   3651805717.1684537       -3134466.5042428970        660694989.20754933     
   3526563894.7924995        1152251.4361751080        661748201.97991002     
   3401838215.8483567        7159447.4826312065        666545869.32653892     
   3580526700.6085262       -6411959.5968515873        788566960.20953405     
   3464366295.0900717       -4473785.7083845139        782571758.14028490     
   3348567453.4270210       -1330398.9685795307        780359778.47606337     
   3233130175.6193781        3018200.6225764751        781931021.21686769     
   3118054461.6671224        8572013.0650513172        787285486.36270225     
   3256955936.0698795       -6355353.0061175823        906655357.16212761     
   3151019999.5032811       -3291537.3883314133        900920306.56066978     
   3045291047.2156763        462225.82611048222        899007246.19500208     
   2939769079.2070642        4905936.6371934414        900916176.06511700     
   2834454095.4774513        10039595.044931889        906647096.17101657     
   2933125498.5998492       -6376648.2947970629        1024087118.2434371     
   2837524796.2158384       -2153961.3784739971        1018431876.2706325     
   2741976498.5344152        2243407.8798154593        1016637392.3643677     
   2646480605.5555830        6815459.4800645113        1018703666.5246466     
   2551037117.2793388        11562193.422284007        1024630698.7514731     
   2609035388.1984348       -6475845.4628915787        1140862243.4534533     
   2523880685.2277479       -1061057.6788109541        1135106467.2701595     
   2438623807.3832498        4013147.1925657988        1133250216.9841645     
   2353264754.6649265        8746769.1511920691        1135293492.5954723     
   2267803527.0727897        13139808.197105289        1141236294.1040809     
   3401838215.8483567        7159447.4826312065        666545869.32653892     
   3252358917.0286980        6346977.3340209723        658110869.67979717     
   3102763311.9866400        5146819.7774153948        654080229.73374450     
   2953051400.7221775        3558974.8127945662        654453949.48837471     
   2803223183.2353125        1583442.4401632547        659232028.94369078     
   3118054461.6671224        8572013.0650513172        787285486.36270225     
   2980041134.6830177        7795537.8816690445        778849312.81681967     
   2842029538.0965028        7024830.6902515888        774820451.37485075     
   2704019671.9075766        6259891.4908088446        775198902.03681064     
   2566011536.1162338        5500720.2833068371        779984664.80268657     
   2834454095.4774513        10039595.044931889        906647096.17101657     
   2707915175.7667155        9301645.4581334591        898347458.11597502     
   2581496023.0735526        8962919.2632632256        894458084.56808901     
   2455196637.3979716        9023416.4603284597        894978975.52735496     
   2329017018.7399688        9483137.0493125916        899910130.99377847     
   2551037117.2793388        11562193.422284007        1024630698.7514731     
   2435981040.2797771        10865300.063400507        1016605305.5772681     
   2321162766.9177876        10961085.496424198        1012993129.3134453     
   2206582297.1933651        11849549.721340656        1013794169.9600166     
   2092239631.1065135        13530692.738155723        1019008427.5169723     
   2267803527.0727897        13139808.197105289        1141236294.1040809     
   2164238728.2222171        12486501.697489381        1133622855.2006931     
   2061029769.6292038        13019329.389732838        1130425585.6109293     
   1958176651.2937560        14738291.273857355        1131644485.3347900     
   1855679373.2158618        17643387.349833012        1137279554.3722672     
   2803223183.2353125        1583442.4401632547        659232028.94369078     
   2667735753.3015070        4312681.2446138859        649606862.46125627     
   2532630037.2238202        8314299.5694537163        642848046.44548118     
   2397906035.0022750        13588297.414761186        638955580.89636064     
   2263563746.6368423        20134674.780454993        637929465.81390142     
   2566011536.1162338        5500720.2833068371        779984664.80268657     
   2438461062.5520229        8340164.4243893623        771008189.29991114     
   2311213023.4344592        12187723.387627840        765245282.38325405     
   2184267418.7635450        17043397.173031807        762695944.05270529     
   2057624248.5392737        22907185.780585408        763360174.30828071     
   2329017018.7399688        9483137.0493125916        899910130.99377847     
   2210395553.3152194        12730402.057980895        891489853.82627726     
   2091997242.9276469        16721517.190560460        886630363.36435080     
   1973822087.5772390        21456482.447029948        885331659.60798800     
   1855870087.2640052        26935297.827409029        887593742.55719900     
   2092239631.1065135        13530692.738155723        1019008427.5169723     
   1983539225.5910997        17483394.145375133        1011051856.0403521     
   1874982695.7033863        21915680.978250027        1007003289.3887622     
   1766570041.4433630        26827553.236763358        1006862727.5621949     
   1658301262.8110335        32219010.920923173        1010630170.5606472     
   1855679373.2158618        17643387.349833012        1137279554.3722672     
   1757892079.3796616        22599140.686577082        1129694195.9421439     
   1660169381.7616835        27770214.750721872        1126364060.4564948     
   1562511280.3619070        33156609.542210877        1127289147.9153304     
   1464917775.1803541        38758325.061111748        1132469458.3186412     
   2263563746.6368423        20134674.780454993        637929465.81390142     
   2121103238.5630486        24043981.113654852        625345819.06281185     
   1978128090.1803737        26237819.750610828        615763394.43232739     
   1834638301.4888279        26716190.691313982        609182191.92243898     
   1690633872.4884064        25479093.935769141        605602211.53314817     
   2057624248.5392737        22907185.780585408        763360174.30828071     
   1923136004.5658286        26369516.410227299        751862939.05992401     
   1788313720.0887067        28718378.694272637        743600140.77668667     
   1653157395.1078928        29953772.632682085        738571779.45855665     
   1517667029.6233952        30075698.225485384        736777855.10553205     
   1855870087.2640052        26935297.827409029        887593742.55719900     
   1730020435.5180917        30150551.191648006        877393618.58429921     
   1604017343.0736854        32854335.560922325        870661146.42102993     
   1477860809.9307840        35046650.935198367        867396326.06737733     
   1351550836.0893865        36727497.314505517        867599157.52334785     
   1658301262.8110335        32219010.920923173        1010630170.5606472     
   1541756531.4198241        35387085.457904577        1001937857.6359324     
   1425238959.1353152        38645690.350556970        996946411.36535060     
   1308748545.9575043        41994825.598866582        995655831.74889851     
   1192285291.8863881        45434491.202827275        998066118.78658593     
   1464917775.1803541        38758325.061111748        1132469458.3186412     
   1358344292.2710326        42079119.209013939        1125495656.2148273     
   1251978568.2735996        46092443.063209593        1122455935.6096601     
   1145820603.1880450        50798296.623672903        1123350296.5031345     
   1039870397.0143872        56196679.890448153        1128178738.8952546     
   1690633872.4884064        25479093.935769141        605602211.53314817     
   1550296511.1517441        26328891.005612016        592330613.70247591     
   1411124410.0313797        31062888.796429217        577773265.99667108     
   1273117569.1273043        39681087.308216572        561930168.41572928     
   1136275988.4395177        52183486.540972412        544801320.95965612     
   1517667029.6233952        30075698.225485384        736777855.10553205     
   1375495516.1244538        28126834.212714672        727656249.94913745     
   1233614233.1063886        27145405.136201680        719055353.25440311     
   1092023180.5691957        27131410.995942354        710975165.02135026     
   950722358.51288676        28084851.791945338        703415685.24996912     
   1351550836.0893865        36727497.314505517        867599157.52334785     
   1212706479.9618902        33528365.079228699        861606677.01656926     
   1073277324.5798573        28379901.995498776        857941363.30826688     
   933263369.94328868        21282108.063315153        856603216.39845026     
   792664616.05219126        12234983.282699049        857592236.28710902     
   1192285291.8863881        45434491.202827275        998066118.78658593     
   1061929402.6640663        42533483.605164707        994181894.90478241     
   930113684.45180511        34766379.374359578        994431296.15826261     
   796838137.24958861        22133178.510370076        998814322.54702961     
   662102761.05742514        4633881.0132248998        1007330974.0710790     
   1039870397.0143872        56196679.890448153        1128178738.8952546     
   923164284.23098123        55142189.790532261        1125381903.6137731     
   804123312.72221208        46304837.272728115        1128525151.8043869     
   682747482.48807752        29684622.337050915        1137608483.4670892     
   559036793.52859807        5281544.9835457802        1152631898.6018789     
   1136275988.4395177        52183486.540972412        544801320.95965612     
   951433077.23617160        40661373.728791118        562925157.65104735     
   759079336.87790132        4103163.7335243225        591998859.78217793     
   559214767.36469460       -57491143.444863647        632022427.35305548     
   351839368.69656068       -144121547.80633727        682995860.36366737     
   950722358.51288676        28084851.791945338        703415685.24996912     
   791578634.86277521        11035906.452292919        721319415.01456523     
   623804340.73782218       -34781607.136817068        749317308.04053688     
   447399476.13802612       -109367688.97540799        787409364.32791483     
   262364041.06338280       -212722339.06349570        835595583.87667620     
   792664616.05219126        12234983.282699049        857592236.28710902     
   656775216.58859587       -11074253.594433427        873969494.25167155     
   511135505.33025086       -66884529.787411958        899585213.29926908     
   355745482.27714276       -155195845.29625654        934439393.42991495     
   190605147.42928630       -276008200.12092638        978532034.64360011     
   662102761.05742514        4633881.0132248998        1007330974.0710790     
   547022822.41363907       -25669106.411403060        1020875395.3623748     
   421072830.65518385       -92205604.218255967        1042802575.5583693     
   284252785.78206021       -194975612.40733171        1073112514.6590608     
   136562687.79426906       -333979130.97864830        1111805212.6644261     
   559036793.52859807        5281544.9835457802        1152631898.6018789     
   462321452.33790493       -32748651.998589218        1162037118.3466866     
   353616316.71262586       -110744830.42934395        1178969394.8178337     
   232921386.65276965       -228706990.30868667        1203428728.0153279     
   100236662.15833861       -386635131.63661754        1235415117.9391563     
   351839368.69656068       -144121547.80633727        682995860.36366737     
   277817181.85065269       -285231897.92991924        786350240.00080621     
   149007422.41762975       -608967490.01054561        905504746.24043107     
  -34589909.602503121       -1115328324.0482247        1040459379.0825340     
  -272974814.20976365       -1804314400.0429626        1191214138.5271294     
   262364041.06338280       -212722339.06349570        835595583.87667620     
   223639696.37541962       -352367692.72287083        884992714.19348788     
   140677330.50033912       -639473117.00594842        945403828.07605147     
   13476943.438141048       -1074038611.9127483        1016828925.5243260     
  -157961464.81116229       -1656064177.4432604        1099268006.5383470     
   190605147.42928630       -276008200.12092638        978532034.64360011     
   173503950.50855693       -418290965.63331139        986279725.60675585     
   122714283.80071568       -672868630.43606520        1000255257.0988953     
   38236147.305761158       -1039741194.5291928        1020458629.1200221     
  -79930458.976304770       -1518908657.9126813        1046889841.6701528     
   136562687.79426906       -333979130.97864830        1111805212.6644261     
   127409944.25007373       -483001716.66123807        1090211274.2405877     
   95118282.318762153       -709154030.30086720        1070059033.3089918     
   39687702.000341475       -1012436071.8975295        1051348489.8696373     
  -38881796.705189705       -1392847841.4512248        1034079643.9225261     
   100236662.15833861       -386635131.63661754        1235415117.9391563     
   85357677.599964947       -546499945.80664575        1196787360.0949974     
   57889326.054477662       -748329316.60037518        1154815156.7063372     
   17831607.521888554       -992123244.01779377        1109498507.7731657     
  -34815477.997802854       -1277881728.0588870        1060837413.2954824     
   3069624085.9807186        78636873.964321613        1155178991.9765003     
   2950063402.6666498        42646997.879185081        1142090451.3575516     
   2833445058.5982399        16464919.279591680        1135341479.7307312     
   2719769053.7755051        90638.165573239326        1134932077.0960307     
   2609035388.1984348       -6475845.4628915787        1140862243.4534533     
   2670384562.9360557        40224274.826848507        1216788598.4883842     
   2571045624.0157285        19080100.626827955        1208032276.2753277     
   2473505044.8218889        3930458.8484390974        1205065641.8610766     
   2377762825.3545432       -5224650.5083110332        1207888695.2456350     
   2283818965.6136880       -8385227.4434219599        1216501436.4289992     
   2276407186.3736596        3390319.6340556145        1282442133.5276031     
   2195718902.7233076       -3379479.4179759026        1276683386.9480715     
   2115684999.2802722       -7968011.1122957468        1276164446.9740217     
   2036305476.0445523       -10375275.448897600        1280885313.6054614     
   1957580333.0161431       -10601272.427791715        1290845986.8423922     
   1887691956.2935193       -31864991.614062190        1352139597.0941627     
   1824083238.7893870       -24731742.255229473        1348043783.3757758     
   1759984921.9733896       -19230490.602607369        1348637895.0695570     
   1695397005.8455269       -15361236.656204343        1353921932.1755066     
   1630319490.4058046       -13123980.415997863        1363895894.6936300     
   1504238872.6956458       -65541658.917496681        1425880989.1880646     
   1456138632.2139602       -44976687.884938359        1422113465.5584490     
   1406404812.9012380       -29856979.622504830        1422485986.1476851     
   1355037414.7574730       -20182534.130208373        1426998550.9557765     
   1302036437.7826705       -15953351.408042908        1435651159.9827209     
   2609035388.1984348       -6475845.4628915787        1140862243.4534533     
   2523880685.2277479       -1061057.6788109541        1135106467.2701595     
   2438623807.3832498        4013147.1925657988        1133250216.9841645     
   2353264754.6649265        8746769.1511920691        1135293492.5954723     
   2267803527.0727897        13139808.197105289        1141236294.1040809     
   2283818965.6136880       -8385227.4434219599        1216501436.4289992     
   2208836865.1034613       -3275832.2709977627        1210320355.8843732     
   2133758456.0788472        1512534.5201336145        1208135303.4762688     
   2058583738.5398436        5979872.9299620390        1209946279.2046762     
   1983312712.4864490        10126182.958496928        1215753283.0695891     
   1957580333.0161431       -10601272.427791715        1290845986.8423922     
   1893046555.6498418       -5714553.6619861126        1284246446.0224402     
   1828422336.1285789       -1129308.7460483313        1281739435.5782175     
   1763707674.4523511        3154462.3200089931        1283324955.5097158     
   1698902570.6211672        7136759.5362026691        1289003005.8169441     
   1630319490.4058046       -13123980.415997863        1363895894.6936300     
   1576509756.8668869       -8377221.8517774940        1356884737.6843526     
   1522615447.5324383       -3912382.6059952974        1354062613.2900121     
   1468636562.4024563        270537.32133883238        1355429521.5106094     
   1414573101.4769373        4171537.9302256107        1360985462.3461435     
   1302036437.7826705       -15953351.408042908        1435651159.9827209     
   1259226468.7546024       -11263836.840361059        1428235230.8701117     
   1216337790.2904286       -6836687.0597037673        1425104836.6116533     
   1173370402.3901498       -2671902.0660593510        1426259977.2073438     
   1130324305.0537665        1230518.1405696869        1431700652.6571829     
   2267803527.0727897        13139808.197105289        1141236294.1040809     
   2164238728.2222171        12486501.697489381        1133622855.2006931     
   2061029769.6292038        13019329.389732838        1130425585.6109293     
   1958176651.2937560        14738291.273857355        1131644485.3347900     
   1855679373.2158618        17643387.349833012        1137279554.3722672     
   1983312712.4864490        10126182.958496928        1215753283.0695891     
   1891506450.7181039        9625146.9872666597        1208641079.3854256     
   1800003019.2540841        10133545.363798738        1206122595.5597229     
   1708802418.0943863        11651378.088064194        1208197831.5924807     
   1617904647.2390094        14178645.160069823        1214866787.4837034     
   1698902570.6211672        7136759.5362026691        1289003005.8169441     
   1619362133.2060189        6940180.2746598125        1282330192.4065595     
   1540071516.1419592        7576335.5167429447        1280428649.3994784     
   1461030719.4289868        9045225.2624553442        1283298376.7956970     
   1382239743.0671077        11346849.511805177        1290939374.5952213     
   1414573101.4769373        4171537.9302256107        1360985462.3461435     
   1347805775.6859579        4431601.5596496463        1354690194.2640965     
   1281235260.2928369        5347699.8485965133        1353343747.1301954     
   1214861555.2975671        6919832.7970437407        1356946120.9444358     
   1148684660.7001495        9148000.4050102830        1365497315.7068188     
   1130324305.0537665        1230518.1405696869        1431700652.6571829     
   1076837378.1579337        2099410.8422657251        1425721084.9580357     
   1023494251.7067176        3447638.3593524098        1424867888.7518728     
   970294925.70011914        5275200.6918283105        1429141064.0386922     
   917239400.13814330        7582097.8397175670        1438540610.8184946     
   1855679373.2158618        17643387.349833012        1137279554.3722672     
   1757892079.3796616        22599140.686577082        1129694195.9421439     
   1660169381.7616835        27770214.750721872        1126364060.4564948     
   1562511280.3619070        33156609.542210877        1127289147.9153304     
   1464917775.1803541        38758325.061111748        1132469458.3186412     
   1617904647.2390094        14178645.160069823        1214866787.4837034     
   1531208427.8920369        18593277.144590557        1208195023.9937584     
   1444622718.5440235        23376275.792299569        1205924507.4784827     
   1358147519.1949656        28527641.103198111        1208055237.9378796     
   1271782829.8448670        34047373.077293038        1214587215.3719449     
   1382239743.0671077        11346849.511805177        1290939374.5952213     
   1307051809.7241945        15345523.598537087        1285234772.1229897     
   1232020300.1609807        19865610.284269810        1284077440.6556184     
   1157145214.3774686        24907109.569005370        1287467380.1931119     
   1082426552.3736620        30470021.452762306        1295404590.7354658     
   1148684660.7001495        9148000.4050102830        1365497315.7068188     
   1085422224.8761315        12855880.048421681        1360813440.3298318     
   1022362126.6125528        17238218.226620853        1360822859.9878993     
   959504365.90942490        22295014.939658642        1365525574.6810215     
   896848942.76673782        28026270.187504143        1374921584.4092004     
   917239400.13814330        7582097.8397175670        1438540610.8184946     
   866319673.34785056        11124346.494234085        1434931028.6142852     
   815648197.89874125        15494099.619359225        1436160765.4753287     
   765224973.79082513        20691357.215132385        1442229821.4016128     
   715050001.02410090        26716119.281545520        1453138196.3931479     
   1464917775.1803541        38758325.061111748        1132469458.3186412     
   1358344292.2710326        42079119.209013939        1125495656.2148273     
   1251978568.2735996        46092443.063209593        1122455935.6096601     
   1145820603.1880450        50798296.623672903        1123350296.5031345     
   1039870397.0143872        56196679.890448153        1128178738.8952546     
   1271782829.8448670        34047373.077293038        1214587215.3719449     
   1175817019.2360864        36911213.403016508        1209277518.3531501     
   1079888684.1641104        39899972.184748292        1208298938.6412492     
   983997824.62893093        43013649.422472179        1211651476.2362399     
   888144440.63054347        46252245.116169125        1219335131.1381187     
   1082426552.3736620        30470021.452762306        1295404590.7354658     
   998202802.08898723        33217224.363391459        1291560334.8640912     
   913846243.96601987        35521734.479712486        1292444232.1078537     
   829356878.00476086        37383551.801734507        1298056282.4667513     
   744734704.20521855        38802676.329465717        1308396485.9407792     
   896848942.76673782        28026270.187504143        1374921584.4092004     
   825501640.82972264        30997152.090107650        1372344105.7476399     
   753851247.67932463        32957729.948095739        1374891816.0094540     
   681897763.31554711        33908003.761490375        1382564715.1946568     
   609641187.73839712        33847973.530306697        1395362803.3032310     
   715050001.02410090        26716119.281545520        1453138196.3931479     
   657713535.45829988        30250996.583176404        1451628831.0037997     
   599903695.30402577        32207958.589896142        1455641690.3460708     
   541620480.56128561        32587005.301729888        1465176774.4199681     
   482863891.23008049        31388136.718685776        1480234083.2254889     
   1039870397.0143872        56196679.890448153        1128178738.8952546     
   923164284.23098123        55142189.790532261        1125381903.6137731     
   804123312.72221208        46304837.272728115        1128525151.8043869     
   682747482.48807752        29684622.337050915        1137608483.4670892     
   559036793.52859807        5281544.9835457802        1152631898.6018789     
   888144440.63054347        46252245.116169125        1219335131.1381187     
   786544288.78649175        44352637.699555278        1216719382.8623717     
   682655558.48917460        34824435.438723594        1219978548.1409693     
   576478249.73858523        17667638.333648592        1229112626.9739060     
   468012362.53473759       -7117753.6156155169        1244121619.3611856     
   744734704.20521855        38802676.329465717        1308396485.9407792     
   658054313.53550541        36002091.666627586        1306015818.3215513     
   569131624.68462765        25727179.733241200        1309444894.3389122     
   477966637.65257937        7977940.5292859674        1318683713.9928596     
   384559352.43936896       -17245625.945209295        1333732277.2833927     
   609641187.73839712        33847973.530306697        1395362803.3032310     
   537694358.47802341        30090551.691758692        1393271209.9913044     
   463551511.30858088        19013070.156314671        1396924190.3982143     
   387212646.23007035        615528.92397551239        1406321744.5239587     
   308677763.24249107       -25102072.005255863        1421463872.3685386     
   482863891.23008049        31388136.718685776        1480234083.2254889     
   425464423.61404085        26618017.774926275        1478485557.8716390     
   365915218.36102939        14682106.707930058        1482416436.3188734     
   304216275.47105104       -4419596.4822863787        1492026718.5671935     
   240367594.94409272       -30687091.795771897        1507316404.6166005     
   559036793.52859807        5281544.9835457802        1152631898.6018789     
   462321452.33790493       -32748651.998589218        1162037118.3466866     
   353616316.71262586       -110744830.42934395        1178969394.8178337     
   232921386.65276965       -228706990.30868667        1203428728.0153279     
   100236662.15833861       -386635131.63661754        1235415117.9391563     
   468012362.53473759       -7117753.6156155169        1244121619.3611856     
   390408794.79185301       -41506301.090800986        1242666670.5889318     
   302657419.98737293       -109720872.10464063        1247545648.6255107     
   204758238.12129146       -211761466.65714628        1258758553.4709182     
   96711249.193625197       -347628084.74827629        1276305385.1251538     
   384559352.43936896       -17245625.945209295        1333732277.2833927     
   322658615.52283096       -49015206.699872121        1323566145.2625670     
   252452058.91767672       -108470853.08324866        1318540810.1330638     
   173939682.62391195       -195612565.09533596        1318656271.8948660     
   87121486.641529918       -310440342.73613632        1323912530.5479903     
   308677763.24249107       -25102072.005255863        1421463872.3685386     
   259070914.53082889       -55275368.825836465        1404735542.3676174     
   203000233.50353199       -106994773.36520205        1391954879.3404975     
   140465720.16060936       -180260285.62331599        1383121883.2871804     
   71467374.502056465       -275071905.60020316        1378236554.2076652     
   240367594.94409272       -30687091.795771897        1507316404.6166005     
   199645691.81583625       -60286787.468724623        1486174861.9040558     
   154301943.74493828       -105292632.95048514        1467787856.2478123     
   104336350.73138648       -165704628.24108756        1452155387.6478541     
   49748912.775193289       -241522773.34050021        1439277456.1041880     
   100236662.15833861       -386635131.63661754        1235415117.9391563     
   85357677.599964947       -546499945.80664575        1196787360.0949974     
   57889326.054477662       -748329316.60037518        1154815156.7063372     
   17831607.521888554       -992123244.01779377        1109498507.7731657     
  -34815477.997802854       -1277881728.0588870        1060837413.2954824     
   96711249.193625197       -347628084.74827629        1276305385.1251538     
   79784622.819448054       -488811509.10362750        1221973394.1837015     
   51476408.981415361       -667933558.33849716        1165099649.7404463     
   11786607.679543555       -884994232.45281947        1105684151.7953870     
  -39284781.086176574       -1139993531.4466639        1043726900.3485157     
   87121486.641529918       -310440342.73613632        1323912530.5479903     
   70440624.287833303       -432254355.52594846        1255285382.6197193     
   43585953.993552804       -587981061.45104599        1184919173.2323470     
   6557475.7586842477       -777620460.51142573        1112813902.3858562     
  -40644810.416765153       -1001172552.7070918        1038969570.0802742     
   71467374.502056465       -275071905.60020316        1378236554.2076652     
   57325682.005133376       -376828485.07357681        1296723325.4030485     
   34217961.090880096       -508471825.93805116        1214273727.1820292     
   2144211.7593109012       -670001928.19357979        1130887759.5446041     
  -38895565.989583403       -861418791.84019518        1046565422.4907815     
   49748912.775193289       -241522773.34050021        1439277456.1041880     
   40439795.971332133       -322533897.74655545        1346287222.5336895     
   23372430.273406178       -429405851.79949331        1253163311.5894926     
  -1453184.3185746670       -562138635.49927664        1159905723.2716033     
  -34037047.804622859       -720732248.84596503        1066514457.5800077     
   1504238872.6956458       -65541658.917496681        1425880989.1880646     
   1456138632.2139602       -44976687.884938359        1422113465.5584490     
   1406404812.9012380       -29856979.622504830        1422485986.1476851     
   1355037414.7574730       -20182534.130208373        1426998550.9557765     
   1302036437.7826705       -15953351.408042908        1435651159.9827209     
   1146203611.6070280       -13772669.213847697        1462012036.3936725     
   1105359530.5783796       -7299291.0280672312        1455130228.0557032     
   1063777801.9443846       -3284738.1934340596        1452941942.6581628     
   1021458425.7050552       -1729010.7099211216        1455447180.2010536     
   978401401.86037874       -2632108.5775623322        1462645940.6843755     
   782431754.38149452        36275341.648729950        1491363364.4806910     
   750425200.58181250        29131537.320497930        1482412524.5310092     
   718576930.40249109        22515345.060132176        1478708686.2433450     
   686886943.84352696        16426764.867626488        1480251849.6176865     
   655355240.90492141        10865796.742980212        1487042014.6540370     
   412923301.01903713        84602373.670228779        1513934973.4491115     
   391335642.22426641        64315797.160779402        1503960354.9843771     
   370802198.27555060        47543270.138183892        1499786216.9032328     
   351322969.17289197        34284792.602441952        1501412559.2056723     
   332897954.91629034        24540364.553559750        1508839381.8917015     
   37678251.519662052        131208426.85065226        1529726863.2989414     
   28090855.505734295        98253488.492753401        1519773719.4158008     
   20453605.563563999        71799037.040713429        1516174534.6378255     
   14766501.693152864        51845072.494536638        1518929308.9650130     
   11029543.894493431        38391594.854199551        1528038042.3973672     
   1302036437.7826705       -15953351.408042908        1435651159.9827209     
   1259226468.7546024       -11263836.840361059        1428235230.8701117     
   1216337790.2904286       -6836687.0597037673        1425104836.6116533     
   1173370402.3901498       -2671902.0660593510        1426259977.2073438     
   1130324305.0537665        1230518.1405696869        1431700652.6571829     
   978401401.86037874       -2632108.5775623322        1462645940.6843755     
   945693932.41713738       -1372364.8907085061        1455453965.8943934     
   913102995.34893274        275820.04626852274        1452539095.3649313     
   880628590.65577149        2312446.2333897948        1453901329.0959930     
   848270718.33764756        4737513.6706361771        1459540667.0875838     
   655355240.90492141        10865796.742980212        1487042014.6540370     
   632726183.63613904        8688543.3258724511        1480301776.2996814     
   610408900.55354691        7550537.1960642636        1477830211.6122251     
   588403391.65714455        7451778.3535545170        1479627320.5916665     
   566709656.94692874        8392266.7983343601        1485693103.2380054     
   332897954.91629034        24540364.553559750        1508839381.8917015     
   320323222.41161573        18918887.809405044        1502778662.0859816     
   308255505.90427577        14987464.389699176        1500978185.3535302     
   296694805.39427203        12746094.294447213        1503437951.6943529     
   285641120.88160425        12194777.523650050        1510157961.1084487     
   11029543.894493431        38391594.854199551        1528038042.3973672     
   8485048.7435623314        29318668.559873607        1522884623.2532852     
   6642811.4011181388        22586601.627170675        1521983016.5888488     
   5502831.8671523165        18195394.056063008        1525333222.4040608     
   5065110.1416734438        16145045.846577125        1532935240.6989167     
   1130324305.0537665        1230518.1405696869        1431700652.6571829     
   1076837378.1579337        2099410.8422657251        1425721084.9580357     
   1023494251.7067176        3447638.3593524098        1424867888.7518728     
   970294925.70011914        5275200.6918283105        1429141064.0386922     
   917239400.13814330        7582097.8397175670        1438540610.8184946     
   848270718.33764756        4737513.6706361771        1459540667.0875838     
   807999993.25874126        5130713.1639558971        1453892594.1577725     
   767838222.32190561        5887093.1308424473        1453394234.1806991     
   727785405.52713382        7006653.5712788403        1458045587.1563649     
   687841542.87444365        8489394.4853153825        1467846653.0847716     
   566709656.94692874        8392266.7983343601        1485693103.2380054     
   539721823.56995881        8329780.0487582982        1480335871.0578926     
   512808098.03251797        8514319.4309439361        1480151693.2902749     
   485968480.33459926        8945884.9448714852        1485140569.9351528     
   459202970.47621101        9624476.5905648768        1495302500.9925246     
   285641120.88160425        12194777.523650050        1510157961.1084487     
   272002869.09159267        11696611.496697679        1505050915.6584008     
   258403878.83855945        11329317.259670407        1505140266.0806012     
   244844150.12251326        11092894.812601924        1510426012.3750546     
   231323682.94344452        10987344.155458435        1520908154.5417614     
   5065110.1416734438        16145045.846577125        1532935240.6989167     
   4843129.8236355977        15231207.507746460        1528037727.9592955     
   4625564.7400376219        14332086.617048701        1528359952.5516794     
   4412414.8908669595        13447683.174441988        1533901914.4760716     
   4203680.2761387760        12577997.179976871        1544663613.7324734     
   917239400.13814330        7582097.8397175670        1438540610.8184946     
   866319673.34785056        11124346.494234085        1434931028.6142852     
   815648197.89874125        15494099.619359225        1436160765.4753287     
   765224973.79082513        20691357.215132385        1442229821.4016128     
   715050001.02410090        26716119.281545520        1453138196.3931479     
   687841542.87444365        8489394.4853153825        1467846653.0847716     
   649213580.95264578        10749403.035111338        1464767425.2624910     
   610728860.98756647        13486884.773965776        1466599983.6825829     
   572387382.97920310        16701839.701874912        1473344328.3450544     
   534189146.92755795        20394267.818844914        1485000459.2499013     
   459202970.47621101        9624476.5905648768        1495302500.9925246     
   433073822.50042576        10664359.758894056        1492631116.6036150     
   406982907.09688681        11831684.834707916        1494943985.6342125     
   380930224.26559418        13126451.818011463        1502241108.0843203     
   354915774.00654751        14548660.708800673        1514522483.9539354     
   231323682.94344452        10987344.155458435        1520908154.5417614     
   217900397.99118683        10869216.665566079        1518522102.6376729     
   204410336.22670662        10528499.801599741        1521192771.3302236     
   190853497.65000218        9965193.5635513887        1528920160.6194158     
   177229882.26107201        9179297.9514186382        1541704270.5052495     
   4203680.2761387760        12577997.179976871        1544663613.7324734     
   3693307.4249306470        11363973.755136250        1542440383.3646581     
   3011148.3770299857        9577329.6746559329        1545346340.7706182     
   2157203.1324269567        7218064.9384996695        1553381485.9503448     
   1131471.6911318523        4286179.5467038509        1566545818.9038467     
   715050001.02410090        26716119.281545520        1453138196.3931479     
   657713535.45829988        30250996.583176404        1451628831.0037997     
   599903695.30402577        32207958.589896142        1455641690.3460708     
   541620480.56128561        32587005.301729888        1465176774.4199681     
   482863891.23008049        31388136.718685776        1480234083.2254889     
   534189146.92755795        20394267.818844914        1485000459.2499013     
   490791092.42267245        22314870.626670003        1483630492.1079369     
   447110095.01173186        23292330.414314404        1487832679.7797782     
   403146154.69474226        23326647.181793198        1497607022.2654257     
   358899271.47170150        22417820.929105759        1512953519.5648768     
   354915774.00654751        14548660.708800673        1514522483.9539354     
   325598787.94024134        14897786.236142546        1513514085.3555114     
   296189290.65029091        14938541.018002674        1518127771.6530762     
   266687282.13670585        14670925.054415464        1528363542.8466210     
   237092762.39948201        14094938.345363609        1544221398.9361510     
   177229882.26107201        9179297.9514186382        1541704270.5052495     
   162136622.01099664        7999743.4115543216        1541279610.7465165     
   147141282.21969247        7146590.4009299725        1546526965.9659524     
   132243862.88717106        6619838.9195781276        1557446336.1635473     
   117444364.01342288        6419488.9674745426        1574037721.3393078     
   1131471.6911318523        4286179.5467038509        1566545818.9038467     
   404594.63494677941        1620742.1529412181        1566927068.2809560     
  -33930.280053006514       -83521.436871844882        1573030262.7184098     
  -184103.05386398244       -826611.22272220789        1584855402.2162127     
  -45923.686473292357       -608527.20456562971        1602402486.7743535     
   482863891.23008049        31388136.718685776        1480234083.2254889     
   425464423.61404085        26618017.774926275        1478485557.8716390     
   365915218.36102939        14682106.707930058        1482416436.3188734     
   304216275.47105104       -4419596.4822863787        1492026718.5671935     
   240367594.94409272       -30687091.795771897        1507316404.6166005     
   358899271.47170150        22417820.929105759        1512953519.5648768     
   316526566.52315849        19170869.117217153        1509680209.2056818     
   272524466.65110075        10492600.893615618        1511935043.1438181     
   226892971.85551983       -3616983.7417317629        1519718021.3792760     
   179632082.13640630       -23157884.788853228        1533029143.9120731     
   237092762.39948201        14094938.345363609        1544221398.9361510     
   209314650.10771146        12241502.662158631        1540030370.0706379     
   180427485.60586143        6691226.2786879912        1541216225.9986966     
   150431268.89394730       -2555890.8049962148        1547778966.7203259     
   119325999.97195050       -15499848.588955373        1559718592.2355237     
   117444364.01342288        6419488.9674745426        1574037721.3393078     
   103828674.36768648        5829918.4097100608        1569536040.4664965     
   89624275.225316018        3277982.8631652072        1570259984.8835053     
   74831166.586338982       -1236317.6720680892        1576209554.5903261     
   59449348.450725585       -7712983.1960866079        1587384749.5869627     
  -45923.686473292357       -608527.20456562971        1602402486.7743535     
   68639.303094422343       -63883.640095307273        1598197220.3932731     
   114835.50947385255        252870.64708003969        1599066319.7982471     
   92664.932690664558        341735.65704804717        1605009784.9892843     
   2127.5727240416963        202711.38973585662        1616027615.9663782     
   240367594.94409272       -30687091.795771897        1507316404.6166005     
   199645691.81583625       -60286787.468724623        1486174861.9040558     
   154301943.74493828       -105292632.95048514        1467787856.2478123     
   104336350.73138648       -165704628.24108756        1452155387.6478541     
   49748912.775193289       -241522773.34050021        1439277456.1041880     
   179632082.13640630       -23157884.788853228        1533029143.9120731     
   148419197.16635486       -45603575.546989202        1507400701.9269645     
   113746130.54680634       -79583205.136786222        1484681428.0269272     
   75612882.277747631       -125096773.55828318        1464871322.2119527     
   34019452.359181888       -182144280.81146750        1447970384.4820507     
   119325999.97195050       -15499848.588955373        1559718592.2355237     
   98063936.099466071       -30658993.550479330        1530958524.8198547     
   74503353.870627642       -53479866.366513796        1505262256.5180230     
   48644253.285420261       -83962467.037111804        1482629787.3300359     
   20486634.343855672       -122106795.56223588        1463061117.2558918     
   59449348.450725585       -7712983.1960866079        1587384749.5869627     
   48579908.615175225       -15453041.479171753        1556848330.5827160     
   36573613.716402113       -26982616.639669180        1529530341.7211025     
   23430463.754418008       -42301708.677536324        1505430783.0020976     
   9150458.7292134538       -61410317.592802368        1484549654.4257193     
   2127.5727240416963        202711.38973585662        1616027615.9663782     
  -32885.286534640538        14280.666870144789        1585070119.2155669     
  -43089.915853302053       -91455.956196885760        1557485683.6361532     
  -28486.315262321474       -114498.47956510936        1533274309.2281394     
   10925.515263921730       -54846.903147736419        1512435995.9915311     
   49748912.775193289       -241522773.34050021        1439277456.1041880     
   40439795.971332133       -322533897.74655545        1346287222.5336895     
   23372430.273406178       -429405851.79949331        1253163311.5894926     
  -1453184.3185746670       -562138635.49927664        1159905723.2716033     
  -34037047.804622859       -720732248.84596503        1066514457.5800077     
   34019452.359181888       -182144280.81146750        1447970384.4820507     
   29845284.143155470       -242043636.27011520        1347499982.3049073     
   19849345.895598024       -321348891.83387047        1246241271.2734678     
   4031637.6164976954       -420060047.50276870        1144194251.3877571     
  -17607840.694127828       -538177103.27674949        1041358922.6477206     
   20486634.343855672       -122106795.56223588        1463061117.2558918     
   19577039.056840383       -161455494.77112636        1357369771.8117101     
   14782152.600819618       -213755164.54336706        1250235486.0326538     
   6101974.9757912457       -279005804.87896818        1141658259.9187310     
  -6463493.8182366788       -357207415.77790189        1031638093.4699144     
   9150458.7292134538       -61410317.592802368        1484549654.4257193     
   9635060.7123838253       -80769473.249588355        1375896591.0541222     
   8170850.3890859932       -106624669.92793605        1265145955.8670626     
   4757827.7593046501       -138975907.62789482        1152297748.8645461     
  -604007.17695226520       -177823186.34943625        1037351970.0465425     
   10925.515263921730       -54846.903147736419        1512435995.9915311     
   19349.109800198854        14428.294538201917        1403080440.0321338     
   15439.260389665749        42592.012402827262        1290972680.7766833     
  -804.03298055647792        29644.250401475263        1176112718.2251832     
  -29380.770280981342       -24414.991367912746        1058500552.3776221     
   37678251.519662052        131208426.85065226        1529726863.2989414     
   28090855.505734295        98253488.492753401        1519773719.4158008     
   20453605.563563999        71799037.040713429        1516174534.6378255     
   14766501.693152864        51845072.494536638        1518929308.9650130     
   11029543.894493431        38391594.854199551        1528038042.3973672     
  -374429267.68939590        53901974.635077417        1494385368.7294319     
  -362341809.99247104        40728917.742526159        1488008849.3339403     
  -349411292.80648470        30366059.146844476        1487386285.6573215     
  -335637716.13143456        22813398.848041788        1492517677.6995733     
  -321021079.96732473        18070936.846107319        1503403025.4606981     
  -780116054.69754577       -21478257.920231611        1464797145.9557545     
  -748068038.67917728       -15383721.964264661        1460705650.0347738     
  -716284049.75444043       -10169276.320402443        1461768106.4463675     
  -684764087.92333543       -5834920.9886456430        1467984515.1905434     
  -653508153.18586147       -2380655.9689938128        1479354876.2672970     
  -1179382109.5047815       -94932270.815264881        1440962194.9779179     
  -1129087830.5543754       -70084430.627593875        1437864121.5182979     
  -1080164665.2803020       -49806969.361023247        1439319997.0049636     
  -1032612613.6825482       -34099887.015520751        1445329821.4379163     
  -986431675.76112139       -22963183.591110289        1455893594.8171554     
  -1572227432.1111040       -166460064.05002064        1422880515.7959144     
  -1505401185.6180763       -123373208.24748063        1419484263.7845159     
  -1441053139.3840668       -88547019.975008190        1420041957.3331115     
  -1379183293.4090765       -61981499.232597947        1424553596.4416988     
  -1319791647.6931057       -43676646.020250738        1433019181.1102800     
   11029543.894493431        38391594.854199551        1528038042.3973672     
   8485048.7435623314        29318668.559873607        1522884623.2532852     
   6642811.4011181388        22586601.627170675        1521983016.5888488     
   5502831.8671523165        18195394.056063008        1525333222.4040608     
   5065110.1416734438        16145045.846577125        1532935240.6989167     
  -321021079.96732473        18070936.846107319        1503403025.4606981     
  -311141131.96567488        13609427.236982033        1498664047.2440453     
  -300982072.78833967        10078288.213474825        1498166347.4300678     
  -290543902.43531328        7477519.7756053209        1501909926.0187669     
  -279826620.90659910        5807121.9233620912        1509894783.0101435     
  -653508153.18586147       -2380655.9689938128        1479354876.2672970     
  -631233859.39440835       -2239778.1017659009        1474536667.9064767     
  -609103601.06006193       -2579018.4248932600        1473949203.8713646     
  -587117378.18282032       -3398376.9383713603        1477592484.1619577     
  -565275190.76268506       -4697853.6422019899        1485466508.7782581     
  -986431675.76112139       -22963183.591110289        1455893594.8171554     
  -951793133.54263711       -18228947.456362009        1450502485.2405767     
  -917721773.41405177       -15385318.287945211        1449331585.9127378     
  -884217595.37536478       -14432296.085856020        1452380896.8336339     
  -851280599.42658043       -15369880.850107968        1459650418.0032623     
  -1319791647.6931057       -43676646.020250738        1433019181.1102800     
  -1272818954.4103587       -34358080.826802611        1426561499.2463520     
  -1226836589.8503087       -28340611.375676334        1424313493.5541894     
  -1181844554.0129485       -25624237.666850567        1426275164.0337915     
  -1137842846.8982875       -26208959.700357556        1432446510.6851583     
   5065110.1416734438        16145045.846577125        1532935240.6989167     
   4843129.8236355977        15231207.507746460        1528037727.9592955     
   4625564.7400376219        14332086.617048701        1528359952.5516794     
   4412414.8908669595        13447683.174441988        1533901914.4760716     
   4203680.2761387760        12577997.179976871        1544663613.7324734     
  -279826620.90659910        5807121.9233620912        1509894783.0101435     
  -266390158.77218583        5312145.8742405474        1504765650.5901582     
  -252995664.32681525        4677277.5283068419        1504826614.5039639     
  -239643137.57048467        3902516.8855751157        1510077674.7515626     
  -226332578.50319803        2987863.9460308105        1520518831.3329518     
  -565275190.76268506       -4697853.6422019899        1485466508.7782581     
  -538264974.74214995       -4799373.9715114832        1480051643.2671859     
  -511343109.33413869       -5195396.3425632417        1479797233.0916891     
  -484509594.53864551       -5885920.7553446293        1484703278.2517660     
  -457764430.35567278       -6870947.2098599374        1494769778.7474196     
  -851280599.42658043       -15369880.850107968        1459650418.0032623     
  -810781318.08625984       -15103352.029513955        1453895705.9903810     
  -770416770.28193688       -15285934.995577246        1453271808.3148568     
  -730186956.01361346       -15917629.748308122        1457778724.9766896     
  -690091875.28128660       -16998436.287690759        1467416455.9758847     
  -1137842846.8982875       -26208959.700357556        1432446510.6851583     
  -1083939188.8045077       -25599788.299744487        1426297838.7597406     
  -1030216647.1702092       -25594338.430733502        1425250340.1734648     
  -976675221.99538422       -26192610.093301654        1429304014.9263313     
  -923314913.28003836       -27394603.287466288        1438458863.0183425     
   4203680.2761387760        12577997.179976871        1544663613.7324734     
   3693307.4249306470        11363973.755136250        1542440383.3646581     
   3011148.3770299857        9577329.6746559329        1545346340.7706182     
   2157203.1324269567        7218064.9384996695        1553381485.9503448     
   1131471.6911318523        4286179.5467038509        1566545818.9038467     
  -226332578.50319803        2987863.9460308105        1520518831.3329518     
  -213613760.48703283        1662710.2869296819        1517788594.1273668     
  -201006586.91647545       -34591.524198651314        1520131115.2539001     
  -188511057.79152936       -2104041.4873643443        1527546394.7125454     
  -176127173.11219218       -4545639.6025592238        1540034432.5033083     
  -457764430.35567278       -6870947.2098599374        1494769778.7474196     
  -431977648.44829488       -8355599.1960747987        1491602700.0803356     
  -406242369.23543680       -10011926.830689996        1493451950.3037081     
  -380558592.71710473       -11839930.113724068        1500317529.4175367     
  -354926318.89329231       -13839609.045158446        1512199437.4218323     
  -690091875.28128660       -16998436.287690759        1467416455.9758847     
  -651398356.45885372       -18690954.693864167        1463882701.2235634     
  -612696198.57985377       -20354676.244814724        1465308845.9200432     
  -573985401.64429259       -21989600.940562576        1471694890.0653260     
  -535265965.65216798       -23595728.781095326        1483040833.6594179     
  -923314913.28003836       -27394603.287466288        1438458863.0183425     
  -871875884.51870859       -29343356.206442326        1434628597.5570493     
  -820368074.94972932       -31062839.766584486        1435701802.1029048     
  -768791484.57309747       -32553053.967884690        1441678476.6559095     
  -717146113.38881433       -33813998.810350150        1452558621.2160611     
   1131471.6911318523        4286179.5467038509        1566545818.9038467     
   404594.63494677941        1620742.1529412181        1566927068.2809560     
  -33930.280053006514       -83521.436871844882        1573030262.7184098     
  -184103.05386398244       -826611.22272220789        1584855402.2162127     
  -45923.686473292357       -608527.20456562971        1602402486.7743535     
  -176127173.11219218       -4545639.6025592238        1540034432.5033083     
  -161762981.71723810       -6237721.0361382142        1540139618.3317044     
  -147184668.07429594       -7216061.6430910379        1545906752.6867371     
  -132392232.18337134       -7480661.4234339446        1557335835.5684178     
  -117385674.04446137       -7031520.3771589771        1574426866.9767385     
  -354926318.89329231       -13839609.045158446        1512199437.4218323     
  -325642477.71490717       -14609760.118844569        1511941958.1594322     
  -296218744.18174291       -14913603.343265608        1517286430.8899746     
  -266655118.29380292       -14751138.718436465        1528232855.6134613     
  -236951600.05108142       -14122366.244335257        1544781232.3298926     
  -535265965.65216798       -23595728.781095326        1483040833.6594179     
  -491233893.35806626       -23495375.095200449        1482334087.7641506     
  -447136158.60239476       -23176146.537407890        1487169297.3281231     
  -402972761.38515073       -22638043.107707113        1497546462.3513465     
  -358743701.70633262       -21881064.806090876        1513465582.8338075     
  -717146113.38881433       -33813998.810350150        1452558621.2160611     
  -658537228.64671779       -32894565.965210706        1451316007.1458526     
  -599936911.33625114       -32003691.225508183        1455555352.0011845     
  -541345161.45742035       -31141374.591255099        1465276655.7820609     
  -482761979.01022846       -30307616.062466547        1480479918.4884787     
  -45923.686473292357       -608527.20456562971        1602402486.7743535     
   68639.303094422343       -63883.640095307273        1598197220.3932731     
   114835.50947385255        252870.64708003969        1599066319.7982471     
   92664.932690664558        341735.65704804717        1605009784.9892843     
   2127.5727240416963        202711.38973585662        1616027615.9663782     
  -117385674.04446137       -7031520.3771589771        1574426866.9767385     
  -103684919.12909590       -5868032.2794204243        1569782759.8276105     
  -89468997.658300310       -2987322.3302478828        1570372393.4815078     
  -74737909.632067591        1610609.4703807570        1576195767.9384391     
  -59491655.050409630        7925763.1224286146        1587252883.1984098     
  -236951600.05108142       -14122366.244335257        1544781232.3298926     
  -209209296.01856083       -12203426.455914609        1540379073.3077559     
  -180368292.09199968       -6622153.6873600259        1541370030.1056213     
  -150428588.27139863        2621452.0613283142        1547754102.7234933     
  -119390184.55675077        15527390.790172458        1559531291.1613765     
  -358743701.70633262       -21881064.806090876        1513465582.8338075     
  -316504491.36530912       -19070066.169603795        1509986160.8337021     
  -272583047.79162556       -10651623.424256787        1512059229.6705763     
  -226979370.98529178        3374263.4299272150        1519684789.3444352     
  -179693460.94630831        23007594.392944716        1532862839.8552735     
  -482761979.01022846       -30307616.062466547        1480479918.4884787     
  -425570505.16933280       -26467951.420468926        1478604022.4054549     
  -366113264.75717092       -15075731.540916070        1482439992.1763866     
  -304390257.77376264        3869043.5761245042        1491987827.8012755     
  -240401484.21908000        30366373.930746078        1507247529.2801175     
   2127.5727240416963        202711.38973585662        1616027615.9663782     
  -32885.286534640538        14280.666870144789        1585070119.2155669     
  -43089.915853302053       -91455.956196885760        1557485683.6361532     
  -28486.315262321474       -114498.47956510936        1533274309.2281394     
   10925.515263921730       -54846.903147736419        1512435995.9915311     
  -59491655.050409630        7925763.1224286146        1587252883.1984098     
  -48643021.697342806        15467576.001733452        1556767897.9441707     
  -36630909.451939352        26887651.855493039        1529497984.6967499     
  -23455318.314172197        42185990.683797926        1505443143.4561412     
  -9116248.2840685435        61362592.486559197        1484603374.2223485     
  -119390184.55675077        15527390.790172458        1559531291.1613765     
  -98109302.604474649        30664027.987676337        1530847266.5098794     
  -74526271.097431734        53474497.034402698        1505220324.7006032     
  -48641090.035613328        83958797.930382028        1482650465.7335615     
  -20453759.419019572        122116930.67560720        1463137689.6087375     
  -179693460.94630831        23007594.392944716        1532862839.8552735     
  -148431728.00792652        45603636.624718219        1507308224.9126790     
  -113729174.85234800        79669079.580477685        1484652703.6477213     
  -75585801.479576737        125203923.26021254        1464896276.0603945     
  -34001607.889598906        182208167.66397339        1448038942.1507232     
  -240401484.21908000        30366373.930746078        1507247529.2801175     
  -199610297.90768373        60286401.912895143        1486150773.1525750     
  -154239620.71668991        105471399.49370502        1467795121.5380919     
  -104289452.64605868        165921366.67330587        1452180574.4366579     
  -49759793.695814386        241636303.45161539        1439307131.8482783     
   10925.515263921730       -54846.903147736419        1512435995.9915311     
   19349.109800198854        14428.294538201917        1403080440.0321338     
   15439.260389665749        42592.012402827262        1290972680.7766833     
  -804.03298055647792        29644.250401475263        1176112718.2251832     
  -29380.770280981342       -24414.991367912746        1058500552.3776221     
  -9116248.2840685435        61362592.486559197        1484603374.2223485     
  -9601675.1689632908        80792451.332546934        1375924582.4019473     
  -8151280.2092715278        106675049.66048726        1265150281.8976495     
  -4765063.4049899951        139010387.47039786        1152280472.7094879     
   556975.24389027804        177798464.76229802        1037315154.8374208     
  -20453759.419019572        122116930.67560720        1463137689.6087375     
  -19556766.462867424        161470254.26602679        1357408509.7639613     
  -14775796.373590007        213770168.30019620        1250240515.8474622     
  -6110849.1511805207        279016672.77813703        1141633707.8592415     
   6438075.2043618858        357209767.69985408        1031588085.7993201     
  -34001607.889598906        182208167.66397339        1448038942.1507232     
  -29845924.771918267        242047837.09496263        1347532222.1181853     
  -19858109.232570067        321327947.93150914        1246243382.6260951     
  -4038161.2715526819        420048500.17362309        1144172423.6744719     
   17613919.111135513        538209493.82130075        1041319345.2632784     
  -49759793.695814386        241636303.45161539        1439307131.8482783     
  -40469150.096112818        322525199.81935537        1346295719.4646177     
  -23398218.786214352        429348388.55442113        1253158882.2335811     
   1453000.2338937819        562105869.65685105        1159896620.1551611     
   34084506.964208812        720797643.12663722        1066508933.2293589     
  -1572227432.1111040       -166460064.05002064        1422880515.7959144     
  -1505401185.6180763       -123373208.24748063        1419484263.7845159     
  -1441053139.3840668       -88547019.975008190        1420041957.3331115     
  -1379183293.4090765       -61981499.232597947        1424553596.4416988     
  -1319791647.6931057       -43676646.020250738        1433019181.1102800     
  -1922977461.7723005       -96985334.683561027        1368664444.7232008     
  -1850347175.3114147       -71719772.056054950        1360919671.4699469     
  -1779143653.9013395       -51210092.931254327        1357798204.9031320     
  -1709366897.5420790       -35456297.309160829        1359300045.0227592     
  -1641016906.2336280       -24458385.189772964        1365425191.8288329     
  -2280599792.5030584       -29572295.637968302        1306310995.9974737     
  -2200253005.7130342       -21554288.077111959        1295444375.9119329     
  -2120281548.7656109       -14787379.991603374        1289870423.6392884     
  -2040685421.6607935       -9271571.3814421892        1289589139.1795330     
  -1961464624.3985806       -5006862.2466293573        1294600522.5326693     
  -2645094424.3033814        35779053.086755157        1235820169.6187298     
  -2555118676.8229342        27123243.689347863        1223058377.1104841     
  -2464466823.9768786        20721118.843953848        1216258613.5415790     
  -2373138865.7652202        16572678.550564885        1215420878.9120145     
  -2281134802.1879611        14677922.809190273        1220545173.2217948     
  -3016461357.1732750        99068711.490605712        1157191965.5869713     
  -2914944188.6411166        74312823.243319154        1143761675.0655928     
  -2811699479.5351439        55315403.575403452        1136962774.6100047     
  -2706727229.8553629        42076452.486854672        1136795264.2202096     
  -2600027439.6017699        34595969.977674603        1143259143.8962052     
  -1319791647.6931057       -43676646.020250738        1433019181.1102800     
  -1272818954.4103587       -34358080.826802611        1426561499.2463520     
  -1226836589.8503087       -28340611.375676334        1424313493.5541894     
  -1181844554.0129485       -25624237.666850567        1426275164.0337915     
  -1137842846.8982875       -26208959.700357556        1432446510.6851583     
  -1641016906.2336280       -24458385.189772964        1365425191.8288329     
  -1584696762.4367139       -20178230.930697203        1358265395.4702044     
  -1528999614.2088928       -17974728.568601429        1355248979.7047956     
  -1473925461.5501616       -17847878.103476703        1356375944.5326016     
  -1419474304.4605258       -19797679.535330534        1361646289.9536300     
  -1961464624.3985806       -5006862.2466293573        1294600522.5326693     
  -1895986446.0262072       -5821943.7035431862        1287167167.0252130     
  -1830763930.0693235       -7489233.2120907307        1283810896.5324259     
  -1765797076.5279269       -10008730.772265315        1284531711.0543096     
  -1701085885.4020226       -13380436.384076238        1289329610.5908661     
  -2281134802.1879611        14677922.809190273        1220545173.2217948     
  -2206688005.1788363        8710780.8546686172        1213266813.9113765     
  -2132129537.4315941        3115874.6938679218        1209999244.0370834     
  -2057459398.9462399       -2106795.6732265949        1210742463.5989130     
  -1982677589.7227697       -6957230.2465960979        1215496472.5968673     
  -2600027439.6017699        34595969.977674603        1143259143.8962052     
  -2516801439.8945971        23419942.743952274        1136564336.1286969     
  -2433096436.2957058        13840595.149282813        1133814022.2187662     
  -2348912428.8051009        5857927.1936624050        1135008202.1664126     
  -2264249417.4227781       -528061.12290108204        1140146875.9716363     
  -1137842846.8982875       -26208959.700357556        1432446510.6851583     
  -1083939188.8045077       -25599788.299744487        1426297838.7597406     
  -1030216647.1702092       -25594338.430733502        1425250340.1734648     
  -976675221.99538422       -26192610.093301654        1429304014.9263313     
  -923314913.28003836       -27394603.287466288        1438458863.0183425     
  -1419474304.4605258       -19797679.535330534        1361646289.9536300     
  -1352538406.6395867       -19247354.895652533        1355201394.1693375     
  -1285800587.6327655       -19357292.969701767        1353693704.8577774     
  -1219260847.4400625       -20127493.757480979        1357123222.0189519     
  -1152919186.0614753       -21557957.258970082        1365489945.6528609     
  -1701085885.4020226       -13380436.384076238        1289329610.5908661     
  -1621586224.6150885       -13029501.533678949        1282568701.5339527     
  -1542301604.9969158       -13395370.579151332        1280581032.0833638     
  -1463232026.5474980       -14478043.520474315        1283366602.2391012     
  -1384377489.2668376       -16277520.357656479        1290925412.0011630     
  -1982677589.7227697       -6957230.2465960979        1215496472.5968673     
  -1891082642.7310140       -6946228.2138401270        1208399760.8535860     
  -1799719699.2626548       -7708571.2590693235        1205912321.8502190     
  -1708588759.3176935       -9244259.3822954893        1208034155.5867698     
  -1617689822.8961344       -11553292.583523989        1214765262.0632367     
  -2264249417.4227781       -528061.12290108204        1140146875.9716363     
  -2161027660.9873629       -997534.93612170219        1132694572.1282358     
  -2058054870.4299893       -2296895.0094752312        1129687574.1583483     
  -1955331045.7506554       -4426141.3429623842        1131125882.0619662     
  -1852856186.9493558       -7385273.9365655184        1137009495.8390915     
  -923314913.28003836       -27394603.287466288        1438458863.0183425     
  -871875884.51870859       -29343356.206442326        1434628597.5570493     
  -820368074.94972932       -31062839.766584486        1435701802.1029048     
  -768791484.57309747       -32553053.967884690        1441678476.6559095     
  -717146113.38881433       -33813998.810350150        1452558621.2160611     
  -1152919186.0614753       -21557957.258970082        1365489945.6528609     
  -1089135579.3984535       -24095233.053197324        1360948251.8357511     
  -1025377671.4233290       -26718171.140418649        1361134730.1378453     
  -961645462.13610005       -29426771.520628333        1366049380.5591555     
  -897938951.53677630       -32221034.193846464        1375692203.0996773     
  -1384377489.2668376       -16277520.357656479        1290925412.0011630     
  -1308750155.8105159       -19553574.359657645        1285562063.7500863     
  -1233243000.5376346       -23230222.306467533        1284751589.7302864     
  -1157856023.4482064       -27307464.198119640        1288493989.9417627     
  -1082589224.5422251       -31785300.034595490        1296789264.3845117     
  -1617689822.8961344       -11553292.583523989        1214765262.0632367     
  -1530719613.7548940       -15718380.125804365        1208470033.3000610     
  -1443964062.2926531       -20598993.264748812        1206552380.8802230     
  -1357423168.5094023       -26195132.000329614        1209012304.8037226     
  -1271096932.4051535       -32506796.332578540        1215849805.0705669     
  -1852856186.9493558       -7385273.9365655184        1137009495.8390915     
  -1755043953.2315936       -12589650.351660728        1129672160.4856703     
  -1657540856.6883678       -18824484.015208125        1126537103.5876541     
  -1560346897.3196974       -26089774.927271485        1127604325.1450417     
  -1463462075.1255691       -34385523.087814212        1132873825.1578310     
  -717146113.38881433       -33813998.810350150        1452558621.2160611     
  -658537228.64671779       -32894565.965210706        1451316007.1458526     
  -599936911.33625114       -32003691.225508183        1455555352.0011845     
  -541345161.45742035       -31141374.591255099        1465276655.7820609     
  -482761979.01022846       -30307616.062466547        1480479918.4884787     
  -897938951.53677630       -32221034.193846464        1375692203.0996773     
  -825938727.67247391       -32546628.251723886        1372914214.1477673     
  -753925626.23947716       -32829297.080630869        1375242610.2650146     
  -681899647.23780644       -33069040.680623323        1382677391.4514198     
  -609860790.66745067       -33265859.051657051        1395218557.7069812     
  -1082589224.5422251       -31785300.034595490        1296789264.3845117     
  -998270729.71681094       -33677841.443814576        1292500919.7179403     
  -913917912.32239544       -35455974.289694488        1292943386.2641423     
  -829530772.35897303       -37119698.572219074        1298116664.0231183     
  -745109309.82654941       -38669014.291410476        1308020752.9948714     
  -1271096932.4051535       -32506796.332578540        1215849805.0705669     
  -1175533234.7797332       -36288205.541482508        1210076123.8563690     
  -1079913769.5849905       -39883722.852651179        1208657679.9985640     
  -984238536.82091975       -43293348.266058862        1211594473.4971473     
  -888507536.48752880       -46517081.781728089        1218886504.3521168     
  -1463462075.1255691       -34385523.087814212        1132873825.1578310     
  -1357726242.8612330       -40377720.544717073        1125639826.5630536     
  -1251913198.0272634       -46112542.769502878        1122385491.4682837     
  -1146022940.6236436       -51589989.762123048        1123110819.8735163     
  -1040055470.6503847       -56810061.522615373        1127815811.7787540     
  -482761979.01022846       -30307616.062466547        1480479918.4884787     
  -425570505.16933280       -26467951.420468926        1478604022.4054549     
  -366113264.75717092       -15075731.540916070        1482439992.1763866     
  -304390257.77376264        3869043.5761245042        1491987827.8012755     
  -240401484.21908000        30366373.930746078        1507247529.2801175     
  -609860790.66745067       -33265859.051657051        1395218557.7069812     
  -537944614.39024711       -30043382.688756824        1393156413.2965953     
  -463762569.20573997       -19268009.968184978        1396851525.2784343     
  -387314655.11395550       -939740.89002542198        1406303893.6524992     
  -308600872.11487824        24941424.545785144        1421513518.4187992     
  -745109309.82654941       -38669014.291410476        1308020752.9948714     
  -658338743.86082053       -36024820.031922519        1305772479.6491475     
  -569302206.65177083       -25827388.294699073        1309326853.2339203     
  -477999698.19940543       -8076719.0797591507        1318683873.7492001     
  -384431218.50371712        17227187.612928644        1333843541.1949794     
  -888507536.48752880       -46517081.781728089        1218886504.3521168     
  -786752893.58106709       -44412263.449990153        1216452221.4631038     
  -682732177.09526861       -34753866.520463258        1219865976.0428550     
  -576445387.03010845       -17541890.993062079        1229127768.0913851     
  -467892523.38560778        7223663.1321383417        1244237597.6086850     
  -1040055470.6503847       -56810061.522615373        1127815811.7787540     
  -923187063.55098772       -55205712.942979991        1125195638.7384701     
  -804052480.53621590       -46047444.645428985        1128468893.7052319     
  -682651721.60606527       -29335256.629949510        1137635576.6790376     
  -558984786.76053751       -5069148.8965437412        1152695687.6598916     
  -240401484.21908000        30366373.930746078        1507247529.2801175     
  -199610297.90768373        60286401.912895143        1486150773.1525750     
  -154239620.71668991        105471399.49370502        1467795121.5380919     
  -104289452.64605868        165921366.67330587        1452180574.4366579     
  -49759793.695814386        241636303.45161539        1439307131.8482783     
  -308600872.11487824        24941424.545785144        1421513518.4187992     
  -258991425.97681630        55293401.205125809        1404773968.7787259     
  -202943159.32946184        107108112.89543562        1391976910.9513791     
  -140456072.17280981        180385559.61673471        1383122344.9367542     
  -71530164.506860569        275125741.36903018        1378210270.7348561     
  -384431218.50371712        17227187.612928644        1333843541.1949794     
  -322570977.39707315        49040873.492035881        1323630415.9436724     
  -252412586.15145737        108515059.83437915        1318561169.8047552     
  -173956044.76686507        195649746.63997903        1318635802.7782316     
  -87201353.243305579        310444933.90880859        1323854314.8641045     
  -467892523.38560778        7223663.1321383417        1244237597.6086850     
  -390348952.16845626        41528818.773626387        1242720114.6474199     
  -302647901.18266779        109692240.31056488        1247547898.0982211     
  -204789370.42822012        211713927.74303675        1258720947.9610848     
  -96773359.905128568        347593881.07098866        1276239264.2360096     
  -558984786.76053751       -5069148.8965437412        1152695687.6598916     
  -462325350.29098600        32757237.049826235        1162043064.8899651     
  -353649104.42309308        110639654.32399783        1178937095.8317761     
  -232956049.15688518        228578102.92588603        1203377780.4853210     
  -100246184.49235183        386572582.85552865        1235365118.8505919     
  -49759793.695814386        241636303.45161539        1439307131.8482783     
  -40469150.096112818        322525199.81935537        1346295719.4646177     
  -23398218.786214352        429348388.55442113        1253158882.2335811     
   1453000.2338937819        562105869.65685105        1159896620.1551611     
   34084506.964208812        720797643.12663722        1066508933.2293589     
  -71530164.506860569        275125741.36903018        1378210270.7348561     
  -57374960.281833127        376818120.93378663        1296705721.1935396     
  -34240944.360773444        508439872.81864226        1214267762.3966954     
  -2128116.7436904907        669990997.02357817        1130896394.3443272     
   38963522.569421917        861471493.54861498        1046591617.0364238     
  -87201353.243305579        310444933.90880859        1323854314.8641045     
  -70490115.273362786        432248238.60648167        1255254906.1485884     
  -43601541.621572971        587975995.57697201        1184914103.7693958     
  -6535632.2879261672        777628204.82032669        1112831907.7265315     
   40707612.727565467        1001204866.3364984        1039008318.0199798     
  -96773359.905128568        347593881.07098866        1276239264.2360096     
  -79814615.070705771        488815552.83741605        1221943274.3297601     
  -51480010.568598062        667956756.82945704        1165097906.3516901     
  -11769546.398823619        885017493.04706156        1105703160.3018029     
   39316777.438628495        1139997761.4902513        1043759036.1800712     
  -100246184.49235183        386572582.85552865        1235365118.8505919     
  -85348459.673853189        546520063.62664235        1196770825.7370658     
  -57876351.201869577        748382156.57603657        1154819170.1435647     
  -17829859.076372206        992158861.70380998        1109510152.0700967     
   34791016.702609122        1277850179.0098658        1060843771.5166627     
  -3016461357.1732750        99068711.490605712        1157191965.5869713     
  -2914944188.6411166        74312823.243319154        1143761675.0655928     
  -2811699479.5351439        55315403.575403452        1136962774.6100047     
  -2706727229.8553629        42076452.486854672        1136795264.2202096     
  -2600027439.6017699        34595969.977674603        1143259143.8962052     
  -3422262596.7705493        42942261.656007290        1026243031.5274987     
  -3299367107.4746342        35650560.732270479        1017227830.1632832     
  -3175860519.6637163        30395854.858575463        1013995903.7845737     
  -3051742833.3377781        27178144.034929991        1016547252.3913649     
  -2927014048.4968262        25997428.261335850        1024881875.9836642     
  -3818135434.7616477       -10205667.696743250        900195621.14120770     
  -3676284810.6456738       -760137.08004331589        894292993.19889033     
  -3534939530.0734725        7000915.0573897362        893325525.16179395     
  -3394099593.0450578        13077488.715549707        897293217.02991462     
  -3253764999.5604253        17469583.894432783        906196068.80325186     
  -4204079871.1465874       -60375076.567642927        779049734.42808938     
  -4045697298.1542106       -34919270.193598747        774957164.17241430     
  -3888936510.7644167       -14869415.828151703        774951638.74166918     
  -3733797508.9771981       -225513.47129917145        779033158.13585389     
  -3580280292.7925525        9012436.8769767284        787201722.35497236     
  -4580095905.9253540       -107565964.95669222        662805371.38814938     
  -4407604570.0002642       -66826838.608415842        659220343.08384693     
  -4237851461.7365465       -35215137.798048019        658874244.52419496     
  -4070836581.1341982       -12730862.525593996        661767075.70918691     
  -3906559928.1932287        625987.20894598961        667898836.63881862     
  -2600027439.6017699        34595969.977674603        1143259143.8962052     
  -2516801439.8945971        23419942.743952274        1136564336.1286969     
  -2433096436.2957058        13840595.149282813        1133814022.2187662     
  -2348912428.8051009        5857927.1936624050        1135008202.1664126     
  -2264249417.4227781       -528061.12290108204        1140146875.9716363     
  -2927014048.4968262        25997428.261335850        1024881875.9836642     
  -2832920658.2203336        17018657.039266706        1018709836.5898567     
  -2738520193.1044345        9063468.6152120829        1016445775.4660299     
  -2643812653.1491375        2131862.9891597033        1018089692.6121838     
  -2548798038.3544335       -3776159.8388782740        1023641588.0283148     
  -3253764999.5604253        17469583.894432783        906196068.80325186     
  -3148908548.9648871        10656769.608936787        900346213.88878083     
  -3043916952.5822539        4294441.2804176807        898367821.65669060     
  -2938790210.4125381       -1617401.0911489725        900260892.10698509     
  -2833528322.4557266       -7078757.5057435036        906025425.23966372     
  -3580280292.7925525        9012436.8769767284        787201722.35497236     
  -3464765112.1282473        4334280.4529695511        781473468.02546692     
  -3349286714.7291636       -466486.85510873795        779580160.79075313     
  -3233845100.5953045       -5389865.0472707748        781521800.65082145     
  -3118440269.7266607       -10435854.123494387        787298387.60567832     
  -3906559928.1932287        625987.20894598961        667898836.63881862     
  -3780490347.7104311       -1948810.4286549091        662091598.99991775     
  -3654629479.5451593       -5219315.7913553715        660082792.86820829     
  -3528977323.6974330       -9185528.8791964054        661872418.24368823     
  -3403533880.1672392       -13847449.692155361        667460475.12636006     
  -2264249417.4227781       -528061.12290108204        1140146875.9716363     
  -2161027660.9873629       -997534.93612170219        1132694572.1282358     
  -2058054870.4299893       -2296895.0094752312        1129687574.1583483     
  -1955331045.7506554       -4426141.3429623842        1131125882.0619662     
  -1852856186.9493558       -7385273.9365655184        1137009495.8390915     
  -2548798038.3544335       -3776159.8388782740        1023641588.0283148     
  -2433833291.9499912       -3536890.6375751495        1015853200.5057411     
  -2319068640.6840224       -3964605.2311948538        1012489020.2363286     
  -2204504084.5565286       -5059303.6197240353        1013549047.2200825     
  -2090139623.5675077       -6820985.8031623363        1019033281.4569969     
  -2833528322.4557266       -7078757.5057435036        906025425.23966372     
  -2706880867.8546715       -6148829.8216543198        897957969.90073669     
  -2580384637.6525183       -5722983.4672569036        894293623.19462943     
  -2454039631.8492727       -5801218.4425535202        895032385.12134433     
  -2327845850.4449377       -6383534.7475405931        900174255.68087888     
  -3118440269.7266607       -10435854.123494387        787298387.60567832     
  -2980170388.7013984       -8833352.4883424044        779008880.31322682     
  -2842002861.3354774       -7572029.7176593542        775101383.03325176     
  -2703937687.6288924       -6651885.8114424944        775575895.76575148     
  -2565974867.5816536       -6072920.7697023153        780432418.51072502     
  -3403533880.1672392       -13847449.692155361        667460475.12636006     
  -3253701854.4901772       -11590458.637644529        659005931.74321091     
  -3103923311.7328925       -9511743.9823898077        654912299.75219274     
  -2954198251.8953876       -7611305.7263969183        655179579.15330815     
  -2804526674.9776540       -5889143.8696526289        659807769.94655335     
  -1852856186.9493558       -7385273.9365655184        1137009495.8390915     
  -1755043953.2315936       -12589650.351660728        1129672160.4856703     
  -1657540856.6883678       -18824484.015208125        1126537103.5876541     
  -1560346897.3196974       -26089774.927271485        1127604325.1450417     
  -1463462075.1255691       -34385523.087814212        1132873825.1578310     
  -2090139623.5675077       -6820985.8031623363        1019033281.4569969     
  -1981533194.5722582       -11053705.036579370        1011035571.9227129     
  -1873216974.2529509       -16253786.523133516        1006914582.4891686     
  -1765190962.6095753       -22421230.262787938        1006670313.1563594     
  -1657455159.6421337       -29556036.255570412        1010302763.9242918     
  -2327845850.4449377       -6383534.7475405931        900174255.68087888     
  -2209375392.8998241       -9923646.8175849915        891538255.21410954     
  -2091176215.5320418       -14368026.145384908        886453416.49341130     
  -1973248318.3415871       -19716672.730948210        884919739.51878583     
  -1855591701.3284526       -25969586.574262857        886937224.29023063     
  -2565974867.5816536       -6072920.7697023153        780432418.51072502     
  -2438570548.2142906       -9199475.6946458817        771180210.35985208     
  -2311418580.5256572       -13167202.882006764        765153605.60038054     
  -2184518964.5157356       -17976102.331744194        762352604.23231196     
  -2057871700.1845317       -23626174.043871641        762777206.25565386     
  -2804526674.9776540       -5889143.8696526289        659807769.94655335     
  -2669118660.5156622       -8881191.6677916050        649961437.35994327     
  -2533944069.2337899       -12651316.732984781        643015149.81007540     
  -2399002901.1320186       -17199519.065184236        638968907.29694557     
  -2264295156.2103615       -22525798.664419174        637822709.82055342     
  -1463462075.1255691       -34385523.087814212        1132873825.1578310     
  -1357726242.8612330       -40377720.544717073        1125639826.5630536     
  -1251913198.0272634       -46112542.769502878        1122385491.4682837     
  -1146022940.6236436       -51589989.762123048        1123110819.8735163     
  -1040055470.6503847       -56810061.522615373        1127815811.7787540     
  -1657455159.6421337       -29556036.255570412        1010302763.9242918     
  -1541352004.2846010       -34385638.146485448        1001627660.4216475     
  -1425093806.1512322       -38698430.784628868        996679466.05238712     
  -1308680565.2420392       -42494414.170017302        995458180.81650698     
  -1192112281.5570111       -45773588.302620947        997963804.71400821     
  -1855591701.3284526       -25969586.574262857        886937224.29023063     
  -1729843378.2109275       -29853239.499141455        876911817.78694081     
  -1603862182.1113837       -32960649.150630414        870360566.05040562     
  -1477648113.0298207       -35291815.528720796        867283469.08063138     
  -1351201170.9662380       -36846738.633409977        867680526.87761390     
  -2057871700.1845317       -23626174.043871641        762777206.25565386     
  -1923200364.6402268       -26780524.602692723        751492298.65893221     
  -1788218325.9077046       -28899197.867469072        743428791.46235096     
  -1652925583.9869812       -29982193.838234603        738586684.66590333     
  -1517322138.8780549       -30029512.514981031        736965978.26958632     
  -2264295156.2103615       -22525798.664419174        637822709.82055342     
  -2121422963.5724752       -25167493.457121968        625369103.03762794     
  -1978162237.5402033       -26514076.935169458        615884142.28821564     
  -1834512978.1135323       -26565549.098562837        609367827.57230699     
  -1690475185.2924662       -25321909.947317123        605820158.88991797     
  -1040055470.6503847       -56810061.522615373        1127815811.7787540     
  -923187063.55098772       -55205712.942979991        1125195638.7384701     
  -804052480.53621590       -46047444.645428985        1128468893.7052319     
  -682651721.60606527       -29335256.629949510        1137635576.6790376     
  -558984786.76053751       -5069148.8965437412        1152695687.6598916     
  -1192112281.5570111       -45773588.302620947        997963804.71400821     
  -1061749900.5549612       -42534366.487396777        994137270.01629269     
  -929973221.61264157       -34580818.204601943        994420008.79766417     
  -796782244.73006701       -21912943.454290390        998812021.05812657     
  -662176969.90722287       -4530742.2364189029        1007313306.7976747     
  -1351201170.9662380       -36846738.633409977        867680526.87761390     
  -1212442400.4271193       -33501918.892242312        861653772.88483608     
  -1073121209.9228530       -28282365.933910668        857952137.84318376     
  -933237599.45344067       -21188079.758422792        856575621.75266361     
  -792791569.01887941       -12219060.365772128        857524224.61327398     
  -1517322138.8780549       -30029512.514981031        736965978.26958632     
  -1375264563.1674616       -28108370.157549918        727745147.34410858     
  -1233496445.4668393       -27152087.833331883        719065280.84180093     
  -1092017785.7761855       -27160665.542356670        710926378.76266849     
  -950828584.09551060       -28134103.284627736        703328441.10670602     
  -1690475185.2924662       -25321909.947317123        605820158.88991797     
  -1550216388.7760065       -26353720.283328116        592411393.39410400     
  -1411098928.2446222       -31189983.902926981        577759437.79350519     
  -1273122803.6983228       -39830700.806140244        561864292.08812356     
  -1136288015.1371050       -52275870.992958963        544725956.27795565     
  -558984786.76053751       -5069148.8965437412        1152695687.6598916     
  -462325350.29098600        32757237.049826235        1162043064.8899651     
  -353649104.42309308        110639654.32399783        1178937095.8317761     
  -232956049.15688518        228578102.92588603        1203377780.4853210     
  -100246184.49235183        386572582.85552865        1235365118.8505919     
  -662176969.90722287       -4530742.2364189029        1007313306.7976747     
  -547089752.64729881        25653751.100752056        1020846389.9870127     
  -421115046.91783166        92129872.669718027        1042771549.1362582     
  -284252852.71884006        194897622.47043839        1073088784.2454188     
  -136503170.05031902        333957000.50292635        1111798095.3144765     
  -792791569.01887941       -12219060.365772128        857524224.61327398     
  -656861078.83093750        11048188.003470123        873925472.67828941     
  -511172421.10224855        66842661.508542210        899564218.95138204     
  -355725595.83283687        155164360.14936507        934440463.43256485     
  -190520603.02267474        276013283.92601073        978554206.12182391     
  -950828584.09551060       -28134103.284627736        703328441.10670602     
  -791639328.84190822       -11059452.242003053        721280312.96379328     
  -623821226.97635782        34778020.840448320        749315105.27714336     
  -447374278.49886519        109378315.96270210        787432818.04675472     
  -262298483.40943035        212741433.12477356        835633451.27262342     
  -1136288015.1371050       -52275870.992958963        544725956.27795565     
  -951424502.68020296       -40669169.635683477        562910910.84353411     
  -759061464.54013765       -4064049.3345251381        592024208.11354518     
  -559198900.71693945        57539489.910404146        632065848.08799386     
  -351836811.21057719        144141448.09921896        683035830.76687777     
  -100246184.49235183        386572582.85552865        1235365118.8505919     
  -85348459.673853189        546520063.62664235        1196770825.7370658     
  -57876351.201869577        748382156.57603657        1154819170.1435647     
  -17829859.076372206        992158861.70380998        1109510152.0700967     
   34791016.702609122        1277850179.0098658        1060843771.5166627     
  -136503170.05031902        333957000.50292635        1111798095.3144765     
  -127367641.46733090        483024387.26282382        1090211371.3999527     
  -95102729.956265330        709189717.11630177        1070060342.2483622     
  -39708435.517108440        1012452990.0634255        1051345007.8597116     
   38815241.850122929        1392814206.1041255        1034065368.2339948     
  -190520603.02267474        276013283.92601073        978554206.12182391     
  -173452821.40975782        418308911.45431066        986289217.22665679     
  -122700657.59416431        672885812.99152184        1000252980.3373263     
  -38264111.575904846        1039743988.5376196        1020445495.4538236     
   79856816.645023942        1518883438.0926147        1046866762.5761938     
  -262298483.40943035        212741433.12477356        835633451.27262342     
  -223603999.50112817        352373636.20113927        885004363.21715546     
  -140670134.11557019        639470444.20168018        945397084.41043651     
  -13496887.252759933        1074031857.1263978        1016811614.8524603     
   157915741.08730543        1656057874.9753046        1099247954.5432308     
  -351836811.21057719        144141448.09921896        683035830.76687777     
  -277821175.74145907        285218561.50323975        786356809.37146640     
  -149011159.52048129        608943610.74678707        905492654.46770573     
   34593237.452323139        1115316595.8297675        1040443366.0555930     
   272992015.17697543        1804337516.7522244        1191208944.1351461     
  -4580095905.9253540       -107565964.95669222        662805371.38814938     
  -4407604570.0002642       -66826838.608415842        659220343.08384693     
  -4237851461.7365465       -35215137.798048019        658874244.52419496     
  -4070836581.1341982       -12730862.525593996        661767075.70918691     
  -3906559928.1932287        625987.20894598961        667898836.63881862     
  -4921865550.2452688       -41420322.783212900        514928187.46011579     
  -4748277417.1503239       -29094300.413016081        506772225.27554566     
  -4574944434.1310282       -17618778.294978380        502777893.62577653     
  -4401866601.1873798       -6993756.4291064739        502945192.51080561     
  -4229043918.3193822        2780765.1846058369        507274121.93063444     
  -5273024186.7425776        21908621.737053871        354547871.17282987     
  -5095702968.5059080        6612426.5207214355        344717898.95800400     
  -4916153822.7591572       -1257343.6620073318        339972258.06812924     
  -4734376749.5023336       -1700688.8111448288        340310948.50321519     
  -4550371748.7354345        5282391.0733058453        345733970.26325232     
  -5633571815.4172726        82420868.604100227        181664422.52629262     
  -5449881224.0670013        40293342.192819118        173057364.13121900     
  -5261479627.6209297        13869166.100874662        170457337.85125828     
  -5068367026.0790529        3148340.3282921314        173864343.68640828     
  -4870543419.4413738        8130864.8750443459        183278381.63667163     
  -6003508436.2693567        140116417.81792998       -3722158.4794945051     
  -5810812183.8336153        71948446.603246689       -8209379.2047970975     
  -5610921848.7163429        27760750.993669033       -5766867.0248369658     
  -5403837430.9175472        7553330.9891881943        3605378.0603898927     
  -5189558930.4372206        11326186.589790821        19907356.050888121     
  -3906559928.1932287        625987.20894598961        667898836.63881862     
  -3780490347.7104311       -1948810.4286549091        662091598.99991775     
  -3654629479.5451593       -5219315.7913553715        660082792.86820829     
  -3528977323.6974330       -9185528.8791964054        661872418.24368823     
  -3403533880.1672392       -13847449.692155361        667460475.12636006     
  -4229043918.3193822        2780765.1846058369        507274121.93063444     
  -4092964273.9058609        690358.93585681915        501570478.21682566     
  -3957184655.0163302       -2400132.3928742409        499656669.54511213     
  -3821705061.6507993       -6490708.8016011715        501532695.91548938     
  -3686525493.8092628       -11581370.290299892        507198557.32796192     
  -4550371748.7354345        5282391.0733058453        345733970.26325232     
  -4404306601.7200403        3669007.8147432804        340027388.40033746     
  -4258632793.4351048        751162.12132287025        338102045.11441511     
  -4113350323.8806219       -3471146.0069358349        339957940.40548986     
  -3968459193.0565910       -8997916.5700361729        345595074.27355540     
  -4870543419.4413738        8130864.8750443459        183278381.63667163     
  -4714517331.1529655        6987136.2080047131        177462329.55044323     
  -4558973894.8014765        4234567.7512538433        175418919.57611755     
  -4403913110.3868942       -126840.49520564079        177148151.71368039     
  -4249334977.9092274       -6097088.5313663483        182650025.96314779     
  -5189558930.4372206        11326186.589790821        19907356.050888121     
  -5023596462.2046509        10644744.115638256        13875301.667155303     
  -4858207959.1154594        8050084.4968683720        11607292.930213222     
  -4693393421.1696243        3542207.7335832119        13103329.840076612     
  -4529152848.3671675       -2878886.1742842197        18363412.396734584     
  -3403533880.1672392       -13847449.692155361        667460475.12636006     
  -3253701854.4901772       -11590458.637644529        659005931.74321091     
  -3103923311.7328925       -9511743.9823898077        654912299.75219274     
  -2954198251.8953876       -7611305.7263969183        655179579.15330815     
  -2804526674.9776540       -5889143.8696526289        659807769.94655335     
  -3686525493.8092628       -11581370.290299892        507198557.32796192     
  -3525362280.6904335       -9348693.8477890491        499076699.17663926     
  -3364210089.7302289       -7152757.9340243340        495315838.72962070     
  -3203068920.9286423       -4993562.5489860773        495915975.98690456     
  -3041938774.2856774       -2871107.6926918030        500877110.94849354     
  -3968459193.0565910       -8997916.5700361729        345595074.27355540     
  -3795964545.8897948       -6789480.7576661110        337855438.90873837     
  -3623438460.1204557       -4476249.6035027504        334476887.56040674     
  -3450880935.7485948       -2058223.1075842381        335459420.22853762     
  -3278291972.7741976        464598.73011851311        340803036.91314763     
  -4249334977.9092274       -6097088.5313663483        182650025.96314779     
  -4065508650.0882497       -3912819.3672475815        175342150.93952009     
  -3881608422.9035888       -1482218.9908580780        172395446.24454311     
  -3697634296.3552423        1194712.5978221893        173809911.87821046     
  -3513586270.4432116        4117975.3987846375        179585547.84051812     
  -4529152848.3671675       -2878886.1742842197        18363412.396734584     
  -4333994593.2858191       -718709.67660307884        11536835.268974524     
  -4138719978.0796270        1829333.9038987160        9071514.7820392437     
  -3943329002.7485957        4765244.5671894550        10967450.935919616     
  -3747821667.2927203        8089022.3133025169        17224643.730613559     
  -2804526674.9776540       -5889143.8696526289        659807769.94655335     
  -2669118660.5156622       -8881191.6677916050        649961437.35994327     
  -2533944069.2337899       -12651316.732984781        643015149.81007540     
  -2399002901.1320186       -17199519.065184236        638968907.29694557     
  -2264295156.2103615       -22525798.664419174        637822709.82055342     
  -3041938774.2856774       -2871107.6926918030        500877110.94849354     
  -2898546634.5841265       -6147213.7204368114        491445531.57002085     
  -2755194346.6590662       -9556159.0031586885        485321093.85361063     
  -2611881910.5105147       -13097943.540900230        482503797.79926902     
  -2468609326.1384578       -16772567.333637714        482993643.40699172     
  -3278291972.7741976        464598.73011851311        340803036.91314763     
  -3125752574.6178513       -2746625.5626301765        332012044.04702264     
  -2973059456.8344049       -5445451.0983711481        326935289.46828985     
  -2820212619.4238396       -7631877.8770512342        325572773.17694294     
  -2667212062.3861723       -9305905.8987282515        327924495.17298996     
  -3513586270.4432116        4117975.3987846375        179585547.84051812     
  -3350736480.6168637        1320572.8055686951        171660974.79095620     
  -3187539399.7598057       -319193.01861226559        167857736.65410376     
  -3023995027.8720102       -801322.07367634773        168175833.42996514     
  -2860103364.9535093       -125814.35970890522        172615265.11855009     
  -3747821667.2927203        8089022.3133025169        17224643.730613559     
  -3573498352.5811529        6054381.3841979504        10392323.801814942     
  -3398634175.4352503        5822615.2361748219        8088435.4110575346     
  -3223229135.8550220        7393723.8692569733        10312978.558340857     
  -3047283233.8404703        10767707.283416629        17065953.243670192     
  -2264295156.2103615       -22525798.664419174        637822709.82055342     
  -2121422963.5724752       -25167493.457121968        625369103.03762794     
  -1978162237.5402033       -26514076.935169458        615884142.28821564     
  -1834512978.1135323       -26565549.098562837        609367827.57230699     
  -1690475185.2924662       -25321909.947317123        605820158.88991797     
  -2468609326.1384578       -16772567.333637714        482993643.40699172     
  -2318269971.7116013       -18142294.913575292        472616605.58279765     
  -2167768876.3678017       -18972886.103687286        464721361.43673909     
  -2017106040.1070461       -19264340.903959751        459307910.96882623     
  -1866281462.9293447       -19016659.314403296        456376254.17904514     
  -2667212062.3861723       -9305905.8987282515        327924495.17298996     
  -2510796552.8999853       -9820968.2848192453        319359435.08384377     
  -2354446094.9742851       -10552869.205856800        312789316.31746376     
  -2198160688.6090894       -11501608.661915541        308214138.87384999     
  -2041940333.8043747       -12667186.652921677        305633902.75299567     
  -2860103364.9535093       -125814.35970890522        172615265.11855009     
  -2699002707.1376209       -203513.57082879543        165597591.54075789     
  -2538193893.3596582       -1254026.2416970730        160088006.93036640     
  -2377676923.6196451       -3277352.3723950386        156086511.28736675     
  -2217451797.9175820       -6273491.9629333019        153593104.61176145     
  -3047283233.8404703        10767707.283416629        17065953.243670192     
  -2882888434.4245157        10710069.228377223        11331074.953553941     
  -2719012271.5239325        8923642.7887659073        6617433.2754605962     
  -2555654745.1387386        5408427.9645291567        2925028.2093891944     
  -2392815855.2689295        164424.75566661358        253859.75534518115     
  -1690475185.2924662       -25321909.947317123        605820158.88991797     
  -1550216388.7760065       -26353720.283328116        592411393.39410400     
  -1411098928.2446222       -31189983.902926981        577759437.79350519     
  -1273122803.6983228       -39830700.806140244        561864292.08812356     
  -1136288015.1371050       -52275870.992958963        544725956.27795565     
  -1866281462.9293447       -19016659.314403296        456376254.17904514     
  -1728950915.1396372       -22655642.472187877        442738853.41905743     
  -1591675595.6938827       -26478720.109819293        428693799.00983399     
  -1454455504.5920739       -30485892.227266133        414241090.95138830     
  -1317290641.8342090       -34677158.824528754        399380729.24370563     
  -2041940333.8043747       -12667186.652921677        305633902.75299567     
  -1905150787.7255514       -18197168.527734280        293034992.31015128     
  -1767330362.3495429       -20290886.078597307        280863964.67362696     
  -1628479057.6763577       -18948339.305538416        269120819.84343302     
  -1488596873.7059774       -14169528.208494723        257805557.81955725     
  -2217451797.9175820       -6273491.9629333019        153593104.61176145     
  -2078816006.5337613       -12978298.449988723        143299810.06737754     
  -1938063228.2116284       -12626481.809353471        134269934.78487957     
  -1795193462.9511762       -5218042.0409646034        126503478.76426017     
  -1650206710.7523944        9247020.8551597595        120000442.00551912     
  -2392815855.2689295        164424.75566661358        253859.75534518115     
  -2249946571.5642400       -6999032.2388969660       -6466693.3092525871     
  -2103874193.2801113       -3485507.3019754887       -11088290.656411882     
  -1954598720.4165418        10704999.566405296       -13610932.286132706     
  -1802120152.9734950        35572488.366375923       -14034618.198415056     
  -1136288015.1371050       -52275870.992958963        544725956.27795565     
  -951424502.68020296       -40669169.635683477        562910910.84353411     
  -759061464.54013765       -4064049.3345251381        592024208.11354518     
  -559198900.71693945        57539489.910404146        632065848.08799386     
  -351836811.21057719        144141448.09921896        683035830.76687777     
  -1317290641.8342090       -34677158.824528754        399380729.24370563     
  -1117670567.8447821       -14731189.918349862        421228578.14357191     
  -914434382.78566575        17268482.553457856        441574839.16043591     
  -707582086.65690196        61321858.590772718        460419512.29428524     
  -497113679.45845211        117428938.19368035        477762597.54512143     
  -1488596873.7059774       -14169528.208494723        257805557.81955725     
  -1309734325.5767095        3461482.0288342237        278785650.67132217     
  -1131139080.9912691        20201480.453404188        285834225.05263525     
  -952811139.94962621        36050467.065325856        278951280.96348560     
  -774750502.45180905        51008441.864497036        258136818.40389022     
  -1650206710.7523944        9247020.8551597595        120000442.00551912     
  -1527615775.8760173        13908846.205733359        135582128.42679244     
  -1409175559.1569347        4734944.3653387427        124802365.79015110     
  -1294886060.5951302       -18274684.665981412        87661154.095610291     
  -1184747280.1906278       -55120040.888324797        24158493.343175370     
  -1802120152.9734950        35572488.366375923       -14034618.198415056     
  -1771314918.7426777        16610902.612480044       -8381988.5900487518     
  -1748543817.2826638       -29131125.710739017       -41520738.627024949     
  -1733806848.5933893       -101653596.60309356       -113450868.30934460     
  -1727104012.6749167       -200956510.06480104       -224172377.63701764     
  -351836811.21057719        144141448.09921896        683035830.76687777     
  -277821175.74145907        285218561.50323975        786356809.37146640     
  -149011159.52048129        608943610.74678707        905492654.46770573     
   34593237.452323139        1115316595.8297675        1040443366.0555930     
   272992015.17697543        1804337516.7522244        1191208944.1351461     
  -497113679.45845211        117428938.19368035        477762597.54512143     
  -388277963.56272304        223048716.19238526        597050480.31231368     
  -230309453.82242817        492444473.67299002        735490635.85571098     
  -23208150.237530649        925616210.63556325        893083064.17529809     
   233025947.19192123        1522563927.0800512        1069827765.2710901     
  -774750502.45180905        51008441.864497036        258136818.40389022     
  -621559259.60220087        124031518.41602653        386786420.60854167     
  -424896809.81527412        341958618.09195000        537925701.87394762     
  -184763153.09102470        704789740.89229345        711554662.20010841     
   98841710.570542037        1212524886.8170071        907673301.58699501     
  -1184747280.1906278       -55120040.888324797        24158493.343175370     
  -977665063.85986042       -11833031.825779915        155564630.26015455     
  -732773227.49904847        157486044.00361806        312797852.52243900     
  -450071771.10815609        452837186.59991920        495858160.13000995     
  -129560694.68722588        874220395.96303988        704745553.08286369     
  -1727104012.6749167       -200956510.06480104       -224172377.63701764     
  -1456595376.3357084       -184544934.53300303       -96614890.732857555     
  -1153938706.8737364       -60973248.592004538        60107087.801171303     
  -819134004.28893089        169758547.75846106        245993557.96502793     
  -452181268.58134747        507650454.51815319        461044519.75871748     
 </DataArray>
 <DataArray  type="Float64" Name="VM" NumberOfComponents="1" format="ascii">
   5999985769.2084131     
   5807781513.3430843     
   5611883722.9232559     
   5411844372.2776709     
   5207399302.6493015     
   5644101551.7092323     
   5459267369.8097715     
   5272350111.1320505     
   5083201703.3257475     
   4891779946.0756588     
   5305263709.4430590     
   5128143915.5923653     
   4950820587.8869991     
   4773362795.6133080     
   4595902838.2428026     
   4988612463.4039669     
   4819132127.4945364     
   4651533460.9655704     
   4485990851.8554106     
   4322738753.2456541     
   4700546902.7665386     
   4538024205.6949053     
   4379603905.2591610     
   4225423825.8410578     
   4075724838.2148824     
   5207399302.6493015     
   5034364988.5106401     
   4862330787.5626163     
   4691276717.5619221     
   4521231831.1145678     
   4891779946.0756588     
   4730762081.6170025     
   4570873147.2409105     
   4412139738.3088388     
   4254636776.1758881     
   4595902838.2428026     
   4446815152.2599640     
   4299021390.4915562     
   4152599534.8617592     
   4007677516.5736938     
   4322738753.2456541     
   4185722195.6182852     
   4050212350.3086920     
   3916342505.9782481     
   3784299818.3499513     
   4075724838.2148824     
   3951176854.1416292     
   3828406312.0072341     
   3707603375.7531033     
   3589017889.3664808     
   4521231831.1145678     
   4329727390.1599550     
   4137988908.9528379     
   3945995155.8589082     
   3753759594.4605985     
   4254636776.1758881     
   4073002882.4054294     
   3891712575.2342134     
   3710814537.6456537     
   3530410342.1115737     
   4007677516.5736938     
   3836941914.0471616     
   3667289096.1389198     
   3498857831.7870011     
   3331861229.9088225     
   3784299818.3499513     
   3625548621.4239173     
   3468787125.0124044     
   3314259118.3635044     
   3162304138.7320838     
   3589017889.3664808     
   3443336450.4998603     
   3300706005.8676834     
   3161478344.3913813     
   3026117080.3053770     
   3753759594.4605985     
   3577635796.9691424     
   3402031108.2188082     
   3226922163.8073754     
   3052348044.2185793     
   3530410342.1115737     
   3365178823.3784409     
   3200880516.7220607     
   3037569163.0521617     
   2875366840.9379101     
   3331861229.9088225     
   3177289300.6000309     
   3024081986.1095910     
   2872378259.3423991     
   2722392758.8223190     
   3162304138.7320838     
   3018444444.9264131     
   2876396790.0416660     
   2736389622.2115159     
   2598734338.8730621     
   3026117080.3053770     
   2893318990.7067108     
   2762786242.3021255     
   2634833436.3345470     
   2509862970.4417334     
   3052348044.2185793     
   2887957986.2704291     
   2723240054.5602574     
   2558185700.5192146     
   2392790733.5393291     
   2875366840.9379101     
   2713833527.9413857     
   2552410060.5121055     
   2391125835.0510964     
   2230028630.6204829     
   2722392758.8223190     
   2566039474.5238605     
   2410602948.6231670     
   2256222411.0202203     
   2103093588.8351920     
   2598734338.8730621     
   2449990935.2771840     
   2303373131.8484378     
   2159195394.5104575     
   2017882618.4936128     
   2509862970.4417334     
   2371039745.7065840     
   2235904977.8200798     
   2104971670.6618605     
   1978908378.7852151     
   2392790733.5393291     
   2246424332.2324162     
   2102191723.7511578     
   1960095184.7993798     
   1820298301.2015557     
   2230028630.6204829     
   2087048256.2808073     
   1945690911.3023996     
   1805959034.9416008     
   1667928791.1150434     
   2103093588.8351920     
   1962746963.0230010     
   1823343233.5295300     
   1684914603.1661160     
   1547521172.2812788     
   2017882618.4936128     
   1881052070.7451642     
   1744532090.2731440     
   1608450867.9061387     
   1472984886.3567467     
   1978908378.7852151     
   1848204956.9541295     
   1717518338.6856272     
   1587192737.7050350     
   1457730027.6046898     
   1820298301.2015557     
   1779713250.4750507     
   1735642583.7102582     
   1696705085.2491138     
   1681383231.0911212     
   1667928791.1150434     
   1552525765.8190820     
   1428022034.4371865     
   1294770867.4665363     
   1158891752.8776977     
   1547521172.2812788     
   1397609765.9517305     
   1244142125.6262290     
   1084846412.2109160     
   917691849.51224720     
   1472984886.3567467     
   1328683695.2930188     
   1198850783.3281167     
   1087974582.2239511     
   1001970763.3513353     
   1457730027.6046898     
   1348645939.8932469     
   1274555451.4307606     
   1243596932.3105223     
   1262822090.4483578     
   1681383231.0911212     
   1383826486.9558072     
   1129490658.4731324     
   1010106244.7956978     
   1152985813.4817348     
   1158891752.8776977     
   1008446147.0489478     
   985221120.95768070     
   1161483442.4735627     
   1544128841.2745743     
   917691849.51224720     
   963108125.80090392     
   1144925119.2951365     
   1476491582.2809582     
   1957486689.3102314     
   1001970763.3513353     
   1164684608.6700823     
   1425422606.6217303     
   1808765659.1826060     
   2334797707.6426573     
   1262822090.4483578     
   1446658924.5682352     
   1715692812.9008811     
   2110507470.9479301     
   2663551517.5697870     
   4700546902.7665386     
   4538024205.6949053     
   4379603905.2591610     
   4225423825.8410578     
   4075724838.2148824     
   4407708430.4152002     
   4258570927.9200816     
   4113260564.2499428     
   3972022821.7903543     
   3835190257.5672193     
   4129976871.4859357     
   3995922830.6062765     
   3865785243.2596502     
   3739886410.2168984     
   3618642462.9581885     
   3870179478.2142334     
   3753249871.9870639     
   3640731008.3022037     
   3532981354.4628987     
   3430485773.0568719     
   3631901107.5914855     
   3534401405.5778303     
   3442242056.6079001     
   3355757687.6283693     
   3275469932.5501900     
   4075724838.2148824     
   3951176854.1416292     
   3828406312.0072341     
   3707603375.7531033     
   3589017889.3664808     
   3835190257.5672193     
   3722177903.2779431     
   3611681719.4193664     
   3503944915.7129202     
   3399274100.8720312     
   3618642462.9581885     
   3517709733.3276229     
   3420092432.9421244     
   3326077848.6579428     
   3236016210.1774969     
   3430485773.0568719     
   3342046377.1951504     
   3257751301.4917436     
   3177914496.2239161     
   3102907133.6325870     
   3275469932.5501900     
   3199695750.8810387     
   3128878998.2810793     
   3063335109.1493316     
   3003426014.6589322     
   3589017889.3664808     
   3443336450.4998603     
   3300706005.8676834     
   3161478344.3913813     
   3026117080.3053770     
   3399274100.8720312     
   3267612839.2888069     
   3139786085.5388870     
   3016228558.2705283     
   2897491808.7344770     
   3236016210.1774969     
   3119100434.3192496     
   3006863832.2645555     
   2899806853.6527848     
   2798542218.2782116     
   3102907133.6325870     
   3001351872.1369824     
   2905329501.5350900     
   2815374699.1485310     
   2732119109.4253993     
   3003426014.6589322     
   2917595542.2929955     
   2838091965.1403399     
   2765442199.8326402     
   2700246490.5442972     
   3026117080.3053770     
   2893318990.7067108     
   2762786242.3021255     
   2634833436.3345470     
   2509862970.4417334     
   2897491808.7344770     
   2776542027.3468571     
   2659038695.0746698     
   2545427784.5054650     
   2436260284.4460559     
   2798542218.2782116     
   2691121294.1034389     
   2588453381.7344699     
   2491087950.5918317     
   2399678902.0660677     
   2732119109.4253993     
   2639456780.7133126     
   2552864226.3505640     
   2472936378.7947583     
   2400352545.2214370     
   2700246490.5442972     
   2622898275.2916484     
   2552825550.4002428     
   2490597469.4055433     
   2436836013.8827991     
   2509862970.4417334     
   2371039745.7065840     
   2235904977.8200798     
   2104971670.6618605     
   1978908378.7852151     
   2436260284.4460559     
   2311780464.1481662     
   2192340471.7753105     
   2078646944.7680337     
   1971572389.7847762     
   2399678902.0660677     
   2291544758.2670155     
   2189841230.7455029     
   2095384434.5990891     
   2009125278.8951924     
   2400352545.2214370     
   2309836701.9234290     
   2226977026.8083701     
   2152583856.8728232     
   2087545344.9070644     
   2436836013.8827991     
   2364303989.2730961     
   2300345643.5947862     
   2245668553.6189127     
   2201002736.5441551     
   1978908378.7852151     
   1848204956.9541295     
   1717518338.6856272     
   1587192737.7050350     
   1457730027.6046898     
   1971572389.7847762     
   1855408729.5280969     
   1743609989.1130061     
   1637094886.2131915     
   1536991133.3867249     
   2009125278.8951924     
   1912647194.2966743     
   1824954870.0268579     
   1747248936.1689038     
   1680821817.2223623     
   2087545344.9070644     
   2012344035.4724112     
   1949529248.3728952     
   1900182750.8442433     
   1865336566.8449244     
   2201002736.5441551     
   2145651636.1119220     
   2105286369.0340877     
   2080677145.8942740     
   2072505327.9273827     
   1457730027.6046898     
   1348645939.8932469     
   1274555451.4307606     
   1243596932.3105223     
   1262822090.4483578     
   1536991133.3867249     
   1476105631.0675476     
   1447918443.0124176     
   1456399378.7722852     
   1504844282.7959034     
   1680821817.2223623     
   1652337026.8102930     
   1651569184.4503014     
   1680887194.1243243     
   1742898235.9585731     
   1865336566.8449244     
   1854856915.4714334     
   1867335297.0768750     
   1904980027.1914933     
   1970820389.6204891     
   2072505327.9273827     
   2069044416.4154778     
   2084796536.2823789     
   2122393017.1704669     
   2185644222.9746752     
   1262822090.4483578     
   1446658924.5682352     
   1715692812.9008811     
   2110507470.9479301     
   2663551517.5697870     
   1504844282.7959034     
   1613262973.2964954     
   1788865714.3954909     
   2066407151.7626655     
   2476101070.5304933     
   1742898235.9585731     
   1787705003.4054151     
   1884652041.9991300     
   2060652055.3631103     
   2340940055.8238764     
   1970820389.6204891     
   1968945159.5785663     
   2003616591.0381663     
   2093509999.0061507     
   2257286558.4286385     
   2185644222.9746752     
   2156269010.5652280     
   2146500025.2586713     
   2166859124.6549735     
   2228414642.1997647     
   3631901107.5914855     
   3534401405.5778303     
   3442242056.6079001     
   3355757687.6283693     
   3275469932.5501900     
   3386278326.4128776     
   3307508092.7122192     
   3234976081.6825461     
   3169099498.3862042     
   3110414273.9679837     
   3179354793.3507338     
   3117430788.1690965     
   3062487778.6085229     
   3014925609.0577450     
   2975203535.0274105     
   3018176942.7906208     
   2970634646.5554137     
   2930568993.7106361     
   2898269167.0947628     
   2874047006.4717660     
   2909472528.1897378     
   2873164638.2038946     
   2844513329.0570788     
   2823624693.9416795     
   2810624129.8067861     
   3275469932.5501900     
   3199695750.8810387     
   3128878998.2810793     
   3063335109.1493316     
   3003426014.6589322     
   3110414273.9679837     
   3046445945.4264832     
   2988055017.5395536     
   2935541294.8845572     
   2889241527.3882122     
   2975203535.0274105     
   2922728628.6058087     
   2876414836.2287550     
   2836526041.9136152     
   2803352005.3131533     
   2874047006.4717660     
   2832325641.1312265     
   2797282045.8659401     
   2769126878.2707610     
   2748086207.1549964     
   2810624129.8067861     
   2778404131.7305646     
   2753291024.7940454     
   2735432861.3253789     
   2724985126.6869493     
   3003426014.6589322     
   2917595542.2929955     
   2838091965.1403399     
   2765442199.8326402     
   2700246490.5442972     
   2889241527.3882122     
   2818177255.8306370     
   2754281810.6312294     
   2698046989.2942696     
   2650015230.0756783     
   2803352005.3131533     
   2746680794.4320207     
   2697906995.3900380     
   2657450168.6583023     
   2625757947.4496789     
   2748086207.1549964     
   2704844482.9958453     
   2670085882.9245615     
   2644132782.0724511     
   2627318162.2151318     
   2724985126.6869493     
   2693578337.2195864     
   2671098881.1035895     
   2657764871.6324296     
   2653795069.9745607     
   2700246490.5442972     
   2622898275.2916484     
   2552825550.4002428     
   2490597469.4055433     
   2436836013.8827991     
   2650015230.0756783     
   2587601287.8622713     
   2533075818.7094598     
   2486931068.3927288     
   2449684925.9967260     
   2625757947.4496789     
   2577605047.7971354     
   2537786131.2840099     
   2506691252.1900167     
   2484715932.3179297     
   2627318162.2151318     
   2592256214.2135777     
   2565816505.8030024     
   2548280560.8962274     
   2539924458.9156580     
   2653795069.9745607     
   2630223841.7924643     
   2615445955.9122863     
   2609644501.2135868     
   2612994211.1157837     
   2436836013.8827991     
   2364303989.2730961     
   2300345643.5947862     
   2245668553.6189127     
   2201002736.5441551     
   2449684925.9967260     
   2393232879.7388806     
   2346193305.0944400     
   2309128505.5289631     
   2282585295.0804400     
   2484715932.3179297     
   2443100281.9037714     
   2411462549.3514066     
   2390204257.5023389     
   2379693640.1406603     
   2539924458.9156580     
   2511336420.3705759     
   2493093501.4431930     
   2485451286.0875440     
   2488631150.4199233     
   2612994211.1157837     
   2595242670.0811329     
   2588103227.2458487     
   2591716382.8832631     
   2606197494.0846848     
   2201002736.5441551     
   2145651636.1119220     
   2105286369.0340877     
   2080677145.8942740     
   2072505327.9273827     
   2282585295.0804400     
   2242086512.7637973     
   2215513762.5816598     
   2203317466.4588041     
   2205886044.6254153     
   2379693640.1406603     
   2351100221.5064902     
   2335351865.6347685     
   2332698604.0815115     
   2343360970.1263189     
   2488631150.4199233     
   2469302561.1139593     
   2461832558.1214457     
   2466357277.2523446     
   2483010098.3132472     
   2606197494.0846848     
   2593870102.6740279     
   2592568721.7523465     
   2602372528.1040440     
   2623376200.9349351     
   2072505327.9273827     
   2069044416.4154778     
   2084796536.2823789     
   2122393017.1704669     
   2185644222.9746752     
   2205886044.6254153     
   2191576507.3672280     
   2192249633.5801058     
   2209875120.3320551     
   2247372734.0286789     
   2343360970.1263189     
   2319010192.7434297     
   2306194107.6528821     
   2306318964.6116638     
   2321474219.0322485     
   2483010098.3132472     
   2450375313.5958467     
   2426312448.6896176     
   2411767652.9950609     
   2408119349.9957438     
   2623376200.9349351     
   2584893819.2626190     
   2552321699.7802291     
   2526242055.6507454     
   2507465351.0463047     
   2185644222.9746752     
   2156269010.5652280     
   2146500025.2586713     
   2166859124.6549735     
   2228414642.1997647     
   2247372734.0286789     
   2182649501.7828107     
   2134370975.6117198     
   2112201961.4625823     
   2127073500.6050088     
   2321474219.0322485     
   2224742266.3157640     
   2141342924.6117957     
   2079639428.4691041     
   2049799823.1454139     
   2408119349.9957438     
   2282840782.6256795     
   2168062588.8943710     
   2070522924.6506352     
   1998986588.0456297     
   2507465351.0463047     
   2357153909.6938338     
   2215000399.7580996     
   2085983922.9606597     
   1976977784.8582535     
   2909472528.1897378     
   2873164638.2038946     
   2844513329.0570788     
   2823624693.9416795     
   2810624129.8067861     
   2782480237.5852680     
   2753571000.3917890     
   2732809744.4198027     
   2720317242.6291132     
   2716219971.4458876     
   2693998223.1276116     
   2671098325.9807410     
   2657144872.6864967     
   2652213565.4579744     
   2656382777.4846945     
   2649287873.0410223     
   2630171342.5072951     
   2621106936.5708261     
   2622074991.1776476     
   2633067162.4075761     
   2652147135.1908588     
   2633784215.5910697     
   2626872772.1322417     
   2631269489.7448721     
   2646860952.2704587     
   2810624129.8067861     
   2778404131.7305646     
   2753291024.7940454     
   2735432861.3253789     
   2724985126.6869493     
   2716219971.4458876     
   2692707833.1782198     
   2676399591.7598300     
   2667388775.5746741     
   2665772653.1247430     
   2656382777.4846945     
   2639848573.7124996     
   2630588056.7736187     
   2628646125.3240185     
   2634070287.1805739     
   2633067162.4075761     
   2621437745.5296078     
   2617142077.0208473     
   2620188083.7615862     
   2630586899.3656669     
   2646860952.2704587     
   2637842970.5481668     
   2636228584.8037248     
   2642004077.4831963     
   2655160239.5977187     
   2724985126.6869493     
   2693578337.2195864     
   2671098881.1035895     
   2657764871.6324296     
   2653795069.9745607     
   2665772653.1247430     
   2643890263.0711174     
   2630998718.7851057     
   2627225181.0913062     
   2632694454.4778209     
   2634070287.1805739     
   2619361781.3157616     
   2613661327.0544219     
   2617026081.6480584     
   2629511193.8966241     
   2630586899.3656669     
   2620396083.7631750     
   2619220311.5116987     
   2627073637.4032941     
   2643969473.8709035     
   2655160239.5977187     
   2646673303.0493808     
   2647227406.9774909     
   2656822580.1755219     
   2675458846.9698906     
   2653795069.9745607     
   2630223841.7924643     
   2615445955.9122863     
   2609644501.2135868     
   2612994211.1157837     
   2632694454.4778209     
   2617488489.9941320     
   2611069004.1324182     
   2613537234.2717700     
   2624987364.9684396     
   2629511193.8966241     
   2620475369.0922108     
   2620216086.9853635     
   2628776315.6489253     
   2646195076.7463951     
   2643969473.8709035     
   2638741829.9780254     
   2642314259.0013695     
   2654696412.6331162     
   2675896862.3368793     
   2675458846.9698906     
   2671603978.6002975     
   2676631818.5915966     
   2690543310.5293846     
   2713339678.3388262     
   2612994211.1157837     
   2595242670.0811329     
   2588103227.2458487     
   2591716382.8832631     
   2606197494.0846848     
   2624987364.9684396     
   2614172951.7110586     
   2613613204.4958315     
   2623384700.3092752     
   2643548857.7383871     
   2646195076.7463951     
   2640749983.1127524     
   2645309511.8018231     
   2659907921.4653745     
   2684572409.9375668     
   2675896862.3368793     
   2674263215.2102909     
   2682515058.9683714     
   2700661788.9983926     
   2728711179.3436780     
   2713339678.3388262     
   2713997687.3042874     
   2724568337.8430858     
   2745050182.2007074     
   2775442583.3244014     
   2606197494.0846848     
   2593870102.6740279     
   2592568721.7523465     
   2602372528.1040440     
   2623376200.9349351     
   2643548857.7383871     
   2632848552.8720875     
   2632368308.8036070     
   2642147377.5991297     
   2662235703.2904510     
   2684572409.9375668     
   2675159952.8832545     
   2675338097.2847300     
   2685121929.1870751     
   2704532258.1554413     
   2728711179.3436780     
   2720393209.7840571     
   2721194357.1568055     
   2731117615.0091438     
   2750167863.3549647     
   2775442583.3244014     
   2768158788.6166782     
   2769664119.2447071     
   2779958511.0999737     
   2799041944.5522923     
   2623376200.9349351     
   2584893819.2626190     
   2552321699.7802291     
   2526242055.6507454     
   2507465351.0463047     
   2662235703.2904510     
   2616800913.0941720     
   2577044970.2283554     
   2543298922.7085385     
   2516025638.5549812     
   2704532258.1554413     
   2654254144.8001952     
   2609566756.7522779     
   2570617340.1727061     
   2537612032.4941273     
   2750167863.3549647     
   2697161412.4240818     
   2649800321.0346727     
   2608120989.7302756     
   2572174162.0553327     
   2799041944.5522923     
   2745421980.3602428     
   2697644337.2829618     
   2655709007.5301580     
   2619615988.9646926     
   2507465351.0463047     
   2357153909.6938338     
   2215000399.7580996     
   2085983922.9606597     
   1976977784.8582535     
   2516025638.5549812     
   2348184049.6177354     
   2183893218.7262373     
   2026253114.0568218     
   1879828106.8171108     
   2537612032.4941273     
   2357322644.4552770     
   2176771888.7085729     
   1997432028.1341820     
   1821582162.4099410     
   2572174162.0553327     
   2384673782.4711952     
   2194103385.4856153     
   2000841940.1272235     
   1805494772.4171569     
   2619615988.9646926     
   2430206609.3041735     
   2236030274.6005182     
   2037086983.6156607     
   1833376736.7601194     
   2652147135.1908588     
   2633784215.5910697     
   2626872772.1322417     
   2631269489.7448721     
   2646860952.2704587     
   2619703812.8535452     
   2605804909.9791241     
   2602032759.4704094     
   2608382107.6446333     
   2624851274.8529930     
   2651259865.9750457     
   2636155793.3490815     
   2629863143.7318268     
   2632465758.2922463     
   2644049043.7064629     
   2741734672.8877034     
   2720841666.5874166     
   2707464288.0864868     
   2701698450.4171953     
   2703664480.9154487     
   2882995292.8943090     
   2853162145.6902742     
   2829563790.7487440     
   2812216787.9146008     
   2801204292.8714104     
   2646860952.2704587     
   2637842970.5481668     
   2636228584.8037248     
   2642004077.4831963     
   2655160239.5977187     
   2624851274.8529930     
   2615188378.0355525     
   2612897314.8261647     
   2617984816.2167730     
   2630457833.7281499     
   2644049043.7064629     
   2630555555.9764833     
   2624313572.2564974     
   2625368881.9530993     
   2633768170.7227883     
   2703664480.9154487     
   2683424054.3810577     
   2670209103.7232080     
   2664116845.3096671     
   2665252115.4940529     
   2801204292.8714104     
   2771777423.4788156     
   2749030500.5939631     
   2733113941.3291259     
   2724199073.9314065     
   2655160239.5977187     
   2646673303.0493808     
   2647227406.9774909     
   2656822580.1755219     
   2675458846.9698906     
   2630457833.7281499     
   2620184350.1088595     
   2618916079.8290467     
   2626667665.6483989     
   2643453075.7492867     
   2633768170.7227883     
   2618936326.5128889     
   2613090448.2401843     
   2616288187.4019732     
   2628585224.5549731     
   2665252115.4940529     
   2643253130.7133670     
   2630208350.2259870     
   2626244457.2126851     
   2631485973.0192986     
   2724199073.9314065     
   2692732343.7311950     
   2670140313.3984203     
   2656638622.4060116     
   2652443920.1242242     
   2675458846.9698906     
   2671603978.6002975     
   2676631818.5915966     
   2690543310.5293846     
   2713339678.3388262     
   2643453075.7492867     
   2637619273.2199407     
   2640604574.4763389     
   2652421191.0651989     
   2673080431.4838834     
   2628585224.5549731     
   2618721237.0478821     
   2617682565.9278135     
   2625512770.2082496     
   2642251615.7143445     
   2631485973.0192986     
   2615597752.3773079     
   2608587693.2998247     
   2610551401.9562216     
   2621577152.1652083     
   2652443920.1242242     
   2628673137.6679411     
   2613848639.4651642     
   2608138038.4377851     
   2611699063.9900618     
   2713339678.3388262     
   2713997687.3042874     
   2724568337.8430858     
   2745050182.2007074     
   2775442583.3244014     
   2673080431.4838834     
   2672318706.8403039     
   2681442963.8594575     
   2700458849.1977649     
   2729370498.3686662     
   2642251615.7143445     
   2638068301.6988106     
   2643865467.6825438     
   2659675932.2322073     
   2685525340.0392609     
   2621577152.1652083     
   2611946417.7684417     
   2612493548.6447344     
   2623301971.4424319     
   2644439513.6952229     
   2611699063.9900618     
   2594618564.5425444     
   2587986183.5775752     
   2591963188.4979124     
   2606685382.3203945     
   2775442583.3244014     
   2768158788.6166782     
   2769664119.2447071     
   2779958511.0999737     
   2799041944.5522923     
   2729370498.3686662     
   2720814273.1471529     
   2721388380.1340513     
   2731096486.6487641     
   2749943406.1762791     
   2685525340.0392609     
   2675755491.6982555     
   2675602148.3554869     
   2685080680.5392756     
   2704211988.4394751     
   2644439513.6952229     
   2633377606.1576738     
   2632580647.4149966     
   2642086767.2338014     
   2661946442.1732173     
   2606685382.3203945     
   2594100305.1320977     
   2592610994.0041866     
   2602293052.7937765     
   2623242355.4080544     
   2799041944.5522923     
   2745421980.3602428     
   2697644337.2829618     
   2655709007.5301580     
   2619615988.9646926     
   2749943406.1762791     
   2697023663.8396058     
   2649743750.6416221     
   2608140423.7779074     
   2572265423.0512562     
   2704211988.4394751     
   2654063715.2135572     
   2609494897.3805108     
   2570652853.5488844     
   2537743948.3946786     
   2661946442.1732173     
   2616641922.5428429     
   2576998862.5300546     
   2543347434.6852231     
   2516148173.3651319     
   2623242355.4080544     
   2584849099.9588356     
   2552341964.1179399     
   2526300714.6177478     
   2507529256.4976254     
   2619615988.9646926     
   2430206609.3041735     
   2236030274.6005182     
   2037086983.6156607     
   1833376736.7601194     
   2572265423.0512562     
   2384722357.9708586     
   2194112862.9054942     
   2000814796.6083655     
   1805431185.7049897     
   2537743948.3946786     
   2357389771.1917419     
   2176781724.4479761     
   1997392110.6595123     
   1821500057.6156051     
   2516148173.3651319     
   2348240052.7086887     
   2183894380.7637911     
   2026214420.5689301     
   1879770642.2208664     
   2507529256.4976254     
   2357169716.0144291     
   2214984211.0702066     
   2085959944.0771575     
   1976984288.6677294     
   2882995292.8943090     
   2853162145.6902742     
   2829563790.7487440     
   2812216787.9146008     
   2801204292.8714104     
   3023321839.9067926     
   2975319978.3939891     
   2933890318.1093187     
   2899254103.3338981     
   2871681726.6190038     
   3202173108.6451650     
   3135072787.4487467     
   3075021338.6300793     
   3022363815.8451743     
   2977502190.9456592     
   3416752566.8178916     
   3329607425.9565015     
   3250068867.9222918     
   3178543020.9678955     
   3115520070.1231303     
   3664010153.4370122     
   3555785716.1100402     
   3455762882.6470122     
   3364363628.1824145     
   3282135653.7122712     
   2801204292.8714104     
   2771777423.4788156     
   2749030500.5939631     
   2733113941.3291259     
   2724199073.9314065     
   2871681726.6190038     
   2830962604.1770334     
   2796565563.1584654     
   2768706463.2617555     
   2747624211.6752038     
   2977502190.9456592     
   2924749240.4982805     
   2877942475.5186787     
   2837345811.2717175     
   2803252305.5118537     
   3115520070.1231303     
   3050380122.3367190     
   2990806585.7296829     
   2937090551.8600183     
   2889560504.3036232     
   3282135653.7122712     
   3204546270.1719370     
   3132160283.9035192     
   3065275603.9960599     
   3004236132.1010857     
   2724199073.9314065     
   2692732343.7311950     
   2670140313.3984203     
   2656638622.4060116     
   2652443920.1242242     
   2747624211.6752038     
   2704331760.6496778     
   2669499611.7226133     
   2643446951.2814002     
   2626503605.1014347     
   2803252305.5118537     
   2746548855.2061996     
   2697754124.1522250     
   2657284769.7463250     
   2625585080.6524329     
   2889560504.3036232     
   2818474031.4947524     
   2754605368.1802335     
   2698445094.9245224     
   2650533554.5102296     
   3004236132.1010857     
   2918368864.1474028     
   2838917053.2246075     
   2766409550.4523811     
   2701447486.4721580     
   2652443920.1242242     
   2628673137.6679411     
   2613848639.4651642     
   2608138038.4377851     
   2611699063.9900618     
   2626503605.1014347     
   2591735778.8709326     
   2565692942.3405752     
   2548647197.7912340     
   2540863464.8634243     
   2625585080.6524329     
   2577911563.3346648     
   2538609732.6069217     
   2508068667.9350438     
   2486681825.1931024     
   2650533554.5102296     
   2588530207.4353776     
   2534367429.7831640     
   2488545403.1959391     
   2451590720.2768054     
   2701447486.4721580     
   2624256077.0391407     
   2554183086.3717160     
   2491812304.1731772     
   2437784037.1410460     
   2611699063.9900618     
   2594618564.5425444     
   2587986183.5775752     
   2591963188.4979124     
   2606685382.3203945     
   2540863464.8634243     
   2512176917.0140996     
   2493713591.3236856     
   2485743596.9288306     
   2488504315.7644601     
   2486681825.1931024     
   2444531637.3234792     
   2412303261.7867355     
   2390403284.4542675     
   2379206885.6032529     
   2451590720.2768054     
   2394449812.5603628     
   2346762374.3906188     
   2309084739.5109816     
   2281957851.2823858     
   2437784037.1410460     
   2364619224.6310382     
   2300202533.5790071     
   2245226166.0813313     
   2200400569.3827491     
   2606685382.3203945     
   2594100305.1320977     
   2592610994.0041866     
   2602293052.7937765     
   2623242355.4080544     
   2488504315.7644601     
   2469165792.8959885     
   2461725765.8025560     
   2466317391.1049662     
   2483073814.3352151     
   2379206885.6032529     
   2350769333.7259183     
   2335182839.3371677     
   2332695812.1979470     
   2343527807.3113241     
   2281957851.2823858     
   2241713431.5587106     
   2215360573.9130449     
   2203349784.0572429     
   2206068242.5141068     
   2200400569.3827491     
   2145356031.3697562     
   2105213131.4207201     
   2080743204.4412923     
   2072625908.3670642     
   2623242355.4080544     
   2584849099.9588356     
   2552341964.1179399     
   2526300714.6177478     
   2507529256.4976254     
   2483073814.3352151     
   2450433460.8078136     
   2426354074.4196200     
   2411780539.0828896     
   2408086621.9086828     
   2343527807.3113241     
   2319109449.6077919     
   2306228278.8783841     
   2306290338.6308765     
   2321383659.0047770     
   2206068242.5141068     
   2191658624.9205675     
   2192248512.4019380     
   2209808478.1089759     
   2247261532.5840549     
   2072625908.3670642     
   2069056432.5728378     
   2084733667.5504472     
   2122291066.1487281     
   2185548218.7313328     
   2507529256.4976254     
   2357169716.0144291     
   2214984211.0702066     
   2085959944.0771575     
   1976984288.6677294     
   2408086621.9086828     
   2282814247.6298056     
   2168047878.6978316     
   2070530909.7560968     
   1999036609.1842475     
   2321383659.0047770     
   2224695768.5324168     
   2141335523.8226998     
   2079667087.7781682     
   2049860114.4698157     
   2247261532.5840549     
   2182604347.9531813     
   2134376310.6674724     
   2112237954.3446593     
   2127115051.8353608     
   2185548218.7313328     
   2156245443.6201582     
   2146523025.7395945     
   2166893051.3658175     
   2228412509.0778131     
   3664010153.4370122     
   3555785716.1100402     
   3455762882.6470122     
   3364363628.1824145     
   3282135653.7122712     
   3875591476.6978698     
   3756191679.7715802     
   3642541698.1050110     
   3535098107.2181001     
   3434433071.5969830     
   4119508733.0084310     
   3988929177.0404997     
   3861953623.1274896     
   3738967065.8259230     
   3620456839.2264938     
   4386897142.0436697     
   4246091026.5270844     
   4107051521.1451807     
   3970022651.2815571     
   3835337651.9093814     
   4670558787.7254210     
   4521129502.1048937     
   4371925708.9721909     
   4223014832.0554714     
   4074545727.9212813     
   3282135653.7122712     
   3204546270.1719370     
   3132160283.9035192     
   3065275603.9960599     
   3004236132.1010857     
   3434433071.5969830     
   3344734786.0563550     
   3259429632.5760174     
   3178821480.1630998     
   3103270425.3957763     
   3620456839.2264938     
   3518688068.5846767     
   3420484615.9606452     
   3326130835.6529927     
   3235972993.8039365     
   3835337651.9093814     
   3721791997.8944273     
   3611010246.1971025     
   3503238811.6271782     
   3398786737.7250929     
   4074545727.9212813     
   3949663208.9809356     
   3826799849.6113944     
   3706153679.5019550     
   3587981998.1008539     
   3004236132.1010857     
   2918368864.1474028     
   2838917053.2246075     
   2766409550.4523811     
   2701447486.4721580     
   3103270425.3957763     
   3001803120.6841445     
   2905908280.5435691     
   2816124218.3623672     
   2733086139.3864470     
   3235972993.8039365     
   3119227987.5293922     
   3007147050.8793163     
   2900233897.4812527     
   2799104899.7578182     
   3398786737.7250929     
   3267374050.3821578     
   3139723607.4676318     
   3016271024.2456512     
   2897568846.2825155     
   3587981998.1008539     
   3442653722.6533203     
   3300248026.3777776     
   3161113851.1960588     
   3025711019.1568265     
   2701447486.4721580     
   2624256077.0391407     
   2554183086.3717160     
   2491812304.1731772     
   2437784037.1410460     
   2733086139.3864470     
   2640316550.1911025     
   2553505449.1194477     
   2473252807.7787604     
   2400245484.3395281     
   2799104899.7578182     
   2691474396.3042760     
   2588547335.6462655     
   2490871457.5188003     
   2399099612.6936255     
   2897568846.2825155     
   2776406693.7383690     
   2658716689.0674434     
   2544940390.2000408     
   2435623471.4588685     
   3025711019.1568265     
   2892735375.9435472     
   2762133291.7642570     
   2634215792.3065491     
   2509380070.2018142     
   2437784037.1410460     
   2364619224.6310382     
   2300202533.5790071     
   2245226166.0813313     
   2200400569.3827491     
   2400245484.3395281     
   2309485204.8264861     
   2226510926.3168383     
   2152126843.9350309     
   2087212237.1710188     
   2399099612.6936255     
   2290967243.0888758     
   2189332891.4844651     
   2095013704.1995921     
   2008960781.1872640     
   2435623471.4588685     
   2311305810.4024658     
   2192017557.7409072     
   2078469257.6952136     
   1971537562.4048381     
   2509380070.2018142     
   2370851627.5056734     
   2235915812.0814104     
   2105088168.8220193     
   1979039081.3612156     
   2200400569.3827491     
   2145356031.3697562     
   2105213131.4207201     
   2080743204.4412923     
   2072625908.3670642     
   2087212237.1710188     
   2012184857.1090913     
   1949487176.8452337     
   1900199631.2399447     
   1865352247.7243221     
   2008960781.1872640     
   1912553653.8728347     
   1824906635.7344687     
   1747218711.6699438     
   1680780769.9697521     
   1971537562.4048381     
   1855350439.1946352     
   1743537595.6256039     
   1637018498.4966600     
   1536921762.0681126     
   1979039081.3612156     
   1848205935.1120732     
   1717433769.1480277     
   1587070645.1544206     
   1457621993.7524753     
   2072625908.3670642     
   2069056432.5728378     
   2084733667.5504472     
   2122291066.1487281     
   2185548218.7313328     
   1865352247.7243221     
   1854826750.0200541     
   1867281602.4624364     
   1904926137.4968591     
   1970794661.3187628     
   1680780769.9697521     
   1652296238.3967664     
   1651538877.1270721     
   1680877613.5571389     
   1742920724.9131372     
   1536921762.0681126     
   1476074493.6182537     
   1447921642.4177983     
   1456431163.8603494     
   1504895664.7193964     
   1457621993.7524753     
   1348619665.3631344     
   1274591679.3955603     
   1243668738.8229549     
   1262891129.3455458     
   2185548218.7313328     
   2156245443.6201582     
   2146523025.7395945     
   2166893051.3658175     
   2228412509.0778131     
   1970794661.3187628     
   1968943690.0911467     
   2003628675.7833529     
   2093518501.9159100     
   2257265862.2337451     
   1742920724.9131372     
   1787714839.5710108     
   1884651791.3026416     
   2060641553.3756931     
   2340914536.9312558     
   1504895664.7193964     
   1613275007.9251995     
   1788852109.7127180     
   2066383377.6107483     
   2476082724.1114364     
   1262891129.3455458     
   1446666887.9016621     
   1715665142.7757854     
   2110476861.5372109     
   2663554960.1453824     
   4670558787.7254210     
   4521129502.1048937     
   4371925708.9721909     
   4223014832.0554714     
   4074545727.9212813     
   4981773177.5710917     
   4814487653.3074150     
   4648459841.2801847     
   4483810266.3298540     
   4320713052.0508862     
   5319577176.1349487     
   5133850282.0457420     
   4950669864.1557474     
   4770084802.3927803     
   4592226446.1841106     
   5683947076.5174284     
   5478345497.7552118     
   5276694009.7576504     
   5078877592.2850857     
   4884939501.9349909     
   6074782120.7612448     
   5847135701.0598478     
   5624862471.7633018     
   5407621658.5089378     
   5195345705.1694870     
   4074545727.9212813     
   3949663208.9809356     
   3826799849.6113944     
   3706153679.5019550     
   3587981998.1008539     
   4320713052.0508862     
   4184483417.6253810     
   4049541795.0330958     
   3916027485.6139717     
   3784132721.9696841     
   4592226446.1841106     
   4445328493.3174925     
   4299080336.0649261     
   4153564625.7167802     
   4008908745.6331167     
   4884939501.9349909     
   4728016719.0683918     
   4571201327.9787703     
   4414525626.6526575     
   4258058178.7200422     
   5195345705.1694870     
   5028984708.3205404     
   4862279563.1467905     
   4695220380.2745886     
   4527825807.2817030     
   3587981998.1008539     
   3442653722.6533203     
   3300248026.3777776     
   3161113851.1960588     
   3025711019.1568265     
   3784132721.9696841     
   3625264366.9820752     
   3468416158.6619010     
   3313831421.2701993     
   3161850669.5862174     
   4008908745.6331167     
   3837454780.8750558     
   3667251185.9779215     
   3498439631.3173928     
   3331240263.7460575     
   4258058178.7200422     
   4074886857.6688480     
   3892337770.7577338     
   3710464672.1937737     
   3529380569.7843285     
   4527825807.2817030     
   4333681352.2715120     
   4139664766.7817168     
   3945759510.3504601     
   3751991332.6470680     
   3025711019.1568265     
   2892735375.9435472     
   2762133291.7642570     
   2634215792.3065491     
   2509380070.2018142     
   3161850669.5862174     
   3018004063.4423389     
   2876015964.0018497     
   2736113691.6162391     
   2598606739.5210667     
   3331240263.7460575     
   3176861253.1766400     
   3023835740.8140664     
   2872303402.8321271     
   2722478537.0617261     
   3529380569.7843285     
   3364560011.1638217     
   3200612245.4690204     
   3037593242.9465890     
   2875625066.1777725     
   3751991332.6470680     
   3576574681.8035960     
   3401578070.3636513     
   3226981789.2506704     
   3052824437.2903886     
   2509380070.2018142     
   2370851627.5056734     
   2235915812.0814104     
   2105088168.8220193     
   1979039081.3612156     
   2598606739.5210667     
   2450050088.2035413     
   2303551794.7492366     
   2159426068.3585291     
   2018097011.9336066     
   2722478537.0617261     
   2566224595.4880977     
   2410849038.1404371     
   2256490235.3294277     
   2103342908.9495785     
   2875625066.1777725     
   2714099124.5434780     
   2552671416.5771699     
   2391370905.1636310     
   2230245096.8693414     
   3052824437.2903886     
   2888325041.5094724     
   2723509175.6073031     
   2558368263.0545130     
   2392898112.2811232     
   1979039081.3612156     
   1848205935.1120732     
   1717433769.1480277     
   1587070645.1544206     
   1457621993.7524753     
   2018097011.9336066     
   1881134532.2153640     
   1744511940.8793318     
   1608358441.0816259     
   1472851704.7811961     
   2103342908.9495785     
   1962873106.2178624     
   1823365385.9419689     
   1684851374.4944108     
   1547391298.1116853     
   2230245096.8693414     
   2087167802.8831947     
   1945729382.6876280     
   1805931558.1833141     
   1667851165.3385456     
   2392898112.2811232     
   2246483155.3169618     
   2102221337.4469204     
   1960114921.5689747     
   1820329436.4982884     
   1457621993.7524753     
   1348619665.3631344     
   1274591679.3955603     
   1243668738.8229549     
   1262891129.3455458     
   1472851704.7811961     
   1328623510.9753187     
   1198851263.0157301     
   1088017192.0801725     
   1002027143.4494978     
   1547391298.1116853     
   1397538523.3842187     
   1244121383.5584254     
   1084868398.7753870     
   917748805.06684744     
   1667851165.3385456     
   1552481345.5376494     
   1428004704.3401020     
   1294779391.7882643     
   1158927054.0901263     
   1820329436.4982884     
   1779737726.8169093     
   1735652317.9770219     
   1696698334.5655537     
   1681356226.1803591     
   1262891129.3455458     
   1446666887.9016621     
   1715665142.7757854     
   2110476861.5372109     
   2663554960.1453824     
   1002027143.4494978     
   1164698774.8793416     
   1425411536.4465334     
   1808750371.4602878     
   2334801799.9129696     
   917748805.06684744     
   963132324.76816320     
   1144928951.3347106     
   1476487483.2848265     
   1957485815.5854588     
   1158927054.0901263     
   1008464832.5462935     
   985234745.31393719     
   1161490979.8252325     
   1544121355.3042190     
   1681356226.1803591     
   1383807405.7437949     
   1129500540.3464656     
   1010144530.3460404     
   1153001759.6460466     
 </DataArray>
 <DataArray  type="Float64" Name="strain" NumberOfComponents="3" format="ascii">
  0.10037955134210508       -2.8277939973021304E-002   1.9508721848666699E-003
   9.6959077706255337E-002  -2.8317520073559255E-002   1.2842531229879661E-003
   9.3538604070405706E-002  -2.8021427236154250E-002   8.2342255379164175E-004
   9.0118130434556021E-002  -2.7389661460806417E-002   5.6838047727697516E-004
   8.6697656798706335E-002  -2.6422222747515711E-002   5.1912689344457696E-004
   9.4168444897932302E-002  -2.7067170067617163E-002   8.0567703672818070E-003
   9.0948246776398955E-002  -2.6799090928457114E-002   7.7090140267266349E-003
   8.7728048654865609E-002  -2.6319159745998522E-002   7.5560202221215400E-003
   8.4507850533332235E-002  -2.5627376520241385E-002   7.5977889534674103E-003
   8.1287652411798916E-002  -2.4723741251185483E-002   7.8343202207636908E-003
   8.8007951662827488E-002  -2.5856400162212911E-002   1.4532238236717621E-002
   8.4977003098879011E-002  -2.5280661783354974E-002   1.4379523722840626E-002
   8.1946054534930729E-002  -2.4616892255842709E-002   1.4410545788183099E-002
   7.8915105970982335E-002  -2.3865091579676402E-002   1.4625304432744610E-002
   7.5884157407033914E-002  -2.3025259754855698E-002   1.5023799656525560E-002
   8.1898071636790665E-002  -2.4645630256808743E-002   2.1377275793173098E-002
   7.9045346673695838E-002  -2.3762232638252792E-002   2.1295782211330605E-002
   7.6192621710601038E-002  -2.2914624765687050E-002   2.1386999251976006E-002
   7.3339896747506267E-002  -2.2102806639111395E-002   2.1650926915109250E-002
   7.0487171784411398E-002  -2.1326778258525692E-002   2.2087565200730214E-002
   7.5838804819821803E-002  -2.3434860351404518E-002   2.8591883036648835E-002
   7.3153277500849212E-002  -2.2243803493150749E-002   2.8457789492196239E-002
   7.0467750181876648E-002  -2.1212357275531307E-002   2.8485380613500144E-002
   6.7782222862904015E-002  -2.0340521698546200E-002   2.8674656400560911E-002
   6.5096695543931438E-002  -1.9628296762195685E-002   2.9025616853377900E-002
   8.6697656798706335E-002  -2.6422222747515711E-002   5.1912689344457696E-004
   8.3870183098766315E-002  -2.5322514684209485E-002   3.2169923128988476E-004
   8.1042709398826296E-002  -2.4293940858815866E-002   3.2135007290240436E-004
   7.8215235698886276E-002  -2.3336501271334187E-002   5.1807941828330151E-004
   7.5387761998946257E-002  -2.2450195921764893E-002   9.1188726743141046E-004
   8.1287652411798916E-002  -2.4723741251185483E-002   7.8343202207636908E-003
   7.8652904864932899E-002  -2.3737593559955195E-002   7.5800688716270992E-003
   7.6018157318066826E-002  -2.2798273067673736E-002   7.5141913248709391E-003
   7.3383409771200808E-002  -2.1905779774340731E-002   7.6366875804953493E-003
   7.0748662224334680E-002  -2.1060113679956527E-002   7.9475576384997471E-003
   7.5884157407033914E-002  -2.3025259754855698E-002   1.5023799656525560E-002
   7.3433431311854550E-002  -2.2152672435700710E-002   1.4737031659370847E-002
   7.0982705216675185E-002  -2.1302605276531161E-002   1.4629932763209091E-002
   6.8531979121495820E-002  -2.0475058277346830E-002   1.4702502968040314E-002
   6.6081253026316455E-002  -1.9670031438148050E-002   1.4954742273864396E-002
   7.0487171784411398E-002  -2.1326778258525692E-002   2.2087565200730214E-002
   6.8211762439531406E-002  -2.0567751311446156E-002   2.1792587594520643E-002
   6.5936353094651429E-002  -1.9806937485388643E-002   2.1668574387916542E-002
   6.3660943749771381E-002  -1.9044336780353152E-002   2.1715525580918296E-002
   6.1385534404891390E-002  -1.8279949196339740E-002   2.1933441173525775E-002
   6.5096695543931438E-002  -1.9628296762195685E-002   2.9025616853377900E-002
   6.2987898247963442E-002  -1.8982830187191657E-002   2.8746736677076640E-002
   6.0879100951995446E-002  -1.8311269694246318E-002   2.8630116198993805E-002
   5.8770303656027451E-002  -1.7613615283359578E-002   2.8675755419129437E-002
   5.6661506360059455E-002  -1.6889866954531263E-002   2.8883654337483355E-002
   7.5387761998946257E-002  -2.2450195921764893E-002   9.1188726743141046E-004
   7.2175040540466529E-002  -2.1588290504631513E-002   6.1720936852249775E-004
   6.8962319081986745E-002  -2.0704050714457467E-002   4.9440696369840165E-004
   6.5749597623506961E-002  -1.9797476551243504E-002   5.4348005295881685E-004
   6.2536876165027233E-002  -1.8868568014988263E-002   7.6442863630377111E-004
   7.0748662224334680E-002  -2.1060113679956527E-002   7.9475576384997471E-003
   6.7710188771557711E-002  -2.0230220785867947E-002   7.6457504135017951E-003
   6.4671715318780687E-002  -1.9385047093420732E-002   7.5205637058244623E-003
   6.1633241866003663E-002  -1.8524592602615082E-002   7.5719975154681929E-003
   5.8594768413226639E-002  -1.7648857313451227E-002   7.8000518424328202E-003
   6.6081253026316455E-002  -1.9670031438148050E-002   1.4954742273864396E-002
   6.3221772602478438E-002  -1.8872151067103993E-002   1.4638752148095097E-002
   6.0362292178640364E-002  -1.8066043472383553E-002   1.4504127562882774E-002
   5.7502811754802319E-002  -1.7251708653987216E-002   1.4550868518227525E-002
   5.4643331330964301E-002  -1.6429146611914414E-002   1.4778975014129669E-002
   6.1385534404891390E-002  -1.8279949196339740E-002   2.1933441173525775E-002
   5.8709792033228562E-002  -1.7514081348340121E-002   2.1596214572302701E-002
   5.6034049661565791E-002  -1.6747039851346596E-002   2.1445098534873183E-002
   5.3358307289903019E-002  -1.5978824705359072E-002   2.1480093061237042E-002
   5.0682564918240192E-002  -1.5209435910377489E-002   2.1701198151394333E-002
   5.6661506360059455E-002  -1.6889866954531263E-002   2.8883654337483355E-002
   5.4174247063808190E-002  -1.6156011629576472E-002   2.8518137686124545E-002
   5.1686987767556924E-002  -1.5428036230309611E-002   2.8343476621795594E-002
   4.9199728471305645E-002  -1.4705940756730977E-002   2.8359671144496237E-002
   4.6712469175054394E-002  -1.3989725208840509E-002   2.8566721254226601E-002
   6.2536876165027233E-002  -1.8868568014988263E-002   7.6442863630377111E-004
   5.9612856846252615E-002  -1.7945782668755461E-002   4.5407520753504294E-004
   5.6688837527477942E-002  -1.7057578075605206E-002   3.4563790480535150E-004
   5.3764818208703324E-002  -1.6203954235539372E-002   4.3911672811558500E-004
   5.0840798889928651E-002  -1.5384911148557112E-002   7.3451167746418911E-004
   5.8594768413226639E-002  -1.7648857313451227E-002   7.8000518424328202E-003
   5.5862951769764080E-002  -1.6776037188007409E-002   7.4428096930341803E-003
   5.3131135126301549E-002  -1.5924328188361203E-002   7.2680567682207875E-003
   5.0399318482839031E-002  -1.5093730314512777E-002   7.2757930679920868E-003
   4.7667501839376458E-002  -1.4284243566461852E-002   7.4660185923486333E-003
   5.4643331330964301E-002  -1.6429146611914414E-002   1.4778975014129669E-002
   5.2084290461359539E-002  -1.5606291707259801E-002   1.4388313771387246E-002
   4.9525249591754694E-002  -1.4791078301116561E-002   1.4160714851775752E-002
   4.6966208722149919E-002  -1.3983506393485855E-002   1.4096178255294647E-002
   4.4407167852545115E-002  -1.3183575984366813E-002   1.4194703981944445E-002
   5.0682564918240192E-002  -1.5209435910377489E-002   2.1701198151394333E-002
   4.8276872921038855E-002  -1.4436546226511970E-002   2.1290587442594058E-002
   4.5871180923837435E-002  -1.3657828413872461E-002   2.1023612155470196E-002
   4.3465488926636056E-002  -1.2873282472458985E-002   2.0900272290022583E-002
   4.1059796929434685E-002  -1.2082908402271553E-002   2.0920567846251140E-002
   4.6712469175054394E-002  -1.3989725208840509E-002   2.8566721254226601E-002
   4.4440699148802054E-002  -1.3266800745763974E-002   2.8149630706654438E-002
   4.2168929122549742E-002  -1.2524578526628208E-002   2.7856748679304183E-002
   3.9897159096297444E-002  -1.1763058551432021E-002   2.7688075172175627E-002
   3.7625389070045090E-002  -1.0982240820176625E-002   2.7643610185269063E-002
   5.0840798889928651E-002  -1.5384911148557112E-002   7.3451167746418911E-004
   4.8100687586019819E-002  -1.4569650999053607E-002   4.9187694476260369E-004
   4.5360576282110987E-002  -1.3727375971424760E-002   2.9230073900798903E-004
   4.2620464978202127E-002  -1.2858086065669586E-002   1.3578306020106679E-004
   3.9880353674293323E-002  -1.1961781281789152E-002   2.2323908340782239E-005
   4.7667501839376458E-002  -1.4284243566461852E-002   7.4660185923486333E-003
   4.4981323366366288E-002  -1.3478434042853649E-002   7.1676070048385387E-003
   4.2295144893356201E-002  -1.2658867842332722E-002   6.9340025521787974E-003
   3.9608966420346045E-002  -1.1825544964899737E-002   6.7652052343689928E-003
   3.6922787947335944E-002  -1.0978465410553362E-002   6.6612150514091528E-003
   4.4407167852545115E-002  -1.3183575984366813E-002   1.4194703981944445E-002
   4.1796670818336740E-002  -1.2387217086653912E-002   1.3827257338412696E-002
   3.9186173784128323E-002  -1.1590359713241322E-002   1.3546366437634266E-002
   3.6575676749919871E-002  -1.0793003864129215E-002   1.3352031279609114E-002
   3.3965179715711502E-002  -9.9951495393174605E-003   1.3244251864337087E-002
   4.1059796929434685E-002  -1.2082908402271553E-002   2.0920567846251140E-002
   3.8546729941930973E-002  -1.1296000130454065E-002   2.0470827945484646E-002
   3.6033662954427337E-002  -1.0521851584150047E-002   2.0129392395374840E-002
   3.3520595966923611E-002  -9.7604627633592518E-003   1.9896261195921253E-002
   3.1007528979419878E-002  -9.0118336680815037E-003   1.9771434347123765E-002
   3.7625389070045090E-002  -1.0982240820176625E-002   2.7643610185269063E-002
   3.5231500737149202E-002  -1.0204783174254328E-002   2.7098318826055179E-002
   3.2837612404253175E-002  -9.4533434550583550E-003   2.6683080425400851E-002
   3.0443724071357231E-002  -8.7279216625889069E-003   2.6397894983305692E-002
   2.8049835738461260E-002  -8.0285177968458799E-003   2.6242762499769756E-002
   3.9880353674293323E-002  -1.1961781281789152E-002   2.2323908340782239E-005
   3.7463301582331465E-002  -1.1132137210274506E-002  -2.7557919613641069E-004
   3.5046249490369608E-002  -1.0462829441615862E-002  -4.8084293052330640E-004
   3.2629197398407778E-002  -9.9538579758149531E-003  -5.9346729482123717E-004
   3.0212145306445892E-002  -9.6052228128697958E-003  -6.1345228902842663E-004
   3.6922787947335944E-002  -1.0978465410553362E-002   6.6612150514091528E-003
   3.4579830825712476E-002  -1.0177269834122038E-002   6.2117945747144354E-003
   3.2236873704089064E-002  -9.4815988904327075E-003   5.8179246686052566E-003
   2.9893916582465568E-002  -8.8914525794856064E-003   5.4796053330836980E-003
   2.7550959460842184E-002  -8.4068309012808040E-003   5.1968365681490658E-003
   3.3965179715711502E-002  -9.9951495393174605E-003   1.3244251864337087E-002
   3.1659228764923303E-002  -9.2224024579698471E-003   1.2698125685537853E-002
   2.9353277814135145E-002  -8.5003683392493035E-003   1.2170461277822925E-002
   2.7047326863347022E-002  -7.8290471831569189E-003   1.1661258641191344E-002
   2.4741375912558872E-002  -7.2084389896923673E-003   1.1170517775643540E-002
   3.1007528979419878E-002  -9.0118336680815037E-003   1.9771434347123765E-002
   2.8701495399963924E-002  -8.2675350818176285E-003   1.9183414136335827E-002
   2.6395461820508000E-002  -7.5191377880662463E-003   1.8576766897128554E-002
   2.4089428241052022E-002  -6.7666417868285679E-003   1.7951492629501641E-002
   2.1783394661596019E-002  -6.0100470781034310E-003   1.7307591333455691E-002
   2.8049835738461260E-002  -8.0285177968458799E-003   2.6242762499769756E-002
   2.5706630730834346E-002  -7.3126677056651879E-003   2.5667659927107289E-002
   2.3363425723207515E-002  -6.5379072368830782E-003   2.5036841526522413E-002
   2.1020220715580656E-002  -5.7042363904995785E-003   2.4350307298014934E-002
   1.8677015707953770E-002  -4.8116551665147167E-003   2.3608057241585101E-002
   3.0212145306445892E-002  -9.6052228128697958E-003  -6.1345228902842663E-004
   2.9604406159811636E-002  -9.1338998441110597E-003  -3.6482630749490319E-004
   2.8996667013177324E-002  -8.2568649608674161E-003  -1.7983772330310011E-003
   2.8388927866542985E-002  -6.9741181631375881E-003  -4.9141050656356655E-003
   2.7781188719908756E-002  -5.2856594509245181E-003  -9.7120098053096182E-003
   2.7550959460842184E-002  -8.4068309012808040E-003   5.1968365681490658E-003
   2.5530627291654340E-002  -7.8702938390917687E-003   5.8741823891165224E-003
   2.3510295122466551E-002  -7.1244013761921354E-003   5.4085190720460918E-003
   2.1489962953278735E-002  -6.1691535125804470E-003   3.7998466169376077E-003
   1.9469630784090919E-002  -5.0045502482567450E-003   1.0481650237912365E-003
   2.4741375912558872E-002  -7.2084389896923673E-003   1.1170517775643540E-002
   2.1847618489848702E-002  -6.6066878340726998E-003   1.2080226922271509E-002
   1.8953861067138492E-002  -5.9919377915155225E-003   1.2386094699892491E-002
   1.6060103644428329E-002  -5.3641888620208633E-003   1.2088121108506766E-002
   1.3166346221718112E-002  -4.7234410455899711E-003   1.1186306148113945E-002
   2.1783394661596019E-002  -6.0100470781034310E-003   1.7307591333455691E-002
   1.8555379754394648E-002  -5.3430818290530757E-003   1.8253307291970181E-002
   1.5327364847193267E-002  -4.8594742068397978E-003   1.9134349650508670E-002
   1.2099349939991828E-002  -4.5592242114625009E-003   1.9950718409071956E-002
   8.8713350327905074E-003  -4.4423318429222536E-003   2.0702413567658992E-002
   1.8677015707953770E-002  -4.8116551665147167E-003   2.3608057241585101E-002
   1.5653911085292238E-002  -4.0794758240343398E-003   2.4393423498212052E-002
   1.2630806462630734E-002  -3.7270106221641008E-003   2.5653283923894377E-002
   9.6077018399692293E-003  -3.7542595609045340E-003   2.7387638518632407E-002
   6.5845972173076972E-003  -4.1612226402550911E-003   2.9596487282425588E-002
   2.7781188719908756E-002  -5.2856594509245181E-003  -9.7120098053096182E-003
   2.3354254258807550E-002  -4.2069445100849645E-003  -4.1863586393515728E-003
   1.8927319797706288E-002  -4.7534290264785173E-003   2.6040119226432568E-003
   1.4500385336604998E-002  -6.9251130001060507E-003   1.0659101880673372E-002
   1.0073450875503820E-002  -1.0721996430968161E-002   1.9978911234740160E-002
   1.9469630784090919E-002  -5.0045502482567450E-003   1.0481650237912365E-003
   1.6234909813618081E-002  -4.6909461012518694E-003   6.7413071114973411E-003
   1.3000188843145299E-002  -6.2886955895916641E-003   1.3554156784423399E-002
   9.7654678726723509E-003  -9.7977987132775446E-003   2.1486714042571131E-002
   6.5307469021995690E-003  -1.5218255472309483E-002   3.0538978885938040E-002
   1.3166346221718112E-002  -4.7234410455899711E-003   1.1186306148113945E-002
   1.0978826931058200E-002  -5.1749476924184412E-003   1.6760784979455212E-002
   8.7913076403983298E-003  -7.8239621527048386E-003   2.3309959585202128E-002
   6.6037883497383973E-003  -1.2670484426449156E-002   3.0833829965353346E-002
   4.4162690590784370E-003  -1.9714514513650805E-002   3.9332396119910573E-002
   8.8713350327905074E-003  -4.4423318429222536E-003   2.0702413567658992E-002
   7.5860056111278981E-003  -5.6589492835851796E-003   2.5872074964523456E-002
   6.3006761894653408E-003  -9.3592287158175552E-003   3.1871420324978229E-002
   5.0153467678028096E-003  -1.5543170139620265E-002   3.8700449649022264E-002
   3.7300173461401742E-003  -2.4210773554992349E-002   4.6359162936656206E-002
   6.5845972173076972E-003  -4.1612226402550911E-003   2.9596487282425588E-002
   6.0564458538271415E-003  -6.1429508747519179E-003   3.4075177066701601E-002
   5.5282944903465581E-003  -1.0894495278930577E-002   3.9238539003752015E-002
   5.0001431268660718E-003  -1.8415855852791228E-002   4.5086573093576471E-002
   4.4719917633854189E-003  -2.8707032596333892E-002   5.1619279336175605E-002
   7.5838804819821803E-002  -2.3434860351404518E-002   2.8591883036648835E-002
   7.3153277500849212E-002  -2.2243803493150749E-002   2.8457789492196239E-002
   7.0467750181876648E-002  -2.1212357275531307E-002   2.8485380613500144E-002
   6.7782222862904015E-002  -2.0340521698546200E-002   2.8674656400560911E-002
   6.5096695543931438E-002  -1.9628296762195685E-002   2.9025616853377900E-002
   6.9746360425706089E-002  -2.1085521729511281E-002   3.4463576042614019E-002
   6.7236646521311200E-002  -2.0192736048699755E-002   3.4105577522465624E-002
   6.4726932616916227E-002  -1.9382470449564593E-002   3.3937521165715995E-002
   6.2217218712521297E-002  -1.8654724932105834E-002   3.3959406972365103E-002
   5.9707504808126366E-002  -1.8009499496323494E-002   3.4171234942413142E-002
   6.3536947668229080E-002  -1.8736183107618043E-002   3.9998452591658018E-002
   6.1231304676054032E-002  -1.8141668604248776E-002   3.9493639654771706E-002
   5.8925661683878826E-002  -1.7552583623597975E-002   3.9207026378926549E-002
   5.6620018691703689E-002  -1.6968928165665437E-002   3.9138612764122262E-002
   5.4314375699528586E-002  -1.6390702230451359E-002   3.9288398810358865E-002
   5.7210566547390387E-002  -1.6386844485724777E-002   4.5196512683780395E-002
   5.5137251965077391E-002  -1.6090601159797858E-002   4.4621975889114582E-002
   5.3063937382764291E-002  -1.5722696797631226E-002   4.4293896253131668E-002
   5.0990622800451184E-002  -1.5283131399225056E-002   4.4212273775832048E-002
   4.8917308218138139E-002  -1.4771904964579197E-002   4.4377108457215604E-002
   5.0767217063190373E-002  -1.4037505863831568E-002   5.0057756318981683E-002
   4.8954488388381567E-002  -1.4039533715346830E-002   4.9490586225493904E-002
   4.7141759713572706E-002  -1.3892809971664671E-002   4.9198130788331684E-002
   4.5329031038763887E-002  -1.3597334632784640E-002   4.9180390007494662E-002
   4.3516302363955039E-002  -1.3153107698707034E-002   4.9437363882982976E-002
   6.5096695543931438E-002  -1.9628296762195685E-002   2.9025616853377900E-002
   6.2987898247963442E-002  -1.8982830187191657E-002   2.8746736677076640E-002
   6.0879100951995446E-002  -1.8311269694246318E-002   2.8630116198993805E-002
   5.8770303656027451E-002  -1.7613615283359578E-002   2.8675755419129437E-002
   5.6661506360059455E-002  -1.6889866954531263E-002   2.8883654337483355E-002
   5.9707504808126366E-002  -1.8009499496323494E-002   3.4171234942413142E-002
   5.7761807180043118E-002  -1.7396394570590099E-002   3.3911442852745680E-002
   5.5816109551959911E-002  -1.6765010583278096E-002   3.3815590400629411E-002
   5.3870411923876746E-002  -1.6115347534387280E-002   3.3883677586064267E-002
   5.1924714295793456E-002  -1.5447405423918092E-002   3.4115704409050429E-002
   5.4314375699528586E-002  -1.6390702230451359E-002   3.9288398810358865E-002
   5.2533457678663006E-002  -1.5809958953988595E-002   3.9039879950962357E-002
   5.0752539657797385E-002  -1.5218751472309874E-002   3.8956980668450089E-002
   4.8971621636931764E-002  -1.4617079785415429E-002   3.9039700962821736E-002
   4.7190703616066199E-002  -1.4004943893305061E-002   3.9288040834077387E-002
   4.8917308218138139E-002  -1.4771904964579197E-002   4.4377108457215604E-002
   4.7302849743823011E-002  -1.4223523337387092E-002   4.4132047971727408E-002
   4.5688391269507848E-002  -1.3672492361341819E-002   4.4054287002455936E-002
   4.4073932795192727E-002  -1.3118812036443507E-002   4.4143825549401355E-002
   4.2459474320877558E-002  -1.2562482362691960E-002   4.4400663612563833E-002
   4.3516302363955039E-002  -1.3153107698707034E-002   4.9437363882982976E-002
   4.2069983375523187E-002  -1.2637087720785589E-002   4.9187946915040248E-002
   4.0623664387091335E-002  -1.2126233250373486E-002   4.9107509402647131E-002
   3.9177345398659483E-002  -1.1620544287471432E-002   4.9196051345803807E-002
   3.7731026410227630E-002  -1.1120020832078858E-002   4.9453572744510177E-002
   5.6661506360059455E-002  -1.6889866954531263E-002   2.8883654337483355E-002
   5.4174247063808190E-002  -1.6156011629576472E-002   2.8518137686124545E-002
   5.1686987767556924E-002  -1.5428036230309611E-002   2.8343476621795594E-002
   4.9199728471305645E-002  -1.4705940756730977E-002   2.8359671144496237E-002
   4.6712469175054394E-002  -1.3989725208840509E-002   2.8566721254226601E-002
   5.1924714295793456E-002  -1.5447405423918092E-002   3.4115704409050429E-002
   4.9628374555308621E-002  -1.4770280042053940E-002   3.3750136888728854E-002
   4.7332034814823787E-002  -1.4093067178978319E-002   3.3575552892910199E-002
   4.5035695074338897E-002  -1.3415766834691069E-002   3.3591952421595128E-002
   4.2739355333854034E-002  -1.2738379009192724E-002   3.3799335474783088E-002
   4.7190703616066199E-002  -1.4004943893305061E-002   3.9288040834077387E-002
   4.5085411368821257E-002  -1.3384548454531353E-002   3.8928389851692252E-002
   4.2980119121576225E-002  -1.2758098127646708E-002   3.8759850331283860E-002
   4.0874826874331222E-002  -1.2125592912651053E-002   3.8782422272852050E-002
   3.8769534627086252E-002  -1.1487032809544634E-002   3.8996105676397066E-002
   4.2459474320877558E-002  -1.2562482362691960E-002   4.4400663612563833E-002
   4.0545357504345951E-002  -1.1998816867008877E-002   4.4052896575014953E-002
   3.8631240687814337E-002  -1.1423129076315201E-002   4.3896368936915967E-002
   3.6717123871282710E-002  -1.0835418990611146E-002   4.3931080698267386E-002
   3.4803007054751117E-002  -1.0235686609896641E-002   4.4157031859068802E-002
   3.7731026410227630E-002  -1.1120020832078858E-002   4.9453572744510177E-002
   3.6008212961882835E-002  -1.0613085279486262E-002   4.9123657058696701E-002
   3.4285399513538067E-002  -1.0088160024983805E-002   4.8985108709806935E-002
   3.2562586065193314E-002  -9.5452450685711565E-003   4.9037927697840905E-002
   3.0839772616848532E-002  -8.9843404102487590E-003   4.9282114022798251E-002
   4.6712469175054394E-002  -1.3989725208840509E-002   2.8566721254226601E-002
   4.4440699148802054E-002  -1.3266800745763974E-002   2.8149630706654438E-002
   4.2168929122549742E-002  -1.2524578526628208E-002   2.7856748679304183E-002
   3.9897159096297444E-002  -1.1763058551432021E-002   2.7688075172175627E-002
   3.7625389070045090E-002  -1.0982240820176625E-002   2.7643610185269063E-002
   4.2739355333854034E-002  -1.2738379009192724E-002   3.3799335474783088E-002
   4.0599316887078435E-002  -1.2053302572353625E-002   3.3410354869662817E-002
   3.8459278440302849E-002  -1.1352936394045166E-002   3.3160628903274342E-002
   3.6319239993527257E-002  -1.0637280474267194E-002   3.3050157575617231E-002
   3.4179201546751636E-002  -9.9063348130199458E-003   3.3078940886692165E-002
   3.8769534627086252E-002  -1.1487032809544634E-002   3.8996105676397066E-002
   3.6776273878297086E-002  -1.0839804398943081E-002   3.8631226999138679E-002
   3.4783013129507982E-002  -1.0181294261462227E-002   3.8420649079121870E-002
   3.2789752380718837E-002  -9.5115023971023647E-003   3.8364371916346146E-002
   3.0796491631929712E-002  -8.8304288058632108E-003   3.8462395510811959E-002
   3.4803007054751117E-002  -1.0235686609896641E-002   4.4157031859068802E-002
   3.2971570122458119E-002  -9.6263062255325799E-003   4.3812247095081927E-002
   3.1140133190165190E-002  -9.0096521288794314E-003   4.3636809206846365E-002
   2.9308696257872233E-002  -8.3857243199374244E-003   4.3630718194361783E-002
   2.7477259325579276E-002  -7.7545227987064480E-003   4.3793974057628048E-002
   3.0839772616848532E-002  -8.9843404102487590E-003   4.9282114022798251E-002
   2.9185205619561477E-002  -8.4128080521220228E-003   4.8953415157492908E-002
   2.7530638622274450E-002  -7.8380099962963856E-003   4.8809109286448105E-002
   2.5876071624987396E-002  -7.2599462427726871E-003   4.8849196409664314E-002
   2.4221504627700341E-002  -6.6786167915499073E-003   4.9073676527141119E-002
   3.7625389070045090E-002  -1.0982240820176625E-002   2.7643610185269063E-002
   3.5231500737149202E-002  -1.0204783174254328E-002   2.7098318826055179E-002
   3.2837612404253175E-002  -9.4533434550583550E-003   2.6683080425400851E-002
   3.0443724071357231E-002  -8.7279216625889069E-003   2.6397894983305692E-002
   2.8049835738461260E-002  -8.0285177968458799E-003   2.6242762499769756E-002
   3.4179201546751636E-002  -9.9063348130199458E-003   3.3078940886692165E-002
   3.1920419160712671E-002  -9.1761880826586872E-003   3.2580727359263373E-002
   2.9661636774673747E-002  -8.4629289555389897E-003   3.2222672766989757E-002
   2.7402854388634802E-002  -7.7665574316614291E-003   3.2004777109870791E-002
   2.5144072002595830E-002  -7.0870735110255545E-003   3.1927040387906391E-002
   3.0796491631929712E-002  -8.8304288058632108E-003   3.8462395510811959E-002
   2.8682921169343290E-002  -8.1475929910629907E-003   3.8020390138652965E-002
   2.6569350706756811E-002  -7.4725144560197215E-003   3.7728649678244630E-002
   2.4455780244170409E-002  -6.8051932007339479E-003   3.7587174129586350E-002
   2.2342209781583910E-002  -6.1456292252051736E-003   3.7595963492678408E-002
   2.7477259325579276E-002  -7.7545227987064480E-003   4.3793974057628048E-002
   2.5519006763040877E-002  -7.1189978994673775E-003   4.3417307164223741E-002
   2.3560754200502469E-002  -6.4820999565006268E-003   4.3201011159165192E-002
   2.1602501637964074E-002  -5.8438289698064128E-003   4.3145086042452270E-002
   1.9644249075425668E-002  -5.2041849393848205E-003   4.3249531814085390E-002
   2.4221504627700341E-002  -6.6786167915499073E-003   4.9073676527141119E-002
   2.2428675941805476E-002  -6.0904028078715977E-003   4.8771478435975846E-002
   2.0635847255910611E-002  -5.4916854569811713E-003   4.8639757209751944E-002
   1.8843018570015718E-002  -4.8824647388790096E-003   4.8678512848469163E-002
   1.7050189884120881E-002  -4.2627406535644674E-003   4.8887745352127698E-002
   2.8049835738461260E-002  -8.0285177968458799E-003   2.6242762499769756E-002
   2.5706630730834346E-002  -7.3126677056651879E-003   2.5667659927107289E-002
   2.3363425723207515E-002  -6.5379072368830782E-003   2.5036841526522413E-002
   2.1020220715580656E-002  -5.7042363904995785E-003   2.4350307298014934E-002
   1.8677015707953770E-002  -4.8116551665147167E-003   2.3608057241585101E-002
   2.5144072002595830E-002  -7.0870735110255545E-003   3.1927040387906391E-002
   2.2784291097677323E-002  -6.4086970104103580E-003   3.1531770831129291E-002
   2.0424510192758802E-002  -5.7156477465952482E-003   3.1159065307690803E-002
   1.8064729287840219E-002  -5.0079257195802737E-003   3.0808923817591843E-002
   1.5704948382921718E-002  -4.2855309293653443E-003   3.0481346360831996E-002
   2.2342209781583910E-002  -6.1456292252051736E-003   3.7595963492678408E-002
   2.0044132840635359E-002  -5.5047263151556391E-003   3.7336289337384670E-002
   1.7746055899686794E-002  -4.8933882563076403E-003   3.7177459076691566E-002
   1.5447978958738236E-002  -4.3116150486611909E-003   3.7119472710599510E-002
   1.3149902017789691E-002  -3.7594066922159719E-003   3.7162330239108060E-002
   1.9644249075425668E-002  -5.2041849393848205E-003   4.3249531814085390E-002
   1.7486155959708614E-002  -4.6007556199009203E-003   4.3081215445873906E-002
   1.5328062843991620E-002  -4.0711287660196993E-003   4.3092022833524715E-002
   1.3169969728274626E-002  -3.6153043777417751E-003   4.3281953977037949E-002
   1.1011876612557626E-002  -3.2332824550667105E-003   4.3651008876413426E-002
   1.7050189884120881E-002  -4.2627406535644674E-003   4.8887745352127698E-002
   1.5110360454897026E-002  -3.6967849246460349E-003   4.8766549156596839E-002
   1.3170531025673227E-002  -3.2488692757322579E-003   4.8902756578190099E-002
   1.1230701596449372E-002  -2.9189937068228727E-003   4.9296367616907200E-002
   9.2908721672255723E-003  -2.7071582179172271E-003   4.9947382272748087E-002
   1.8677015707953770E-002  -4.8116551665147167E-003   2.3608057241585101E-002
   1.5653911085292238E-002  -4.0794758240343398E-003   2.4393423498212052E-002
   1.2630806462630734E-002  -3.7270106221641008E-003   2.5653283923894377E-002
   9.6077018399692293E-003  -3.7542595609045340E-003   2.7387638518632407E-002
   6.5845972173076972E-003  -4.1612226402550911E-003   2.9596487282425588E-002
   1.5704948382921718E-002  -4.2855309293653443E-003   3.0481346360831996E-002
   1.3137797715451455E-002  -3.7739614001089938E-003   3.1257174650631159E-002
   1.0570647047981122E-002  -3.6987151559693954E-003   3.2470416681756598E-002
   8.0034963805108092E-003  -4.0597921969469306E-003   3.4121072454209644E-002
   5.4363457130405246E-003  -4.8571925230418422E-003   3.6209141967989300E-002
   1.3149902017789691E-002  -3.7594066922159719E-003   3.7162330239108060E-002
   1.1001624877782099E-002  -3.4684469761835368E-003   3.7872011417572432E-002
   8.8533477377745751E-003  -3.6704196897747871E-003   3.8982025909634996E-002
   6.7050705977669961E-003  -4.3653248329899898E-003   4.0492373715296313E-002
   4.5567934577594033E-003  -5.5531624058285378E-003   4.2403054834556003E-002
   1.1011876612557626E-002  -3.2332824550667105E-003   4.3651008876413426E-002
   9.2453925722843326E-003  -3.1629325522582463E-003   4.4237933799036240E-002
   7.4789085320110110E-003  -3.6421242235801857E-003   4.5188111607529335E-002
   5.7124244917376617E-003  -4.6708574690324956E-003   4.6501542301892636E-002
   3.9459404514643921E-003  -6.2491322886154832E-003   4.8178225882125135E-002
   9.2908721672255723E-003  -2.7071582179172271E-003   4.9947382272748087E-002
   7.8691007989580286E-003  -2.8574181283326783E-003   5.0354941795023089E-002
   6.4473294306904849E-003  -3.6138287573855288E-003   5.1088673775439464E-002
   5.0255580624229274E-003  -4.9763901050752929E-003   5.2148578213997543E-002
   3.6037866941553975E-003  -6.9451021714019845E-003   5.3534655110696772E-002
   6.5845972173076972E-003  -4.1612226402550911E-003   2.9596487282425588E-002
   6.0564458538271415E-003  -6.1429508747519179E-003   3.4075177066701601E-002
   5.5282944903465581E-003  -1.0894495278930577E-002   3.9238539003752015E-002
   5.0001431268660718E-003  -1.8415855852791228E-002   4.5086573093576471E-002
   4.4719917633854189E-003  -2.8707032596333892E-002   5.1619279336175605E-002
   5.4363457130405246E-003  -4.8571925230418422E-003   3.6209141967989300E-002
   5.4891667365380148E-003  -6.9909933605916130E-003   3.8349684281717811E-002
   5.5419877600353940E-003  -1.1361271935934170E-002   4.0967499216628900E-002
   5.5948087835327592E-003  -1.7968028249069845E-002   4.4062586772720791E-002
   5.6476298070302633E-003  -2.6811262299998528E-002   4.7634946949995038E-002
   4.5567934577594033E-003  -5.5531624058285378E-003   4.2403054834556003E-002
   4.9831873366425056E-003  -7.8390358464313081E-003   4.2738788109626086E-002
   5.4095812155255871E-003  -1.1828048592937998E-002   4.3344394474285466E-002
   5.8359750944086512E-003  -1.7520200645348687E-002   4.4219873928534291E-002
   6.2623689732916599E-003  -2.4915492003663164E-002   4.5365226472373288E-002
   3.9459404514643921E-003  -6.2491322886154832E-003   4.8178225882125135E-002
   4.5385076541407526E-003  -8.6870783322710032E-003   4.7242488550425468E-002
   5.1310748568170386E-003  -1.2294825249941597E-002   4.6369224776722978E-002
   5.7236420594933375E-003  -1.7072373041627197E-002   4.5558434561017616E-002
   6.3162092621696295E-003  -2.3019721707327800E-002   4.4810117903309465E-002
   3.6037866941553975E-003  -6.9451021714019845E-003   5.3534655110696772E-002
   4.1551276890326450E-003  -9.5351208181105873E-003   5.1860785604116555E-002
   4.7064686839098369E-003  -1.2761601906945308E-002   5.0041990123941282E-002
   5.2578096787871120E-003  -1.6624545437906008E-002   4.8078268670170510E-002
   5.8091506736643872E-003  -2.1123951410992436E-002   4.5969621242804237E-002
   5.0767217063190373E-002  -1.4037505863831568E-002   5.0057756318981683E-002
   4.8954488388381567E-002  -1.4039533715346830E-002   4.9490586225493904E-002
   4.7141759713572706E-002  -1.3892809971664671E-002   4.9198130788331684E-002
   4.5329031038763887E-002  -1.3597334632784640E-002   4.9180390007494662E-002
   4.3516302363955039E-002  -1.3153107698707034E-002   4.9437363882982976E-002
   4.4305288008133353E-002  -1.2681518234232803E-002   5.2727505934496655E-002
   4.2755359897128004E-002  -1.2537226442964844E-002   5.2348065305264202E-002
   4.1205431786122626E-002  -1.2302017576635460E-002   5.2219511147313324E-002
   3.9655503675117276E-002  -1.1975891635244568E-002   5.2341843460644188E-002
   3.8105575564111913E-002  -1.1558848618792139E-002   5.2715062245256628E-002
   3.7923168174724048E-002  -1.1325530604634038E-002   5.5572492452862804E-002
   3.6612212442478337E-002  -1.1034919170582802E-002   5.5322946767749764E-002
   3.5301256710232681E-002  -1.0711225181606290E-002   5.5300459368874275E-002
   3.3990300977987026E-002  -1.0354448637704388E-002   5.5505030256236661E-002
   3.2679345245741342E-002  -9.9645895388772443E-003   5.5936659429836999E-002
   3.1620857562962297E-002  -9.9695429750353004E-003   5.8592715874080388E-002
   3.0525046024432598E-002  -9.5326118982007602E-003   5.8415230612950286E-002
   2.9429234485902865E-002  -9.1204327865770721E-003   5.8440975453014132E-002
   2.8333422947373139E-002  -8.7330056401643732E-003   5.8669950394271954E-002
   2.7237611408843402E-002  -8.3703304589623218E-003   5.9102155436723966E-002
   2.5398356172848247E-002  -8.6135553454365077E-003   6.1788176198149469E-002
   2.4493860642990695E-002  -8.0303046258187738E-003   6.1624916840866129E-002
   2.3589365113133157E-002  -7.5296403915479371E-003   6.1641059399733023E-002
   2.2684869583275591E-002  -7.1115626426241710E-003   6.1836603874750318E-002
   2.1780374053418053E-002  -6.7760713790473992E-003   6.2211550265917903E-002
   4.3516302363955039E-002  -1.3153107698707034E-002   4.9437363882982976E-002
   4.2069983375523187E-002  -1.2637087720785589E-002   4.9187946915040248E-002
   4.0623664387091335E-002  -1.2126233250373486E-002   4.9107509402647131E-002
   3.9177345398659483E-002  -1.1620544287471432E-002   4.9196051345803807E-002
   3.7731026410227630E-002  -1.1120020832078858E-002   4.9453572744510177E-002
   3.8105575564111913E-002  -1.1558848618792139E-002   5.2715062245256628E-002
   3.6830326913079345E-002  -1.1098781530033935E-002   5.2447215421656174E-002
   3.5555078262046784E-002  -1.0643583371725343E-002   5.2352529817304982E-002
   3.4279829611014251E-002  -1.0193254143866518E-002   5.2431005432202638E-002
   3.3004580959981669E-002  -9.7477938464572977E-003   5.2682642266348861E-002
   3.2679345245741342E-002  -9.9645895388772443E-003   5.5936659429836999E-002
   3.1579348695807294E-002  -9.5604753392823094E-003   5.5650679327639077E-002
   3.0479352145873224E-002  -9.1609334930770336E-003   5.5542042208389431E-002
   2.9379355595939138E-002  -8.7659640002616043E-003   5.5610748072087685E-002
   2.8279359046005106E-002  -8.3755668608357925E-003   5.5856796918734242E-002
   2.7237611408843402E-002  -8.3703304589623218E-003   5.9102155436723966E-002
   2.6317048723707000E-002  -8.0221691485307250E-003   5.8798338632988612E-002
   2.5396486038570615E-002  -7.6782836144287797E-003   5.8676046575900524E-002
   2.4475923353434247E-002  -7.3386738566566349E-003   5.8735279265459739E-002
   2.3555360668297828E-002  -7.0033398752142595E-003   5.8976036701666221E-002
   2.1780374053418053E-002  -6.7760713790473992E-003   6.2211550265917903E-002
   2.1043426996778511E-002  -6.4838629577790297E-003   6.1890193337704846E-002
   2.0306479940138997E-002  -6.1956337357805397E-003   6.1754542919838312E-002
   1.9569532883499462E-002  -5.9113837130517384E-003   6.1804599012318231E-002
   1.8832585826859927E-002  -5.6311128895926710E-003   6.2040361615144590E-002
   3.7731026410227630E-002  -1.1120020832078858E-002   4.9453572744510177E-002
   3.6008212961882835E-002  -1.0613085279486262E-002   4.9123657058696701E-002
   3.4285399513538067E-002  -1.0088160024983805E-002   4.8985108709806935E-002
   3.2562586065193314E-002  -9.5452450685711565E-003   4.9037927697840905E-002
   3.0839772616848532E-002  -8.9843404102487590E-003   4.9282114022798251E-002
   3.3004580959981669E-002  -9.7477938464572977E-003   5.2682642266348861E-002
   3.1476981777032065E-002  -9.2971131371360760E-003   5.2374446773368444E-002
   2.9949382594082412E-002  -8.8311226735404424E-003   5.2265312474254658E-002
   2.8421783411132783E-002  -8.3498224556708620E-003   5.2355239369007496E-002
   2.6894184228183141E-002  -7.8532124835272166E-003   5.2644227457627146E-002
   2.8279359046005106E-002  -8.3755668608357925E-003   5.5856796918734242E-002
   2.6954667985393685E-002  -7.9811409947857653E-003   5.5567641670950907E-002
   2.5629976924782270E-002  -7.5740853220974125E-003   5.5485241473977404E-002
   2.4305285864170838E-002  -7.1543998427706784E-003   5.5609596327813537E-002
   2.2980594803559434E-002  -6.7220845568054521E-003   5.5940706232459586E-002
   2.3555360668297828E-002  -7.0033398752142595E-003   5.8976036701666221E-002
   2.2441271586967716E-002  -6.6651688524356281E-003   5.8703241751444181E-002
   2.1327182505637636E-002  -6.3170479706542437E-003   5.8644895708975131E-002
   2.0213093424307566E-002  -5.9589772298704394E-003   5.8800998574258891E-002
   1.9099004342977441E-002  -5.5909566300839098E-003   5.9171550347295480E-002
   1.8832585826859927E-002  -5.6311128895926710E-003   6.2040361615144590E-002
   1.7936792581754235E-002  -5.3491967100852411E-003   6.1781247014848217E-002
   1.7040999336648530E-002  -5.0600106192110472E-003   6.1744275179247826E-002
   1.6145206091542845E-002  -4.7635546169701240E-003   6.1929446108343333E-002
   1.5249412846437133E-002  -4.4598287033620898E-003   6.2336759802134767E-002
   3.0839772616848532E-002  -8.9843404102487590E-003   4.9282114022798251E-002
   2.9185205619561477E-002  -8.4128080521220228E-003   4.8953415157492908E-002
   2.7530638622274450E-002  -7.8380099962963856E-003   4.8809109286448105E-002
   2.5876071624987396E-002  -7.2599462427726871E-003   4.8849196409664314E-002
   2.4221504627700341E-002  -6.6786167915499073E-003   4.9073676527141119E-002
   2.6894184228183141E-002  -7.8532124835272166E-003   5.2644227457627146E-002
   2.5427174079144327E-002  -7.3461541870503411E-003   5.2355117706396198E-002
   2.3960163930105562E-002  -6.8335089961817919E-003   5.2256728657400914E-002
   2.2493153781066772E-002  -6.3152769109215273E-003   5.2349060310641446E-002
   2.1026143632027983E-002  -5.7914579312694503E-003   5.2632112666117614E-002
   2.2980594803559434E-002  -6.7220845568054521E-003   5.5940706232459586E-002
   2.1707469210743888E-002  -6.2795003219786871E-003   5.5693506791996222E-002
   2.0434343617928327E-002  -5.8290079960670732E-003   5.5643355761743465E-002
   1.9161218025112781E-002  -5.3706075790705861E-003   5.5790253141701517E-002
   1.7888092432297220E-002  -4.9042990709889378E-003   5.6134198931870188E-002
   1.9099004342977441E-002  -5.5909566300839098E-003   5.9171550347295480E-002
   1.8026091014360087E-002  -5.2128464569069638E-003   5.8968582414292717E-002
   1.6953177685742775E-002  -4.8245069959524170E-003   5.8968990599475635E-002
   1.5880264357125456E-002  -4.4259382472194801E-003   5.9172774902844262E-002
   1.4807351028508109E-002  -4.0171402107086196E-003   5.9579935324398682E-002
   1.5249412846437133E-002  -4.4598287033620898E-003   6.2336759802134767E-002
   1.4383039489993005E-002  -4.1461925918353515E-003   6.2180344573285695E-002
   1.3516666133548891E-002  -3.8200059958377192E-003   6.2233633170597574E-002
   1.2650292777104756E-002  -3.4812689153685857E-003   6.2496625594069891E-002
   1.1783919420660621E-002  -3.1299813504280793E-003   6.2969321843703074E-002
   2.4221504627700341E-002  -6.6786167915499073E-003   4.9073676527141119E-002
   2.2428675941805476E-002  -6.0904028078715977E-003   4.8771478435975846E-002
   2.0635847255910611E-002  -5.4916854569811713E-003   4.8639757209751944E-002
   1.8843018570015718E-002  -4.8824647388790096E-003   4.8678512848469163E-002
   1.7050189884120881E-002  -4.2627406535644674E-003   4.8887745352127698E-002
   2.1026143632027983E-002  -5.7914579312694503E-003   5.2632112666117614E-002
   1.9412394253586360E-002  -5.2638982061301576E-003   5.2402025795303175E-002
   1.7798644875144765E-002  -4.7344438844080794E-003   5.2359620674454127E-002
   1.6184895496703156E-002  -4.2030949661034517E-003   5.2504897303570400E-002
   1.4571146118261546E-002  -3.6698514512165659E-003   5.2837855682651813E-002
   1.7888092432297220E-002  -4.9042990709889378E-003   5.6134198931870188E-002
   1.6470627246332831E-002  -4.4373936043884121E-003   5.5967614510777280E-002
   1.5053162060368434E-002  -3.9772023118348904E-003   5.6005916724673657E-002
   1.3635696874404010E-002  -3.5237251933282303E-003   5.6249105573559229E-002
   1.2218231688439649E-002  -3.0769622488683313E-003   5.6697181057433765E-002
   1.4807351028508109E-002  -4.0171402107086196E-003   5.9579935324398682E-002
   1.3603374920044840E-002  -3.6108890026468193E-003   5.9468244582397731E-002
   1.2399398811581600E-002  -3.2199607392616944E-003   5.9578645360409674E-002
   1.1195422703118334E-002  -2.8443554205528961E-003   5.9911137658435136E-002
   9.9914465946550866E-003  -2.4840730465202077E-003   6.0465721476473347E-002
   1.1783919420660621E-002  -3.1299813504280793E-003   6.2969321843703074E-002
   1.0810637274722451E-002  -2.7843844009052265E-003   6.2903916010164651E-002
   9.8373551287842809E-003  -2.4627191666885262E-003   6.3077806581663065E-002
   8.8640729828461107E-003  -2.1649856477775967E-003   6.3490993558198622E-002
   7.8907908369079127E-003  -1.8911838441723061E-003   6.4143476939771182E-002
   1.7050189884120881E-002  -4.2627406535644674E-003   4.8887745352127698E-002
   1.5110360454897026E-002  -3.6967849246460349E-003   4.8766549156596839E-002
   1.3170531025673227E-002  -3.2488692757322579E-003   4.8902756578190099E-002
   1.1230701596449372E-002  -2.9189937068228727E-003   4.9296367616907200E-002
   9.2908721672255723E-003  -2.7071582179172271E-003   4.9947382272748087E-002
   1.4571146118261546E-002  -3.6698514512165659E-003   5.2837855682651813E-002
   1.2887308291277086E-002  -3.1935108156065373E-003   5.2724506590702769E-002
   1.1203470464292625E-002  -2.8328705351338135E-003   5.2865737086108672E-002
   9.5196326373081785E-003  -2.5879306097987831E-003   5.3261547168869258E-002
   7.8357948103237041E-003  -2.4586910396006134E-003   5.3911936838984709E-002
   1.2218231688439649E-002  -3.0769622488683313E-003   5.6697181057433765E-002
   1.0787561433925286E-002  -2.6902367065670674E-003   5.6594018793933887E-002
   9.3568911794109227E-003  -2.4168717945357854E-003   5.6742612088019534E-002
   7.9262209248965598E-003  -2.2568675127747975E-003   5.7142960939690582E-002
   6.4955506703821969E-003  -2.2102238612836667E-003   5.7795065348947017E-002
   9.9914465946550866E-003  -2.4840730465202077E-003   6.0465721476473347E-002
   8.8111198828415976E-003  -2.1869625975274726E-003   6.0375085766289860E-002
   7.6307931710281086E-003  -2.0008730539376601E-003   6.0533381583922623E-002
   6.4504664592146283E-003  -1.9258044157507599E-003   6.0940608929371545E-002
   5.2701397474011306E-003  -1.9617566829667199E-003   6.1596767802636676E-002
   7.8907908369079127E-003  -1.8911838441723061E-003   6.4143476939771182E-002
   6.9579836380260496E-003  -1.6836884884880998E-003   6.4067707507771021E-002
   6.0251764391441726E-003  -1.5848743133396459E-003   6.4238045573817848E-002
   5.0923692402622817E-003  -1.5947413187266946E-003   6.4654491137911718E-002
   4.1595620413804046E-003  -1.7132895046499952E-003   6.5317044200052687E-002
   9.2908721672255723E-003  -2.7071582179172271E-003   4.9947382272748087E-002
   7.8691007989580286E-003  -2.8574181283326783E-003   5.0354941795023089E-002
   6.4473294306904849E-003  -3.6138287573855288E-003   5.1088673775439464E-002
   5.0255580624229274E-003  -4.9763901050752929E-003   5.2148578213997543E-002
   3.6037866941553975E-003  -6.9451021714019845E-003   5.3534655110696772E-002
   7.8357948103237041E-003  -2.4586910396006134E-003   5.3911936838984709E-002
   6.7143447519848881E-003  -2.6438156588059480E-003   5.3848889058853711E-002
   5.5928946936460860E-003  -3.3419683016808754E-003   5.4060311440438796E-002
   4.4714446353072562E-003  -4.5531489682255621E-003   5.4546203983739786E-002
   3.3499945769684680E-003  -6.2773576584393975E-003   5.5306566688756664E-002
   6.4955506703821969E-003  -2.2102238612836667E-003   5.7795065348947017E-002
   5.6227196255465434E-003  -2.4302131892786905E-003   5.7354532961377908E-002
   4.7498885807108551E-003  -3.0701078459758613E-003   5.7136768439099428E-002
   3.8770575358752120E-003  -4.1299078313751583E-003   5.7141771782110856E-002
   3.0042264910395133E-003  -5.6096131454765885E-003   5.7369542990412914E-002
   5.2701397474011306E-003  -1.9617566829667199E-003   6.1596767802636676E-002
   4.5942254196429978E-003  -2.2166107197514190E-003   6.0871873502596749E-002
   3.9183110918848772E-003  -2.7982473902710275E-003   6.0318044771421560E-002
   3.2423967641267365E-003  -3.7066666945249800E-003   5.9935281609111157E-002
   2.5664824363686237E-003  -4.9418686325136685E-003   5.9723584015665493E-002
   4.1595620413804046E-003  -1.7132895046499952E-003   6.5317044200052687E-002
   3.6288621342742272E-003  -2.0030082502245916E-003   6.4400910682509083E-002
   3.0981622271680637E-003  -2.5263869345661105E-003   6.3604140437405199E-002
   2.5674623200618793E-003  -3.2834255576750584E-003   6.2926733464740342E-002
   2.0367624129557227E-003  -4.2741241195509705E-003   6.2368689764514817E-002
   3.6037866941553975E-003  -6.9451021714019845E-003   5.3534655110696772E-002
   4.1551276890326450E-003  -9.5351208181105873E-003   5.1860785604116555E-002
   4.7064686839098369E-003  -1.2761601906945308E-002   5.0041990123941282E-002
   5.2578096787871120E-003  -1.6624545437906008E-002   4.8078268670170510E-002
   5.8091506736643872E-003  -2.1123951410992436E-002   4.5969621242804237E-002
   3.3499945769684680E-003  -6.2773576584393975E-003   5.5306566688756664E-002
   3.7738012591756048E-003  -8.5457815991576980E-003   5.2952180414627070E-002
   4.1976079413827416E-003  -1.1389608017215364E-002   5.0487651488752672E-002
   4.6214146235898229E-003  -1.4808836912611374E-002   4.7912979911133441E-002
   5.0452213057970430E-003  -1.8803468285346847E-002   4.5228165681769017E-002
   3.0042264910395133E-003  -5.6096131454765885E-003   5.7369542990412914E-002
   3.3352821824269643E-003  -7.5564423802049752E-003   5.4395699913521167E-002
   3.6663378738144431E-003  -1.0017614127485197E-002   5.1346497506735034E-002
   3.9973935652018663E-003  -1.2993128387317185E-002   4.8221935770053764E-002
   4.3284492565893729E-003  -1.6482985159701036E-002   4.5022014703478552E-002
   2.5664824363686237E-003  -4.9418686325136685E-003   5.9723584015665493E-002
   2.8395704587867738E-003  -6.5671031612519470E-003   5.6191344100798769E-002
   3.1126584812049239E-003  -8.6456202377552527E-003   5.2618528177887938E-002
   3.3857465036230810E-003  -1.1177419862022885E-002   4.9005136246932847E-002
   3.6588345260412519E-003  -1.4162502034055335E-002   4.5351168307933870E-002
   2.0367624129557227E-003  -4.2741241195509705E-003   6.2368689764514817E-002
   2.2866660882549794E-003  -5.5777639422992520E-003   5.8339112976459884E-002
   2.5365697635542361E-003  -7.2736263480252528E-003   5.4303743502211343E-002
   2.7864734388534720E-003  -9.3617113367284038E-003   5.0262581341769474E-002
   3.0363771141527773E-003  -1.1842018908409635E-002   4.6215626495133666E-002
   2.5398356172848247E-002  -8.6135553454365077E-003   6.1788176198149469E-002
   2.4493860642990695E-002  -8.0303046258187738E-003   6.1624916840866129E-002
   2.3589365113133157E-002  -7.5296403915479371E-003   6.1641059399733023E-002
   2.2684869583275591E-002  -7.1115626426241710E-003   6.1836603874750318E-002
   2.1780374053418053E-002  -6.7760713790473992E-003   6.2211550265917903E-002
   1.9172256872853038E-002  -5.9605625449326016E-003   6.3353854910392471E-002
   1.8459155298113331E-002  -5.6484525033596855E-003   6.3055643215747137E-002
   1.7746053723373581E-002  -5.3736346462791573E-003   6.2960817515187062E-002
   1.7032952148633859E-002  -5.1361089736906285E-003   6.3069377808712329E-002
   1.6319850573894124E-002  -4.9358754855945985E-003   6.3381324096322939E-002
   1.2859152531447926E-002  -3.3075697444286400E-003   6.4625745794163275E-002
   1.2361428989761052E-002  -3.2666003809007638E-003   6.4237876063010402E-002
   1.1863705448074191E-002  -3.2176289010102527E-003   6.4077376403878283E-002
   1.1365981906387317E-002  -3.1606553047571935E-003   6.4144246816766420E-002
   1.0868258364700456E-002  -3.0956795921416036E-003   6.4438487301674938E-002
   6.4590431486328086E-003  -6.5457694392470622E-004   6.5603848849461494E-002
   6.2006817179338768E-003  -8.8474825844167548E-004   6.5171615382656339E-002
   5.9423202872349243E-003  -1.0616231557413550E-003   6.4990736065806756E-002
   5.6839588565359891E-003  -1.1852016358237603E-003   6.5061210898912467E-002
   5.4255974258370400E-003  -1.2554836986887891E-003   6.5383039881973734E-002
  -2.8071275592227163E-005   1.9984158565792276E-003   6.6288164076287459E-002
  -2.3086517368195447E-005   1.4971038640172185E-003   6.5856861174684700E-002
  -1.8101759144167201E-005   1.0943825895274040E-003   6.5700896500972439E-002
  -1.3117000920135485E-005   7.9025203310984643E-004   6.5820270055150565E-002
  -8.1322426961072392E-006   5.8471219476419201E-004   6.6214981837219244E-002
   2.1780374053418053E-002  -6.7760713790473992E-003   6.2211550265917903E-002
   2.1043426996778511E-002  -6.4838629577790297E-003   6.1890193337704846E-002
   2.0306479940138997E-002  -6.1956337357805397E-003   6.1754542919838312E-002
   1.9569532883499462E-002  -5.9113837130517384E-003   6.1804599012318231E-002
   1.8832585826859927E-002  -5.6311128895926710E-003   6.2040361615144590E-002
   1.6319850573894124E-002  -4.9358754855945985E-003   6.3381324096322939E-002
   1.5768427364739164E-002  -4.7513424102641616E-003   6.3069671855423712E-002
   1.5217004155584204E-002  -4.5609179759735219E-003   6.2943360799147030E-002
   1.4665580946429242E-002  -4.3646021827223602E-003   6.3002390927493032E-002
   1.4114157737274279E-002  -4.1623950305109680E-003   6.3246762240461968E-002
   1.0868258364700456E-002  -3.0956795921416036E-003   6.4438487301674938E-002
   1.0501993677306289E-002  -3.0188218627494878E-003   6.4146410306319526E-002
   1.0135728989912128E-002  -2.9262022161666637E-003   6.4039309169863085E-002
   9.7694643025179693E-003  -2.8178206523931468E-003   6.4117183892305543E-002
   9.4031996151238070E-003  -2.6936771714290708E-003   6.4380034473646902E-002
   5.4255974258370400E-003  -1.2554836986887891E-003   6.5383039881973734E-002
   5.2441259344799037E-003  -1.2863013152346614E-003   6.5120408690392539E-002
   5.0626544431227665E-003  -1.2914864563597257E-003   6.5042388031986309E-002
   4.8811829517656311E-003  -1.2710391220639066E-003   6.5148977906755293E-002
   4.6997114604084879E-003  -1.2249593123471875E-003   6.5440178314699449E-002
  -8.1322426961072392E-006   5.8471219476419201E-004   6.6214981837219244E-002
  -5.1758637399958174E-006   4.4621923228008176E-004   6.5991667007642363E-002
  -2.2194847838843956E-006   3.4322930344725389E-004   6.5952597385516787E-002
   7.3689417222355669E-007   2.7574240826528859E-004   6.6097772970842641E-002
   3.6932731283384479E-006   2.4375854673458486E-004   6.6427193763619719E-002
   1.8832585826859927E-002  -5.6311128895926710E-003   6.2040361615144590E-002
   1.7936792581754235E-002  -5.3491967100852411E-003   6.1781247014848217E-002
   1.7040999336648530E-002  -5.0600106192110472E-003   6.1744275179247826E-002
   1.6145206091542845E-002  -4.7635546169701240E-003   6.1929446108343333E-002
   1.5249412846437133E-002  -4.4598287033620898E-003   6.2336759802134767E-002
   1.4114157737274279E-002  -4.1623950305109680E-003   6.3246762240461968E-002
   1.3441012988492575E-002  -3.9544880802277749E-003   6.3002012413503478E-002
   1.2767868239710881E-002  -3.7410728927621539E-003   6.2980416814496967E-002
   1.2094723490929169E-002  -3.5221494681143550E-003   6.3181975443442479E-002
   1.1421578742147484E-002  -3.2977178062836288E-003   6.3606688300340108E-002
   9.4031996151238070E-003  -2.6936771714290708E-003   6.4380034473646902E-002
   8.9537148259221898E-003  -2.5597794503704890E-003   6.4147887745842014E-002
   8.5042300367205795E-003  -2.4221351663135243E-003   6.4139906709245242E-002
   8.0547452475189640E-003  -2.2807443192584716E-003   6.4356091363856616E-002
   7.6052604583173589E-003  -2.1356069092049734E-003   6.4796441709676064E-002
   4.6997114604084879E-003  -1.2249593123471875E-003   6.5440178314699449E-002
   4.4748980940430561E-003  -1.1650708205130020E-003   6.5218873011864034E-002
   4.2500847276776390E-003  -1.1031974398649572E-003   6.5222744863492721E-002
   4.0252713613122115E-003  -1.0393391704025343E-003   6.5451793869585703E-002
   3.8004579949467831E-003  -9.7349601212624870E-004   6.5906020030142995E-002
   3.6932731283384479E-006   2.4375854673458486E-004   6.6427193763619719E-002
   4.5627928551943142E-006   2.2963780934426303E-004   6.6214968211569469E-002
   5.4323125820501805E-006   2.1574028658395694E-004   6.6228931277239445E-002
   6.3018323089060468E-006   2.0206597845303167E-004   6.6469082960629769E-002
   7.1713520357619132E-006   1.8861488495225398E-004   6.6935423261740512E-002
   1.5249412846437133E-002  -4.4598287033620898E-003   6.2336759802134767E-002
   1.4383039489993005E-002  -4.1461925918353515E-003   6.2180344573285695E-002
   1.3516666133548891E-002  -3.8200059958377192E-003   6.2233633170597574E-002
   1.2650292777104756E-002  -3.4812689153685857E-003   6.2496625594069891E-002
   1.1783919420660621E-002  -3.1299813504280793E-003   6.2969321843703074E-002
   1.1421578742147484E-002  -3.2977178062836288E-003   6.3606688300340108E-002
   1.0766479334035205E-002  -3.0669111875113730E-003   6.3473255094707942E-002
   1.0111379925922946E-002  -2.8288628920384029E-003   6.3552665959578591E-002
   9.4562805178106772E-003  -2.5835729198647669E-003   6.3844920894952362E-002
   8.8011811096984083E-003  -2.3310412709903749E-003   6.4350019900829059E-002
   7.6052604583173589E-003  -2.1356069092049734E-003   6.4796441709676064E-002
   7.1645752428792925E-003  -1.9876297831872280E-003   6.4680681719489985E-002
   6.7238900274412400E-003  -1.8377197882393018E-003   6.4780906044149211E-002
   6.2832048120031788E-003  -1.6858769243611130E-003   6.5097114683653881E-002
   5.8425195965651211E-003  -1.5321011915527261E-003   6.5629307638003870E-002
   3.8004579949467831E-003  -9.7349601212624870E-004   6.5906020030142995E-002
   3.5773272165252838E-003  -9.0834837886316633E-004   6.5802624447632491E-002
   3.3541964381037783E-003  -8.4657668444020409E-004   6.5918353424309684E-002
   3.1310656596822794E-003  -7.8818092885748776E-004   6.6253206960174685E-002
   2.9079348812607736E-003  -7.3316111211504942E-004   6.6807185055227480E-002
   7.1713520357619132E-006   1.8861488495225398E-004   6.6935423261740512E-002
   4.7352549731628779E-006   1.7093302546095090E-004   6.6839083279135181E-002
   2.2991579105534343E-006   1.4456641935911563E-004   6.6965008100060119E-002
  -1.3693915204907037E-007   1.0951506664619304E-004   6.7313197724514939E-002
  -2.5730362146550445E-006   6.5778967322738247E-005   6.7883652152500029E-002
   1.1783919420660621E-002  -3.1299813504280793E-003   6.2969321843703074E-002
   1.0810637274722451E-002  -2.7843844009052265E-003   6.2903916010164651E-002
   9.8373551287842809E-003  -2.4627191666885262E-003   6.3077806581663065E-002
   8.8640729828461107E-003  -2.1649856477775967E-003   6.3490993558198622E-002
   7.8907908369079127E-003  -1.8911838441723061E-003   6.4143476939771182E-002
   8.8011811096984083E-003  -2.3310412709903749E-003   6.4350019900829059E-002
   8.0682771872445241E-003  -2.0820409516688620E-003   6.4290654658010593E-002
   7.3353732647906261E-003  -1.8473449681534193E-003   6.4472749457123724E-002
   6.6024693423367385E-003  -1.6269533204438247E-003   6.4896304298168450E-002
   5.8695654198828301E-003  -1.4208660085400782E-003   6.5561319181144662E-002
   5.8425195965651211E-003  -1.5321011915527261E-003   6.5629307638003870E-002
   5.3521575344899763E-003  -1.3796975024321645E-003   6.5585610365405500E-002
   4.8617954724148350E-003  -1.2319707696180765E-003   6.5785536771633304E-002
   4.3714334103396868E-003  -1.0889209931099382E-003   6.6229086856686908E-002
   3.8810713482645490E-003  -9.5054817290801674E-004   6.6916260620566548E-002
   2.9079348812607736E-003  -7.3316111211504942E-004   6.6807185055227480E-002
   2.6622783164588389E-003  -6.7735405319574449E-004   6.6788783132349053E-002
   2.4166217516568911E-003  -6.1659657108296267E-004   6.7016168525191266E-002
   2.1709651868549607E-003  -5.5088866577621999E-004   6.7489341233753719E-002
   1.9253086220530086E-003  -4.8023033727587205E-004   6.8208301258036674E-002
  -2.5730362146550445E-006   6.5778967322738247E-005   6.7883652152500029E-002
  -1.3604668489264338E-006   2.4989396040953071E-005   6.7900172958841432E-002
  -1.4789748319088414E-007  -1.2223725475990488E-006   6.8164644717797762E-002
   1.0646718825446655E-006  -1.2856338442716886E-005   6.8677067429369215E-002
   2.2772412482732762E-006  -9.9125016437273672E-006   6.9437441093555319E-002
   7.8907908369079127E-003  -1.8911838441723061E-003   6.4143476939771182E-002
   6.9579836380260496E-003  -1.6836884884880998E-003   6.4067707507771021E-002
   6.0251764391441726E-003  -1.5848743133396459E-003   6.4238045573817848E-002
   5.0923692402622817E-003  -1.5947413187266946E-003   6.4654491137911718E-002
   4.1595620413804046E-003  -1.7132895046499952E-003   6.5317044200052687E-002
   5.8695654198828301E-003  -1.4208660085400782E-003   6.5561319181144662E-002
   5.1795884297998890E-003  -1.2631183473288399E-003   6.5419475732246213E-002
   4.4896114397169340E-003  -1.1877456516952434E-003   6.5517185202898787E-002
   3.7996344496339894E-003  -1.1947479216397952E-003   6.5854447593101967E-002
   3.1096574595510379E-003  -1.2841251571629186E-003   6.6431262902856503E-002
   3.8810713482645490E-003  -9.5054817290801674E-004   6.6916260620566548E-002
   3.4273699884843981E-003  -8.4254820616924686E-004   6.6734649369727644E-002
   2.9736686287042506E-003  -7.9061699005117392E-004   6.6786036459943521E-002
   2.5199672689241032E-003  -7.9475452455300688E-004   6.7070421891214121E-002
   2.0662659091439523E-003  -8.5496080967567556E-004   6.7587805663539363E-002
   1.9253086220530086E-003  -4.8023033727587205E-004   6.8208301258036674E-002
   1.7013283140795577E-003  -4.2197806500993140E-004   6.8013228420214844E-002
   1.4773480061061077E-003  -3.9348832840715997E-004   6.8044599344951898E-002
   1.2533676981326567E-003  -3.9476112746616304E-004   6.8302414032247460E-002
   1.0293873901591928E-003  -4.2579646218840472E-004   6.8786672482101713E-002
   2.2772412482732762E-006  -9.9125016437273672E-006   6.9437441093555319E-002
   1.4634065853835754E-006  -1.4079238503938996E-006   6.9255212883708506E-002
   6.4957192249734397E-007   3.6403332372980657E-006   6.9292873857924042E-002
  -1.6426274039582633E-007   5.2322696206807962E-006   6.9550424016202317E-002
  -9.7809740327858830E-007   3.3678852986440688E-006   7.0027863358543052E-002
   4.1595620413804046E-003  -1.7132895046499952E-003   6.5317044200052687E-002
   3.6288621342742272E-003  -2.0030082502245916E-003   6.4400910682509083E-002
   3.0981622271680637E-003  -2.5263869345661105E-003   6.3604140437405199E-002
   2.5674623200618793E-003  -3.2834255576750584E-003   6.2926733464740342E-002
   2.0367624129557227E-003  -4.2741241195509705E-003   6.2368689764514817E-002
   3.1096574595510379E-003  -1.2841251571629186E-003   6.6431262902856503E-002
   2.7016711638408603E-003  -1.5021555782815943E-003   6.5320697083501800E-002
   2.2936848681307034E-003  -1.8951174050138020E-003   6.4336195214500180E-002
   1.8856985724205431E-003  -2.4630106373601246E-003   6.3477757295851284E-002
   1.4777122767103690E-003  -3.2058352753203678E-003   6.2745383327555526E-002
   2.0662659091439523E-003  -8.5496080967567556E-004   6.7587805663539363E-002
   1.7876939027434979E-003  -1.0013029063386525E-003   6.6341536075527036E-002
   1.5091218963430297E-003  -1.2638478754617016E-003   6.5228031115781002E-002
   1.2305498899425633E-003  -1.6425957170456314E-003   6.4247290784301553E-002
   9.5197788354210722E-004  -2.1375464310898762E-003   6.3399315081088647E-002
   1.0293873901591928E-003  -4.2579646218840472E-004   6.8786672482101713E-002
   8.8693035098211248E-004  -5.0045023439540537E-004   6.7463427658584360E-002
   7.4447331180504776E-004  -6.3257834590983025E-004   6.6279648141247774E-002
   6.0201627262798174E-004  -8.2218079673102885E-004   6.5235333930090900E-002
   4.5955923345090272E-004  -1.0692575868594401E-003   6.4330485025114501E-002
  -9.7809740327858830E-007   3.3678852986440688E-006   7.0027863358543052E-002
  -6.1949144326139960E-007   4.0243754717561586E-007   6.8686371832674564E-002
  -2.6088548323727201E-007  -1.3088163573482525E-006   6.7491046290899970E-002
   9.7720476786855581E-008  -1.7658764164402152E-006   6.6441886733219380E-002
   4.5632643680404428E-007  -9.6874262878188233E-007   6.5538893159633016E-002
   2.0367624129557227E-003  -4.2741241195509705E-003   6.2368689764514817E-002
   2.2866660882549794E-003  -5.5777639422992520E-003   5.8339112976459884E-002
   2.5365697635542361E-003  -7.2736263480252528E-003   5.4303743502211343E-002
   2.7864734388534720E-003  -9.3617113367284038E-003   5.0262581341769474E-002
   3.0363771141527773E-003  -1.1842018908409635E-002   4.6215626495133666E-002
   1.4777122767103690E-003  -3.2058352753203678E-003   6.2745383327555526E-002
   1.7076395837365005E-003  -4.1832870252176968E-003   5.8391665899879319E-002
   1.9375668907626528E-003  -5.4550615933758317E-003   5.4003788421850274E-002
   2.1674941977888051E-003  -7.0211589797953000E-003   4.9581750893469473E-002
   2.3974215048149505E-003  -8.8815791844751857E-003   4.5125553314734557E-002
   9.5197788354210722E-004  -2.1375464310898762E-003   6.3399315081088647E-002
   1.1335614581363049E-003  -2.7888101081363081E-003   5.8819356778507442E-002
   1.3151450327304956E-003  -3.6364968387268826E-003   5.4176871061415000E-002
   1.4967286073246950E-003  -4.6806066228617590E-003   4.9471857929811680E-002
   1.6783121819188979E-003  -5.9211394605405143E-003   4.4704317383696290E-002
   4.5955923345090272E-004  -1.0692575868594401E-003   6.4330485025114501E-002
   5.6443171145433881E-004  -1.3943331910550583E-003   5.9622185612345294E-002
   6.6930418945778010E-004  -1.8179320840776975E-003   5.4822991420906041E-002
   7.7417666746121836E-004  -2.3400542659281036E-003   4.9932902450796998E-002
   8.7904914546464361E-004  -2.9606997366058430E-003   4.4951918702016841E-002
   4.5632643680404428E-007  -9.6874262878188233E-007   6.5538893159633016E-002
   2.5034369064563800E-007   1.4372602663570433E-007   6.0800152401392471E-002
   4.4360944480292819E-008   6.3267057143212568E-007   5.5942149500322946E-002
  -1.6162180168331763E-007   4.9809100492737013E-007   5.0964884456424608E-002
  -3.6760454784345864E-007  -2.6001267139363904E-007   4.5868357269696958E-002
  -2.8071275592227163E-005   1.9984158565792276E-003   6.6288164076287459E-002
  -2.3086517368195447E-005   1.4971038640172185E-003   6.5856861174684700E-002
  -1.8101759144167201E-005   1.0943825895274040E-003   6.5700896500972439E-002
  -1.3117000920135485E-005   7.9025203310984643E-004   6.5820270055150565E-002
  -8.1322426961072392E-006   5.8471219476419201E-004   6.6214981837219244E-002
  -6.5099976679986529E-003   2.7705125823649368E-003   6.4756699311608712E-002
  -6.2426747552538145E-003   2.4905243456711246E-003   6.4480383471137409E-002
  -5.9753518425089674E-003   2.2531574498131646E-003   6.4453405711817263E-002
  -5.7080289297641185E-003   2.0584118947912025E-003   6.4675766033648177E-002
  -5.4407060170192818E-003   1.9062876806050788E-003   6.5147464436630248E-002
  -1.2894542955357937E-002   3.5426093081505350E-003   6.3474542991416028E-002
  -1.2390882034831631E-002   3.4839448273248086E-003   6.3297244834840199E-002
  -1.1887221114305329E-002   3.4119323100988280E-003   6.3343284612675924E-002
  -1.1383560193779028E-002   3.3265717564725829E-003   6.3612662324923547E-002
  -1.0879899273252721E-002   3.2278631664460766E-003   6.4105377971582875E-002
  -1.9181707137670038E-002   4.3147060339361609E-003   6.2441695115709774E-002
  -1.8467708356101620E-002   4.4773653089786453E-003   6.2307445265792911E-002
  -1.7753709574533254E-002   4.5707071703844568E-003   6.2370533203548420E-002
  -1.7039710792964867E-002   4.5947316181540621E-003   6.2630958928976369E-002
  -1.6325712011396473E-002   4.5494386522871022E-003   6.3088722442076736E-002
  -2.5371490214934962E-002   5.0868027597218424E-003   6.1658155684489624E-002
  -2.4473153719063868E-002   5.4707857906323709E-003   6.1510984763995691E-002
  -2.3574817223192737E-002   5.7294820306701966E-003   6.1535151484434836E-002
  -2.2676480727321618E-002   5.8628914798354165E-003   6.1730655845806948E-002
  -2.1778144231450511E-002   5.8710141381280168E-003   6.2097497848112138E-002
  -8.1322426961072392E-006   5.8471219476419201E-004   6.6214981837219244E-002
  -5.1758637399958174E-006   4.4621923228008176E-004   6.5991667007642363E-002
  -2.2194847838843956E-006   3.4322930344725389E-004   6.5952597385516787E-002
   7.3689417222355669E-007   2.7574240826528859E-004   6.6097772970842641E-002
   3.6932731283384479E-006   2.4375854673458486E-004   6.6427193763619719E-002
  -5.4407060170192818E-003   1.9062876806050788E-003   6.5147464436630248E-002
  -5.2537326689461586E-003   1.7825294471114084E-003   6.4942108713908625E-002
  -5.0667593208730353E-003   1.6728818341662788E-003   6.4920541721969607E-002
  -4.8797859727999146E-003   1.5773448417699884E-003   6.5082763460813237E-002
  -4.6928126247267957E-003   1.4959184699223638E-003   6.5428773930439554E-002
  -1.0879899273252721E-002   3.2278631664460766E-003   6.4105377971582875E-002
  -1.0509365432731309E-002   3.1188396619426101E-003   6.3896588942613991E-002
  -1.0138831592209898E-002   3.0025343648854216E-003   6.3871132167759137E-002
  -9.7682977516884827E-003   2.8789472752745789E-003   6.4029007647018174E-002
  -9.3977639111670758E-003   2.7480783931100594E-003   6.4370215380391185E-002
  -1.6325712011396473E-002   4.5494386522871022E-003   6.3088722442076736E-002
  -1.5772074155095475E-002   4.4551498767738187E-003   6.2855107693758322E-002
  -1.5218436298794470E-002   4.3321868956045055E-003   6.2804368722885306E-002
  -1.4664798442493467E-002   4.1805497087792241E-003   6.2936505529457468E-002
  -1.4111160586192467E-002   4.0002383162977689E-003   6.3251518113474695E-002
  -2.1778144231450511E-002   5.8710141381280168E-003   6.2097497848112138E-002
  -2.1041858836038631E-002   5.7914600916050829E-003   6.1817664967341923E-002
  -2.0305573440626761E-002   5.6618394263236033E-003   6.1720251387348213E-002
  -1.9569288045214892E-002   5.4821521422839005E-003   6.1805257108130965E-002
  -1.8833002649803005E-002   5.2523982394854785E-003   6.2072682129690193E-002
   3.6932731283384479E-006   2.4375854673458486E-004   6.6427193763619719E-002
   4.5627928551943142E-006   2.2963780934426303E-004   6.6214968211569469E-002
   5.4323125820501805E-006   2.1574028658395694E-004   6.6228931277239445E-002
   6.3018323089060468E-006   2.0206597845303167E-004   6.6469082960629769E-002
   7.1713520357619132E-006   1.8861488495225398E-004   6.6935423261740512E-002
  -4.6928126247267957E-003   1.4959184699223638E-003   6.5428773930439554E-002
  -4.4663967089076332E-003   1.4204865584316051E-003   6.5206511525573524E-002
  -4.2399807930884551E-003   1.3429329471058571E-003   6.5209153295171768E-002
  -4.0135648772692866E-003   1.2632576359453418E-003   6.5436699239234383E-002
  -3.7871489614501215E-003   1.1814606249498372E-003   6.5889149357761245E-002
  -9.3977639111670758E-003   2.7480783931100594E-003   6.4370215380391185E-002
  -8.9470860425116087E-003   2.6113353075188916E-003   6.4135571208244729E-002
  -8.4964081738561608E-003   2.4701256076279723E-003   6.4124546767306528E-002
  -8.0457303052007025E-003   2.3244492934374836E-003   6.4337142057576527E-002
  -7.5950524365452458E-003   2.1743063649473648E-003   6.4773357079054850E-002
  -1.4111160586192467E-002   4.0002383162977689E-003   6.3251518113474695E-002
  -1.3437505207956762E-002   3.8021840566060672E-003   6.3002147259583183E-002
  -1.2763849829721062E-002   3.5973182681500633E-003   6.2975111693643795E-002
  -1.2090194451485351E-002   3.3856409509295986E-003   6.3170411415656547E-002
  -1.1416539073249656E-002   3.1671521049449203E-003   6.3588046425621672E-002
  -1.8833002649803005E-002   5.2523982394854785E-003   6.2072682129690193E-002
  -1.7937654205243077E-002   4.9930328056934647E-003   6.1806239679588759E-002
  -1.7042305760683153E-002   4.7245109286721543E-003   6.1760848074183472E-002
  -1.6146957316123228E-002   4.4468326084218940E-003   6.1936507313474359E-002
  -1.5251608871563307E-002   4.1599978449424202E-003   6.2333217397461504E-002
   7.1713520357619132E-006   1.8861488495225398E-004   6.6935423261740512E-002
   4.7352549731628779E-006   1.7093302546095090E-004   6.6839083279135181E-002
   2.2991579105534343E-006   1.4456641935911563E-004   6.6965008100060119E-002
  -1.3693915204907037E-007   1.0951506664619304E-004   6.7313197724514939E-002
  -2.5730362146550445E-006   6.5778967322738247E-005   6.7883652152500029E-002
  -3.7871489614501215E-003   1.1814606249498372E-003   6.5889149357761245E-002
  -3.5685428928851955E-003   1.0957806405506587E-003   6.5770839078852561E-002
  -3.3499368243202644E-003   1.0044564091790664E-003   6.5872348327669000E-002
  -3.1313307557553341E-003   9.0748793083490764E-004   6.6193677104210299E-002
  -2.9127246871904072E-003   8.0487520551830727E-004   6.6734825408476695E-002
  -7.5950524365452458E-003   2.1743063649473648E-003   6.4773357079054850E-002
  -7.1578494781578744E-003   2.0206282556402277E-003   6.4636117003481208E-002
  -6.7206465197704960E-003   1.8643463989990172E-003   6.4716251179827350E-002
  -6.2834435613831245E-003   1.7054607950234557E-003   6.5013759608093261E-002
  -5.8462406029957462E-003   1.5439714437138208E-003   6.5528642288279398E-002
  -1.1416539073249656E-002   3.1671521049449203E-003   6.3588046425621672E-002
  -1.0763184500844909E-002   2.9454758707298662E-003   6.3434917053021081E-002
  -1.0109829928440157E-002   2.7242363888190235E-003   6.3496716656535210E-002
  -9.4564753560353980E-003   2.5034336592120870E-003   6.3773445236164128E-002
  -8.8031207836306562E-003   2.2830676819092510E-003   6.4265102791908113E-002
  -1.5251608871563307E-002   4.1599978449424202E-003   6.2333217397461504E-002
  -1.4384547960946265E-002   3.8703234858195046E-003   6.2167239227472137E-002
  -1.3517487050329232E-002   3.5841263786389049E-003   6.2213744757792538E-002
  -1.2650426139712201E-002   3.3014065234007427E-003   6.2472733988422749E-002
  -1.1783365229095157E-002   3.0221639201049033E-003   6.2944206919362644E-002
  -2.5730362146550445E-006   6.5778967322738247E-005   6.7883652152500029E-002
  -1.3604668489264338E-006   2.4989396040953071E-005   6.7900172958841432E-002
  -1.4789748319088414E-007  -1.2223725475990488E-006   6.8164644717797762E-002
   1.0646718825446655E-006  -1.2856338442716886E-005   6.8677067429369215E-002
   2.2772412482732762E-006  -9.9125016437273672E-006   6.9437441093555319E-002
  -2.9127246871904072E-003   8.0487520551830727E-004   6.6734825408476695E-002
  -2.6648610901066107E-003   7.0485289131722029E-004   6.6739383461040525E-002
  -2.4169974930228107E-003   6.1565564631996250E-004   6.6989292616425278E-002
  -2.1691338959390193E-003   5.3728347052629105E-004   6.7484552874631440E-002
  -1.9212702988552280E-003   4.6973636393632390E-004   6.8225164235658664E-002
  -5.8462406029957462E-003   1.5439714437138208E-003   6.5528642288279398E-002
  -5.3543258279875631E-003   1.3847163865937928E-003   6.5517484853575392E-002
  -4.8624110529793870E-003   1.2325336651876212E-003   6.5749078671898900E-002
  -4.3704962779711996E-003   1.0874232794950735E-003   6.6223423743249993E-002
  -3.8785815029630140E-003   9.4938522951648618E-004   6.6940520067628684E-002
  -8.8031207836306562E-003   2.2830676819092510E-003   6.4265102791908113E-002
  -8.0697546804917690E-003   2.0645798818703237E-003   6.4234477136446533E-002
  -7.3363885773528731E-003   1.8494116840551758E-003   6.4444002884218671E-002
  -6.6030224742139772E-003   1.6375630884639687E-003   6.4893680035225013E-002
  -5.8696563710750891E-003   1.4290340950968150E-003   6.5583508589464989E-002
  -1.1783365229095157E-002   3.0221639201049033E-003   6.2944206919362644E-002
  -1.0811147647619243E-002   2.7444433771467436E-003   6.2890360309653615E-002
  -9.8389300661433123E-003   2.4662897029227859E-003   6.3074065253384659E-002
  -8.8667124846673970E-003   2.1877028974328500E-003   6.3495321750555972E-002
  -7.8944949031914749E-003   1.9086829606766997E-003   6.4154129801167414E-002
   2.2772412482732762E-006  -9.9125016437273672E-006   6.9437441093555319E-002
   1.4634065853835754E-006  -1.4079238503938996E-006   6.9255212883708506E-002
   6.4957192249734397E-007   3.6403332372980657E-006   6.9292873857924042E-002
  -1.6426274039582633E-007   5.2322696206807962E-006   6.9550424016202317E-002
  -9.7809740327858830E-007   3.3678852986440688E-006   7.0027863358543052E-002
  -1.9212702988552280E-003   4.6973636393632390E-004   6.8225164235658664E-002
  -1.6987418240878294E-003   4.2062405765513899E-004   6.8023919592529791E-002
  -1.4762133493204325E-003   3.9755628278737021E-004   6.8049470384198674E-002
  -1.2536848745530304E-003   4.0053303933335060E-004   6.8301816610665700E-002
  -1.0311563997856370E-003   4.2955432729252507E-004   6.8780958271931092E-002
  -3.8785815029630140E-003   9.4938522951648618E-004   6.6940520067628684E-002
  -3.4258044680297740E-003   8.4265603916089393E-004   6.6749759843336087E-002
  -2.9730274330965279E-003   7.9147223233733133E-004   6.6792701304576929E-002
  -2.5202503981632852E-003   7.9583380904579837E-004   6.7069344451351376E-002
  -2.0674733632300418E-003   8.5574076928662812E-004   6.7579689283659650E-002
  -5.8696563710750891E-003   1.4290340950968150E-003   6.5583508589464989E-002
  -5.1797245252404667E-003   1.2646880206664823E-003   6.5432733636127088E-002
  -4.4897926794058088E-003   1.1853881818871814E-003   6.5522566619058309E-002
  -3.7998608335711656E-003   1.1911345787585792E-003   6.5853007538258859E-002
  -3.1099289877365289E-003   1.2819272112806201E-003   6.6424056393728517E-002
  -7.8944949031914749E-003   1.9086829606766997E-003   6.4154129801167414E-002
  -6.9605019957198686E-003   1.6867200021721818E-003   6.4072840970903044E-002
  -6.0265090882482691E-003   1.5793041314372536E-003   6.4239066327643424E-002
  -5.0925161807766663E-003   1.5864353484708882E-003   6.4652805871388608E-002
  -4.1585232733050634E-003   1.7081136532745012E-003   6.5314059602138430E-002
  -9.7809740327858830E-007   3.3678852986440688E-006   7.0027863358543052E-002
  -6.1949144326139960E-007   4.0243754717561586E-007   6.8686371832674564E-002
  -2.6088548323727201E-007  -1.3088163573482525E-006   6.7491046290899970E-002
   9.7720476786855581E-008  -1.7658764164402152E-006   6.6441886733219380E-002
   4.5632643680404428E-007  -9.6874262878188233E-007   6.5538893159633016E-002
  -1.0311563997856370E-003   4.2955432729252507E-004   6.8780958271931092E-002
  -8.8805490829771405E-004   5.0100804184893821E-004   6.7459942244247395E-002
  -7.4495341680978766E-004   6.3128207818458071E-004   6.6278246003525831E-002
  -6.0185192532185953E-004   8.2037643630082646E-004   6.5235869549766123E-002
  -4.5875043383393835E-004   1.0682911161963293E-003   6.4332812882968438E-002
  -2.0674733632300418E-003   8.5574076928662812E-004   6.7579689283659650E-002
  -1.7884751833462924E-003   1.0016136461503122E-003   6.6336714882094777E-002
  -1.5094770034625423E-003   1.2638729727272036E-003   6.5226214070359473E-002
  -1.2304788235787990E-003   1.6425187490177670E-003   6.4248186848454333E-002
  -9.5148064369502891E-004   2.1375509750218846E-003   6.3402633216378623E-002
  -3.1099289877365289E-003   1.2819272112806201E-003   6.6424056393728517E-002
  -2.7018803165890330E-003   1.5022192504516030E-003   6.5316689746216086E-002
  -2.2938316454415219E-003   1.8964638672697015E-003   6.4334950491401255E-002
  -1.8857829742940082E-003   2.4646610617347596E-003   6.3478838629283760E-002
  -1.4777343031465153E-003   3.2068108338475509E-003   6.2748354159864669E-002
  -4.1585232733050634E-003   1.7081136532745012E-003   6.5314059602138430E-002
  -3.6282703080258716E-003   2.0028248547533378E-003   6.4399866836611586E-002
  -3.0980173427466902E-003   2.5290547618118664E-003   6.3604455266650650E-002
  -2.5677643774675071E-003   3.2868033744520575E-003   6.2927824892255180E-002
  -2.0375114121883170E-003   4.2760706926726622E-003   6.2369975713425396E-002
   4.5632643680404428E-007  -9.6874262878188233E-007   6.5538893159633016E-002
   2.5034369064563800E-007   1.4372602663570433E-007   6.0800152401392471E-002
   4.4360944480292819E-008   6.3267057143212568E-007   5.5942149500322946E-002
  -1.6162180168331763E-007   4.9809100492737013E-007   5.0964884456424608E-002
  -3.6760454784345864E-007  -2.6001267139363904E-007   4.5868357269696958E-002
  -4.5875043383393835E-004   1.0682911161963293E-003   6.4332812882968438E-002
  -5.6399017614545618E-004   1.3945492313872654E-003   5.9623398570751052E-002
  -6.6922991845696188E-004   1.8186738953878123E-003   5.4823178882231483E-002
  -7.7446966076848926E-004   2.3406651081982477E-003   4.9932153817411146E-002
  -8.7970940307998541E-004   2.9605228698188490E-003   4.4950323376288237E-002
  -9.5148064369502891E-004   2.1375509750218846E-003   6.3402633216378623E-002
  -1.1332973790445910E-003   2.7889547367481171E-003   5.8821035423104989E-002
  -1.3151141143941478E-003   3.6367151202045533E-003   5.4177089020056690E-002
  -1.4969308497436939E-003   4.6808321253915194E-003   4.9470794007233795E-002
  -1.6787475850932390E-003   5.9213057523090917E-003   4.4702150384637207E-002
  -1.4777343031465153E-003   3.2068108338475509E-003   6.2748354159864669E-002
  -1.7076712650067843E-003   4.1833602421089688E-003   5.8393062958454700E-002
  -1.9376082268670468E-003   5.4547563450213360E-003   5.4003879913797452E-002
  -2.1675451887273266E-003   7.0209991425848155E-003   4.9580805025893779E-002
  -2.3974821505875783E-003   8.8820886347993344E-003   4.5123838294742064E-002
  -2.0375114121883170E-003   4.2760706926726622E-003   6.2369975713425396E-002
  -2.2871118340319907E-003   5.5777657474698206E-003   5.8339481176800101E-002
  -2.5367122558756783E-003   7.2727975698380909E-003   5.4303551563455177E-002
  -2.7863126777193589E-003   9.3611661597780491E-003   5.0262186873390319E-002
  -3.0359130995630396E-003   1.1842871517289577E-002   4.6215387106605554E-002
  -2.5371490214934962E-002   5.0868027597218424E-003   6.1658155684489624E-002
  -2.4473153719063868E-002   5.4707857906323709E-003   6.1510984763995691E-002
  -2.3574817223192737E-002   5.7294820306701966E-003   6.1535151484434836E-002
  -2.2676480727321618E-002   5.8628914798354165E-003   6.1730655845806948E-002
  -2.1778144231450511E-002   5.8710141381280168E-003   6.2097497848112138E-002
  -3.1564697689453872E-002   7.9984650641354849E-003   5.9308792604672034E-002
  -3.0480520728243303E-002   8.0564063422894905E-003   5.8973185763697700E-002
  -2.9396343767032720E-002   8.0422167206524592E-003   5.8837922212469057E-002
  -2.8312166805822180E-002   7.9558961992243805E-003   5.8903001950986231E-002
  -2.7227989844611604E-002   7.7974447780052580E-003   5.9168424979249429E-002
  -3.7862135063527799E-002   1.0910127368549155E-002   5.6606809826557192E-002
  -3.6563111988165010E-002   1.0642026893946638E-002   5.6135922956183762E-002
  -3.5264088912802166E-002   1.0354951410634666E-002   5.5894385024369164E-002
  -3.3965065837439343E-002   1.0048900918613261E-002   5.5882196031113093E-002
  -3.2666042762076533E-002   9.7238754178824161E-003   5.6099355976415674E-002
  -4.4263802337156800E-002   1.3821789672962825E-002   5.3552207350144959E-002
  -4.2720927498828970E-002   1.3227647445603799E-002   5.2999196341454308E-002
  -4.1178052660501077E-002   1.2667686100616957E-002   5.2704539920135095E-002
  -3.9635177822173163E-002   1.2141905638002184E-002   5.2668238086187300E-002
  -3.8092302983845305E-002   1.1650306057759643E-002   5.2890290839611109E-002
  -5.0769699510340938E-002   1.6733451977376468E-002   5.0144985175435419E-002
  -4.8953967260235209E-002   1.5813267997260905E-002   4.9563005919509018E-002
  -4.7138235010129412E-002   1.4980420790599108E-002   4.9268386899766869E-002
  -4.5322502760023649E-002   1.4234910357391058E-002   4.9261128116209085E-002
  -4.3506770509917872E-002   1.3576736697636760E-002   4.9541229568835554E-002
  -2.1778144231450511E-002   5.8710141381280168E-003   6.2097497848112138E-002
  -2.1041858836038631E-002   5.7914600916050829E-003   6.1817664967341923E-002
  -2.0305573440626761E-002   5.6618394263236033E-003   6.1720251387348213E-002
  -1.9569288045214892E-002   5.4821521422839005E-003   6.1805257108130965E-002
  -1.8833002649803005E-002   5.2523982394854785E-003   6.2072682129690193E-002
  -2.7227989844611604E-002   7.7974447780052580E-003   5.9168424979249429E-002
  -2.6310721552625080E-002   7.5871799633386167E-003   5.8858167137042186E-002
  -2.5393453260638538E-002   7.3454192615677733E-003   5.8727455787207811E-002
  -2.4476184968651976E-002   7.0721626726928631E-003   5.8776290929746067E-002
  -2.3558916676665442E-002   6.7674101967137856E-003   5.9004672564657301E-002
  -3.2666042762076533E-002   9.7238754178824161E-003   5.6099355976415674E-002
  -3.1570664381919071E-002   9.3828998350719839E-003   5.5777243904425899E-002
  -3.0475286001761602E-002   9.0289990968117698E-003   5.5631805516405126E-002
  -2.9379907621604123E-002   8.6621732031018795E-003   5.5663040812353418E-002
  -2.8284529241446664E-002   8.2824221539421761E-003   5.5870949792270863E-002
  -3.8092302983845305E-002   1.1650306057759643E-002   5.2890290839611109E-002
  -3.6821687323920611E-002   1.1178619706805323E-002   5.2574895269492980E-002
  -3.5551071663995910E-002   1.0712578932055770E-002   5.2433300574940285E-002
  -3.4280456004071203E-002   1.0252183733510757E-002   5.2465506755952893E-002
  -3.3009840344146515E-002   9.7974341111705804E-003   5.2671513812530921E-002
  -4.3506770509917872E-002   1.3576736697636760E-002   4.9541229568835554E-002
  -4.2063790378629715E-002   1.2974339578538857E-002   4.9251121232243539E-002
  -4.0620810247341509E-002   1.2396158767299909E-002   4.9131940962813203E-002
  -3.9177830116053330E-002   1.1842194263919879E-002   4.9183688760544547E-002
  -3.7734849984765131E-002   1.1312446068398874E-002   4.9406364625437571E-002
  -1.8833002649803005E-002   5.2523982394854785E-003   6.2072682129690193E-002
  -1.7937654205243077E-002   4.9930328056934647E-003   6.1806239679588759E-002
  -1.7042305760683153E-002   4.7245109286721543E-003   6.1760848074183472E-002
  -1.6146957316123228E-002   4.4468326084218940E-003   6.1936507313474359E-002
  -1.5251608871563307E-002   4.1599978449424202E-003   6.2333217397461504E-002
  -2.3558916676665442E-002   6.7674101967137856E-003   5.9004672564657301E-002
  -2.2446070002848185E-002   6.4419027849370591E-003   5.8725393747337956E-002
  -2.1333223329030919E-002   6.1063813886687995E-003   5.8660060543837017E-002
  -2.0220376655213635E-002   5.7608460079089617E-003   5.8808672954154581E-002
  -1.9107529981396403E-002   5.4052966426578752E-003   5.9171230978290634E-002
  -2.8284529241446664E-002   8.2824221539421761E-003   5.5870949792270863E-002
  -2.6961289569249744E-002   7.8907727641807923E-003   5.5577977066471287E-002
  -2.5638049897052838E-002   7.4882518486653893E-003   5.5491844723612432E-002
  -2.4314810224855928E-002   7.0748594073962515E-003   5.5612552763694381E-002
  -2.2991570552659012E-002   6.6505954403732470E-003   5.5940101186717064E-002
  -3.3009840344146515E-002   9.7974341111705804E-003   5.2671513812530921E-002
  -3.1483312904447697E-002   9.3396427434244006E-003   5.2363989636988725E-002
  -2.9956785464748899E-002   8.8701223086621178E-003   5.2256200613509489E-002
  -2.8430258025050080E-002   8.3888728068835412E-003   5.2348146742093357E-002
  -2.6903730585351286E-002   7.8958942380886049E-003   5.2639828022740254E-002
  -3.7734849984765131E-002   1.1312446068398874E-002   4.9406364625437571E-002
  -3.6012140008442106E-002   1.0788512722668120E-002   4.9083431458890214E-002
  -3.4289430032119116E-002   1.0251992768658694E-002   4.8953128213528430E-002
  -3.2566720055796111E-002   9.7028862063705708E-003   4.9015454889351870E-002
  -3.0844010079473100E-002   9.1411930358040183E-003   4.9270411486360632E-002
  -1.5251608871563307E-002   4.1599978449424202E-003   6.2333217397461504E-002
  -1.4384547960946265E-002   3.8703234858195046E-003   6.2167239227472137E-002
  -1.3517487050329232E-002   3.5841263786389049E-003   6.2213744757792538E-002
  -1.2650426139712201E-002   3.3014065234007427E-003   6.2472733988422749E-002
  -1.1783365229095157E-002   3.0221639201049033E-003   6.2944206919362644E-002
  -1.9107529981396403E-002   5.4052966426578752E-003   5.9171230978290634E-002
  -1.8031783491374905E-002   5.0440906794389784E-003   5.8974424246215879E-002
  -1.6956037001353390E-002   4.6815855047763338E-003   5.8982504972639960E-002
  -1.5880290511331861E-002   4.3177811186700284E-003   5.9195473157563405E-002
  -1.4804544021310373E-002   3.9526775211197740E-003   5.9613328800986021E-002
  -2.2991570552659012E-002   6.6505954403732470E-003   5.5940101186717064E-002
  -2.1714734725043646E-002   6.2178578730582856E-003   5.5707689429170412E-002
  -2.0437898897428239E-002   5.7790446309137142E-003   5.5672568888312408E-002
  -1.9161063069812842E-002   5.3341557139390382E-003   5.5834739564143046E-002
  -1.7884227242197438E-002   4.8831911221345337E-003   5.6194201456662179E-002
  -2.6903730585351286E-002   7.8958942380886049E-003   5.2639828022740254E-002
  -2.5433401661952546E-002   7.3916250666777317E-003   5.2367034776335974E-002
  -2.3963072738553810E-002   6.8765037570507857E-003   5.2283936504809669E-002
  -2.2492743815155061E-002   6.3505303092081860E-003   5.2390533208161318E-002
  -2.1022414891756335E-002   5.8137047231494599E-003   5.2686824886391231E-002
  -3.0844010079473100E-002   9.1411930358040183E-003   4.9270411486360632E-002
  -2.9187784302101588E-002   8.5653922602969557E-003   4.8952460287712385E-002
  -2.7531558524730090E-002   7.9739628831883708E-003   4.8816607822131680E-002
  -2.5875332747358600E-002   7.3669049044772957E-003   4.8862854089618477E-002
  -2.4219106969987081E-002   6.7442183241642750E-003   4.9091199090172677E-002
  -1.1783365229095157E-002   3.0221639201049033E-003   6.2944206919362644E-002
  -1.0811147647619243E-002   2.7444433771467436E-003   6.2890360309653615E-002
  -9.8389300661433123E-003   2.4662897029227859E-003   6.3074065253384659E-002
  -8.8667124846673970E-003   2.1877028974328500E-003   6.3495321750555972E-002
  -7.8944949031914749E-003   1.9086829606766997E-003   6.4154129801167414E-002
  -1.4804544021310373E-002   3.9526775211197740E-003   5.9613328800986021E-002
  -1.3602912319949281E-002   3.5872498341669723E-003   5.9492949279736584E-002
  -1.2401280618588133E-002   3.2224731798535383E-003   5.9593846444817300E-002
  -1.1199648917226990E-002   2.8583475581786429E-003   5.9916020296228195E-002
  -9.9980172158658925E-003   2.4948729691429694E-003   6.0459470833969187E-002
  -1.7884227242197438E-002   4.8831911221345337E-003   5.6194201456662179E-002
  -1.6469456288061110E-002   4.4300562911871455E-003   5.6008373187777419E-002
  -1.5054685333924785E-002   3.9786566567837356E-003   5.6027546738112832E-002
  -1.3639914379788454E-002   3.5289922189245468E-003   5.6251722107668461E-002
  -1.2225143425652105E-002   3.0810629776092391E-003   5.6680899296444431E-002
  -2.1022414891756335E-002   5.8137047231494599E-003   5.2686824886391231E-002
  -1.9410779551954808E-002   5.2728627482072910E-003   5.2436632033775993E-002
  -1.7799144212153253E-002   4.7348401337140994E-003   5.2375166133271110E-002
  -1.6187508872351701E-002   4.1996368796702842E-003   5.2502427184876382E-002
  -1.4575873532550172E-002   3.6672529860755088E-003   5.2818415188591733E-002
  -2.4219106969987081E-002   6.7442183241642750E-003   4.9091199090172677E-002
  -2.2426882111630297E-002   6.1156692052275474E-003   4.8777725817732320E-002
  -2.0634657253273542E-002   5.4910236106446020E-003   4.8636704630292293E-002
  -1.8842432394916779E-002   4.8702815404161673E-003   4.8668135527852374E-002
  -1.7050207536560003E-002   4.2534429945416674E-003   4.8872018510412674E-002
  -7.8944949031914749E-003   1.9086829606766997E-003   6.4154129801167414E-002
  -6.9605019957198686E-003   1.6867200021721818E-003   6.4072840970903044E-002
  -6.0265090882482691E-003   1.5793041314372536E-003   6.4239066327643424E-002
  -5.0925161807766663E-003   1.5864353484708882E-003   6.4652805871388608E-002
  -4.1585232733050634E-003   1.7081136532745012E-003   6.5314059602138430E-002
  -9.9980172158658925E-003   2.4948729691429694E-003   6.0459470833969187E-002
  -8.8155266597269993E-003   2.1890000271386212E-003   6.0370111242852464E-002
  -7.6330361035880749E-003   1.9976793465589504E-003   6.0530232762065483E-002
  -6.4505455474491314E-003   1.9209109274026873E-003   6.0939835391608299E-002
  -5.2680549913102295E-003   1.9586947696708101E-003   6.1598919131481300E-002
  -1.2225143425652105E-002   3.0810629776092391E-003   5.6680899296444431E-002
  -1.0792188297520730E-002   2.6912800521053937E-003   5.6583474118129723E-002
  -9.3592331693893513E-003   2.4160545616805362E-003   5.6737496973469886E-002
  -7.9262780412579625E-003   2.2553865063343753E-003   5.7142967862465338E-002
  -6.4933229131265962E-003   2.2092758860673967E-003   5.7799886785115773E-002
  -1.4575873532550172E-002   3.6672529860755088E-003   5.2818415188591733E-002
  -1.2890486909101167E-002   3.1935600770721662E-003   5.2712929596734494E-002
  -1.1205100285652161E-002   2.8344297768019555E-003   5.2860858961857049E-002
  -9.5197136622031647E-003   2.5898620852661744E-003   5.3262203283960023E-002
  -7.8343270387541547E-003   2.4598570024636779E-003   5.3916962563043014E-002
  -1.7050207536560003E-002   4.2534429945416674E-003   4.8872018510412674E-002
  -1.5110422494468229E-002   3.6958401020386056E-003   4.8758477678667034E-002
  -1.3170637452376455E-002   3.2528049919239299E-003   4.8900318727226721E-002
  -1.1230852410284674E-002   2.9243376641978347E-003   4.9297541656091626E-002
  -9.2910673681929068E-003   2.7104381188602922E-003   4.9950146465261969E-002
  -4.1585232733050634E-003   1.7081136532745012E-003   6.5314059602138430E-002
  -3.6282703080258716E-003   2.0028248547533378E-003   6.4399866836611586E-002
  -3.0980173427466902E-003   2.5290547618118664E-003   6.3604455266650650E-002
  -2.5677643774675071E-003   3.2868033744520575E-003   6.2927824892255180E-002
  -2.0375114121883170E-003   4.2760706926726622E-003   6.2369975713425396E-002
  -5.2680549913102295E-003   1.9586947696708101E-003   6.1598919131481300E-002
  -4.5929907723059014E-003   2.2165138166361786E-003   6.0873538647078118E-002
  -3.9179265533015421E-003   2.7998510115712361E-003   6.0318999474559765E-002
  -3.2428623342971707E-003   3.7087063544762947E-003   5.9935301613926018E-002
  -2.5677981152928270E-003   4.9430798453514724E-003   5.9722445065177099E-002
  -6.4933229131265962E-003   2.2092758860673967E-003   5.7799886785115773E-002
  -5.6213873240780650E-003   2.4302027785192970E-003   5.7357318024225806E-002
  -4.7494517350295190E-003   3.0706472613302727E-003   5.7137650691539393E-002
  -3.8775161459809796E-003   4.1306093345006428E-003   5.7140884787056700E-002
  -3.0055805569324696E-003   5.6100889980300050E-003   5.7367020310777866E-002
  -7.8343270387541547E-003   2.4598570024636779E-003   5.3916962563043014E-002
  -6.7134599633424021E-003   2.6438917404027207E-003   5.3851204968054865E-002
  -5.5925928879306209E-003   3.3414435110894203E-003   5.4060408917589578E-002
  -4.4717258125188527E-003   4.5525123145250465E-003   5.4544574411647014E-002
  -3.3508587371070863E-003   6.2770981507087875E-003   5.5303701450227082E-002
  -9.2910673681929068E-003   2.7104381188602922E-003   4.9950146465261969E-002
  -7.8692086900988972E-003   2.8575807022853672E-003   5.0355199478565149E-002
  -6.4473500120048738E-003   3.6122397608487622E-003   5.1087274152710305E-002
  -5.0254913339108503E-003   4.9744152945491935E-003   5.2146370487697241E-002
  -3.6036326558168408E-003   6.9441073033872369E-003   5.3532488483525653E-002
  -2.0375114121883170E-003   4.2760706926726622E-003   6.2369975713425396E-002
  -2.2871118340319907E-003   5.5777657474698206E-003   5.8339481176800101E-002
  -2.5367122558756783E-003   7.2727975698380909E-003   5.4303551563455177E-002
  -2.7863126777193589E-003   9.3611661597780491E-003   5.0262186873390319E-002
  -3.0359130995630396E-003   1.1842871517289577E-002   4.6215387106605554E-002
  -2.5677981152928270E-003   4.9430798453514724E-003   5.9722445065177099E-002
  -2.8403399426994852E-003   6.5671768169722755E-003   5.6190581251720051E-002
  -3.1128817701061018E-003   8.6452026021145711E-003   5.2618269703856801E-002
  -3.3854235975127323E-003   1.1177157200778089E-002   4.9005510421587517E-002
  -3.6579654249193766E-003   1.4163040612963140E-002   4.5352303404911698E-002
  -3.0055805569324696E-003   5.6100889980300050E-003   5.7367020310777866E-002
  -3.3360764475884545E-003   7.5565878864748415E-003   5.4394379266438836E-002
  -3.6665723382444098E-003   1.0017607634390732E-002   5.1346277830007156E-002
  -3.9970682289004033E-003   1.2993148241778409E-002   4.8222716001483028E-002
  -4.3275641195564020E-003   1.6483209708637148E-002   4.5023693780865792E-002
  -3.3508587371070863E-003   6.2770981507087875E-003   5.5303701450227082E-002
  -3.7743213486988434E-003   8.5459989559771299E-003   5.2950875220956269E-002
  -4.1977839602905858E-003   1.1390012666667275E-002   5.0487575941906573E-002
  -4.6212465718823686E-003   1.4809139282778478E-002   4.7913803613078121E-002
  -5.0447091834741140E-003   1.8803378804311044E-002   4.5229558234469752E-002
  -3.6036326558168408E-003   6.9441073033872369E-003   5.3532488483525653E-002
  -4.1550746460307653E-003   9.5354100254799734E-003   5.1860069115272855E-002
  -4.7065166362446759E-003   1.2762417698943290E-002   5.0042164039554471E-002
  -5.2579586264585865E-003   1.6625130323778693E-002   4.8078773256370860E-002
  -5.8094006166725110E-003   2.1123547899984718E-002   4.5969896765722051E-002
  -5.0769699510340938E-002   1.6733451977376468E-002   5.0144985175435419E-002
  -4.8953967260235209E-002   1.5813267997260905E-002   4.9563005919509018E-002
  -4.7138235010129412E-002   1.4980420790599108E-002   4.9268386899766869E-002
  -4.5322502760023649E-002   1.4234910357391058E-002   4.9261128116209085E-002
  -4.3506770509917872E-002   1.3576736697636760E-002   4.9541229568835554E-002
  -5.7252421254455857E-002   1.7827017344786200E-002   4.4470531366191612E-002
  -5.5167704594905262E-002   1.7091011549577678E-002   4.4079872640408940E-002
  -5.3082987935354813E-002   1.6385900179294838E-002   4.3939822497331527E-002
  -5.0998271275804294E-002   1.5711683233937727E-002   4.4050380936959149E-002
  -4.8913554616253782E-002   1.5068360713506396E-002   4.4411547959292114E-002
  -6.3584562240877079E-002   1.8920582712195849E-002   3.9008476916119000E-002
  -6.1267612825361015E-002   1.8368755101894313E-002   3.8752696371951917E-002
  -5.8950663409844825E-002   1.7791379567990526E-002   3.8710772757011069E-002
  -5.6633713994328712E-002   1.7188456110484449E-002   3.8882706071296298E-002
  -5.4316764578812585E-002   1.6559984729376004E-002   3.9268496314807583E-002
  -6.9766122469604910E-002   2.0014148079605554E-002   3.3758821825217208E-002
  -6.7253691951602176E-002   1.9646498654211073E-002   3.3581477114137954E-002
  -6.4741261433599526E-002   1.9196858956686220E-002   3.3581237678805664E-002
  -6.2228830915596806E-002   1.8665228987031005E-002   3.3758103519220338E-002
  -5.9716400397594092E-002   1.8051608745245709E-002   3.4112074635382135E-002
  -7.5797101940639100E-002   2.1107713447015231E-002   2.8721566093486472E-002
  -7.3125941973628983E-002   2.0924242206527721E-002   2.8566214866966699E-002
  -7.0454782006618866E-002   2.0602338345381929E-002   2.8551217262715117E-002
  -6.7783622039608665E-002   2.0142001863577754E-002   2.8676573280731435E-002
  -6.5112462072598548E-002   1.9543232761115248E-002   2.8942282921015472E-002
  -4.3506770509917872E-002   1.3576736697636760E-002   4.9541229568835554E-002
  -4.2063790378629715E-002   1.2974339578538857E-002   4.9251121232243539E-002
  -4.0620810247341509E-002   1.2396158767299909E-002   4.9131940962813203E-002
  -3.9177830116053330E-002   1.1842194263919879E-002   4.9183688760544547E-002
  -3.7734849984765131E-002   1.1312446068398874E-002   4.9406364625437571E-002
  -4.8913554616253782E-002   1.5068360713506396E-002   4.4411547959292114E-002
  -4.7300437588868559E-002   1.4448247575089446E-002   4.4144092918893790E-002
  -4.5687320561483308E-002   1.3843658775775709E-002   4.4045983603527961E-002
  -4.4074203534098091E-002   1.3254594315565015E-002   4.4117220013194632E-002
  -4.2461086506712833E-002   1.2681054194457531E-002   4.4357802147893644E-002
  -5.4316764578812585E-002   1.6559984729376004E-002   3.9268496314807583E-002
  -5.2535092997459468E-002   1.5922155571640048E-002   3.9015002601847169E-002
  -5.0753421416106323E-002   1.5291158784251566E-002   3.8929272271789925E-002
  -4.8971749834753220E-002   1.4666994367210206E-002   3.9011305324636023E-002
  -4.7190078253400061E-002   1.4049662320516243E-002   3.9261101760385428E-002
  -5.9716400397594092E-002   1.8051608745245709E-002   3.4112074635382135E-002
  -5.7767756604402302E-002   1.7396063568190727E-002   3.3863850281103565E-002
  -5.5819112811210513E-002   1.6738658792727339E-002   3.3781806967599304E-002
  -5.3870469018018723E-002   1.6079394418855343E-002   3.3865944694868928E-002
  -5.1921825224826877E-002   1.5418270446575066E-002   3.4116263462912730E-002
  -6.5112462072598548E-002   1.9543232761115248E-002   2.8942282921015472E-002
  -6.2998428409697244E-002   1.8869971564741239E-002   2.8690635956663102E-002
  -6.0884394746795883E-002   1.8186158801203209E-002   2.8603587690955695E-002
  -5.8770361083894565E-002   1.7491794470500557E-002   2.8681138123893155E-002
  -5.6656327420993219E-002   1.6786878572633612E-002   2.8923287255475605E-002
  -3.7734849984765131E-002   1.1312446068398874E-002   4.9406364625437571E-002
  -3.6012140008442106E-002   1.0788512722668120E-002   4.9083431458890214E-002
  -3.4289430032119116E-002   1.0251992768658694E-002   4.8953128213528430E-002
  -3.2566720055796111E-002   9.7028862063705708E-003   4.9015454889351870E-002
  -3.0844010079473100E-002   9.1411930358040183E-003   4.9270411486360632E-002
  -4.2461086506712833E-002   1.2681054194457531E-002   4.4357802147893644E-002
  -4.0546203745978643E-002   1.2110218282457036E-002   4.4020305355248784E-002
  -3.8631320985244404E-002   1.1529266449566866E-002   4.3874524210240906E-002
  -3.6716438224510192E-002   1.0938198695787243E-002   4.3920458712870244E-002
  -3.4801555463775988E-002   1.0337015021118168E-002   4.4158108863136536E-002
  -4.7190078253400061E-002   1.4049662320516243E-002   3.9261101760385428E-002
  -4.5083936981802922E-002   1.3431923842245785E-002   3.8911512029031925E-002
  -4.2977795710205692E-002   1.2806540130474976E-002   3.8752723671767277E-002
  -4.0871654438608442E-002   1.2173511185203803E-002   3.8784736688591587E-002
  -3.8765513167011260E-002   1.1532837006432345E-002   3.9007551079504751E-002
  -5.1921825224826877E-002   1.5418270446575066E-002   3.4116263462912730E-002
  -4.9625339715914929E-002   1.4753629402034618E-002   3.3757051480239830E-002
  -4.7328854207002988E-002   1.4083813811383062E-002   3.3587726598107576E-002
  -4.5032368698090991E-002   1.3408823674620419E-002   3.3608288816515897E-002
  -4.2735883189179050E-002   1.2728658991746564E-002   3.3818738135464751E-002
  -5.6656327420993219E-002   1.6786878572633612E-002   2.8923287255475605E-002
  -5.4170411948314734E-002   1.6075334961823479E-002   2.8556923708872473E-002
  -5.1684496475636263E-002   1.5361087492291300E-002   2.8379532989261685E-002
  -4.9198581002957813E-002   1.4644136164036991E-002   2.8391115096643355E-002
  -4.6712665530279307E-002   1.3924480977060727E-002   2.8591670031017313E-002
  -3.0844010079473100E-002   9.1411930358040183E-003   4.9270411486360632E-002
  -2.9187784302101588E-002   8.5653922602969557E-003   4.8952460287712385E-002
  -2.7531558524730090E-002   7.9739628831883708E-003   4.8816607822131680E-002
  -2.5875332747358600E-002   7.3669049044772957E-003   4.8862854089618477E-002
  -2.4219106969987081E-002   6.7442183241642750E-003   4.9091199090172677E-002
  -3.4801555463775988E-002   1.0337015021118168E-002   4.4158108863136536E-002
  -3.2970284717688071E-002   9.7234375555849684E-003   4.3811541449984226E-002
  -3.1139013971600182E-002   9.0951884292125307E-003   4.3632965241197308E-002
  -2.9307743225512314E-002   8.4522676420014098E-003   4.3622380236775574E-002
  -2.7476472479424377E-002   7.7946751939511616E-003   4.3779786436719315E-002
  -3.8765513167011260E-002   1.1532837006432345E-002   3.9007551079504751E-002
  -3.6773304980909145E-002   1.0881482850872704E-002   3.8633324392611412E-002
  -3.4781096794807106E-002   1.0216413975237128E-002   3.8412981381381155E-002
  -3.2788888608705047E-002   9.5376303795254667E-003   3.8346522045814055E-002
  -3.0796680422602897E-002   8.8451320637378816E-003   3.8433946385909995E-002
  -4.2735883189179050E-002   1.2728658991746564E-002   3.3818738135464751E-002
  -4.0596845091764949E-002   1.2039528146160688E-002   3.3417809115593590E-002
  -3.8457806994350918E-002   1.1337639521261506E-002   3.3156656242683158E-002
  -3.6318768896936873E-002   1.0622993117049607E-002   3.3035279516733518E-002
  -3.4179730799522835E-002   9.8955889335247960E-003   3.3053678937745003E-002
  -4.6712665530279307E-002   1.3924480977060727E-002   2.8591670031017313E-002
  -4.4440905050255414E-002   1.3197573441448451E-002   2.8164995618930877E-002
  -4.2169144570231576E-002   1.2458865067285871E-002   2.7863989825103269E-002
  -3.9897384090207724E-002   1.1708355854573690E-002   2.7688652649534309E-002
  -3.7625623610183928E-002   1.0946045803311488E-002   2.7638984092223984E-002
  -2.4219106969987081E-002   6.7442183241642750E-003   4.9091199090172677E-002
  -2.2426882111630297E-002   6.1156692052275474E-003   4.8777725817732320E-002
  -2.0634657253273542E-002   5.4910236106446020E-003   4.8636704630292293E-002
  -1.8842432394916779E-002   4.8702815404161673E-003   4.8668135527852374E-002
  -1.7050207536560003E-002   4.2534429945416674E-003   4.8872018510412674E-002
  -2.7476472479424377E-002   7.7946751939511616E-003   4.3779786436719315E-002
  -2.5517271880677588E-002   7.1336660523149131E-003   4.3403865284938059E-002
  -2.3558071281930729E-002   6.4804951843456804E-003   4.3189443528936777E-002
  -2.1598870683183901E-002   5.8351625900432413E-003   4.3136521168715303E-002
  -1.9639670084437080E-002   5.1976682694080401E-003   4.3245098204273691E-002
  -3.0796680422602897E-002   8.8451320637378816E-003   3.8433946385909995E-002
  -2.8681456772686416E-002   8.1516628994022788E-003   3.7999512104100769E-002
  -2.6566233122769910E-002   7.4699667580464119E-003   3.7715624528850911E-002
  -2.4451009472853405E-002   6.8000436396704229E-003   3.7582283660160691E-002
  -2.2335785822936917E-002   6.1418935442743572E-003   3.7599489498029937E-002
  -3.4179730799522835E-002   9.8955889335247960E-003   3.3053678937745003E-002
  -3.1919436787656984E-002   9.1696597464895890E-003   3.2564666275220394E-002
  -2.9659142775791063E-002   8.4594383317473723E-003   3.2215247630035207E-002
  -2.7398848763925180E-002   7.7649246892976618E-003   3.2005423002189143E-002
  -2.5138554752059346E-002   7.0861188191405911E-003   3.1935192391682077E-002
  -3.7625623610183928E-002   1.0946045803311488E-002   2.7638984092223984E-002
  -3.5231211925588979E-002   1.0187656593577010E-002   2.7099327798297212E-002
  -3.2836800240994210E-002   9.4489099054481940E-003   2.6688312832489347E-002
  -3.0442388556399393E-002   8.7298057389249492E-003   2.6405939194799971E-002
  -2.8047976871804520E-002   8.0303440940070470E-003   2.6252206885229779E-002
  -1.7050207536560003E-002   4.2534429945416674E-003   4.8872018510412674E-002
  -1.5110422494468229E-002   3.6958401020386056E-003   4.8758477678667034E-002
  -1.3170637452376455E-002   3.2528049919239299E-003   4.8900318727226721E-002
  -1.1230852410284674E-002   2.9243376641978347E-003   4.9297541656091626E-002
  -9.2910673681929068E-003   2.7104381188602922E-003   4.9950146465261969E-002
  -1.9639670084437080E-002   5.1976682694080401E-003   4.3245098204273691E-002
  -1.7483159843479035E-002   4.5998433946515260E-003   4.3079281700706018E-002
  -1.5326649602521017E-002   4.0735191379865088E-003   4.3091533714565450E-002
  -1.3170139361562999E-002   3.6186954994121626E-003   4.3281854245852153E-002
  -1.1013629120604954E-002   3.2353724789291327E-003   4.3650243294565905E-002
  -2.2335785822936917E-002   6.1418935442743572E-003   3.7599489498029937E-002
  -2.0039863745990774E-002   5.5038466872648906E-003   3.7338330158342897E-002
  -1.7743941669044663E-002   4.8942332840490876E-003   3.7177925973204629E-002
  -1.5448019592098563E-002   4.3130533346268235E-003   3.7118276942615422E-002
  -1.3152097515152464E-002   3.7603068389981953E-003   3.7159383066575208E-002
  -2.5138554752059346E-002   7.0861188191405911E-003   3.1935192391682077E-002
  -2.2780534202003280E-002   6.4078499798781441E-003   3.1535623051578039E-002
  -2.0422513651947333E-002   5.7149474301119996E-003   3.1159495503144709E-002
  -1.8064493101891312E-002   5.0074111698416510E-003   3.0806809746382301E-002
  -1.5706472551835372E-002   4.2852411990670913E-003   3.0477565781290593E-002
  -2.8047976871804520E-002   8.0303440940070470E-003   2.6252206885229779E-002
  -2.5705171211516803E-002   7.3118532724912311E-003   2.5671160380411173E-002
  -2.3362365551229072E-002   6.5356615761743286E-003   2.5036242304385226E-002
  -2.1019559890941349E-002   5.7017690050559441E-003   2.4347452657152019E-002
  -1.8676754230653625E-002   4.8101755591362094E-003   2.3604791438711414E-002
  -9.2910673681929068E-003   2.7104381188602922E-003   4.9950146465261969E-002
  -7.8692086900988972E-003   2.8575807022853672E-003   5.0355199478565149E-002
  -6.4473500120048738E-003   3.6122397608487622E-003   5.1087274152710305E-002
  -5.0254913339108503E-003   4.9744152945491935E-003   5.2146370487697241E-002
  -3.6036326558168408E-003   6.9441073033872369E-003   5.3532488483525653E-002
  -1.1013629120604954E-002   3.2353724789291327E-003   4.3650243294565905E-002
  -9.2464312996254072E-003   3.1630112815823619E-003   4.4236676899437222E-002
  -7.4792334786457845E-003   3.6410731124177920E-003   4.5186767129237859E-002
  -5.7120356576661931E-003   4.6695579714348401E-003   4.6500513983968150E-002
  -3.9448378366866155E-003   6.2484658586337005E-003   4.8177917463627318E-002
  -1.3152097515152464E-002   3.7603068389981953E-003   3.7159383066575208E-002
  -1.1002925587199643E-002   3.4684418608791900E-003   3.7870103816059209E-002
  -8.8537536592468540E-003   3.6699064639869466E-003   3.8981116154559889E-002
  -6.7045817312941063E-003   4.3647006483202681E-003   4.0492420082077811E-002
  -4.5554098033412996E-003   5.5528244138802196E-003   4.2404015598612371E-002
  -1.5706472551835372E-002   4.2852411990670913E-003   3.0477565781290593E-002
  -1.3138691552821789E-002   3.7738724401761570E-003   3.1255480228431040E-002
  -1.0570910553808205E-002   3.6987398155559278E-003   3.2470321228676213E-002
  -8.0031295547945969E-003   4.0598433252060275E-003   3.4122088782026036E-002
  -5.4353485557810405E-003   4.8571829691267110E-003   3.6210782888480349E-002
  -1.8676754230653625E-002   4.8101755591362094E-003   2.3604791438711414E-002
  -1.5653729196491634E-002   4.0793030194729574E-003   2.4392806136553147E-002
  -1.2630704162329670E-002   3.7275731671252699E-003   2.5654382351586957E-002
  -9.6076791281676788E-003   3.7549860020914330E-003   2.7389520083813068E-002
  -6.5846540940057152E-003   4.1615415243732023E-003   2.9598219333231368E-002
  -3.6036326558168408E-003   6.9441073033872369E-003   5.3532488483525653E-002
  -4.1550746460307653E-003   9.5354100254799734E-003   5.1860069115272855E-002
  -4.7065166362446759E-003   1.2762417698943290E-002   5.0042164039554471E-002
  -5.2579586264585865E-003   1.6625130323778693E-002   4.8078773256370860E-002
  -5.8094006166725110E-003   2.1123547899984718E-002   4.5969896765722051E-002
  -3.9448378366866155E-003   6.2484658586337005E-003   4.8177917463627318E-002
  -4.5379159607696340E-003   8.6872446617170529E-003   4.7242492760664612E-002
  -5.1309940848525970E-003   1.2295342268386356E-002   4.6369281497429027E-002
  -5.7240722089356016E-003   1.7072758678642636E-002   4.5558283673920841E-002
  -6.3171503330185785E-003   2.3019493892484810E-002   4.4809499290139776E-002
  -4.5554098033412996E-003   5.5528244138802196E-003   4.2404015598612371E-002
  -4.9824249141008498E-003   7.8390792979539659E-003   4.2739199413155127E-002
  -5.4094400248603479E-003   1.1828266837829518E-002   4.3344295814617476E-002
  -5.8364551356198460E-003   1.7520387033506519E-002   4.4219304802999022E-002
  -6.2634702463793407E-003   2.4915439884985124E-002   4.5364226378301731E-002
  -5.4353485557810405E-003   4.8571829691267110E-003   3.6210782888480349E-002
  -5.4886015060244993E-003   6.9909139341912951E-003   3.8350189072743401E-002
  -5.5418544562679042E-003   1.1361191407272521E-002   4.0967206991118915E-002
  -5.5951074065113213E-003   1.7968015388370430E-002   4.4061836643606613E-002
  -5.6483603567547662E-003   2.6811385877485217E-002   4.7634078030206667E-002
  -6.5846540940057152E-003   4.1615415243732023E-003   2.9598219333231368E-002
  -6.0564457365405167E-003   6.1427485704279583E-003   3.4075461739430213E-002
  -5.5282373790752903E-003   1.0894115976715524E-002   3.9238015026933915E-002
  -5.0000290216101195E-003   1.8415643743234511E-002   4.5085879195742362E-002
  -4.4718206641448655E-003   2.8707331869985531E-002   5.1619054245856333E-002
  -7.5797101940639100E-002   2.1107713447015231E-002   2.8721566093486472E-002
  -7.3125941973628983E-002   2.0924242206527721E-002   2.8566214866966699E-002
  -7.0454782006618866E-002   2.0602338345381929E-002   2.8551217262715117E-002
  -6.7783622039608665E-002   2.0142001863577754E-002   2.8676573280731435E-002
  -6.5112462072598548E-002   1.9543232761115248E-002   2.8942282921015472E-002
  -8.1823990890171755E-002   2.3918989038172800E-002   2.2313554789938350E-002
  -7.8992485450440325E-002   2.3256482078868018E-002   2.1960129761940311E-002
  -7.6160980010708909E-002   2.2581075865738834E-002   2.1787042057116984E-002
  -7.3329474570977465E-002   2.1892770398785125E-002   2.1794291675468244E-002
  -7.0497969131246063E-002   2.1191565678007007E-002   2.1981878616994160E-002
  -8.7993279554394899E-002   2.6730264629330452E-002   1.5363741084155960E-002
  -8.4961444941035413E-002   2.5588721951208232E-002   1.4937775621513508E-002
  -8.1929610327675914E-002   2.4559813386095662E-002   1.4732131182952267E-002
  -7.8897775714316498E-002   2.3643538933992583E-002   1.4746807768472658E-002
  -7.5865941100957096E-002   2.2839898594898933E-002   1.4981805378074267E-002
  -9.4304967933308378E-002   2.9541540220488036E-002   7.8721249761393476E-003
  -9.1032820445414109E-002   2.7920961823548654E-002   7.4991524456861566E-003
  -8.7760672957519867E-002   2.6538550906452556E-002   7.3864846402211925E-003
  -8.4488525469625680E-002   2.5394307469200135E-002   7.5341215597443589E-003
  -8.1216377981731452E-002   2.4488231511790942E-002   7.9420632042557712E-003
 -0.10075905602691226        3.2352815811645619E-002  -1.6129353411142855E-004
  -9.7206611963576495E-002   3.0253201695888854E-002  -3.5573976554120756E-004
  -9.3654167900240726E-002   2.8517288426809534E-002  -2.4989757107626853E-004
  -9.0101723836905068E-002   2.7145076004407541E-002   1.5623304928356202E-004
  -8.6549279773569299E-002   2.6136564428682618E-002   8.6265209553848532E-004
  -6.5112462072598548E-002   1.9543232761115248E-002   2.8942282921015472E-002
  -6.2998428409697244E-002   1.8869971564741239E-002   2.8690635956663102E-002
  -6.0884394746795883E-002   1.8186158801203209E-002   2.8603587690955695E-002
  -5.8770361083894565E-002   1.7491794470500557E-002   2.8681138123893155E-002
  -5.6656327420993219E-002   1.6786878572633612E-002   2.8923287255475605E-002
  -7.0497969131246063E-002   2.1191565678007007E-002   2.1981878616994160E-002
  -6.8219523026443629E-002   2.0476327351793583E-002   2.1734720722729112E-002
  -6.5941076921641140E-002   1.9745921068533748E-002   2.1651789013621525E-002
  -6.3662630816838650E-002   1.9000346828227311E-002   2.1733083489671207E-002
  -6.1384184712036216E-002   1.8239604630874651E-002   2.1978604150878350E-002
  -7.5865941100957096E-002   2.2839898594898933E-002   1.4981805378074267E-002
  -7.3423455067741061E-002   2.2082683138845927E-002   1.4734520164014622E-002
  -7.0980969034525027E-002   2.1305683335864238E-002   1.4651088621624654E-002
  -6.8538483001309020E-002   2.0508899185954180E-002   1.4731510750904560E-002
  -6.6095996968093013E-002   1.9692330689115689E-002   1.4975786551854067E-002
  -8.1216377981731452E-002   2.4488231511790942E-002   7.9420632042557712E-003
  -7.8610224533589457E-002   2.3689038925898243E-002   7.6900342805192069E-003
  -7.6004071085447544E-002   2.2865445603194947E-002   7.6014865149650942E-003
  -7.3397917637305549E-002   2.2017451543681045E-002   7.6764199075928163E-003
  -7.0791764189163622E-002   2.1145056747356700E-002   7.9148344584030715E-003
  -8.6549279773569299E-002   2.6136564428682618E-002   8.6265209553848532E-004
  -8.3779831423989037E-002   2.5295394712950559E-002   6.0126307224339648E-004
  -8.1010383074408665E-002   2.4425207870525101E-002   5.0298269364257298E-004
  -7.8240934724828320E-002   2.3526003901407841E-002   5.6781095973665319E-004
  -7.5471486375248031E-002   2.2597782805597766E-002   7.9574787052516527E-004
  -5.6656327420993219E-002   1.6786878572633612E-002   2.8923287255475605E-002
  -5.4170411948314734E-002   1.6075334961823479E-002   2.8556923708872473E-002
  -5.1684496475636263E-002   1.5361087492291300E-002   2.8379532989261685E-002
  -4.9198581002957813E-002   1.4644136164036991E-002   2.8391115096643355E-002
  -4.6712665530279307E-002   1.3924480977060727E-002   2.8591670031017313E-002
  -6.1384184712036216E-002   1.8239604630874651E-002   2.1978604150878350E-002
  -5.8709294542268281E-002   1.7470999839322349E-002   2.1626656964321034E-002
  -5.6034404372500360E-002   1.6701837816417403E-002   2.1463686344950231E-002
  -5.3359514202732446E-002   1.5932118562160112E-002   2.1489692292765865E-002
  -5.0684624032964504E-002   1.5161842076550192E-002   2.1704674807768054E-002
  -6.6095996968093013E-002   1.9692330689115689E-002   1.4975786551854067E-002
  -6.3232128361041584E-002   1.8866664716821205E-002   1.4640402352711995E-002
  -6.0368259753990086E-002   1.8042588140543901E-002   1.4493998460950959E-002
  -5.7504391146938658E-002   1.7220100960283237E-002   1.4536574876569962E-002
  -5.4640522539887215E-002   1.6399203176039628E-002   1.4768131599569731E-002
  -7.0791764189163622E-002   2.1145056747356700E-002   7.9148344584030715E-003
  -6.7738913404634588E-002   2.0262329594320456E-002   7.5981598740458706E-003
  -6.4686062620105525E-002   1.9383338464670313E-002   7.4704693372635352E-003
  -6.1633211835576483E-002   1.8508083358406580E-002   7.5317628480557871E-003
  -5.8580361051047448E-002   1.7636564275529135E-002   7.7820404064224517E-003
  -7.5471486375248031E-002   2.2597782805597766E-002   7.9574787052516527E-004
  -7.2229649673047291E-002   2.1657994471819042E-002   4.9992952832222937E-004
  -6.8987812970846607E-002   2.0724088788796446E-002   3.9309897388836723E-004
  -6.5745976268645867E-002   1.9796065756529466E-002   4.7525620722318335E-004
  -6.2504139566445183E-002   1.8873925375018641E-002   7.4640122832658751E-004
  -4.6712665530279307E-002   1.3924480977060727E-002   2.8591670031017313E-002
  -4.4440905050255414E-002   1.3197573441448451E-002   2.8164995618930877E-002
  -4.2169144570231576E-002   1.2458865067285871E-002   2.7863989825103269E-002
  -3.9897384090207724E-002   1.1708355854573690E-002   2.7688652649534309E-002
  -3.7625623610183928E-002   1.0946045803311488E-002   2.7638984092223984E-002
  -5.0684624032964504E-002   1.5161842076550192E-002   2.1704674807768054E-002
  -4.8278374507799926E-002   1.4390279610913354E-002   2.1295973034700905E-002
  -4.5872124982635307E-002   1.3616702416576018E-002   2.1030580733656462E-002
  -4.3465875457470750E-002   1.2841110493537571E-002   2.0908497904634990E-002
  -4.1059625932306110E-002   1.2063503841798329E-002   2.0929724547636308E-002
  -5.4640522539887215E-002   1.6399203176039628E-002   1.4768131599569731E-002
  -5.2082143115817707E-002   1.5582985780378755E-002   1.4387188575370982E-002
  -4.9523763691748227E-002   1.4774539765865839E-002   1.4167195876959228E-002
  -4.6965384267678732E-002   1.3973865132501677E-002   1.4108153504334194E-002
  -4.4407004843609231E-002   1.3180961880285391E-002   1.4210061457496231E-002
  -5.8580361051047448E-002   1.7636564275529135E-002   7.7820404064224517E-003
  -5.5852210874308902E-002   1.6775691949843796E-002   7.4386422409414357E-003
  -5.3124060697570363E-002   1.5932377115155490E-002   7.2738352550111626E-003
  -5.0395910520831796E-002   1.5106619771465449E-002   7.2876194486318222E-003
  -4.7667760344093278E-002   1.4298419918772398E-002   7.4799948218038370E-003
  -6.2504139566445183E-002   1.8873925375018641E-002   7.4640122832658751E-004
  -5.9588577783273533E-002   1.7968398119309059E-002   4.5033403141198081E-004
  -5.6673016000101717E-002   1.7090214464445835E-002   3.5049886781249318E-004
  -5.3757454216929984E-002   1.6239374410429393E-002   4.4689573752810380E-004
  -5.0841892433758251E-002   1.5415877957259294E-002   7.3952464055904166E-004
  -3.7625623610183928E-002   1.0946045803311488E-002   2.7638984092223984E-002
  -3.5231211925588979E-002   1.0187656593577010E-002   2.7099327798297212E-002
  -3.2836800240994210E-002   9.4489099054481940E-003   2.6688312832489347E-002
  -3.0442388556399393E-002   8.7298057389249492E-003   2.6405939194799971E-002
  -2.8047976871804520E-002   8.0303440940070470E-003   2.6252206885229779E-002
  -4.1059625932306110E-002   1.2063503841798329E-002   2.0929724547636308E-002
  -3.8547121387292146E-002   1.1288978276665085E-002   2.0480052908587898E-002
  -3.6034616842278253E-002   1.0522629613444218E-002   2.0137925662258693E-002
  -3.3522112297264303E-002   9.7644578521359007E-003   1.9903342808649138E-002
  -3.1009607752250395E-002   9.0144629927400022E-003   1.9776304347758622E-002
  -4.4407004843609231E-002   1.3180961880285391E-002   1.4210061457496231E-002
  -4.1797504373575656E-002   1.2390299959752937E-002   1.3838908853633231E-002
  -3.9188003903542129E-002   1.1596349321440477E-002   1.3554203707090096E-002
  -3.6578503433508582E-002   1.0799109965346856E-002   1.3355946017866833E-002
  -3.3969002963474972E-002   9.9985818914731794E-003   1.3244135785963146E-002
  -4.7667760344093278E-002   1.4298419918772398E-002   7.4799948218038370E-003
  -4.4982360884439535E-002   1.3491621642840956E-002   7.1758956334328425E-003
  -4.2296961424785826E-002   1.2670069029436674E-002   6.9371469669825443E-003
  -3.9611561965132110E-002   1.1833762078558309E-002   6.7637488224525592E-003
  -3.6926162505478373E-002   1.0982700790205691E-002   6.6557011998429963E-003
  -5.0841892433758251E-002   1.5415877957259294E-002   7.3952464055904166E-004
  -4.8101690919883811E-002   1.4592943325928864E-002   4.9101324798733748E-004
  -4.5361489406009370E-002   1.3743788737432427E-002   2.8675544193662583E-004
  -4.2621287892134957E-002   1.2868414191769179E-002   1.2675122240686509E-004
  -3.9881086378260489E-002   1.1966819688939090E-002   1.1000589398291183E-005
  -2.8047976871804520E-002   8.0303440940070470E-003   2.6252206885229779E-002
  -2.5705171211516803E-002   7.3118532724912311E-003   2.5671160380411173E-002
  -2.3362365551229072E-002   6.5356615761743286E-003   2.5036242304385226E-002
  -2.1019559890941349E-002   5.7017690050559441E-003   2.4347452657152019E-002
  -1.8676754230653625E-002   4.8101755591362094E-003   2.3604791438711414E-002
  -3.1009607752250395E-002   9.0144629927400022E-003   1.9776304347758622E-002
  -2.8702570373299680E-002   8.2671605344950549E-003   1.9185350314825822E-002
  -2.6395532994348950E-002   7.5170659766390924E-003   1.8576731290426141E-002
  -2.4088495615398234E-002   6.7641793191726002E-003   1.7950447274560161E-002
  -2.1781458236447504E-002   6.0085005620955645E-003   1.7306498267227244E-002
  -3.3969002963474972E-002   9.9985818914731794E-003   1.3244135785963146E-002
  -3.1661527286120518E-002   9.2224677964988511E-003   1.2698183000106555E-002
  -2.9354051608766061E-002   8.4984703771044251E-003   1.2170771802523836E-002
  -2.7046575931411604E-002   7.8265896332894817E-003   1.1661902193215432E-002
  -2.4739100254057150E-002   7.2068255650549751E-003   1.1171574172180815E-002
  -3.6926162505478373E-002   1.0982700790205691E-002   6.6557011998429963E-003
  -3.4582041949979415E-002   1.0177775058502328E-002   6.2096584362530266E-003
  -3.2237921394480375E-002   9.4798747775689182E-003   5.8183638406781139E-003
  -2.9893800838981448E-002   8.8889999474064726E-003   5.4818174131179408E-003
  -2.7549680283482376E-002   8.4051505680146354E-003   5.2000191535724952E-003
  -3.9881086378260489E-002   1.1966819688939090E-002   1.1000589398291183E-005
  -3.7464114364876178E-002   1.1133082320506249E-002  -2.8022337673427877E-004
  -3.5047142351491978E-002   1.0461279178034300E-002  -4.8049259511118159E-004
  -3.2630170338107722E-002   9.9514102615227973E-003  -5.8980706573241726E-004
  -3.0213198324723467E-002   9.6034755709737407E-003  -6.0816678859798579E-004
  -1.8676754230653625E-002   4.8101755591362094E-003   2.3604791438711414E-002
  -1.5653729196491634E-002   4.0793030194729574E-003   2.4392806136553147E-002
  -1.2630704162329670E-002   3.7275731671252699E-003   2.5654382351586957E-002
  -9.6076791281676788E-003   3.7549860020914330E-003   2.7389520083813068E-002
  -6.5846540940057152E-003   4.1615415243732023E-003   2.9598219333231368E-002
  -2.1781458236447504E-002   6.0085005620955645E-003   1.7306498267227244E-002
  -1.8554186847821286E-002   5.3428330072514130E-003   1.8253238386221449E-002
  -1.5326915459195053E-002   4.8599799564859603E-003   1.9134909696952224E-002
  -1.2099644070568898E-002   4.5599414097973884E-003   1.9951512199419028E-002
  -8.8723726819426030E-003   4.4427173671869324E-003   2.0703045893621930E-002
  -2.4739100254057150E-002   7.2068255650549751E-003   1.1171574172180815E-002
  -2.1846212836422664E-002   6.6063629950307845E-003   1.2080711529090626E-002
  -1.8953325418788171E-002   5.9923867458464147E-003   1.2386149752280862E-002
  -1.6060438001153733E-002   5.3648968175035623E-003   1.2087888841751042E-002
  -1.3167550583519302E-002   4.7238932100006625E-003   1.1185928797501909E-002
  -2.7549680283482376E-002   8.4051505680146354E-003   5.2000191535724952E-003
  -2.5529807162295623E-002   7.8698929828089764E-003   5.8752255651610061E-003
  -2.3509934041108942E-002   7.1247935352069872E-003   5.4081025175732149E-003
  -2.1490060919922262E-002   6.1698522252092939E-003   3.7986500108097791E-003
  -1.9470187798735508E-002   5.0050690528143926E-003   1.0468680448709328E-003
  -3.0213198324723467E-002   9.6034755709737407E-003  -6.0816678859798579E-004
  -2.9604969825440364E-002   9.1334229705880565E-003  -3.6321950556877924E-004
  -2.8996741326157371E-002   8.2572003245676706E-003  -1.7992320071710810E-003
  -2.8388512826874351E-002   6.9748076329153863E-003  -4.9162042934049327E-003
  -2.7780284327591276E-002   5.2862448956279007E-003  -9.7141363642707645E-003
  -6.5846540940057152E-003   4.1615415243732023E-003   2.9598219333231368E-002
  -6.0564457365405167E-003   6.1427485704279583E-003   3.4075461739430213E-002
  -5.5282373790752903E-003   1.0894115976715524E-002   3.9238015026933915E-002
  -5.0000290216101195E-003   1.8415643743234511E-002   4.5085879195742362E-002
  -4.4718206641448655E-003   2.8707331869985531E-002   5.1619054245856333E-002
  -8.8723726819426030E-003   4.4427173671869324E-003   2.0703045893621930E-002
  -7.5865429736739765E-003   5.6588684210200357E-003   2.5872187480200259E-002
  -6.3007132654054193E-003   9.3589551636619750E-003   3.1871260887080810E-002
  -5.0148835571366610E-003   1.5542977595113708E-002   3.8700266114262916E-002
  -3.7290538488682357E-003   2.4210935715374582E-002   4.6359203161747242E-002
  -1.3167550583519302E-002   4.7238932100006625E-003   1.1185928797501909E-002
  -1.0979478585450148E-002   5.1749882716114470E-003   1.6760744893036805E-002
  -8.7914065873809857E-003   7.8237943506088703E-003   2.3310113747871064E-002
  -6.6033345893118794E-003   1.2670311446993349E-002   3.0834035362004700E-002
  -4.4152625912426691E-003   1.9714539560764077E-002   3.9332509735436449E-002
  -1.9470187798735508E-002   5.0050690528143926E-003   1.0468680448709328E-003
  -1.6235252571868773E-002   4.6911081222029694E-003   6.7411339779400309E-003
  -1.3000317345002232E-002   6.2886335375555436E-003   1.3554573609305690E-002
  -9.7653821181355321E-003   9.7976452988727675E-003   2.1487186938967097E-002
  -6.5304468912689637E-003   1.5218143406153462E-002   3.0538973966924093E-002
  -2.7780284327591276E-002   5.2862448956279007E-003  -9.7141363642707645E-003
  -2.3353864932930124E-002   4.2072279727951578E-003  -4.1866452650904940E-003
  -1.8927445538268917E-002   4.7534727245019393E-003   2.6046404713840898E-003
  -1.4501026143607820E-002   6.9249791507523389E-003   1.0659720845151210E-002
  -1.0074606748946557E-002   1.0721747251542624E-002   1.9978595856211090E-002
 </DataArray>
 </PointData>
 </Piece>
 </UnstructuredGrid>
 </VTKFile>
