 <VTKFile type="UnstructuredGrid"  version="0.1"   >
 <UnstructuredGrid>
 <Piece  NumberOfPoints="          1600 "  NumberOfCells="         1024 ">
 <Points>
 <DataArray  type="Float64" NumberOfComponents="3"  format="ascii" >
   0.0000000000000000        0.0000000000000000        0.0000000000000000     
   3.1250000000000000E-002   0.0000000000000000        0.0000000000000000     
   6.2500000000000000E-002   0.0000000000000000        0.0000000000000000     
   9.3750000000000000E-002   0.0000000000000000        0.0000000000000000     
  0.12500000000000000        0.0000000000000000        0.0000000000000000     
   0.0000000000000000        3.1250000000000000E-002   0.0000000000000000     
   3.1250000000000000E-002   3.1250000000000000E-002   0.0000000000000000     
   6.2500000000000000E-002   3.1250000000000000E-002   0.0000000000000000     
   9.3750000000000000E-002   3.1250000000000000E-002   0.0000000000000000     
  0.12500000000000000        3.1250000000000000E-002   0.0000000000000000     
   0.0000000000000000        6.2500000000000000E-002   0.0000000000000000     
   3.1250000000000000E-002   6.2500000000000000E-002   0.0000000000000000     
   6.2500000000000000E-002   6.2500000000000000E-002   0.0000000000000000     
   9.3750000000000000E-002   6.2500000000000000E-002   0.0000000000000000     
  0.12500000000000000        6.2500000000000000E-002   0.0000000000000000     
   0.0000000000000000        9.3750000000000000E-002   0.0000000000000000     
   3.1250000000000000E-002   9.3750000000000000E-002   0.0000000000000000     
   6.2500000000000000E-002   9.3750000000000000E-002   0.0000000000000000     
   9.3750000000000000E-002   9.3750000000000000E-002   0.0000000000000000     
  0.12500000000000000        9.3750000000000000E-002   0.0000000000000000     
   0.0000000000000000       0.12500000000000000        0.0000000000000000     
   3.1250000000000000E-002  0.12500000000000000        0.0000000000000000     
   6.2500000000000000E-002  0.12500000000000000        0.0000000000000000     
   9.3750000000000000E-002  0.12500000000000000        0.0000000000000000     
  0.12500000000000000       0.12500000000000000        0.0000000000000000     
  0.12500000000000000        0.0000000000000000        0.0000000000000000     
  0.15625000000000000        0.0000000000000000        0.0000000000000000     
  0.18750000000000000        0.0000000000000000        0.0000000000000000     
  0.21875000000000000        0.0000000000000000        0.0000000000000000     
  0.25000000000000000        0.0000000000000000        0.0000000000000000     
  0.12500000000000000        3.1250000000000000E-002   0.0000000000000000     
  0.15625000000000000        3.1250000000000000E-002   0.0000000000000000     
  0.18750000000000000        3.1250000000000000E-002   0.0000000000000000     
  0.21875000000000000        3.1250000000000000E-002   0.0000000000000000     
  0.25000000000000000        3.1250000000000000E-002   0.0000000000000000     
  0.12500000000000000        6.2500000000000000E-002   0.0000000000000000     
  0.15625000000000000        6.2500000000000000E-002   0.0000000000000000     
  0.18750000000000000        6.2500000000000000E-002   0.0000000000000000     
  0.21875000000000000        6.2500000000000000E-002   0.0000000000000000     
  0.25000000000000000        6.2500000000000000E-002   0.0000000000000000     
  0.12500000000000000        9.3750000000000000E-002   0.0000000000000000     
  0.15625000000000000        9.3750000000000000E-002   0.0000000000000000     
  0.18750000000000000        9.3750000000000000E-002   0.0000000000000000     
  0.21875000000000000        9.3750000000000000E-002   0.0000000000000000     
  0.25000000000000000        9.3750000000000000E-002   0.0000000000000000     
  0.12500000000000000       0.12500000000000000        0.0000000000000000     
  0.15625000000000000       0.12500000000000000        0.0000000000000000     
  0.18750000000000000       0.12500000000000000        0.0000000000000000     
  0.21875000000000000       0.12500000000000000        0.0000000000000000     
  0.25000000000000000       0.12500000000000000        0.0000000000000000     
  0.25000000000000000        0.0000000000000000        0.0000000000000000     
  0.28125000000000000        0.0000000000000000        0.0000000000000000     
  0.31250000000000000        0.0000000000000000        0.0000000000000000     
  0.34375000000000000        0.0000000000000000        0.0000000000000000     
  0.37500000000000000        0.0000000000000000        0.0000000000000000     
  0.25000000000000000        3.1250000000000000E-002   0.0000000000000000     
  0.28125000000000000        3.1250000000000000E-002   0.0000000000000000     
  0.31250000000000000        3.1250000000000000E-002   0.0000000000000000     
  0.34375000000000000        3.1250000000000000E-002   0.0000000000000000     
  0.37500000000000000        3.1250000000000000E-002   0.0000000000000000     
  0.25000000000000000        6.2500000000000000E-002   0.0000000000000000     
  0.28125000000000000        6.2500000000000000E-002   0.0000000000000000     
  0.31250000000000000        6.2500000000000000E-002   0.0000000000000000     
  0.34375000000000000        6.2500000000000000E-002   0.0000000000000000     
  0.37500000000000000        6.2500000000000000E-002   0.0000000000000000     
  0.25000000000000000        9.3750000000000000E-002   0.0000000000000000     
  0.28125000000000000        9.3750000000000000E-002   0.0000000000000000     
  0.31250000000000000        9.3750000000000000E-002   0.0000000000000000     
  0.34375000000000000        9.3750000000000000E-002   0.0000000000000000     
  0.37500000000000000        9.3750000000000000E-002   0.0000000000000000     
  0.25000000000000000       0.12500000000000000        0.0000000000000000     
  0.28125000000000000       0.12500000000000000        0.0000000000000000     
  0.31250000000000000       0.12500000000000000        0.0000000000000000     
  0.34375000000000000       0.12500000000000000        0.0000000000000000     
  0.37500000000000000       0.12500000000000000        0.0000000000000000     
  0.37500000000000000        0.0000000000000000        0.0000000000000000     
  0.40625000000000000        0.0000000000000000        0.0000000000000000     
  0.43750000000000000        0.0000000000000000        0.0000000000000000     
  0.46875000000000000        0.0000000000000000        0.0000000000000000     
  0.50000000000000000        0.0000000000000000        0.0000000000000000     
  0.37500000000000000        3.1250000000000000E-002   0.0000000000000000     
  0.40625000000000000        3.1250000000000000E-002   0.0000000000000000     
  0.43750000000000000        3.1250000000000000E-002   0.0000000000000000     
  0.46875000000000000        3.1250000000000000E-002   0.0000000000000000     
  0.50000000000000000        3.1250000000000000E-002   0.0000000000000000     
  0.37500000000000000        6.2500000000000000E-002   0.0000000000000000     
  0.40625000000000000        6.2500000000000000E-002   0.0000000000000000     
  0.43750000000000000        6.2500000000000000E-002   0.0000000000000000     
  0.46875000000000000        6.2500000000000000E-002   0.0000000000000000     
  0.50000000000000000        6.2500000000000000E-002   0.0000000000000000     
  0.37500000000000000        9.3750000000000000E-002   0.0000000000000000     
  0.40625000000000000        9.3750000000000000E-002   0.0000000000000000     
  0.43750000000000000        9.3750000000000000E-002   0.0000000000000000     
  0.46875000000000000        9.3750000000000000E-002   0.0000000000000000     
  0.50000000000000000        9.3750000000000000E-002   0.0000000000000000     
  0.37500000000000000       0.12500000000000000        0.0000000000000000     
  0.40625000000000000       0.12500000000000000        0.0000000000000000     
  0.43750000000000000       0.12500000000000000        0.0000000000000000     
  0.46875000000000000       0.12500000000000000        0.0000000000000000     
  0.50000000000000000       0.12500000000000000        0.0000000000000000     
  0.50000000000000000        0.0000000000000000        0.0000000000000000     
  0.53125000000000000        0.0000000000000000        0.0000000000000000     
  0.56250000000000000        0.0000000000000000        0.0000000000000000     
  0.59375000000000000        0.0000000000000000        0.0000000000000000     
  0.62500000000000000        0.0000000000000000        0.0000000000000000     
  0.50000000000000000        3.1250000000000000E-002   0.0000000000000000     
  0.53125000000000000        3.1250000000000000E-002   0.0000000000000000     
  0.56250000000000000        3.1250000000000000E-002   0.0000000000000000     
  0.59375000000000000        3.1250000000000000E-002   0.0000000000000000     
  0.62500000000000000        3.1250000000000000E-002   0.0000000000000000     
  0.50000000000000000        6.2500000000000000E-002   0.0000000000000000     
  0.53125000000000000        6.2500000000000000E-002   0.0000000000000000     
  0.56250000000000000        6.2500000000000000E-002   0.0000000000000000     
  0.59375000000000000        6.2500000000000000E-002   0.0000000000000000     
  0.62500000000000000        6.2500000000000000E-002   0.0000000000000000     
  0.50000000000000000        9.3750000000000000E-002   0.0000000000000000     
  0.53125000000000000        9.3750000000000000E-002   0.0000000000000000     
  0.56250000000000000        9.3750000000000000E-002   0.0000000000000000     
  0.59375000000000000        9.3750000000000000E-002   0.0000000000000000     
  0.62500000000000000        9.3750000000000000E-002   0.0000000000000000     
  0.50000000000000000       0.12500000000000000        0.0000000000000000     
  0.53125000000000000       0.12500000000000000        0.0000000000000000     
  0.56250000000000000       0.12500000000000000        0.0000000000000000     
  0.59375000000000000       0.12500000000000000        0.0000000000000000     
  0.62500000000000000       0.12500000000000000        0.0000000000000000     
  0.62500000000000000        0.0000000000000000        0.0000000000000000     
  0.65625000000000000        0.0000000000000000        0.0000000000000000     
  0.68750000000000000        0.0000000000000000        0.0000000000000000     
  0.71875000000000000        0.0000000000000000        0.0000000000000000     
  0.75000000000000000        0.0000000000000000        0.0000000000000000     
  0.62500000000000000        3.1250000000000000E-002   0.0000000000000000     
  0.65625000000000000        3.1250000000000000E-002   0.0000000000000000     
  0.68750000000000000        3.1250000000000000E-002   0.0000000000000000     
  0.71875000000000000        3.1250000000000000E-002   0.0000000000000000     
  0.75000000000000000        3.1250000000000000E-002   0.0000000000000000     
  0.62500000000000000        6.2500000000000000E-002   0.0000000000000000     
  0.65625000000000000        6.2500000000000000E-002   0.0000000000000000     
  0.68750000000000000        6.2500000000000000E-002   0.0000000000000000     
  0.71875000000000000        6.2500000000000000E-002   0.0000000000000000     
  0.75000000000000000        6.2500000000000000E-002   0.0000000000000000     
  0.62500000000000000        9.3750000000000000E-002   0.0000000000000000     
  0.65625000000000000        9.3750000000000000E-002   0.0000000000000000     
  0.68750000000000000        9.3750000000000000E-002   0.0000000000000000     
  0.71875000000000000        9.3750000000000000E-002   0.0000000000000000     
  0.75000000000000000        9.3750000000000000E-002   0.0000000000000000     
  0.62500000000000000       0.12500000000000000        0.0000000000000000     
  0.65625000000000000       0.12500000000000000        0.0000000000000000     
  0.68750000000000000       0.12500000000000000        0.0000000000000000     
  0.71875000000000000       0.12500000000000000        0.0000000000000000     
  0.75000000000000000       0.12500000000000000        0.0000000000000000     
  0.75000000000000000        0.0000000000000000        0.0000000000000000     
  0.78125000000000000        0.0000000000000000        0.0000000000000000     
  0.81250000000000000        0.0000000000000000        0.0000000000000000     
  0.84375000000000000        0.0000000000000000        0.0000000000000000     
  0.87500000000000000        0.0000000000000000        0.0000000000000000     
  0.75000000000000000        3.1250000000000000E-002   0.0000000000000000     
  0.78125000000000000        3.1250000000000000E-002   0.0000000000000000     
  0.81250000000000000        3.1250000000000000E-002   0.0000000000000000     
  0.84375000000000000        3.1250000000000000E-002   0.0000000000000000     
  0.87500000000000000        3.1250000000000000E-002   0.0000000000000000     
  0.75000000000000000        6.2500000000000000E-002   0.0000000000000000     
  0.78125000000000000        6.2500000000000000E-002   0.0000000000000000     
  0.81250000000000000        6.2500000000000000E-002   0.0000000000000000     
  0.84375000000000000        6.2500000000000000E-002   0.0000000000000000     
  0.87500000000000000        6.2500000000000000E-002   0.0000000000000000     
  0.75000000000000000        9.3750000000000000E-002   0.0000000000000000     
  0.78125000000000000        9.3750000000000000E-002   0.0000000000000000     
  0.81250000000000000        9.3750000000000000E-002   0.0000000000000000     
  0.84375000000000000        9.3750000000000000E-002   0.0000000000000000     
  0.87500000000000000        9.3750000000000000E-002   0.0000000000000000     
  0.75000000000000000       0.12500000000000000        0.0000000000000000     
  0.78125000000000000       0.12500000000000000        0.0000000000000000     
  0.81250000000000000       0.12500000000000000        0.0000000000000000     
  0.84375000000000000       0.12500000000000000        0.0000000000000000     
  0.87500000000000000       0.12500000000000000        0.0000000000000000     
  0.87500000000000000        0.0000000000000000        0.0000000000000000     
  0.90625000000000000        0.0000000000000000        0.0000000000000000     
  0.93750000000000000        0.0000000000000000        0.0000000000000000     
  0.96875000000000000        0.0000000000000000        0.0000000000000000     
   1.0000000000000000        0.0000000000000000        0.0000000000000000     
  0.87500000000000000        3.1250000000000000E-002   0.0000000000000000     
  0.90625000000000000        3.1250000000000000E-002   0.0000000000000000     
  0.93750000000000000        3.1250000000000000E-002   0.0000000000000000     
  0.96875000000000000        3.1250000000000000E-002   0.0000000000000000     
   1.0000000000000000        3.1250000000000000E-002   0.0000000000000000     
  0.87500000000000000        6.2500000000000000E-002   0.0000000000000000     
  0.90625000000000000        6.2500000000000000E-002   0.0000000000000000     
  0.93750000000000000        6.2500000000000000E-002   0.0000000000000000     
  0.96875000000000000        6.2500000000000000E-002   0.0000000000000000     
   1.0000000000000000        6.2500000000000000E-002   0.0000000000000000     
  0.87500000000000000        9.3750000000000000E-002   0.0000000000000000     
  0.90625000000000000        9.3750000000000000E-002   0.0000000000000000     
  0.93750000000000000        9.3750000000000000E-002   0.0000000000000000     
  0.96875000000000000        9.3750000000000000E-002   0.0000000000000000     
   1.0000000000000000        9.3750000000000000E-002   0.0000000000000000     
  0.87500000000000000       0.12500000000000000        0.0000000000000000     
  0.90625000000000000       0.12500000000000000        0.0000000000000000     
  0.93750000000000000       0.12500000000000000        0.0000000000000000     
  0.96875000000000000       0.12500000000000000        0.0000000000000000     
   1.0000000000000000       0.12500000000000000        0.0000000000000000     
   0.0000000000000000       0.12500000000000000        0.0000000000000000     
   3.1250000000000000E-002  0.12500000000000000        0.0000000000000000     
   6.2500000000000000E-002  0.12500000000000000        0.0000000000000000     
   9.3750000000000000E-002  0.12500000000000000        0.0000000000000000     
  0.12500000000000000       0.12500000000000000        0.0000000000000000     
   0.0000000000000000       0.15625000000000000        0.0000000000000000     
   3.1250000000000000E-002  0.15625000000000000        0.0000000000000000     
   6.2500000000000000E-002  0.15625000000000000        0.0000000000000000     
   9.3750000000000000E-002  0.15625000000000000        0.0000000000000000     
  0.12500000000000000       0.15625000000000000        0.0000000000000000     
   0.0000000000000000       0.18750000000000000        0.0000000000000000     
   3.1250000000000000E-002  0.18750000000000000        0.0000000000000000     
   6.2500000000000000E-002  0.18750000000000000        0.0000000000000000     
   9.3750000000000000E-002  0.18750000000000000        0.0000000000000000     
  0.12500000000000000       0.18750000000000000        0.0000000000000000     
   0.0000000000000000       0.21875000000000000        0.0000000000000000     
   3.1250000000000000E-002  0.21875000000000000        0.0000000000000000     
   6.2500000000000000E-002  0.21875000000000000        0.0000000000000000     
   9.3750000000000000E-002  0.21875000000000000        0.0000000000000000     
  0.12500000000000000       0.21875000000000000        0.0000000000000000     
   0.0000000000000000       0.25000000000000000        0.0000000000000000     
   3.1250000000000000E-002  0.25000000000000000        0.0000000000000000     
   6.2500000000000000E-002  0.25000000000000000        0.0000000000000000     
   9.3750000000000000E-002  0.25000000000000000        0.0000000000000000     
  0.12500000000000000       0.25000000000000000        0.0000000000000000     
  0.12500000000000000       0.12500000000000000        0.0000000000000000     
  0.15625000000000000       0.12500000000000000        0.0000000000000000     
  0.18750000000000000       0.12500000000000000        0.0000000000000000     
  0.21875000000000000       0.12500000000000000        0.0000000000000000     
  0.25000000000000000       0.12500000000000000        0.0000000000000000     
  0.12500000000000000       0.15625000000000000        0.0000000000000000     
  0.15625000000000000       0.15625000000000000        0.0000000000000000     
  0.18750000000000000       0.15625000000000000        0.0000000000000000     
  0.21875000000000000       0.15625000000000000        0.0000000000000000     
  0.25000000000000000       0.15625000000000000        0.0000000000000000     
  0.12500000000000000       0.18750000000000000        0.0000000000000000     
  0.15625000000000000       0.18750000000000000        0.0000000000000000     
  0.18750000000000000       0.18750000000000000        0.0000000000000000     
  0.21875000000000000       0.18750000000000000        0.0000000000000000     
  0.25000000000000000       0.18750000000000000        0.0000000000000000     
  0.12500000000000000       0.21875000000000000        0.0000000000000000     
  0.15625000000000000       0.21875000000000000        0.0000000000000000     
  0.18750000000000000       0.21875000000000000        0.0000000000000000     
  0.21875000000000000       0.21875000000000000        0.0000000000000000     
  0.25000000000000000       0.21875000000000000        0.0000000000000000     
  0.12500000000000000       0.25000000000000000        0.0000000000000000     
  0.15625000000000000       0.25000000000000000        0.0000000000000000     
  0.18750000000000000       0.25000000000000000        0.0000000000000000     
  0.21875000000000000       0.25000000000000000        0.0000000000000000     
  0.25000000000000000       0.25000000000000000        0.0000000000000000     
  0.25000000000000000       0.12500000000000000        0.0000000000000000     
  0.28125000000000000       0.12500000000000000        0.0000000000000000     
  0.31250000000000000       0.12500000000000000        0.0000000000000000     
  0.34375000000000000       0.12500000000000000        0.0000000000000000     
  0.37500000000000000       0.12500000000000000        0.0000000000000000     
  0.25000000000000000       0.15625000000000000        0.0000000000000000     
  0.28125000000000000       0.15625000000000000        0.0000000000000000     
  0.31250000000000000       0.15625000000000000        0.0000000000000000     
  0.34375000000000000       0.15625000000000000        0.0000000000000000     
  0.37500000000000000       0.15625000000000000        0.0000000000000000     
  0.25000000000000000       0.18750000000000000        0.0000000000000000     
  0.28125000000000000       0.18750000000000000        0.0000000000000000     
  0.31250000000000000       0.18750000000000000        0.0000000000000000     
  0.34375000000000000       0.18750000000000000        0.0000000000000000     
  0.37500000000000000       0.18750000000000000        0.0000000000000000     
  0.25000000000000000       0.21875000000000000        0.0000000000000000     
  0.28125000000000000       0.21875000000000000        0.0000000000000000     
  0.31250000000000000       0.21875000000000000        0.0000000000000000     
  0.34375000000000000       0.21875000000000000        0.0000000000000000     
  0.37500000000000000       0.21875000000000000        0.0000000000000000     
  0.25000000000000000       0.25000000000000000        0.0000000000000000     
  0.28125000000000000       0.25000000000000000        0.0000000000000000     
  0.31250000000000000       0.25000000000000000        0.0000000000000000     
  0.34375000000000000       0.25000000000000000        0.0000000000000000     
  0.37500000000000000       0.25000000000000000        0.0000000000000000     
  0.37500000000000000       0.12500000000000000        0.0000000000000000     
  0.40625000000000000       0.12500000000000000        0.0000000000000000     
  0.43750000000000000       0.12500000000000000        0.0000000000000000     
  0.46875000000000000       0.12500000000000000        0.0000000000000000     
  0.50000000000000000       0.12500000000000000        0.0000000000000000     
  0.37500000000000000       0.15625000000000000        0.0000000000000000     
  0.40625000000000000       0.15625000000000000        0.0000000000000000     
  0.43750000000000000       0.15625000000000000        0.0000000000000000     
  0.46875000000000000       0.15625000000000000        0.0000000000000000     
  0.50000000000000000       0.15625000000000000        0.0000000000000000     
  0.37500000000000000       0.18750000000000000        0.0000000000000000     
  0.40625000000000000       0.18750000000000000        0.0000000000000000     
  0.43750000000000000       0.18750000000000000        0.0000000000000000     
  0.46875000000000000       0.18750000000000000        0.0000000000000000     
  0.50000000000000000       0.18750000000000000        0.0000000000000000     
  0.37500000000000000       0.21875000000000000        0.0000000000000000     
  0.40625000000000000       0.21875000000000000        0.0000000000000000     
  0.43750000000000000       0.21875000000000000        0.0000000000000000     
  0.46875000000000000       0.21875000000000000        0.0000000000000000     
  0.50000000000000000       0.21875000000000000        0.0000000000000000     
  0.37500000000000000       0.25000000000000000        0.0000000000000000     
  0.40625000000000000       0.25000000000000000        0.0000000000000000     
  0.43750000000000000       0.25000000000000000        0.0000000000000000     
  0.46875000000000000       0.25000000000000000        0.0000000000000000     
  0.50000000000000000       0.25000000000000000        0.0000000000000000     
  0.50000000000000000       0.12500000000000000        0.0000000000000000     
  0.53125000000000000       0.12500000000000000        0.0000000000000000     
  0.56250000000000000       0.12500000000000000        0.0000000000000000     
  0.59375000000000000       0.12500000000000000        0.0000000000000000     
  0.62500000000000000       0.12500000000000000        0.0000000000000000     
  0.50000000000000000       0.15625000000000000        0.0000000000000000     
  0.53125000000000000       0.15625000000000000        0.0000000000000000     
  0.56250000000000000       0.15625000000000000        0.0000000000000000     
  0.59375000000000000       0.15625000000000000        0.0000000000000000     
  0.62500000000000000       0.15625000000000000        0.0000000000000000     
  0.50000000000000000       0.18750000000000000        0.0000000000000000     
  0.53125000000000000       0.18750000000000000        0.0000000000000000     
  0.56250000000000000       0.18750000000000000        0.0000000000000000     
  0.59375000000000000       0.18750000000000000        0.0000000000000000     
  0.62500000000000000       0.18750000000000000        0.0000000000000000     
  0.50000000000000000       0.21875000000000000        0.0000000000000000     
  0.53125000000000000       0.21875000000000000        0.0000000000000000     
  0.56250000000000000       0.21875000000000000        0.0000000000000000     
  0.59375000000000000       0.21875000000000000        0.0000000000000000     
  0.62500000000000000       0.21875000000000000        0.0000000000000000     
  0.50000000000000000       0.25000000000000000        0.0000000000000000     
  0.53125000000000000       0.25000000000000000        0.0000000000000000     
  0.56250000000000000       0.25000000000000000        0.0000000000000000     
  0.59375000000000000       0.25000000000000000        0.0000000000000000     
  0.62500000000000000       0.25000000000000000        0.0000000000000000     
  0.62500000000000000       0.12500000000000000        0.0000000000000000     
  0.65625000000000000       0.12500000000000000        0.0000000000000000     
  0.68750000000000000       0.12500000000000000        0.0000000000000000     
  0.71875000000000000       0.12500000000000000        0.0000000000000000     
  0.75000000000000000       0.12500000000000000        0.0000000000000000     
  0.62500000000000000       0.15625000000000000        0.0000000000000000     
  0.65625000000000000       0.15625000000000000        0.0000000000000000     
  0.68750000000000000       0.15625000000000000        0.0000000000000000     
  0.71875000000000000       0.15625000000000000        0.0000000000000000     
  0.75000000000000000       0.15625000000000000        0.0000000000000000     
  0.62500000000000000       0.18750000000000000        0.0000000000000000     
  0.65625000000000000       0.18750000000000000        0.0000000000000000     
  0.68750000000000000       0.18750000000000000        0.0000000000000000     
  0.71875000000000000       0.18750000000000000        0.0000000000000000     
  0.75000000000000000       0.18750000000000000        0.0000000000000000     
  0.62500000000000000       0.21875000000000000        0.0000000000000000     
  0.65625000000000000       0.21875000000000000        0.0000000000000000     
  0.68750000000000000       0.21875000000000000        0.0000000000000000     
  0.71875000000000000       0.21875000000000000        0.0000000000000000     
  0.75000000000000000       0.21875000000000000        0.0000000000000000     
  0.62500000000000000       0.25000000000000000        0.0000000000000000     
  0.65625000000000000       0.25000000000000000        0.0000000000000000     
  0.68750000000000000       0.25000000000000000        0.0000000000000000     
  0.71875000000000000       0.25000000000000000        0.0000000000000000     
  0.75000000000000000       0.25000000000000000        0.0000000000000000     
  0.75000000000000000       0.12500000000000000        0.0000000000000000     
  0.78125000000000000       0.12500000000000000        0.0000000000000000     
  0.81250000000000000       0.12500000000000000        0.0000000000000000     
  0.84375000000000000       0.12500000000000000        0.0000000000000000     
  0.87500000000000000       0.12500000000000000        0.0000000000000000     
  0.75000000000000000       0.15625000000000000        0.0000000000000000     
  0.78125000000000000       0.15625000000000000        0.0000000000000000     
  0.81250000000000000       0.15625000000000000        0.0000000000000000     
  0.84375000000000000       0.15625000000000000        0.0000000000000000     
  0.87500000000000000       0.15625000000000000        0.0000000000000000     
  0.75000000000000000       0.18750000000000000        0.0000000000000000     
  0.78125000000000000       0.18750000000000000        0.0000000000000000     
  0.81250000000000000       0.18750000000000000        0.0000000000000000     
  0.84375000000000000       0.18750000000000000        0.0000000000000000     
  0.87500000000000000       0.18750000000000000        0.0000000000000000     
  0.75000000000000000       0.21875000000000000        0.0000000000000000     
  0.78125000000000000       0.21875000000000000        0.0000000000000000     
  0.81250000000000000       0.21875000000000000        0.0000000000000000     
  0.84375000000000000       0.21875000000000000        0.0000000000000000     
  0.87500000000000000       0.21875000000000000        0.0000000000000000     
  0.75000000000000000       0.25000000000000000        0.0000000000000000     
  0.78125000000000000       0.25000000000000000        0.0000000000000000     
  0.81250000000000000       0.25000000000000000        0.0000000000000000     
  0.84375000000000000       0.25000000000000000        0.0000000000000000     
  0.87500000000000000       0.25000000000000000        0.0000000000000000     
  0.87500000000000000       0.12500000000000000        0.0000000000000000     
  0.90625000000000000       0.12500000000000000        0.0000000000000000     
  0.93750000000000000       0.12500000000000000        0.0000000000000000     
  0.96875000000000000       0.12500000000000000        0.0000000000000000     
   1.0000000000000000       0.12500000000000000        0.0000000000000000     
  0.87500000000000000       0.15625000000000000        0.0000000000000000     
  0.90625000000000000       0.15625000000000000        0.0000000000000000     
  0.93750000000000000       0.15625000000000000        0.0000000000000000     
  0.96875000000000000       0.15625000000000000        0.0000000000000000     
   1.0000000000000000       0.15625000000000000        0.0000000000000000     
  0.87500000000000000       0.18750000000000000        0.0000000000000000     
  0.90625000000000000       0.18750000000000000        0.0000000000000000     
  0.93750000000000000       0.18750000000000000        0.0000000000000000     
  0.96875000000000000       0.18750000000000000        0.0000000000000000     
   1.0000000000000000       0.18750000000000000        0.0000000000000000     
  0.87500000000000000       0.21875000000000000        0.0000000000000000     
  0.90625000000000000       0.21875000000000000        0.0000000000000000     
  0.93750000000000000       0.21875000000000000        0.0000000000000000     
  0.96875000000000000       0.21875000000000000        0.0000000000000000     
   1.0000000000000000       0.21875000000000000        0.0000000000000000     
  0.87500000000000000       0.25000000000000000        0.0000000000000000     
  0.90625000000000000       0.25000000000000000        0.0000000000000000     
  0.93750000000000000       0.25000000000000000        0.0000000000000000     
  0.96875000000000000       0.25000000000000000        0.0000000000000000     
   1.0000000000000000       0.25000000000000000        0.0000000000000000     
   0.0000000000000000       0.25000000000000000        0.0000000000000000     
   3.1250000000000000E-002  0.25000000000000000        0.0000000000000000     
   6.2500000000000000E-002  0.25000000000000000        0.0000000000000000     
   9.3750000000000000E-002  0.25000000000000000        0.0000000000000000     
  0.12500000000000000       0.25000000000000000        0.0000000000000000     
   0.0000000000000000       0.28125000000000000        0.0000000000000000     
   3.1250000000000000E-002  0.28125000000000000        0.0000000000000000     
   6.2500000000000000E-002  0.28125000000000000        0.0000000000000000     
   9.3750000000000000E-002  0.28125000000000000        0.0000000000000000     
  0.12500000000000000       0.28125000000000000        0.0000000000000000     
   0.0000000000000000       0.31250000000000000        0.0000000000000000     
   3.1250000000000000E-002  0.31250000000000000        0.0000000000000000     
   6.2500000000000000E-002  0.31250000000000000        0.0000000000000000     
   9.3750000000000000E-002  0.31250000000000000        0.0000000000000000     
  0.12500000000000000       0.31250000000000000        0.0000000000000000     
   0.0000000000000000       0.34375000000000000        0.0000000000000000     
   3.1250000000000000E-002  0.34375000000000000        0.0000000000000000     
   6.2500000000000000E-002  0.34375000000000000        0.0000000000000000     
   9.3750000000000000E-002  0.34375000000000000        0.0000000000000000     
  0.12500000000000000       0.34375000000000000        0.0000000000000000     
   0.0000000000000000       0.37500000000000000        0.0000000000000000     
   3.1250000000000000E-002  0.37500000000000000        0.0000000000000000     
   6.2500000000000000E-002  0.37500000000000000        0.0000000000000000     
   9.3750000000000000E-002  0.37500000000000000        0.0000000000000000     
  0.12500000000000000       0.37500000000000000        0.0000000000000000     
  0.12500000000000000       0.25000000000000000        0.0000000000000000     
  0.15625000000000000       0.25000000000000000        0.0000000000000000     
  0.18750000000000000       0.25000000000000000        0.0000000000000000     
  0.21875000000000000       0.25000000000000000        0.0000000000000000     
  0.25000000000000000       0.25000000000000000        0.0000000000000000     
  0.12500000000000000       0.28125000000000000        0.0000000000000000     
  0.15625000000000000       0.28125000000000000        0.0000000000000000     
  0.18750000000000000       0.28125000000000000        0.0000000000000000     
  0.21875000000000000       0.28125000000000000        0.0000000000000000     
  0.25000000000000000       0.28125000000000000        0.0000000000000000     
  0.12500000000000000       0.31250000000000000        0.0000000000000000     
  0.15625000000000000       0.31250000000000000        0.0000000000000000     
  0.18750000000000000       0.31250000000000000        0.0000000000000000     
  0.21875000000000000       0.31250000000000000        0.0000000000000000     
  0.25000000000000000       0.31250000000000000        0.0000000000000000     
  0.12500000000000000       0.34375000000000000        0.0000000000000000     
  0.15625000000000000       0.34375000000000000        0.0000000000000000     
  0.18750000000000000       0.34375000000000000        0.0000000000000000     
  0.21875000000000000       0.34375000000000000        0.0000000000000000     
  0.25000000000000000       0.34375000000000000        0.0000000000000000     
  0.12500000000000000       0.37500000000000000        0.0000000000000000     
  0.15625000000000000       0.37500000000000000        0.0000000000000000     
  0.18750000000000000       0.37500000000000000        0.0000000000000000     
  0.21875000000000000       0.37500000000000000        0.0000000000000000     
  0.25000000000000000       0.37500000000000000        0.0000000000000000     
  0.25000000000000000       0.25000000000000000        0.0000000000000000     
  0.28125000000000000       0.25000000000000000        0.0000000000000000     
  0.31250000000000000       0.25000000000000000        0.0000000000000000     
  0.34375000000000000       0.25000000000000000        0.0000000000000000     
  0.37500000000000000       0.25000000000000000        0.0000000000000000     
  0.25000000000000000       0.28125000000000000        0.0000000000000000     
  0.28125000000000000       0.28125000000000000        0.0000000000000000     
  0.31250000000000000       0.28125000000000000        0.0000000000000000     
  0.34375000000000000       0.28125000000000000        0.0000000000000000     
  0.37500000000000000       0.28125000000000000        0.0000000000000000     
  0.25000000000000000       0.31250000000000000        0.0000000000000000     
  0.28125000000000000       0.31250000000000000        0.0000000000000000     
  0.31250000000000000       0.31250000000000000        0.0000000000000000     
  0.34375000000000000       0.31250000000000000        0.0000000000000000     
  0.37500000000000000       0.31250000000000000        0.0000000000000000     
  0.25000000000000000       0.34375000000000000        0.0000000000000000     
  0.28125000000000000       0.34375000000000000        0.0000000000000000     
  0.31250000000000000       0.34375000000000000        0.0000000000000000     
  0.34375000000000000       0.34375000000000000        0.0000000000000000     
  0.37500000000000000       0.34375000000000000        0.0000000000000000     
  0.25000000000000000       0.37500000000000000        0.0000000000000000     
  0.28125000000000000       0.37500000000000000        0.0000000000000000     
  0.31250000000000000       0.37500000000000000        0.0000000000000000     
  0.34375000000000000       0.37500000000000000        0.0000000000000000     
  0.37500000000000000       0.37500000000000000        0.0000000000000000     
  0.37500000000000000       0.25000000000000000        0.0000000000000000     
  0.40625000000000000       0.25000000000000000        0.0000000000000000     
  0.43750000000000000       0.25000000000000000        0.0000000000000000     
  0.46875000000000000       0.25000000000000000        0.0000000000000000     
  0.50000000000000000       0.25000000000000000        0.0000000000000000     
  0.37500000000000000       0.28125000000000000        0.0000000000000000     
  0.40625000000000000       0.28125000000000000        0.0000000000000000     
  0.43750000000000000       0.28125000000000000        0.0000000000000000     
  0.46875000000000000       0.28125000000000000        0.0000000000000000     
  0.50000000000000000       0.28125000000000000        0.0000000000000000     
  0.37500000000000000       0.31250000000000000        0.0000000000000000     
  0.40625000000000000       0.31250000000000000        0.0000000000000000     
  0.43750000000000000       0.31250000000000000        0.0000000000000000     
  0.46875000000000000       0.31250000000000000        0.0000000000000000     
  0.50000000000000000       0.31250000000000000        0.0000000000000000     
  0.37500000000000000       0.34375000000000000        0.0000000000000000     
  0.40625000000000000       0.34375000000000000        0.0000000000000000     
  0.43750000000000000       0.34375000000000000        0.0000000000000000     
  0.46875000000000000       0.34375000000000000        0.0000000000000000     
  0.50000000000000000       0.34375000000000000        0.0000000000000000     
  0.37500000000000000       0.37500000000000000        0.0000000000000000     
  0.40625000000000000       0.37500000000000000        0.0000000000000000     
  0.43750000000000000       0.37500000000000000        0.0000000000000000     
  0.46875000000000000       0.37500000000000000        0.0000000000000000     
  0.50000000000000000       0.37500000000000000        0.0000000000000000     
  0.50000000000000000       0.25000000000000000        0.0000000000000000     
  0.53125000000000000       0.25000000000000000        0.0000000000000000     
  0.56250000000000000       0.25000000000000000        0.0000000000000000     
  0.59375000000000000       0.25000000000000000        0.0000000000000000     
  0.62500000000000000       0.25000000000000000        0.0000000000000000     
  0.50000000000000000       0.28125000000000000        0.0000000000000000     
  0.53125000000000000       0.28125000000000000        0.0000000000000000     
  0.56250000000000000       0.28125000000000000        0.0000000000000000     
  0.59375000000000000       0.28125000000000000        0.0000000000000000     
  0.62500000000000000       0.28125000000000000        0.0000000000000000     
  0.50000000000000000       0.31250000000000000        0.0000000000000000     
  0.53125000000000000       0.31250000000000000        0.0000000000000000     
  0.56250000000000000       0.31250000000000000        0.0000000000000000     
  0.59375000000000000       0.31250000000000000        0.0000000000000000     
  0.62500000000000000       0.31250000000000000        0.0000000000000000     
  0.50000000000000000       0.34375000000000000        0.0000000000000000     
  0.53125000000000000       0.34375000000000000        0.0000000000000000     
  0.56250000000000000       0.34375000000000000        0.0000000000000000     
  0.59375000000000000       0.34375000000000000        0.0000000000000000     
  0.62500000000000000       0.34375000000000000        0.0000000000000000     
  0.50000000000000000       0.37500000000000000        0.0000000000000000     
  0.53125000000000000       0.37500000000000000        0.0000000000000000     
  0.56250000000000000       0.37500000000000000        0.0000000000000000     
  0.59375000000000000       0.37500000000000000        0.0000000000000000     
  0.62500000000000000       0.37500000000000000        0.0000000000000000     
  0.62500000000000000       0.25000000000000000        0.0000000000000000     
  0.65625000000000000       0.25000000000000000        0.0000000000000000     
  0.68750000000000000       0.25000000000000000        0.0000000000000000     
  0.71875000000000000       0.25000000000000000        0.0000000000000000     
  0.75000000000000000       0.25000000000000000        0.0000000000000000     
  0.62500000000000000       0.28125000000000000        0.0000000000000000     
  0.65625000000000000       0.28125000000000000        0.0000000000000000     
  0.68750000000000000       0.28125000000000000        0.0000000000000000     
  0.71875000000000000       0.28125000000000000        0.0000000000000000     
  0.75000000000000000       0.28125000000000000        0.0000000000000000     
  0.62500000000000000       0.31250000000000000        0.0000000000000000     
  0.65625000000000000       0.31250000000000000        0.0000000000000000     
  0.68750000000000000       0.31250000000000000        0.0000000000000000     
  0.71875000000000000       0.31250000000000000        0.0000000000000000     
  0.75000000000000000       0.31250000000000000        0.0000000000000000     
  0.62500000000000000       0.34375000000000000        0.0000000000000000     
  0.65625000000000000       0.34375000000000000        0.0000000000000000     
  0.68750000000000000       0.34375000000000000        0.0000000000000000     
  0.71875000000000000       0.34375000000000000        0.0000000000000000     
  0.75000000000000000       0.34375000000000000        0.0000000000000000     
  0.62500000000000000       0.37500000000000000        0.0000000000000000     
  0.65625000000000000       0.37500000000000000        0.0000000000000000     
  0.68750000000000000       0.37500000000000000        0.0000000000000000     
  0.71875000000000000       0.37500000000000000        0.0000000000000000     
  0.75000000000000000       0.37500000000000000        0.0000000000000000     
  0.75000000000000000       0.25000000000000000        0.0000000000000000     
  0.78125000000000000       0.25000000000000000        0.0000000000000000     
  0.81250000000000000       0.25000000000000000        0.0000000000000000     
  0.84375000000000000       0.25000000000000000        0.0000000000000000     
  0.87500000000000000       0.25000000000000000        0.0000000000000000     
  0.75000000000000000       0.28125000000000000        0.0000000000000000     
  0.78125000000000000       0.28125000000000000        0.0000000000000000     
  0.81250000000000000       0.28125000000000000        0.0000000000000000     
  0.84375000000000000       0.28125000000000000        0.0000000000000000     
  0.87500000000000000       0.28125000000000000        0.0000000000000000     
  0.75000000000000000       0.31250000000000000        0.0000000000000000     
  0.78125000000000000       0.31250000000000000        0.0000000000000000     
  0.81250000000000000       0.31250000000000000        0.0000000000000000     
  0.84375000000000000       0.31250000000000000        0.0000000000000000     
  0.87500000000000000       0.31250000000000000        0.0000000000000000     
  0.75000000000000000       0.34375000000000000        0.0000000000000000     
  0.78125000000000000       0.34375000000000000        0.0000000000000000     
  0.81250000000000000       0.34375000000000000        0.0000000000000000     
  0.84375000000000000       0.34375000000000000        0.0000000000000000     
  0.87500000000000000       0.34375000000000000        0.0000000000000000     
  0.75000000000000000       0.37500000000000000        0.0000000000000000     
  0.78125000000000000       0.37500000000000000        0.0000000000000000     
  0.81250000000000000       0.37500000000000000        0.0000000000000000     
  0.84375000000000000       0.37500000000000000        0.0000000000000000     
  0.87500000000000000       0.37500000000000000        0.0000000000000000     
  0.87500000000000000       0.25000000000000000        0.0000000000000000     
  0.90625000000000000       0.25000000000000000        0.0000000000000000     
  0.93750000000000000       0.25000000000000000        0.0000000000000000     
  0.96875000000000000       0.25000000000000000        0.0000000000000000     
   1.0000000000000000       0.25000000000000000        0.0000000000000000     
  0.87500000000000000       0.28125000000000000        0.0000000000000000     
  0.90625000000000000       0.28125000000000000        0.0000000000000000     
  0.93750000000000000       0.28125000000000000        0.0000000000000000     
  0.96875000000000000       0.28125000000000000        0.0000000000000000     
   1.0000000000000000       0.28125000000000000        0.0000000000000000     
  0.87500000000000000       0.31250000000000000        0.0000000000000000     
  0.90625000000000000       0.31250000000000000        0.0000000000000000     
  0.93750000000000000       0.31250000000000000        0.0000000000000000     
  0.96875000000000000       0.31250000000000000        0.0000000000000000     
   1.0000000000000000       0.31250000000000000        0.0000000000000000     
  0.87500000000000000       0.34375000000000000        0.0000000000000000     
  0.90625000000000000       0.34375000000000000        0.0000000000000000     
  0.93750000000000000       0.34375000000000000        0.0000000000000000     
  0.96875000000000000       0.34375000000000000        0.0000000000000000     
   1.0000000000000000       0.34375000000000000        0.0000000000000000     
  0.87500000000000000       0.37500000000000000        0.0000000000000000     
  0.90625000000000000       0.37500000000000000        0.0000000000000000     
  0.93750000000000000       0.37500000000000000        0.0000000000000000     
  0.96875000000000000       0.37500000000000000        0.0000000000000000     
   1.0000000000000000       0.37500000000000000        0.0000000000000000     
   0.0000000000000000       0.37500000000000000        0.0000000000000000     
   3.1250000000000000E-002  0.37500000000000000        0.0000000000000000     
   6.2500000000000000E-002  0.37500000000000000        0.0000000000000000     
   9.3750000000000000E-002  0.37500000000000000        0.0000000000000000     
  0.12500000000000000       0.37500000000000000        0.0000000000000000     
   0.0000000000000000       0.40625000000000000        0.0000000000000000     
   3.1250000000000000E-002  0.40625000000000000        0.0000000000000000     
   6.2500000000000000E-002  0.40625000000000000        0.0000000000000000     
   9.3750000000000000E-002  0.40625000000000000        0.0000000000000000     
  0.12500000000000000       0.40625000000000000        0.0000000000000000     
   0.0000000000000000       0.43750000000000000        0.0000000000000000     
   3.1250000000000000E-002  0.43750000000000000        0.0000000000000000     
   6.2500000000000000E-002  0.43750000000000000        0.0000000000000000     
   9.3750000000000000E-002  0.43750000000000000        0.0000000000000000     
  0.12500000000000000       0.43750000000000000        0.0000000000000000     
   0.0000000000000000       0.46875000000000000        0.0000000000000000     
   3.1250000000000000E-002  0.46875000000000000        0.0000000000000000     
   6.2500000000000000E-002  0.46875000000000000        0.0000000000000000     
   9.3750000000000000E-002  0.46875000000000000        0.0000000000000000     
  0.12500000000000000       0.46875000000000000        0.0000000000000000     
   0.0000000000000000       0.50000000000000000        0.0000000000000000     
   3.1250000000000000E-002  0.50000000000000000        0.0000000000000000     
   6.2500000000000000E-002  0.50000000000000000        0.0000000000000000     
   9.3750000000000000E-002  0.50000000000000000        0.0000000000000000     
  0.12500000000000000       0.50000000000000000        0.0000000000000000     
  0.12500000000000000       0.37500000000000000        0.0000000000000000     
  0.15625000000000000       0.37500000000000000        0.0000000000000000     
  0.18750000000000000       0.37500000000000000        0.0000000000000000     
  0.21875000000000000       0.37500000000000000        0.0000000000000000     
  0.25000000000000000       0.37500000000000000        0.0000000000000000     
  0.12500000000000000       0.40625000000000000        0.0000000000000000     
  0.15625000000000000       0.40625000000000000        0.0000000000000000     
  0.18750000000000000       0.40625000000000000        0.0000000000000000     
  0.21875000000000000       0.40625000000000000        0.0000000000000000     
  0.25000000000000000       0.40625000000000000        0.0000000000000000     
  0.12500000000000000       0.43750000000000000        0.0000000000000000     
  0.15625000000000000       0.43750000000000000        0.0000000000000000     
  0.18750000000000000       0.43750000000000000        0.0000000000000000     
  0.21875000000000000       0.43750000000000000        0.0000000000000000     
  0.25000000000000000       0.43750000000000000        0.0000000000000000     
  0.12500000000000000       0.46875000000000000        0.0000000000000000     
  0.15625000000000000       0.46875000000000000        0.0000000000000000     
  0.18750000000000000       0.46875000000000000        0.0000000000000000     
  0.21875000000000000       0.46875000000000000        0.0000000000000000     
  0.25000000000000000       0.46875000000000000        0.0000000000000000     
  0.12500000000000000       0.50000000000000000        0.0000000000000000     
  0.15625000000000000       0.50000000000000000        0.0000000000000000     
  0.18750000000000000       0.50000000000000000        0.0000000000000000     
  0.21875000000000000       0.50000000000000000        0.0000000000000000     
  0.25000000000000000       0.50000000000000000        0.0000000000000000     
  0.25000000000000000       0.37500000000000000        0.0000000000000000     
  0.28125000000000000       0.37500000000000000        0.0000000000000000     
  0.31250000000000000       0.37500000000000000        0.0000000000000000     
  0.34375000000000000       0.37500000000000000        0.0000000000000000     
  0.37500000000000000       0.37500000000000000        0.0000000000000000     
  0.25000000000000000       0.40625000000000000        0.0000000000000000     
  0.28125000000000000       0.40625000000000000        0.0000000000000000     
  0.31250000000000000       0.40625000000000000        0.0000000000000000     
  0.34375000000000000       0.40625000000000000        0.0000000000000000     
  0.37500000000000000       0.40625000000000000        0.0000000000000000     
  0.25000000000000000       0.43750000000000000        0.0000000000000000     
  0.28125000000000000       0.43750000000000000        0.0000000000000000     
  0.31250000000000000       0.43750000000000000        0.0000000000000000     
  0.34375000000000000       0.43750000000000000        0.0000000000000000     
  0.37500000000000000       0.43750000000000000        0.0000000000000000     
  0.25000000000000000       0.46875000000000000        0.0000000000000000     
  0.28125000000000000       0.46875000000000000        0.0000000000000000     
  0.31250000000000000       0.46875000000000000        0.0000000000000000     
  0.34375000000000000       0.46875000000000000        0.0000000000000000     
  0.37500000000000000       0.46875000000000000        0.0000000000000000     
  0.25000000000000000       0.50000000000000000        0.0000000000000000     
  0.28125000000000000       0.50000000000000000        0.0000000000000000     
  0.31250000000000000       0.50000000000000000        0.0000000000000000     
  0.34375000000000000       0.50000000000000000        0.0000000000000000     
  0.37500000000000000       0.50000000000000000        0.0000000000000000     
  0.37500000000000000       0.37500000000000000        0.0000000000000000     
  0.40625000000000000       0.37500000000000000        0.0000000000000000     
  0.43750000000000000       0.37500000000000000        0.0000000000000000     
  0.46875000000000000       0.37500000000000000        0.0000000000000000     
  0.50000000000000000       0.37500000000000000        0.0000000000000000     
  0.37500000000000000       0.40625000000000000        0.0000000000000000     
  0.40625000000000000       0.40625000000000000        0.0000000000000000     
  0.43750000000000000       0.40625000000000000        0.0000000000000000     
  0.46875000000000000       0.40625000000000000        0.0000000000000000     
  0.50000000000000000       0.40625000000000000        0.0000000000000000     
  0.37500000000000000       0.43750000000000000        0.0000000000000000     
  0.40625000000000000       0.43750000000000000        0.0000000000000000     
  0.43750000000000000       0.43750000000000000        0.0000000000000000     
  0.46875000000000000       0.43750000000000000        0.0000000000000000     
  0.50000000000000000       0.43750000000000000        0.0000000000000000     
  0.37500000000000000       0.46875000000000000        0.0000000000000000     
  0.40625000000000000       0.46875000000000000        0.0000000000000000     
  0.43750000000000000       0.46875000000000000        0.0000000000000000     
  0.46875000000000000       0.46875000000000000        0.0000000000000000     
  0.50000000000000000       0.46875000000000000        0.0000000000000000     
  0.37500000000000000       0.50000000000000000        0.0000000000000000     
  0.40625000000000000       0.50000000000000000        0.0000000000000000     
  0.43750000000000000       0.50000000000000000        0.0000000000000000     
  0.46875000000000000       0.50000000000000000        0.0000000000000000     
  0.50000000000000000       0.50000000000000000        0.0000000000000000     
  0.50000000000000000       0.37500000000000000        0.0000000000000000     
  0.53125000000000000       0.37500000000000000        0.0000000000000000     
  0.56250000000000000       0.37500000000000000        0.0000000000000000     
  0.59375000000000000       0.37500000000000000        0.0000000000000000     
  0.62500000000000000       0.37500000000000000        0.0000000000000000     
  0.50000000000000000       0.40625000000000000        0.0000000000000000     
  0.53125000000000000       0.40625000000000000        0.0000000000000000     
  0.56250000000000000       0.40625000000000000        0.0000000000000000     
  0.59375000000000000       0.40625000000000000        0.0000000000000000     
  0.62500000000000000       0.40625000000000000        0.0000000000000000     
  0.50000000000000000       0.43750000000000000        0.0000000000000000     
  0.53125000000000000       0.43750000000000000        0.0000000000000000     
  0.56250000000000000       0.43750000000000000        0.0000000000000000     
  0.59375000000000000       0.43750000000000000        0.0000000000000000     
  0.62500000000000000       0.43750000000000000        0.0000000000000000     
  0.50000000000000000       0.46875000000000000        0.0000000000000000     
  0.53125000000000000       0.46875000000000000        0.0000000000000000     
  0.56250000000000000       0.46875000000000000        0.0000000000000000     
  0.59375000000000000       0.46875000000000000        0.0000000000000000     
  0.62500000000000000       0.46875000000000000        0.0000000000000000     
  0.50000000000000000       0.50000000000000000        0.0000000000000000     
  0.53125000000000000       0.50000000000000000        0.0000000000000000     
  0.56250000000000000       0.50000000000000000        0.0000000000000000     
  0.59375000000000000       0.50000000000000000        0.0000000000000000     
  0.62500000000000000       0.50000000000000000        0.0000000000000000     
  0.62500000000000000       0.37500000000000000        0.0000000000000000     
  0.65625000000000000       0.37500000000000000        0.0000000000000000     
  0.68750000000000000       0.37500000000000000        0.0000000000000000     
  0.71875000000000000       0.37500000000000000        0.0000000000000000     
  0.75000000000000000       0.37500000000000000        0.0000000000000000     
  0.62500000000000000       0.40625000000000000        0.0000000000000000     
  0.65625000000000000       0.40625000000000000        0.0000000000000000     
  0.68750000000000000       0.40625000000000000        0.0000000000000000     
  0.71875000000000000       0.40625000000000000        0.0000000000000000     
  0.75000000000000000       0.40625000000000000        0.0000000000000000     
  0.62500000000000000       0.43750000000000000        0.0000000000000000     
  0.65625000000000000       0.43750000000000000        0.0000000000000000     
  0.68750000000000000       0.43750000000000000        0.0000000000000000     
  0.71875000000000000       0.43750000000000000        0.0000000000000000     
  0.75000000000000000       0.43750000000000000        0.0000000000000000     
  0.62500000000000000       0.46875000000000000        0.0000000000000000     
  0.65625000000000000       0.46875000000000000        0.0000000000000000     
  0.68750000000000000       0.46875000000000000        0.0000000000000000     
  0.71875000000000000       0.46875000000000000        0.0000000000000000     
  0.75000000000000000       0.46875000000000000        0.0000000000000000     
  0.62500000000000000       0.50000000000000000        0.0000000000000000     
  0.65625000000000000       0.50000000000000000        0.0000000000000000     
  0.68750000000000000       0.50000000000000000        0.0000000000000000     
  0.71875000000000000       0.50000000000000000        0.0000000000000000     
  0.75000000000000000       0.50000000000000000        0.0000000000000000     
  0.75000000000000000       0.37500000000000000        0.0000000000000000     
  0.78125000000000000       0.37500000000000000        0.0000000000000000     
  0.81250000000000000       0.37500000000000000        0.0000000000000000     
  0.84375000000000000       0.37500000000000000        0.0000000000000000     
  0.87500000000000000       0.37500000000000000        0.0000000000000000     
  0.75000000000000000       0.40625000000000000        0.0000000000000000     
  0.78125000000000000       0.40625000000000000        0.0000000000000000     
  0.81250000000000000       0.40625000000000000        0.0000000000000000     
  0.84375000000000000       0.40625000000000000        0.0000000000000000     
  0.87500000000000000       0.40625000000000000        0.0000000000000000     
  0.75000000000000000       0.43750000000000000        0.0000000000000000     
  0.78125000000000000       0.43750000000000000        0.0000000000000000     
  0.81250000000000000       0.43750000000000000        0.0000000000000000     
  0.84375000000000000       0.43750000000000000        0.0000000000000000     
  0.87500000000000000       0.43750000000000000        0.0000000000000000     
  0.75000000000000000       0.46875000000000000        0.0000000000000000     
  0.78125000000000000       0.46875000000000000        0.0000000000000000     
  0.81250000000000000       0.46875000000000000        0.0000000000000000     
  0.84375000000000000       0.46875000000000000        0.0000000000000000     
  0.87500000000000000       0.46875000000000000        0.0000000000000000     
  0.75000000000000000       0.50000000000000000        0.0000000000000000     
  0.78125000000000000       0.50000000000000000        0.0000000000000000     
  0.81250000000000000       0.50000000000000000        0.0000000000000000     
  0.84375000000000000       0.50000000000000000        0.0000000000000000     
  0.87500000000000000       0.50000000000000000        0.0000000000000000     
  0.87500000000000000       0.37500000000000000        0.0000000000000000     
  0.90625000000000000       0.37500000000000000        0.0000000000000000     
  0.93750000000000000       0.37500000000000000        0.0000000000000000     
  0.96875000000000000       0.37500000000000000        0.0000000000000000     
   1.0000000000000000       0.37500000000000000        0.0000000000000000     
  0.87500000000000000       0.40625000000000000        0.0000000000000000     
  0.90625000000000000       0.40625000000000000        0.0000000000000000     
  0.93750000000000000       0.40625000000000000        0.0000000000000000     
  0.96875000000000000       0.40625000000000000        0.0000000000000000     
   1.0000000000000000       0.40625000000000000        0.0000000000000000     
  0.87500000000000000       0.43750000000000000        0.0000000000000000     
  0.90625000000000000       0.43750000000000000        0.0000000000000000     
  0.93750000000000000       0.43750000000000000        0.0000000000000000     
  0.96875000000000000       0.43750000000000000        0.0000000000000000     
   1.0000000000000000       0.43750000000000000        0.0000000000000000     
  0.87500000000000000       0.46875000000000000        0.0000000000000000     
  0.90625000000000000       0.46875000000000000        0.0000000000000000     
  0.93750000000000000       0.46875000000000000        0.0000000000000000     
  0.96875000000000000       0.46875000000000000        0.0000000000000000     
   1.0000000000000000       0.46875000000000000        0.0000000000000000     
  0.87500000000000000       0.50000000000000000        0.0000000000000000     
  0.90625000000000000       0.50000000000000000        0.0000000000000000     
  0.93750000000000000       0.50000000000000000        0.0000000000000000     
  0.96875000000000000       0.50000000000000000        0.0000000000000000     
   1.0000000000000000       0.50000000000000000        0.0000000000000000     
   0.0000000000000000       0.50000000000000000        0.0000000000000000     
   3.1250000000000000E-002  0.50000000000000000        0.0000000000000000     
   6.2500000000000000E-002  0.50000000000000000        0.0000000000000000     
   9.3750000000000000E-002  0.50000000000000000        0.0000000000000000     
  0.12500000000000000       0.50000000000000000        0.0000000000000000     
   0.0000000000000000       0.53125000000000000        0.0000000000000000     
   3.1250000000000000E-002  0.53125000000000000        0.0000000000000000     
   6.2500000000000000E-002  0.53125000000000000        0.0000000000000000     
   9.3750000000000000E-002  0.53125000000000000        0.0000000000000000     
  0.12500000000000000       0.53125000000000000        0.0000000000000000     
   0.0000000000000000       0.56250000000000000        0.0000000000000000     
   3.1250000000000000E-002  0.56250000000000000        0.0000000000000000     
   6.2500000000000000E-002  0.56250000000000000        0.0000000000000000     
   9.3750000000000000E-002  0.56250000000000000        0.0000000000000000     
  0.12500000000000000       0.56250000000000000        0.0000000000000000     
   0.0000000000000000       0.59375000000000000        0.0000000000000000     
   3.1250000000000000E-002  0.59375000000000000        0.0000000000000000     
   6.2500000000000000E-002  0.59375000000000000        0.0000000000000000     
   9.3750000000000000E-002  0.59375000000000000        0.0000000000000000     
  0.12500000000000000       0.59375000000000000        0.0000000000000000     
   0.0000000000000000       0.62500000000000000        0.0000000000000000     
   3.1250000000000000E-002  0.62500000000000000        0.0000000000000000     
   6.2500000000000000E-002  0.62500000000000000        0.0000000000000000     
   9.3750000000000000E-002  0.62500000000000000        0.0000000000000000     
  0.12500000000000000       0.62500000000000000        0.0000000000000000     
  0.12500000000000000       0.50000000000000000        0.0000000000000000     
  0.15625000000000000       0.50000000000000000        0.0000000000000000     
  0.18750000000000000       0.50000000000000000        0.0000000000000000     
  0.21875000000000000       0.50000000000000000        0.0000000000000000     
  0.25000000000000000       0.50000000000000000        0.0000000000000000     
  0.12500000000000000       0.53125000000000000        0.0000000000000000     
  0.15625000000000000       0.53125000000000000        0.0000000000000000     
  0.18750000000000000       0.53125000000000000        0.0000000000000000     
  0.21875000000000000       0.53125000000000000        0.0000000000000000     
  0.25000000000000000       0.53125000000000000        0.0000000000000000     
  0.12500000000000000       0.56250000000000000        0.0000000000000000     
  0.15625000000000000       0.56250000000000000        0.0000000000000000     
  0.18750000000000000       0.56250000000000000        0.0000000000000000     
  0.21875000000000000       0.56250000000000000        0.0000000000000000     
  0.25000000000000000       0.56250000000000000        0.0000000000000000     
  0.12500000000000000       0.59375000000000000        0.0000000000000000     
  0.15625000000000000       0.59375000000000000        0.0000000000000000     
  0.18750000000000000       0.59375000000000000        0.0000000000000000     
  0.21875000000000000       0.59375000000000000        0.0000000000000000     
  0.25000000000000000       0.59375000000000000        0.0000000000000000     
  0.12500000000000000       0.62500000000000000        0.0000000000000000     
  0.15625000000000000       0.62500000000000000        0.0000000000000000     
  0.18750000000000000       0.62500000000000000        0.0000000000000000     
  0.21875000000000000       0.62500000000000000        0.0000000000000000     
  0.25000000000000000       0.62500000000000000        0.0000000000000000     
  0.25000000000000000       0.50000000000000000        0.0000000000000000     
  0.28125000000000000       0.50000000000000000        0.0000000000000000     
  0.31250000000000000       0.50000000000000000        0.0000000000000000     
  0.34375000000000000       0.50000000000000000        0.0000000000000000     
  0.37500000000000000       0.50000000000000000        0.0000000000000000     
  0.25000000000000000       0.53125000000000000        0.0000000000000000     
  0.28125000000000000       0.53125000000000000        0.0000000000000000     
  0.31250000000000000       0.53125000000000000        0.0000000000000000     
  0.34375000000000000       0.53125000000000000        0.0000000000000000     
  0.37500000000000000       0.53125000000000000        0.0000000000000000     
  0.25000000000000000       0.56250000000000000        0.0000000000000000     
  0.28125000000000000       0.56250000000000000        0.0000000000000000     
  0.31250000000000000       0.56250000000000000        0.0000000000000000     
  0.34375000000000000       0.56250000000000000        0.0000000000000000     
  0.37500000000000000       0.56250000000000000        0.0000000000000000     
  0.25000000000000000       0.59375000000000000        0.0000000000000000     
  0.28125000000000000       0.59375000000000000        0.0000000000000000     
  0.31250000000000000       0.59375000000000000        0.0000000000000000     
  0.34375000000000000       0.59375000000000000        0.0000000000000000     
  0.37500000000000000       0.59375000000000000        0.0000000000000000     
  0.25000000000000000       0.62500000000000000        0.0000000000000000     
  0.28125000000000000       0.62500000000000000        0.0000000000000000     
  0.31250000000000000       0.62500000000000000        0.0000000000000000     
  0.34375000000000000       0.62500000000000000        0.0000000000000000     
  0.37500000000000000       0.62500000000000000        0.0000000000000000     
  0.37500000000000000       0.50000000000000000        0.0000000000000000     
  0.40625000000000000       0.50000000000000000        0.0000000000000000     
  0.43750000000000000       0.50000000000000000        0.0000000000000000     
  0.46875000000000000       0.50000000000000000        0.0000000000000000     
  0.50000000000000000       0.50000000000000000        0.0000000000000000     
  0.37500000000000000       0.53125000000000000        0.0000000000000000     
  0.40625000000000000       0.53125000000000000        0.0000000000000000     
  0.43750000000000000       0.53125000000000000        0.0000000000000000     
  0.46875000000000000       0.53125000000000000        0.0000000000000000     
  0.50000000000000000       0.53125000000000000        0.0000000000000000     
  0.37500000000000000       0.56250000000000000        0.0000000000000000     
  0.40625000000000000       0.56250000000000000        0.0000000000000000     
  0.43750000000000000       0.56250000000000000        0.0000000000000000     
  0.46875000000000000       0.56250000000000000        0.0000000000000000     
  0.50000000000000000       0.56250000000000000        0.0000000000000000     
  0.37500000000000000       0.59375000000000000        0.0000000000000000     
  0.40625000000000000       0.59375000000000000        0.0000000000000000     
  0.43750000000000000       0.59375000000000000        0.0000000000000000     
  0.46875000000000000       0.59375000000000000        0.0000000000000000     
  0.50000000000000000       0.59375000000000000        0.0000000000000000     
  0.37500000000000000       0.62500000000000000        0.0000000000000000     
  0.40625000000000000       0.62500000000000000        0.0000000000000000     
  0.43750000000000000       0.62500000000000000        0.0000000000000000     
  0.46875000000000000       0.62500000000000000        0.0000000000000000     
  0.50000000000000000       0.62500000000000000        0.0000000000000000     
  0.50000000000000000       0.50000000000000000        0.0000000000000000     
  0.53125000000000000       0.50000000000000000        0.0000000000000000     
  0.56250000000000000       0.50000000000000000        0.0000000000000000     
  0.59375000000000000       0.50000000000000000        0.0000000000000000     
  0.62500000000000000       0.50000000000000000        0.0000000000000000     
  0.50000000000000000       0.53125000000000000        0.0000000000000000     
  0.53125000000000000       0.53125000000000000        0.0000000000000000     
  0.56250000000000000       0.53125000000000000        0.0000000000000000     
  0.59375000000000000       0.53125000000000000        0.0000000000000000     
  0.62500000000000000       0.53125000000000000        0.0000000000000000     
  0.50000000000000000       0.56250000000000000        0.0000000000000000     
  0.53125000000000000       0.56250000000000000        0.0000000000000000     
  0.56250000000000000       0.56250000000000000        0.0000000000000000     
  0.59375000000000000       0.56250000000000000        0.0000000000000000     
  0.62500000000000000       0.56250000000000000        0.0000000000000000     
  0.50000000000000000       0.59375000000000000        0.0000000000000000     
  0.53125000000000000       0.59375000000000000        0.0000000000000000     
  0.56250000000000000       0.59375000000000000        0.0000000000000000     
  0.59375000000000000       0.59375000000000000        0.0000000000000000     
  0.62500000000000000       0.59375000000000000        0.0000000000000000     
  0.50000000000000000       0.62500000000000000        0.0000000000000000     
  0.53125000000000000       0.62500000000000000        0.0000000000000000     
  0.56250000000000000       0.62500000000000000        0.0000000000000000     
  0.59375000000000000       0.62500000000000000        0.0000000000000000     
  0.62500000000000000       0.62500000000000000        0.0000000000000000     
  0.62500000000000000       0.50000000000000000        0.0000000000000000     
  0.65625000000000000       0.50000000000000000        0.0000000000000000     
  0.68750000000000000       0.50000000000000000        0.0000000000000000     
  0.71875000000000000       0.50000000000000000        0.0000000000000000     
  0.75000000000000000       0.50000000000000000        0.0000000000000000     
  0.62500000000000000       0.53125000000000000        0.0000000000000000     
  0.65625000000000000       0.53125000000000000        0.0000000000000000     
  0.68750000000000000       0.53125000000000000        0.0000000000000000     
  0.71875000000000000       0.53125000000000000        0.0000000000000000     
  0.75000000000000000       0.53125000000000000        0.0000000000000000     
  0.62500000000000000       0.56250000000000000        0.0000000000000000     
  0.65625000000000000       0.56250000000000000        0.0000000000000000     
  0.68750000000000000       0.56250000000000000        0.0000000000000000     
  0.71875000000000000       0.56250000000000000        0.0000000000000000     
  0.75000000000000000       0.56250000000000000        0.0000000000000000     
  0.62500000000000000       0.59375000000000000        0.0000000000000000     
  0.65625000000000000       0.59375000000000000        0.0000000000000000     
  0.68750000000000000       0.59375000000000000        0.0000000000000000     
  0.71875000000000000       0.59375000000000000        0.0000000000000000     
  0.75000000000000000       0.59375000000000000        0.0000000000000000     
  0.62500000000000000       0.62500000000000000        0.0000000000000000     
  0.65625000000000000       0.62500000000000000        0.0000000000000000     
  0.68750000000000000       0.62500000000000000        0.0000000000000000     
  0.71875000000000000       0.62500000000000000        0.0000000000000000     
  0.75000000000000000       0.62500000000000000        0.0000000000000000     
  0.75000000000000000       0.50000000000000000        0.0000000000000000     
  0.78125000000000000       0.50000000000000000        0.0000000000000000     
  0.81250000000000000       0.50000000000000000        0.0000000000000000     
  0.84375000000000000       0.50000000000000000        0.0000000000000000     
  0.87500000000000000       0.50000000000000000        0.0000000000000000     
  0.75000000000000000       0.53125000000000000        0.0000000000000000     
  0.78125000000000000       0.53125000000000000        0.0000000000000000     
  0.81250000000000000       0.53125000000000000        0.0000000000000000     
  0.84375000000000000       0.53125000000000000        0.0000000000000000     
  0.87500000000000000       0.53125000000000000        0.0000000000000000     
  0.75000000000000000       0.56250000000000000        0.0000000000000000     
  0.78125000000000000       0.56250000000000000        0.0000000000000000     
  0.81250000000000000       0.56250000000000000        0.0000000000000000     
  0.84375000000000000       0.56250000000000000        0.0000000000000000     
  0.87500000000000000       0.56250000000000000        0.0000000000000000     
  0.75000000000000000       0.59375000000000000        0.0000000000000000     
  0.78125000000000000       0.59375000000000000        0.0000000000000000     
  0.81250000000000000       0.59375000000000000        0.0000000000000000     
  0.84375000000000000       0.59375000000000000        0.0000000000000000     
  0.87500000000000000       0.59375000000000000        0.0000000000000000     
  0.75000000000000000       0.62500000000000000        0.0000000000000000     
  0.78125000000000000       0.62500000000000000        0.0000000000000000     
  0.81250000000000000       0.62500000000000000        0.0000000000000000     
  0.84375000000000000       0.62500000000000000        0.0000000000000000     
  0.87500000000000000       0.62500000000000000        0.0000000000000000     
  0.87500000000000000       0.50000000000000000        0.0000000000000000     
  0.90625000000000000       0.50000000000000000        0.0000000000000000     
  0.93750000000000000       0.50000000000000000        0.0000000000000000     
  0.96875000000000000       0.50000000000000000        0.0000000000000000     
   1.0000000000000000       0.50000000000000000        0.0000000000000000     
  0.87500000000000000       0.53125000000000000        0.0000000000000000     
  0.90625000000000000       0.53125000000000000        0.0000000000000000     
  0.93750000000000000       0.53125000000000000        0.0000000000000000     
  0.96875000000000000       0.53125000000000000        0.0000000000000000     
   1.0000000000000000       0.53125000000000000        0.0000000000000000     
  0.87500000000000000       0.56250000000000000        0.0000000000000000     
  0.90625000000000000       0.56250000000000000        0.0000000000000000     
  0.93750000000000000       0.56250000000000000        0.0000000000000000     
  0.96875000000000000       0.56250000000000000        0.0000000000000000     
   1.0000000000000000       0.56250000000000000        0.0000000000000000     
  0.87500000000000000       0.59375000000000000        0.0000000000000000     
  0.90625000000000000       0.59375000000000000        0.0000000000000000     
  0.93750000000000000       0.59375000000000000        0.0000000000000000     
  0.96875000000000000       0.59375000000000000        0.0000000000000000     
   1.0000000000000000       0.59375000000000000        0.0000000000000000     
  0.87500000000000000       0.62500000000000000        0.0000000000000000     
  0.90625000000000000       0.62500000000000000        0.0000000000000000     
  0.93750000000000000       0.62500000000000000        0.0000000000000000     
  0.96875000000000000       0.62500000000000000        0.0000000000000000     
   1.0000000000000000       0.62500000000000000        0.0000000000000000     
   0.0000000000000000       0.62500000000000000        0.0000000000000000     
   3.1250000000000000E-002  0.62500000000000000        0.0000000000000000     
   6.2500000000000000E-002  0.62500000000000000        0.0000000000000000     
   9.3750000000000000E-002  0.62500000000000000        0.0000000000000000     
  0.12500000000000000       0.62500000000000000        0.0000000000000000     
   0.0000000000000000       0.65625000000000000        0.0000000000000000     
   3.1250000000000000E-002  0.65625000000000000        0.0000000000000000     
   6.2500000000000000E-002  0.65625000000000000        0.0000000000000000     
   9.3750000000000000E-002  0.65625000000000000        0.0000000000000000     
  0.12500000000000000       0.65625000000000000        0.0000000000000000     
   0.0000000000000000       0.68750000000000000        0.0000000000000000     
   3.1250000000000000E-002  0.68750000000000000        0.0000000000000000     
   6.2500000000000000E-002  0.68750000000000000        0.0000000000000000     
   9.3750000000000000E-002  0.68750000000000000        0.0000000000000000     
  0.12500000000000000       0.68750000000000000        0.0000000000000000     
   0.0000000000000000       0.71875000000000000        0.0000000000000000     
   3.1250000000000000E-002  0.71875000000000000        0.0000000000000000     
   6.2500000000000000E-002  0.71875000000000000        0.0000000000000000     
   9.3750000000000000E-002  0.71875000000000000        0.0000000000000000     
  0.12500000000000000       0.71875000000000000        0.0000000000000000     
   0.0000000000000000       0.75000000000000000        0.0000000000000000     
   3.1250000000000000E-002  0.75000000000000000        0.0000000000000000     
   6.2500000000000000E-002  0.75000000000000000        0.0000000000000000     
   9.3750000000000000E-002  0.75000000000000000        0.0000000000000000     
  0.12500000000000000       0.75000000000000000        0.0000000000000000     
  0.12500000000000000       0.62500000000000000        0.0000000000000000     
  0.15625000000000000       0.62500000000000000        0.0000000000000000     
  0.18750000000000000       0.62500000000000000        0.0000000000000000     
  0.21875000000000000       0.62500000000000000        0.0000000000000000     
  0.25000000000000000       0.62500000000000000        0.0000000000000000     
  0.12500000000000000       0.65625000000000000        0.0000000000000000     
  0.15625000000000000       0.65625000000000000        0.0000000000000000     
  0.18750000000000000       0.65625000000000000        0.0000000000000000     
  0.21875000000000000       0.65625000000000000        0.0000000000000000     
  0.25000000000000000       0.65625000000000000        0.0000000000000000     
  0.12500000000000000       0.68750000000000000        0.0000000000000000     
  0.15625000000000000       0.68750000000000000        0.0000000000000000     
  0.18750000000000000       0.68750000000000000        0.0000000000000000     
  0.21875000000000000       0.68750000000000000        0.0000000000000000     
  0.25000000000000000       0.68750000000000000        0.0000000000000000     
  0.12500000000000000       0.71875000000000000        0.0000000000000000     
  0.15625000000000000       0.71875000000000000        0.0000000000000000     
  0.18750000000000000       0.71875000000000000        0.0000000000000000     
  0.21875000000000000       0.71875000000000000        0.0000000000000000     
  0.25000000000000000       0.71875000000000000        0.0000000000000000     
  0.12500000000000000       0.75000000000000000        0.0000000000000000     
  0.15625000000000000       0.75000000000000000        0.0000000000000000     
  0.18750000000000000       0.75000000000000000        0.0000000000000000     
  0.21875000000000000       0.75000000000000000        0.0000000000000000     
  0.25000000000000000       0.75000000000000000        0.0000000000000000     
  0.25000000000000000       0.62500000000000000        0.0000000000000000     
  0.28125000000000000       0.62500000000000000        0.0000000000000000     
  0.31250000000000000       0.62500000000000000        0.0000000000000000     
  0.34375000000000000       0.62500000000000000        0.0000000000000000     
  0.37500000000000000       0.62500000000000000        0.0000000000000000     
  0.25000000000000000       0.65625000000000000        0.0000000000000000     
  0.28125000000000000       0.65625000000000000        0.0000000000000000     
  0.31250000000000000       0.65625000000000000        0.0000000000000000     
  0.34375000000000000       0.65625000000000000        0.0000000000000000     
  0.37500000000000000       0.65625000000000000        0.0000000000000000     
  0.25000000000000000       0.68750000000000000        0.0000000000000000     
  0.28125000000000000       0.68750000000000000        0.0000000000000000     
  0.31250000000000000       0.68750000000000000        0.0000000000000000     
  0.34375000000000000       0.68750000000000000        0.0000000000000000     
  0.37500000000000000       0.68750000000000000        0.0000000000000000     
  0.25000000000000000       0.71875000000000000        0.0000000000000000     
  0.28125000000000000       0.71875000000000000        0.0000000000000000     
  0.31250000000000000       0.71875000000000000        0.0000000000000000     
  0.34375000000000000       0.71875000000000000        0.0000000000000000     
  0.37500000000000000       0.71875000000000000        0.0000000000000000     
  0.25000000000000000       0.75000000000000000        0.0000000000000000     
  0.28125000000000000       0.75000000000000000        0.0000000000000000     
  0.31250000000000000       0.75000000000000000        0.0000000000000000     
  0.34375000000000000       0.75000000000000000        0.0000000000000000     
  0.37500000000000000       0.75000000000000000        0.0000000000000000     
  0.37500000000000000       0.62500000000000000        0.0000000000000000     
  0.40625000000000000       0.62500000000000000        0.0000000000000000     
  0.43750000000000000       0.62500000000000000        0.0000000000000000     
  0.46875000000000000       0.62500000000000000        0.0000000000000000     
  0.50000000000000000       0.62500000000000000        0.0000000000000000     
  0.37500000000000000       0.65625000000000000        0.0000000000000000     
  0.40625000000000000       0.65625000000000000        0.0000000000000000     
  0.43750000000000000       0.65625000000000000        0.0000000000000000     
  0.46875000000000000       0.65625000000000000        0.0000000000000000     
  0.50000000000000000       0.65625000000000000        0.0000000000000000     
  0.37500000000000000       0.68750000000000000        0.0000000000000000     
  0.40625000000000000       0.68750000000000000        0.0000000000000000     
  0.43750000000000000       0.68750000000000000        0.0000000000000000     
  0.46875000000000000       0.68750000000000000        0.0000000000000000     
  0.50000000000000000       0.68750000000000000        0.0000000000000000     
  0.37500000000000000       0.71875000000000000        0.0000000000000000     
  0.40625000000000000       0.71875000000000000        0.0000000000000000     
  0.43750000000000000       0.71875000000000000        0.0000000000000000     
  0.46875000000000000       0.71875000000000000        0.0000000000000000     
  0.50000000000000000       0.71875000000000000        0.0000000000000000     
  0.37500000000000000       0.75000000000000000        0.0000000000000000     
  0.40625000000000000       0.75000000000000000        0.0000000000000000     
  0.43750000000000000       0.75000000000000000        0.0000000000000000     
  0.46875000000000000       0.75000000000000000        0.0000000000000000     
  0.50000000000000000       0.75000000000000000        0.0000000000000000     
  0.50000000000000000       0.62500000000000000        0.0000000000000000     
  0.53125000000000000       0.62500000000000000        0.0000000000000000     
  0.56250000000000000       0.62500000000000000        0.0000000000000000     
  0.59375000000000000       0.62500000000000000        0.0000000000000000     
  0.62500000000000000       0.62500000000000000        0.0000000000000000     
  0.50000000000000000       0.65625000000000000        0.0000000000000000     
  0.53125000000000000       0.65625000000000000        0.0000000000000000     
  0.56250000000000000       0.65625000000000000        0.0000000000000000     
  0.59375000000000000       0.65625000000000000        0.0000000000000000     
  0.62500000000000000       0.65625000000000000        0.0000000000000000     
  0.50000000000000000       0.68750000000000000        0.0000000000000000     
  0.53125000000000000       0.68750000000000000        0.0000000000000000     
  0.56250000000000000       0.68750000000000000        0.0000000000000000     
  0.59375000000000000       0.68750000000000000        0.0000000000000000     
  0.62500000000000000       0.68750000000000000        0.0000000000000000     
  0.50000000000000000       0.71875000000000000        0.0000000000000000     
  0.53125000000000000       0.71875000000000000        0.0000000000000000     
  0.56250000000000000       0.71875000000000000        0.0000000000000000     
  0.59375000000000000       0.71875000000000000        0.0000000000000000     
  0.62500000000000000       0.71875000000000000        0.0000000000000000     
  0.50000000000000000       0.75000000000000000        0.0000000000000000     
  0.53125000000000000       0.75000000000000000        0.0000000000000000     
  0.56250000000000000       0.75000000000000000        0.0000000000000000     
  0.59375000000000000       0.75000000000000000        0.0000000000000000     
  0.62500000000000000       0.75000000000000000        0.0000000000000000     
  0.62500000000000000       0.62500000000000000        0.0000000000000000     
  0.65625000000000000       0.62500000000000000        0.0000000000000000     
  0.68750000000000000       0.62500000000000000        0.0000000000000000     
  0.71875000000000000       0.62500000000000000        0.0000000000000000     
  0.75000000000000000       0.62500000000000000        0.0000000000000000     
  0.62500000000000000       0.65625000000000000        0.0000000000000000     
  0.65625000000000000       0.65625000000000000        0.0000000000000000     
  0.68750000000000000       0.65625000000000000        0.0000000000000000     
  0.71875000000000000       0.65625000000000000        0.0000000000000000     
  0.75000000000000000       0.65625000000000000        0.0000000000000000     
  0.62500000000000000       0.68750000000000000        0.0000000000000000     
  0.65625000000000000       0.68750000000000000        0.0000000000000000     
  0.68750000000000000       0.68750000000000000        0.0000000000000000     
  0.71875000000000000       0.68750000000000000        0.0000000000000000     
  0.75000000000000000       0.68750000000000000        0.0000000000000000     
  0.62500000000000000       0.71875000000000000        0.0000000000000000     
  0.65625000000000000       0.71875000000000000        0.0000000000000000     
  0.68750000000000000       0.71875000000000000        0.0000000000000000     
  0.71875000000000000       0.71875000000000000        0.0000000000000000     
  0.75000000000000000       0.71875000000000000        0.0000000000000000     
  0.62500000000000000       0.75000000000000000        0.0000000000000000     
  0.65625000000000000       0.75000000000000000        0.0000000000000000     
  0.68750000000000000       0.75000000000000000        0.0000000000000000     
  0.71875000000000000       0.75000000000000000        0.0000000000000000     
  0.75000000000000000       0.75000000000000000        0.0000000000000000     
  0.75000000000000000       0.62500000000000000        0.0000000000000000     
  0.78125000000000000       0.62500000000000000        0.0000000000000000     
  0.81250000000000000       0.62500000000000000        0.0000000000000000     
  0.84375000000000000       0.62500000000000000        0.0000000000000000     
  0.87500000000000000       0.62500000000000000        0.0000000000000000     
  0.75000000000000000       0.65625000000000000        0.0000000000000000     
  0.78125000000000000       0.65625000000000000        0.0000000000000000     
  0.81250000000000000       0.65625000000000000        0.0000000000000000     
  0.84375000000000000       0.65625000000000000        0.0000000000000000     
  0.87500000000000000       0.65625000000000000        0.0000000000000000     
  0.75000000000000000       0.68750000000000000        0.0000000000000000     
  0.78125000000000000       0.68750000000000000        0.0000000000000000     
  0.81250000000000000       0.68750000000000000        0.0000000000000000     
  0.84375000000000000       0.68750000000000000        0.0000000000000000     
  0.87500000000000000       0.68750000000000000        0.0000000000000000     
  0.75000000000000000       0.71875000000000000        0.0000000000000000     
  0.78125000000000000       0.71875000000000000        0.0000000000000000     
  0.81250000000000000       0.71875000000000000        0.0000000000000000     
  0.84375000000000000       0.71875000000000000        0.0000000000000000     
  0.87500000000000000       0.71875000000000000        0.0000000000000000     
  0.75000000000000000       0.75000000000000000        0.0000000000000000     
  0.78125000000000000       0.75000000000000000        0.0000000000000000     
  0.81250000000000000       0.75000000000000000        0.0000000000000000     
  0.84375000000000000       0.75000000000000000        0.0000000000000000     
  0.87500000000000000       0.75000000000000000        0.0000000000000000     
  0.87500000000000000       0.62500000000000000        0.0000000000000000     
  0.90625000000000000       0.62500000000000000        0.0000000000000000     
  0.93750000000000000       0.62500000000000000        0.0000000000000000     
  0.96875000000000000       0.62500000000000000        0.0000000000000000     
   1.0000000000000000       0.62500000000000000        0.0000000000000000     
  0.87500000000000000       0.65625000000000000        0.0000000000000000     
  0.90625000000000000       0.65625000000000000        0.0000000000000000     
  0.93750000000000000       0.65625000000000000        0.0000000000000000     
  0.96875000000000000       0.65625000000000000        0.0000000000000000     
   1.0000000000000000       0.65625000000000000        0.0000000000000000     
  0.87500000000000000       0.68750000000000000        0.0000000000000000     
  0.90625000000000000       0.68750000000000000        0.0000000000000000     
  0.93750000000000000       0.68750000000000000        0.0000000000000000     
  0.96875000000000000       0.68750000000000000        0.0000000000000000     
   1.0000000000000000       0.68750000000000000        0.0000000000000000     
  0.87500000000000000       0.71875000000000000        0.0000000000000000     
  0.90625000000000000       0.71875000000000000        0.0000000000000000     
  0.93750000000000000       0.71875000000000000        0.0000000000000000     
  0.96875000000000000       0.71875000000000000        0.0000000000000000     
   1.0000000000000000       0.71875000000000000        0.0000000000000000     
  0.87500000000000000       0.75000000000000000        0.0000000000000000     
  0.90625000000000000       0.75000000000000000        0.0000000000000000     
  0.93750000000000000       0.75000000000000000        0.0000000000000000     
  0.96875000000000000       0.75000000000000000        0.0000000000000000     
   1.0000000000000000       0.75000000000000000        0.0000000000000000     
   0.0000000000000000       0.75000000000000000        0.0000000000000000     
   3.1250000000000000E-002  0.75000000000000000        0.0000000000000000     
   6.2500000000000000E-002  0.75000000000000000        0.0000000000000000     
   9.3750000000000000E-002  0.75000000000000000        0.0000000000000000     
  0.12500000000000000       0.75000000000000000        0.0000000000000000     
   0.0000000000000000       0.78125000000000000        0.0000000000000000     
   3.1250000000000000E-002  0.78125000000000000        0.0000000000000000     
   6.2500000000000000E-002  0.78125000000000000        0.0000000000000000     
   9.3750000000000000E-002  0.78125000000000000        0.0000000000000000     
  0.12500000000000000       0.78125000000000000        0.0000000000000000     
   0.0000000000000000       0.81250000000000000        0.0000000000000000     
   3.1250000000000000E-002  0.81250000000000000        0.0000000000000000     
   6.2500000000000000E-002  0.81250000000000000        0.0000000000000000     
   9.3750000000000000E-002  0.81250000000000000        0.0000000000000000     
  0.12500000000000000       0.81250000000000000        0.0000000000000000     
   0.0000000000000000       0.84375000000000000        0.0000000000000000     
   3.1250000000000000E-002  0.84375000000000000        0.0000000000000000     
   6.2500000000000000E-002  0.84375000000000000        0.0000000000000000     
   9.3750000000000000E-002  0.84375000000000000        0.0000000000000000     
  0.12500000000000000       0.84375000000000000        0.0000000000000000     
   0.0000000000000000       0.87500000000000000        0.0000000000000000     
   3.1250000000000000E-002  0.87500000000000000        0.0000000000000000     
   6.2500000000000000E-002  0.87500000000000000        0.0000000000000000     
   9.3750000000000000E-002  0.87500000000000000        0.0000000000000000     
  0.12500000000000000       0.87500000000000000        0.0000000000000000     
  0.12500000000000000       0.75000000000000000        0.0000000000000000     
  0.15625000000000000       0.75000000000000000        0.0000000000000000     
  0.18750000000000000       0.75000000000000000        0.0000000000000000     
  0.21875000000000000       0.75000000000000000        0.0000000000000000     
  0.25000000000000000       0.75000000000000000        0.0000000000000000     
  0.12500000000000000       0.78125000000000000        0.0000000000000000     
  0.15625000000000000       0.78125000000000000        0.0000000000000000     
  0.18750000000000000       0.78125000000000000        0.0000000000000000     
  0.21875000000000000       0.78125000000000000        0.0000000000000000     
  0.25000000000000000       0.78125000000000000        0.0000000000000000     
  0.12500000000000000       0.81250000000000000        0.0000000000000000     
  0.15625000000000000       0.81250000000000000        0.0000000000000000     
  0.18750000000000000       0.81250000000000000        0.0000000000000000     
  0.21875000000000000       0.81250000000000000        0.0000000000000000     
  0.25000000000000000       0.81250000000000000        0.0000000000000000     
  0.12500000000000000       0.84375000000000000        0.0000000000000000     
  0.15625000000000000       0.84375000000000000        0.0000000000000000     
  0.18750000000000000       0.84375000000000000        0.0000000000000000     
  0.21875000000000000       0.84375000000000000        0.0000000000000000     
  0.25000000000000000       0.84375000000000000        0.0000000000000000     
  0.12500000000000000       0.87500000000000000        0.0000000000000000     
  0.15625000000000000       0.87500000000000000        0.0000000000000000     
  0.18750000000000000       0.87500000000000000        0.0000000000000000     
  0.21875000000000000       0.87500000000000000        0.0000000000000000     
  0.25000000000000000       0.87500000000000000        0.0000000000000000     
  0.25000000000000000       0.75000000000000000        0.0000000000000000     
  0.28125000000000000       0.75000000000000000        0.0000000000000000     
  0.31250000000000000       0.75000000000000000        0.0000000000000000     
  0.34375000000000000       0.75000000000000000        0.0000000000000000     
  0.37500000000000000       0.75000000000000000        0.0000000000000000     
  0.25000000000000000       0.78125000000000000        0.0000000000000000     
  0.28125000000000000       0.78125000000000000        0.0000000000000000     
  0.31250000000000000       0.78125000000000000        0.0000000000000000     
  0.34375000000000000       0.78125000000000000        0.0000000000000000     
  0.37500000000000000       0.78125000000000000        0.0000000000000000     
  0.25000000000000000       0.81250000000000000        0.0000000000000000     
  0.28125000000000000       0.81250000000000000        0.0000000000000000     
  0.31250000000000000       0.81250000000000000        0.0000000000000000     
  0.34375000000000000       0.81250000000000000        0.0000000000000000     
  0.37500000000000000       0.81250000000000000        0.0000000000000000     
  0.25000000000000000       0.84375000000000000        0.0000000000000000     
  0.28125000000000000       0.84375000000000000        0.0000000000000000     
  0.31250000000000000       0.84375000000000000        0.0000000000000000     
  0.34375000000000000       0.84375000000000000        0.0000000000000000     
  0.37500000000000000       0.84375000000000000        0.0000000000000000     
  0.25000000000000000       0.87500000000000000        0.0000000000000000     
  0.28125000000000000       0.87500000000000000        0.0000000000000000     
  0.31250000000000000       0.87500000000000000        0.0000000000000000     
  0.34375000000000000       0.87500000000000000        0.0000000000000000     
  0.37500000000000000       0.87500000000000000        0.0000000000000000     
  0.37500000000000000       0.75000000000000000        0.0000000000000000     
  0.40625000000000000       0.75000000000000000        0.0000000000000000     
  0.43750000000000000       0.75000000000000000        0.0000000000000000     
  0.46875000000000000       0.75000000000000000        0.0000000000000000     
  0.50000000000000000       0.75000000000000000        0.0000000000000000     
  0.37500000000000000       0.78125000000000000        0.0000000000000000     
  0.40625000000000000       0.78125000000000000        0.0000000000000000     
  0.43750000000000000       0.78125000000000000        0.0000000000000000     
  0.46875000000000000       0.78125000000000000        0.0000000000000000     
  0.50000000000000000       0.78125000000000000        0.0000000000000000     
  0.37500000000000000       0.81250000000000000        0.0000000000000000     
  0.40625000000000000       0.81250000000000000        0.0000000000000000     
  0.43750000000000000       0.81250000000000000        0.0000000000000000     
  0.46875000000000000       0.81250000000000000        0.0000000000000000     
  0.50000000000000000       0.81250000000000000        0.0000000000000000     
  0.37500000000000000       0.84375000000000000        0.0000000000000000     
  0.40625000000000000       0.84375000000000000        0.0000000000000000     
  0.43750000000000000       0.84375000000000000        0.0000000000000000     
  0.46875000000000000       0.84375000000000000        0.0000000000000000     
  0.50000000000000000       0.84375000000000000        0.0000000000000000     
  0.37500000000000000       0.87500000000000000        0.0000000000000000     
  0.40625000000000000       0.87500000000000000        0.0000000000000000     
  0.43750000000000000       0.87500000000000000        0.0000000000000000     
  0.46875000000000000       0.87500000000000000        0.0000000000000000     
  0.50000000000000000       0.87500000000000000        0.0000000000000000     
  0.50000000000000000       0.75000000000000000        0.0000000000000000     
  0.53125000000000000       0.75000000000000000        0.0000000000000000     
  0.56250000000000000       0.75000000000000000        0.0000000000000000     
  0.59375000000000000       0.75000000000000000        0.0000000000000000     
  0.62500000000000000       0.75000000000000000        0.0000000000000000     
  0.50000000000000000       0.78125000000000000        0.0000000000000000     
  0.53125000000000000       0.78125000000000000        0.0000000000000000     
  0.56250000000000000       0.78125000000000000        0.0000000000000000     
  0.59375000000000000       0.78125000000000000        0.0000000000000000     
  0.62500000000000000       0.78125000000000000        0.0000000000000000     
  0.50000000000000000       0.81250000000000000        0.0000000000000000     
  0.53125000000000000       0.81250000000000000        0.0000000000000000     
  0.56250000000000000       0.81250000000000000        0.0000000000000000     
  0.59375000000000000       0.81250000000000000        0.0000000000000000     
  0.62500000000000000       0.81250000000000000        0.0000000000000000     
  0.50000000000000000       0.84375000000000000        0.0000000000000000     
  0.53125000000000000       0.84375000000000000        0.0000000000000000     
  0.56250000000000000       0.84375000000000000        0.0000000000000000     
  0.59375000000000000       0.84375000000000000        0.0000000000000000     
  0.62500000000000000       0.84375000000000000        0.0000000000000000     
  0.50000000000000000       0.87500000000000000        0.0000000000000000     
  0.53125000000000000       0.87500000000000000        0.0000000000000000     
  0.56250000000000000       0.87500000000000000        0.0000000000000000     
  0.59375000000000000       0.87500000000000000        0.0000000000000000     
  0.62500000000000000       0.87500000000000000        0.0000000000000000     
  0.62500000000000000       0.75000000000000000        0.0000000000000000     
  0.65625000000000000       0.75000000000000000        0.0000000000000000     
  0.68750000000000000       0.75000000000000000        0.0000000000000000     
  0.71875000000000000       0.75000000000000000        0.0000000000000000     
  0.75000000000000000       0.75000000000000000        0.0000000000000000     
  0.62500000000000000       0.78125000000000000        0.0000000000000000     
  0.65625000000000000       0.78125000000000000        0.0000000000000000     
  0.68750000000000000       0.78125000000000000        0.0000000000000000     
  0.71875000000000000       0.78125000000000000        0.0000000000000000     
  0.75000000000000000       0.78125000000000000        0.0000000000000000     
  0.62500000000000000       0.81250000000000000        0.0000000000000000     
  0.65625000000000000       0.81250000000000000        0.0000000000000000     
  0.68750000000000000       0.81250000000000000        0.0000000000000000     
  0.71875000000000000       0.81250000000000000        0.0000000000000000     
  0.75000000000000000       0.81250000000000000        0.0000000000000000     
  0.62500000000000000       0.84375000000000000        0.0000000000000000     
  0.65625000000000000       0.84375000000000000        0.0000000000000000     
  0.68750000000000000       0.84375000000000000        0.0000000000000000     
  0.71875000000000000       0.84375000000000000        0.0000000000000000     
  0.75000000000000000       0.84375000000000000        0.0000000000000000     
  0.62500000000000000       0.87500000000000000        0.0000000000000000     
  0.65625000000000000       0.87500000000000000        0.0000000000000000     
  0.68750000000000000       0.87500000000000000        0.0000000000000000     
  0.71875000000000000       0.87500000000000000        0.0000000000000000     
  0.75000000000000000       0.87500000000000000        0.0000000000000000     
  0.75000000000000000       0.75000000000000000        0.0000000000000000     
  0.78125000000000000       0.75000000000000000        0.0000000000000000     
  0.81250000000000000       0.75000000000000000        0.0000000000000000     
  0.84375000000000000       0.75000000000000000        0.0000000000000000     
  0.87500000000000000       0.75000000000000000        0.0000000000000000     
  0.75000000000000000       0.78125000000000000        0.0000000000000000     
  0.78125000000000000       0.78125000000000000        0.0000000000000000     
  0.81250000000000000       0.78125000000000000        0.0000000000000000     
  0.84375000000000000       0.78125000000000000        0.0000000000000000     
  0.87500000000000000       0.78125000000000000        0.0000000000000000     
  0.75000000000000000       0.81250000000000000        0.0000000000000000     
  0.78125000000000000       0.81250000000000000        0.0000000000000000     
  0.81250000000000000       0.81250000000000000        0.0000000000000000     
  0.84375000000000000       0.81250000000000000        0.0000000000000000     
  0.87500000000000000       0.81250000000000000        0.0000000000000000     
  0.75000000000000000       0.84375000000000000        0.0000000000000000     
  0.78125000000000000       0.84375000000000000        0.0000000000000000     
  0.81250000000000000       0.84375000000000000        0.0000000000000000     
  0.84375000000000000       0.84375000000000000        0.0000000000000000     
  0.87500000000000000       0.84375000000000000        0.0000000000000000     
  0.75000000000000000       0.87500000000000000        0.0000000000000000     
  0.78125000000000000       0.87500000000000000        0.0000000000000000     
  0.81250000000000000       0.87500000000000000        0.0000000000000000     
  0.84375000000000000       0.87500000000000000        0.0000000000000000     
  0.87500000000000000       0.87500000000000000        0.0000000000000000     
  0.87500000000000000       0.75000000000000000        0.0000000000000000     
  0.90625000000000000       0.75000000000000000        0.0000000000000000     
  0.93750000000000000       0.75000000000000000        0.0000000000000000     
  0.96875000000000000       0.75000000000000000        0.0000000000000000     
   1.0000000000000000       0.75000000000000000        0.0000000000000000     
  0.87500000000000000       0.78125000000000000        0.0000000000000000     
  0.90625000000000000       0.78125000000000000        0.0000000000000000     
  0.93750000000000000       0.78125000000000000        0.0000000000000000     
  0.96875000000000000       0.78125000000000000        0.0000000000000000     
   1.0000000000000000       0.78125000000000000        0.0000000000000000     
  0.87500000000000000       0.81250000000000000        0.0000000000000000     
  0.90625000000000000       0.81250000000000000        0.0000000000000000     
  0.93750000000000000       0.81250000000000000        0.0000000000000000     
  0.96875000000000000       0.81250000000000000        0.0000000000000000     
   1.0000000000000000       0.81250000000000000        0.0000000000000000     
  0.87500000000000000       0.84375000000000000        0.0000000000000000     
  0.90625000000000000       0.84375000000000000        0.0000000000000000     
  0.93750000000000000       0.84375000000000000        0.0000000000000000     
  0.96875000000000000       0.84375000000000000        0.0000000000000000     
   1.0000000000000000       0.84375000000000000        0.0000000000000000     
  0.87500000000000000       0.87500000000000000        0.0000000000000000     
  0.90625000000000000       0.87500000000000000        0.0000000000000000     
  0.93750000000000000       0.87500000000000000        0.0000000000000000     
  0.96875000000000000       0.87500000000000000        0.0000000000000000     
   1.0000000000000000       0.87500000000000000        0.0000000000000000     
   0.0000000000000000       0.87500000000000000        0.0000000000000000     
   3.1250000000000000E-002  0.87500000000000000        0.0000000000000000     
   6.2500000000000000E-002  0.87500000000000000        0.0000000000000000     
   9.3750000000000000E-002  0.87500000000000000        0.0000000000000000     
  0.12500000000000000       0.87500000000000000        0.0000000000000000     
   0.0000000000000000       0.90625000000000000        0.0000000000000000     
   3.1250000000000000E-002  0.90625000000000000        0.0000000000000000     
   6.2500000000000000E-002  0.90625000000000000        0.0000000000000000     
   9.3750000000000000E-002  0.90625000000000000        0.0000000000000000     
  0.12500000000000000       0.90625000000000000        0.0000000000000000     
   0.0000000000000000       0.93750000000000000        0.0000000000000000     
   3.1250000000000000E-002  0.93750000000000000        0.0000000000000000     
   6.2500000000000000E-002  0.93750000000000000        0.0000000000000000     
   9.3750000000000000E-002  0.93750000000000000        0.0000000000000000     
  0.12500000000000000       0.93750000000000000        0.0000000000000000     
   0.0000000000000000       0.96875000000000000        0.0000000000000000     
   3.1250000000000000E-002  0.96875000000000000        0.0000000000000000     
   6.2500000000000000E-002  0.96875000000000000        0.0000000000000000     
   9.3750000000000000E-002  0.96875000000000000        0.0000000000000000     
  0.12500000000000000       0.96875000000000000        0.0000000000000000     
   0.0000000000000000        1.0000000000000000        0.0000000000000000     
   3.1250000000000000E-002   1.0000000000000000        0.0000000000000000     
   6.2500000000000000E-002   1.0000000000000000        0.0000000000000000     
   9.3750000000000000E-002   1.0000000000000000        0.0000000000000000     
  0.12500000000000000        1.0000000000000000        0.0000000000000000     
  0.12500000000000000       0.87500000000000000        0.0000000000000000     
  0.15625000000000000       0.87500000000000000        0.0000000000000000     
  0.18750000000000000       0.87500000000000000        0.0000000000000000     
  0.21875000000000000       0.87500000000000000        0.0000000000000000     
  0.25000000000000000       0.87500000000000000        0.0000000000000000     
  0.12500000000000000       0.90625000000000000        0.0000000000000000     
  0.15625000000000000       0.90625000000000000        0.0000000000000000     
  0.18750000000000000       0.90625000000000000        0.0000000000000000     
  0.21875000000000000       0.90625000000000000        0.0000000000000000     
  0.25000000000000000       0.90625000000000000        0.0000000000000000     
  0.12500000000000000       0.93750000000000000        0.0000000000000000     
  0.15625000000000000       0.93750000000000000        0.0000000000000000     
  0.18750000000000000       0.93750000000000000        0.0000000000000000     
  0.21875000000000000       0.93750000000000000        0.0000000000000000     
  0.25000000000000000       0.93750000000000000        0.0000000000000000     
  0.12500000000000000       0.96875000000000000        0.0000000000000000     
  0.15625000000000000       0.96875000000000000        0.0000000000000000     
  0.18750000000000000       0.96875000000000000        0.0000000000000000     
  0.21875000000000000       0.96875000000000000        0.0000000000000000     
  0.25000000000000000       0.96875000000000000        0.0000000000000000     
  0.12500000000000000        1.0000000000000000        0.0000000000000000     
  0.15625000000000000        1.0000000000000000        0.0000000000000000     
  0.18750000000000000        1.0000000000000000        0.0000000000000000     
  0.21875000000000000        1.0000000000000000        0.0000000000000000     
  0.25000000000000000        1.0000000000000000        0.0000000000000000     
  0.25000000000000000       0.87500000000000000        0.0000000000000000     
  0.28125000000000000       0.87500000000000000        0.0000000000000000     
  0.31250000000000000       0.87500000000000000        0.0000000000000000     
  0.34375000000000000       0.87500000000000000        0.0000000000000000     
  0.37500000000000000       0.87500000000000000        0.0000000000000000     
  0.25000000000000000       0.90625000000000000        0.0000000000000000     
  0.28125000000000000       0.90625000000000000        0.0000000000000000     
  0.31250000000000000       0.90625000000000000        0.0000000000000000     
  0.34375000000000000       0.90625000000000000        0.0000000000000000     
  0.37500000000000000       0.90625000000000000        0.0000000000000000     
  0.25000000000000000       0.93750000000000000        0.0000000000000000     
  0.28125000000000000       0.93750000000000000        0.0000000000000000     
  0.31250000000000000       0.93750000000000000        0.0000000000000000     
  0.34375000000000000       0.93750000000000000        0.0000000000000000     
  0.37500000000000000       0.93750000000000000        0.0000000000000000     
  0.25000000000000000       0.96875000000000000        0.0000000000000000     
  0.28125000000000000       0.96875000000000000        0.0000000000000000     
  0.31250000000000000       0.96875000000000000        0.0000000000000000     
  0.34375000000000000       0.96875000000000000        0.0000000000000000     
  0.37500000000000000       0.96875000000000000        0.0000000000000000     
  0.25000000000000000        1.0000000000000000        0.0000000000000000     
  0.28125000000000000        1.0000000000000000        0.0000000000000000     
  0.31250000000000000        1.0000000000000000        0.0000000000000000     
  0.34375000000000000        1.0000000000000000        0.0000000000000000     
  0.37500000000000000        1.0000000000000000        0.0000000000000000     
  0.37500000000000000       0.87500000000000000        0.0000000000000000     
  0.40625000000000000       0.87500000000000000        0.0000000000000000     
  0.43750000000000000       0.87500000000000000        0.0000000000000000     
  0.46875000000000000       0.87500000000000000        0.0000000000000000     
  0.50000000000000000       0.87500000000000000        0.0000000000000000     
  0.37500000000000000       0.90625000000000000        0.0000000000000000     
  0.40625000000000000       0.90625000000000000        0.0000000000000000     
  0.43750000000000000       0.90625000000000000        0.0000000000000000     
  0.46875000000000000       0.90625000000000000        0.0000000000000000     
  0.50000000000000000       0.90625000000000000        0.0000000000000000     
  0.37500000000000000       0.93750000000000000        0.0000000000000000     
  0.40625000000000000       0.93750000000000000        0.0000000000000000     
  0.43750000000000000       0.93750000000000000        0.0000000000000000     
  0.46875000000000000       0.93750000000000000        0.0000000000000000     
  0.50000000000000000       0.93750000000000000        0.0000000000000000     
  0.37500000000000000       0.96875000000000000        0.0000000000000000     
  0.40625000000000000       0.96875000000000000        0.0000000000000000     
  0.43750000000000000       0.96875000000000000        0.0000000000000000     
  0.46875000000000000       0.96875000000000000        0.0000000000000000     
  0.50000000000000000       0.96875000000000000        0.0000000000000000     
  0.37500000000000000        1.0000000000000000        0.0000000000000000     
  0.40625000000000000        1.0000000000000000        0.0000000000000000     
  0.43750000000000000        1.0000000000000000        0.0000000000000000     
  0.46875000000000000        1.0000000000000000        0.0000000000000000     
  0.50000000000000000        1.0000000000000000        0.0000000000000000     
  0.50000000000000000       0.87500000000000000        0.0000000000000000     
  0.53125000000000000       0.87500000000000000        0.0000000000000000     
  0.56250000000000000       0.87500000000000000        0.0000000000000000     
  0.59375000000000000       0.87500000000000000        0.0000000000000000     
  0.62500000000000000       0.87500000000000000        0.0000000000000000     
  0.50000000000000000       0.90625000000000000        0.0000000000000000     
  0.53125000000000000       0.90625000000000000        0.0000000000000000     
  0.56250000000000000       0.90625000000000000        0.0000000000000000     
  0.59375000000000000       0.90625000000000000        0.0000000000000000     
  0.62500000000000000       0.90625000000000000        0.0000000000000000     
  0.50000000000000000       0.93750000000000000        0.0000000000000000     
  0.53125000000000000       0.93750000000000000        0.0000000000000000     
  0.56250000000000000       0.93750000000000000        0.0000000000000000     
  0.59375000000000000       0.93750000000000000        0.0000000000000000     
  0.62500000000000000       0.93750000000000000        0.0000000000000000     
  0.50000000000000000       0.96875000000000000        0.0000000000000000     
  0.53125000000000000       0.96875000000000000        0.0000000000000000     
  0.56250000000000000       0.96875000000000000        0.0000000000000000     
  0.59375000000000000       0.96875000000000000        0.0000000000000000     
  0.62500000000000000       0.96875000000000000        0.0000000000000000     
  0.50000000000000000        1.0000000000000000        0.0000000000000000     
  0.53125000000000000        1.0000000000000000        0.0000000000000000     
  0.56250000000000000        1.0000000000000000        0.0000000000000000     
  0.59375000000000000        1.0000000000000000        0.0000000000000000     
  0.62500000000000000        1.0000000000000000        0.0000000000000000     
  0.62500000000000000       0.87500000000000000        0.0000000000000000     
  0.65625000000000000       0.87500000000000000        0.0000000000000000     
  0.68750000000000000       0.87500000000000000        0.0000000000000000     
  0.71875000000000000       0.87500000000000000        0.0000000000000000     
  0.75000000000000000       0.87500000000000000        0.0000000000000000     
  0.62500000000000000       0.90625000000000000        0.0000000000000000     
  0.65625000000000000       0.90625000000000000        0.0000000000000000     
  0.68750000000000000       0.90625000000000000        0.0000000000000000     
  0.71875000000000000       0.90625000000000000        0.0000000000000000     
  0.75000000000000000       0.90625000000000000        0.0000000000000000     
  0.62500000000000000       0.93750000000000000        0.0000000000000000     
  0.65625000000000000       0.93750000000000000        0.0000000000000000     
  0.68750000000000000       0.93750000000000000        0.0000000000000000     
  0.71875000000000000       0.93750000000000000        0.0000000000000000     
  0.75000000000000000       0.93750000000000000        0.0000000000000000     
  0.62500000000000000       0.96875000000000000        0.0000000000000000     
  0.65625000000000000       0.96875000000000000        0.0000000000000000     
  0.68750000000000000       0.96875000000000000        0.0000000000000000     
  0.71875000000000000       0.96875000000000000        0.0000000000000000     
  0.75000000000000000       0.96875000000000000        0.0000000000000000     
  0.62500000000000000        1.0000000000000000        0.0000000000000000     
  0.65625000000000000        1.0000000000000000        0.0000000000000000     
  0.68750000000000000        1.0000000000000000        0.0000000000000000     
  0.71875000000000000        1.0000000000000000        0.0000000000000000     
  0.75000000000000000        1.0000000000000000        0.0000000000000000     
  0.75000000000000000       0.87500000000000000        0.0000000000000000     
  0.78125000000000000       0.87500000000000000        0.0000000000000000     
  0.81250000000000000       0.87500000000000000        0.0000000000000000     
  0.84375000000000000       0.87500000000000000        0.0000000000000000     
  0.87500000000000000       0.87500000000000000        0.0000000000000000     
  0.75000000000000000       0.90625000000000000        0.0000000000000000     
  0.78125000000000000       0.90625000000000000        0.0000000000000000     
  0.81250000000000000       0.90625000000000000        0.0000000000000000     
  0.84375000000000000       0.90625000000000000        0.0000000000000000     
  0.87500000000000000       0.90625000000000000        0.0000000000000000     
  0.75000000000000000       0.93750000000000000        0.0000000000000000     
  0.78125000000000000       0.93750000000000000        0.0000000000000000     
  0.81250000000000000       0.93750000000000000        0.0000000000000000     
  0.84375000000000000       0.93750000000000000        0.0000000000000000     
  0.87500000000000000       0.93750000000000000        0.0000000000000000     
  0.75000000000000000       0.96875000000000000        0.0000000000000000     
  0.78125000000000000       0.96875000000000000        0.0000000000000000     
  0.81250000000000000       0.96875000000000000        0.0000000000000000     
  0.84375000000000000       0.96875000000000000        0.0000000000000000     
  0.87500000000000000       0.96875000000000000        0.0000000000000000     
  0.75000000000000000        1.0000000000000000        0.0000000000000000     
  0.78125000000000000        1.0000000000000000        0.0000000000000000     
  0.81250000000000000        1.0000000000000000        0.0000000000000000     
  0.84375000000000000        1.0000000000000000        0.0000000000000000     
  0.87500000000000000        1.0000000000000000        0.0000000000000000     
  0.87500000000000000       0.87500000000000000        0.0000000000000000     
  0.90625000000000000       0.87500000000000000        0.0000000000000000     
  0.93750000000000000       0.87500000000000000        0.0000000000000000     
  0.96875000000000000       0.87500000000000000        0.0000000000000000     
   1.0000000000000000       0.87500000000000000        0.0000000000000000     
  0.87500000000000000       0.90625000000000000        0.0000000000000000     
  0.90625000000000000       0.90625000000000000        0.0000000000000000     
  0.93750000000000000       0.90625000000000000        0.0000000000000000     
  0.96875000000000000       0.90625000000000000        0.0000000000000000     
   1.0000000000000000       0.90625000000000000        0.0000000000000000     
  0.87500000000000000       0.93750000000000000        0.0000000000000000     
  0.90625000000000000       0.93750000000000000        0.0000000000000000     
  0.93750000000000000       0.93750000000000000        0.0000000000000000     
  0.96875000000000000       0.93750000000000000        0.0000000000000000     
   1.0000000000000000       0.93750000000000000        0.0000000000000000     
  0.87500000000000000       0.96875000000000000        0.0000000000000000     
  0.90625000000000000       0.96875000000000000        0.0000000000000000     
  0.93750000000000000       0.96875000000000000        0.0000000000000000     
  0.96875000000000000       0.96875000000000000        0.0000000000000000     
   1.0000000000000000       0.96875000000000000        0.0000000000000000     
  0.87500000000000000        1.0000000000000000        0.0000000000000000     
  0.90625000000000000        1.0000000000000000        0.0000000000000000     
  0.93750000000000000        1.0000000000000000        0.0000000000000000     
  0.96875000000000000        1.0000000000000000        0.0000000000000000     
   1.0000000000000000        1.0000000000000000        0.0000000000000000     
 </DataArray>
 </Points>
 <Cells>
 <DataArray  type="Int32"  Name="connectivity"  format="ascii">
           0           1           6           5
           1           2           7           6
           2           3           8           7
           3           4           9           8
           5           6          11          10
           6           7          12          11
           7           8          13          12
           8           9          14          13
          10          11          16          15
          11          12          17          16
          12          13          18          17
          13          14          19          18
          15          16          21          20
          16          17          22          21
          17          18          23          22
          18          19          24          23
          25          26          31          30
          26          27          32          31
          27          28          33          32
          28          29          34          33
          30          31          36          35
          31          32          37          36
          32          33          38          37
          33          34          39          38
          35          36          41          40
          36          37          42          41
          37          38          43          42
          38          39          44          43
          40          41          46          45
          41          42          47          46
          42          43          48          47
          43          44          49          48
          50          51          56          55
          51          52          57          56
          52          53          58          57
          53          54          59          58
          55          56          61          60
          56          57          62          61
          57          58          63          62
          58          59          64          63
          60          61          66          65
          61          62          67          66
          62          63          68          67
          63          64          69          68
          65          66          71          70
          66          67          72          71
          67          68          73          72
          68          69          74          73
          75          76          81          80
          76          77          82          81
          77          78          83          82
          78          79          84          83
          80          81          86          85
          81          82          87          86
          82          83          88          87
          83          84          89          88
          85          86          91          90
          86          87          92          91
          87          88          93          92
          88          89          94          93
          90          91          96          95
          91          92          97          96
          92          93          98          97
          93          94          99          98
         100         101         106         105
         101         102         107         106
         102         103         108         107
         103         104         109         108
         105         106         111         110
         106         107         112         111
         107         108         113         112
         108         109         114         113
         110         111         116         115
         111         112         117         116
         112         113         118         117
         113         114         119         118
         115         116         121         120
         116         117         122         121
         117         118         123         122
         118         119         124         123
         125         126         131         130
         126         127         132         131
         127         128         133         132
         128         129         134         133
         130         131         136         135
         131         132         137         136
         132         133         138         137
         133         134         139         138
         135         136         141         140
         136         137         142         141
         137         138         143         142
         138         139         144         143
         140         141         146         145
         141         142         147         146
         142         143         148         147
         143         144         149         148
         150         151         156         155
         151         152         157         156
         152         153         158         157
         153         154         159         158
         155         156         161         160
         156         157         162         161
         157         158         163         162
         158         159         164         163
         160         161         166         165
         161         162         167         166
         162         163         168         167
         163         164         169         168
         165         166         171         170
         166         167         172         171
         167         168         173         172
         168         169         174         173
         175         176         181         180
         176         177         182         181
         177         178         183         182
         178         179         184         183
         180         181         186         185
         181         182         187         186
         182         183         188         187
         183         184         189         188
         185         186         191         190
         186         187         192         191
         187         188         193         192
         188         189         194         193
         190         191         196         195
         191         192         197         196
         192         193         198         197
         193         194         199         198
         200         201         206         205
         201         202         207         206
         202         203         208         207
         203         204         209         208
         205         206         211         210
         206         207         212         211
         207         208         213         212
         208         209         214         213
         210         211         216         215
         211         212         217         216
         212         213         218         217
         213         214         219         218
         215         216         221         220
         216         217         222         221
         217         218         223         222
         218         219         224         223
         225         226         231         230
         226         227         232         231
         227         228         233         232
         228         229         234         233
         230         231         236         235
         231         232         237         236
         232         233         238         237
         233         234         239         238
         235         236         241         240
         236         237         242         241
         237         238         243         242
         238         239         244         243
         240         241         246         245
         241         242         247         246
         242         243         248         247
         243         244         249         248
         250         251         256         255
         251         252         257         256
         252         253         258         257
         253         254         259         258
         255         256         261         260
         256         257         262         261
         257         258         263         262
         258         259         264         263
         260         261         266         265
         261         262         267         266
         262         263         268         267
         263         264         269         268
         265         266         271         270
         266         267         272         271
         267         268         273         272
         268         269         274         273
         275         276         281         280
         276         277         282         281
         277         278         283         282
         278         279         284         283
         280         281         286         285
         281         282         287         286
         282         283         288         287
         283         284         289         288
         285         286         291         290
         286         287         292         291
         287         288         293         292
         288         289         294         293
         290         291         296         295
         291         292         297         296
         292         293         298         297
         293         294         299         298
         300         301         306         305
         301         302         307         306
         302         303         308         307
         303         304         309         308
         305         306         311         310
         306         307         312         311
         307         308         313         312
         308         309         314         313
         310         311         316         315
         311         312         317         316
         312         313         318         317
         313         314         319         318
         315         316         321         320
         316         317         322         321
         317         318         323         322
         318         319         324         323
         325         326         331         330
         326         327         332         331
         327         328         333         332
         328         329         334         333
         330         331         336         335
         331         332         337         336
         332         333         338         337
         333         334         339         338
         335         336         341         340
         336         337         342         341
         337         338         343         342
         338         339         344         343
         340         341         346         345
         341         342         347         346
         342         343         348         347
         343         344         349         348
         350         351         356         355
         351         352         357         356
         352         353         358         357
         353         354         359         358
         355         356         361         360
         356         357         362         361
         357         358         363         362
         358         359         364         363
         360         361         366         365
         361         362         367         366
         362         363         368         367
         363         364         369         368
         365         366         371         370
         366         367         372         371
         367         368         373         372
         368         369         374         373
         375         376         381         380
         376         377         382         381
         377         378         383         382
         378         379         384         383
         380         381         386         385
         381         382         387         386
         382         383         388         387
         383         384         389         388
         385         386         391         390
         386         387         392         391
         387         388         393         392
         388         389         394         393
         390         391         396         395
         391         392         397         396
         392         393         398         397
         393         394         399         398
         400         401         406         405
         401         402         407         406
         402         403         408         407
         403         404         409         408
         405         406         411         410
         406         407         412         411
         407         408         413         412
         408         409         414         413
         410         411         416         415
         411         412         417         416
         412         413         418         417
         413         414         419         418
         415         416         421         420
         416         417         422         421
         417         418         423         422
         418         419         424         423
         425         426         431         430
         426         427         432         431
         427         428         433         432
         428         429         434         433
         430         431         436         435
         431         432         437         436
         432         433         438         437
         433         434         439         438
         435         436         441         440
         436         437         442         441
         437         438         443         442
         438         439         444         443
         440         441         446         445
         441         442         447         446
         442         443         448         447
         443         444         449         448
         450         451         456         455
         451         452         457         456
         452         453         458         457
         453         454         459         458
         455         456         461         460
         456         457         462         461
         457         458         463         462
         458         459         464         463
         460         461         466         465
         461         462         467         466
         462         463         468         467
         463         464         469         468
         465         466         471         470
         466         467         472         471
         467         468         473         472
         468         469         474         473
         475         476         481         480
         476         477         482         481
         477         478         483         482
         478         479         484         483
         480         481         486         485
         481         482         487         486
         482         483         488         487
         483         484         489         488
         485         486         491         490
         486         487         492         491
         487         488         493         492
         488         489         494         493
         490         491         496         495
         491         492         497         496
         492         493         498         497
         493         494         499         498
         500         501         506         505
         501         502         507         506
         502         503         508         507
         503         504         509         508
         505         506         511         510
         506         507         512         511
         507         508         513         512
         508         509         514         513
         510         511         516         515
         511         512         517         516
         512         513         518         517
         513         514         519         518
         515         516         521         520
         516         517         522         521
         517         518         523         522
         518         519         524         523
         525         526         531         530
         526         527         532         531
         527         528         533         532
         528         529         534         533
         530         531         536         535
         531         532         537         536
         532         533         538         537
         533         534         539         538
         535         536         541         540
         536         537         542         541
         537         538         543         542
         538         539         544         543
         540         541         546         545
         541         542         547         546
         542         543         548         547
         543         544         549         548
         550         551         556         555
         551         552         557         556
         552         553         558         557
         553         554         559         558
         555         556         561         560
         556         557         562         561
         557         558         563         562
         558         559         564         563
         560         561         566         565
         561         562         567         566
         562         563         568         567
         563         564         569         568
         565         566         571         570
         566         567         572         571
         567         568         573         572
         568         569         574         573
         575         576         581         580
         576         577         582         581
         577         578         583         582
         578         579         584         583
         580         581         586         585
         581         582         587         586
         582         583         588         587
         583         584         589         588
         585         586         591         590
         586         587         592         591
         587         588         593         592
         588         589         594         593
         590         591         596         595
         591         592         597         596
         592         593         598         597
         593         594         599         598
         600         601         606         605
         601         602         607         606
         602         603         608         607
         603         604         609         608
         605         606         611         610
         606         607         612         611
         607         608         613         612
         608         609         614         613
         610         611         616         615
         611         612         617         616
         612         613         618         617
         613         614         619         618
         615         616         621         620
         616         617         622         621
         617         618         623         622
         618         619         624         623
         625         626         631         630
         626         627         632         631
         627         628         633         632
         628         629         634         633
         630         631         636         635
         631         632         637         636
         632         633         638         637
         633         634         639         638
         635         636         641         640
         636         637         642         641
         637         638         643         642
         638         639         644         643
         640         641         646         645
         641         642         647         646
         642         643         648         647
         643         644         649         648
         650         651         656         655
         651         652         657         656
         652         653         658         657
         653         654         659         658
         655         656         661         660
         656         657         662         661
         657         658         663         662
         658         659         664         663
         660         661         666         665
         661         662         667         666
         662         663         668         667
         663         664         669         668
         665         666         671         670
         666         667         672         671
         667         668         673         672
         668         669         674         673
         675         676         681         680
         676         677         682         681
         677         678         683         682
         678         679         684         683
         680         681         686         685
         681         682         687         686
         682         683         688         687
         683         684         689         688
         685         686         691         690
         686         687         692         691
         687         688         693         692
         688         689         694         693
         690         691         696         695
         691         692         697         696
         692         693         698         697
         693         694         699         698
         700         701         706         705
         701         702         707         706
         702         703         708         707
         703         704         709         708
         705         706         711         710
         706         707         712         711
         707         708         713         712
         708         709         714         713
         710         711         716         715
         711         712         717         716
         712         713         718         717
         713         714         719         718
         715         716         721         720
         716         717         722         721
         717         718         723         722
         718         719         724         723
         725         726         731         730
         726         727         732         731
         727         728         733         732
         728         729         734         733
         730         731         736         735
         731         732         737         736
         732         733         738         737
         733         734         739         738
         735         736         741         740
         736         737         742         741
         737         738         743         742
         738         739         744         743
         740         741         746         745
         741         742         747         746
         742         743         748         747
         743         744         749         748
         750         751         756         755
         751         752         757         756
         752         753         758         757
         753         754         759         758
         755         756         761         760
         756         757         762         761
         757         758         763         762
         758         759         764         763
         760         761         766         765
         761         762         767         766
         762         763         768         767
         763         764         769         768
         765         766         771         770
         766         767         772         771
         767         768         773         772
         768         769         774         773
         775         776         781         780
         776         777         782         781
         777         778         783         782
         778         779         784         783
         780         781         786         785
         781         782         787         786
         782         783         788         787
         783         784         789         788
         785         786         791         790
         786         787         792         791
         787         788         793         792
         788         789         794         793
         790         791         796         795
         791         792         797         796
         792         793         798         797
         793         794         799         798
         800         801         806         805
         801         802         807         806
         802         803         808         807
         803         804         809         808
         805         806         811         810
         806         807         812         811
         807         808         813         812
         808         809         814         813
         810         811         816         815
         811         812         817         816
         812         813         818         817
         813         814         819         818
         815         816         821         820
         816         817         822         821
         817         818         823         822
         818         819         824         823
         825         826         831         830
         826         827         832         831
         827         828         833         832
         828         829         834         833
         830         831         836         835
         831         832         837         836
         832         833         838         837
         833         834         839         838
         835         836         841         840
         836         837         842         841
         837         838         843         842
         838         839         844         843
         840         841         846         845
         841         842         847         846
         842         843         848         847
         843         844         849         848
         850         851         856         855
         851         852         857         856
         852         853         858         857
         853         854         859         858
         855         856         861         860
         856         857         862         861
         857         858         863         862
         858         859         864         863
         860         861         866         865
         861         862         867         866
         862         863         868         867
         863         864         869         868
         865         866         871         870
         866         867         872         871
         867         868         873         872
         868         869         874         873
         875         876         881         880
         876         877         882         881
         877         878         883         882
         878         879         884         883
         880         881         886         885
         881         882         887         886
         882         883         888         887
         883         884         889         888
         885         886         891         890
         886         887         892         891
         887         888         893         892
         888         889         894         893
         890         891         896         895
         891         892         897         896
         892         893         898         897
         893         894         899         898
         900         901         906         905
         901         902         907         906
         902         903         908         907
         903         904         909         908
         905         906         911         910
         906         907         912         911
         907         908         913         912
         908         909         914         913
         910         911         916         915
         911         912         917         916
         912         913         918         917
         913         914         919         918
         915         916         921         920
         916         917         922         921
         917         918         923         922
         918         919         924         923
         925         926         931         930
         926         927         932         931
         927         928         933         932
         928         929         934         933
         930         931         936         935
         931         932         937         936
         932         933         938         937
         933         934         939         938
         935         936         941         940
         936         937         942         941
         937         938         943         942
         938         939         944         943
         940         941         946         945
         941         942         947         946
         942         943         948         947
         943         944         949         948
         950         951         956         955
         951         952         957         956
         952         953         958         957
         953         954         959         958
         955         956         961         960
         956         957         962         961
         957         958         963         962
         958         959         964         963
         960         961         966         965
         961         962         967         966
         962         963         968         967
         963         964         969         968
         965         966         971         970
         966         967         972         971
         967         968         973         972
         968         969         974         973
         975         976         981         980
         976         977         982         981
         977         978         983         982
         978         979         984         983
         980         981         986         985
         981         982         987         986
         982         983         988         987
         983         984         989         988
         985         986         991         990
         986         987         992         991
         987         988         993         992
         988         989         994         993
         990         991         996         995
         991         992         997         996
         992         993         998         997
         993         994         999         998
        1000        1001        1006        1005
        1001        1002        1007        1006
        1002        1003        1008        1007
        1003        1004        1009        1008
        1005        1006        1011        1010
        1006        1007        1012        1011
        1007        1008        1013        1012
        1008        1009        1014        1013
        1010        1011        1016        1015
        1011        1012        1017        1016
        1012        1013        1018        1017
        1013        1014        1019        1018
        1015        1016        1021        1020
        1016        1017        1022        1021
        1017        1018        1023        1022
        1018        1019        1024        1023
        1025        1026        1031        1030
        1026        1027        1032        1031
        1027        1028        1033        1032
        1028        1029        1034        1033
        1030        1031        1036        1035
        1031        1032        1037        1036
        1032        1033        1038        1037
        1033        1034        1039        1038
        1035        1036        1041        1040
        1036        1037        1042        1041
        1037        1038        1043        1042
        1038        1039        1044        1043
        1040        1041        1046        1045
        1041        1042        1047        1046
        1042        1043        1048        1047
        1043        1044        1049        1048
        1050        1051        1056        1055
        1051        1052        1057        1056
        1052        1053        1058        1057
        1053        1054        1059        1058
        1055        1056        1061        1060
        1056        1057        1062        1061
        1057        1058        1063        1062
        1058        1059        1064        1063
        1060        1061        1066        1065
        1061        1062        1067        1066
        1062        1063        1068        1067
        1063        1064        1069        1068
        1065        1066        1071        1070
        1066        1067        1072        1071
        1067        1068        1073        1072
        1068        1069        1074        1073
        1075        1076        1081        1080
        1076        1077        1082        1081
        1077        1078        1083        1082
        1078        1079        1084        1083
        1080        1081        1086        1085
        1081        1082        1087        1086
        1082        1083        1088        1087
        1083        1084        1089        1088
        1085        1086        1091        1090
        1086        1087        1092        1091
        1087        1088        1093        1092
        1088        1089        1094        1093
        1090        1091        1096        1095
        1091        1092        1097        1096
        1092        1093        1098        1097
        1093        1094        1099        1098
        1100        1101        1106        1105
        1101        1102        1107        1106
        1102        1103        1108        1107
        1103        1104        1109        1108
        1105        1106        1111        1110
        1106        1107        1112        1111
        1107        1108        1113        1112
        1108        1109        1114        1113
        1110        1111        1116        1115
        1111        1112        1117        1116
        1112        1113        1118        1117
        1113        1114        1119        1118
        1115        1116        1121        1120
        1116        1117        1122        1121
        1117        1118        1123        1122
        1118        1119        1124        1123
        1125        1126        1131        1130
        1126        1127        1132        1131
        1127        1128        1133        1132
        1128        1129        1134        1133
        1130        1131        1136        1135
        1131        1132        1137        1136
        1132        1133        1138        1137
        1133        1134        1139        1138
        1135        1136        1141        1140
        1136        1137        1142        1141
        1137        1138        1143        1142
        1138        1139        1144        1143
        1140        1141        1146        1145
        1141        1142        1147        1146
        1142        1143        1148        1147
        1143        1144        1149        1148
        1150        1151        1156        1155
        1151        1152        1157        1156
        1152        1153        1158        1157
        1153        1154        1159        1158
        1155        1156        1161        1160
        1156        1157        1162        1161
        1157        1158        1163        1162
        1158        1159        1164        1163
        1160        1161        1166        1165
        1161        1162        1167        1166
        1162        1163        1168        1167
        1163        1164        1169        1168
        1165        1166        1171        1170
        1166        1167        1172        1171
        1167        1168        1173        1172
        1168        1169        1174        1173
        1175        1176        1181        1180
        1176        1177        1182        1181
        1177        1178        1183        1182
        1178        1179        1184        1183
        1180        1181        1186        1185
        1181        1182        1187        1186
        1182        1183        1188        1187
        1183        1184        1189        1188
        1185        1186        1191        1190
        1186        1187        1192        1191
        1187        1188        1193        1192
        1188        1189        1194        1193
        1190        1191        1196        1195
        1191        1192        1197        1196
        1192        1193        1198        1197
        1193        1194        1199        1198
        1200        1201        1206        1205
        1201        1202        1207        1206
        1202        1203        1208        1207
        1203        1204        1209        1208
        1205        1206        1211        1210
        1206        1207        1212        1211
        1207        1208        1213        1212
        1208        1209        1214        1213
        1210        1211        1216        1215
        1211        1212        1217        1216
        1212        1213        1218        1217
        1213        1214        1219        1218
        1215        1216        1221        1220
        1216        1217        1222        1221
        1217        1218        1223        1222
        1218        1219        1224        1223
        1225        1226        1231        1230
        1226        1227        1232        1231
        1227        1228        1233        1232
        1228        1229        1234        1233
        1230        1231        1236        1235
        1231        1232        1237        1236
        1232        1233        1238        1237
        1233        1234        1239        1238
        1235        1236        1241        1240
        1236        1237        1242        1241
        1237        1238        1243        1242
        1238        1239        1244        1243
        1240        1241        1246        1245
        1241        1242        1247        1246
        1242        1243        1248        1247
        1243        1244        1249        1248
        1250        1251        1256        1255
        1251        1252        1257        1256
        1252        1253        1258        1257
        1253        1254        1259        1258
        1255        1256        1261        1260
        1256        1257        1262        1261
        1257        1258        1263        1262
        1258        1259        1264        1263
        1260        1261        1266        1265
        1261        1262        1267        1266
        1262        1263        1268        1267
        1263        1264        1269        1268
        1265        1266        1271        1270
        1266        1267        1272        1271
        1267        1268        1273        1272
        1268        1269        1274        1273
        1275        1276        1281        1280
        1276        1277        1282        1281
        1277        1278        1283        1282
        1278        1279        1284        1283
        1280        1281        1286        1285
        1281        1282        1287        1286
        1282        1283        1288        1287
        1283        1284        1289        1288
        1285        1286        1291        1290
        1286        1287        1292        1291
        1287        1288        1293        1292
        1288        1289        1294        1293
        1290        1291        1296        1295
        1291        1292        1297        1296
        1292        1293        1298        1297
        1293        1294        1299        1298
        1300        1301        1306        1305
        1301        1302        1307        1306
        1302        1303        1308        1307
        1303        1304        1309        1308
        1305        1306        1311        1310
        1306        1307        1312        1311
        1307        1308        1313        1312
        1308        1309        1314        1313
        1310        1311        1316        1315
        1311        1312        1317        1316
        1312        1313        1318        1317
        1313        1314        1319        1318
        1315        1316        1321        1320
        1316        1317        1322        1321
        1317        1318        1323        1322
        1318        1319        1324        1323
        1325        1326        1331        1330
        1326        1327        1332        1331
        1327        1328        1333        1332
        1328        1329        1334        1333
        1330        1331        1336        1335
        1331        1332        1337        1336
        1332        1333        1338        1337
        1333        1334        1339        1338
        1335        1336        1341        1340
        1336        1337        1342        1341
        1337        1338        1343        1342
        1338        1339        1344        1343
        1340        1341        1346        1345
        1341        1342        1347        1346
        1342        1343        1348        1347
        1343        1344        1349        1348
        1350        1351        1356        1355
        1351        1352        1357        1356
        1352        1353        1358        1357
        1353        1354        1359        1358
        1355        1356        1361        1360
        1356        1357        1362        1361
        1357        1358        1363        1362
        1358        1359        1364        1363
        1360        1361        1366        1365
        1361        1362        1367        1366
        1362        1363        1368        1367
        1363        1364        1369        1368
        1365        1366        1371        1370
        1366        1367        1372        1371
        1367        1368        1373        1372
        1368        1369        1374        1373
        1375        1376        1381        1380
        1376        1377        1382        1381
        1377        1378        1383        1382
        1378        1379        1384        1383
        1380        1381        1386        1385
        1381        1382        1387        1386
        1382        1383        1388        1387
        1383        1384        1389        1388
        1385        1386        1391        1390
        1386        1387        1392        1391
        1387        1388        1393        1392
        1388        1389        1394        1393
        1390        1391        1396        1395
        1391        1392        1397        1396
        1392        1393        1398        1397
        1393        1394        1399        1398
        1400        1401        1406        1405
        1401        1402        1407        1406
        1402        1403        1408        1407
        1403        1404        1409        1408
        1405        1406        1411        1410
        1406        1407        1412        1411
        1407        1408        1413        1412
        1408        1409        1414        1413
        1410        1411        1416        1415
        1411        1412        1417        1416
        1412        1413        1418        1417
        1413        1414        1419        1418
        1415        1416        1421        1420
        1416        1417        1422        1421
        1417        1418        1423        1422
        1418        1419        1424        1423
        1425        1426        1431        1430
        1426        1427        1432        1431
        1427        1428        1433        1432
        1428        1429        1434        1433
        1430        1431        1436        1435
        1431        1432        1437        1436
        1432        1433        1438        1437
        1433        1434        1439        1438
        1435        1436        1441        1440
        1436        1437        1442        1441
        1437        1438        1443        1442
        1438        1439        1444        1443
        1440        1441        1446        1445
        1441        1442        1447        1446
        1442        1443        1448        1447
        1443        1444        1449        1448
        1450        1451        1456        1455
        1451        1452        1457        1456
        1452        1453        1458        1457
        1453        1454        1459        1458
        1455        1456        1461        1460
        1456        1457        1462        1461
        1457        1458        1463        1462
        1458        1459        1464        1463
        1460        1461        1466        1465
        1461        1462        1467        1466
        1462        1463        1468        1467
        1463        1464        1469        1468
        1465        1466        1471        1470
        1466        1467        1472        1471
        1467        1468        1473        1472
        1468        1469        1474        1473
        1475        1476        1481        1480
        1476        1477        1482        1481
        1477        1478        1483        1482
        1478        1479        1484        1483
        1480        1481        1486        1485
        1481        1482        1487        1486
        1482        1483        1488        1487
        1483        1484        1489        1488
        1485        1486        1491        1490
        1486        1487        1492        1491
        1487        1488        1493        1492
        1488        1489        1494        1493
        1490        1491        1496        1495
        1491        1492        1497        1496
        1492        1493        1498        1497
        1493        1494        1499        1498
        1500        1501        1506        1505
        1501        1502        1507        1506
        1502        1503        1508        1507
        1503        1504        1509        1508
        1505        1506        1511        1510
        1506        1507        1512        1511
        1507        1508        1513        1512
        1508        1509        1514        1513
        1510        1511        1516        1515
        1511        1512        1517        1516
        1512        1513        1518        1517
        1513        1514        1519        1518
        1515        1516        1521        1520
        1516        1517        1522        1521
        1517        1518        1523        1522
        1518        1519        1524        1523
        1525        1526        1531        1530
        1526        1527        1532        1531
        1527        1528        1533        1532
        1528        1529        1534        1533
        1530        1531        1536        1535
        1531        1532        1537        1536
        1532        1533        1538        1537
        1533        1534        1539        1538
        1535        1536        1541        1540
        1536        1537        1542        1541
        1537        1538        1543        1542
        1538        1539        1544        1543
        1540        1541        1546        1545
        1541        1542        1547        1546
        1542        1543        1548        1547
        1543        1544        1549        1548
        1550        1551        1556        1555
        1551        1552        1557        1556
        1552        1553        1558        1557
        1553        1554        1559        1558
        1555        1556        1561        1560
        1556        1557        1562        1561
        1557        1558        1563        1562
        1558        1559        1564        1563
        1560        1561        1566        1565
        1561        1562        1567        1566
        1562        1563        1568        1567
        1563        1564        1569        1568
        1565        1566        1571        1570
        1566        1567        1572        1571
        1567        1568        1573        1572
        1568        1569        1574        1573
        1575        1576        1581        1580
        1576        1577        1582        1581
        1577        1578        1583        1582
        1578        1579        1584        1583
        1580        1581        1586        1585
        1581        1582        1587        1586
        1582        1583        1588        1587
        1583        1584        1589        1588
        1585        1586        1591        1590
        1586        1587        1592        1591
        1587        1588        1593        1592
        1588        1589        1594        1593
        1590        1591        1596        1595
        1591        1592        1597        1596
        1592        1593        1598        1597
        1593        1594        1599        1598
 </DataArray>
 <DataArray  type="Int32"  Name="offsets"  format="ascii"> 
           4
           8
          12
          16
          20
          24
          28
          32
          36
          40
          44
          48
          52
          56
          60
          64
          68
          72
          76
          80
          84
          88
          92
          96
         100
         104
         108
         112
         116
         120
         124
         128
         132
         136
         140
         144
         148
         152
         156
         160
         164
         168
         172
         176
         180
         184
         188
         192
         196
         200
         204
         208
         212
         216
         220
         224
         228
         232
         236
         240
         244
         248
         252
         256
         260
         264
         268
         272
         276
         280
         284
         288
         292
         296
         300
         304
         308
         312
         316
         320
         324
         328
         332
         336
         340
         344
         348
         352
         356
         360
         364
         368
         372
         376
         380
         384
         388
         392
         396
         400
         404
         408
         412
         416
         420
         424
         428
         432
         436
         440
         444
         448
         452
         456
         460
         464
         468
         472
         476
         480
         484
         488
         492
         496
         500
         504
         508
         512
         516
         520
         524
         528
         532
         536
         540
         544
         548
         552
         556
         560
         564
         568
         572
         576
         580
         584
         588
         592
         596
         600
         604
         608
         612
         616
         620
         624
         628
         632
         636
         640
         644
         648
         652
         656
         660
         664
         668
         672
         676
         680
         684
         688
         692
         696
         700
         704
         708
         712
         716
         720
         724
         728
         732
         736
         740
         744
         748
         752
         756
         760
         764
         768
         772
         776
         780
         784
         788
         792
         796
         800
         804
         808
         812
         816
         820
         824
         828
         832
         836
         840
         844
         848
         852
         856
         860
         864
         868
         872
         876
         880
         884
         888
         892
         896
         900
         904
         908
         912
         916
         920
         924
         928
         932
         936
         940
         944
         948
         952
         956
         960
         964
         968
         972
         976
         980
         984
         988
         992
         996
        1000
        1004
        1008
        1012
        1016
        1020
        1024
        1028
        1032
        1036
        1040
        1044
        1048
        1052
        1056
        1060
        1064
        1068
        1072
        1076
        1080
        1084
        1088
        1092
        1096
        1100
        1104
        1108
        1112
        1116
        1120
        1124
        1128
        1132
        1136
        1140
        1144
        1148
        1152
        1156
        1160
        1164
        1168
        1172
        1176
        1180
        1184
        1188
        1192
        1196
        1200
        1204
        1208
        1212
        1216
        1220
        1224
        1228
        1232
        1236
        1240
        1244
        1248
        1252
        1256
        1260
        1264
        1268
        1272
        1276
        1280
        1284
        1288
        1292
        1296
        1300
        1304
        1308
        1312
        1316
        1320
        1324
        1328
        1332
        1336
        1340
        1344
        1348
        1352
        1356
        1360
        1364
        1368
        1372
        1376
        1380
        1384
        1388
        1392
        1396
        1400
        1404
        1408
        1412
        1416
        1420
        1424
        1428
        1432
        1436
        1440
        1444
        1448
        1452
        1456
        1460
        1464
        1468
        1472
        1476
        1480
        1484
        1488
        1492
        1496
        1500
        1504
        1508
        1512
        1516
        1520
        1524
        1528
        1532
        1536
        1540
        1544
        1548
        1552
        1556
        1560
        1564
        1568
        1572
        1576
        1580
        1584
        1588
        1592
        1596
        1600
        1604
        1608
        1612
        1616
        1620
        1624
        1628
        1632
        1636
        1640
        1644
        1648
        1652
        1656
        1660
        1664
        1668
        1672
        1676
        1680
        1684
        1688
        1692
        1696
        1700
        1704
        1708
        1712
        1716
        1720
        1724
        1728
        1732
        1736
        1740
        1744
        1748
        1752
        1756
        1760
        1764
        1768
        1772
        1776
        1780
        1784
        1788
        1792
        1796
        1800
        1804
        1808
        1812
        1816
        1820
        1824
        1828
        1832
        1836
        1840
        1844
        1848
        1852
        1856
        1860
        1864
        1868
        1872
        1876
        1880
        1884
        1888
        1892
        1896
        1900
        1904
        1908
        1912
        1916
        1920
        1924
        1928
        1932
        1936
        1940
        1944
        1948
        1952
        1956
        1960
        1964
        1968
        1972
        1976
        1980
        1984
        1988
        1992
        1996
        2000
        2004
        2008
        2012
        2016
        2020
        2024
        2028
        2032
        2036
        2040
        2044
        2048
        2052
        2056
        2060
        2064
        2068
        2072
        2076
        2080
        2084
        2088
        2092
        2096
        2100
        2104
        2108
        2112
        2116
        2120
        2124
        2128
        2132
        2136
        2140
        2144
        2148
        2152
        2156
        2160
        2164
        2168
        2172
        2176
        2180
        2184
        2188
        2192
        2196
        2200
        2204
        2208
        2212
        2216
        2220
        2224
        2228
        2232
        2236
        2240
        2244
        2248
        2252
        2256
        2260
        2264
        2268
        2272
        2276
        2280
        2284
        2288
        2292
        2296
        2300
        2304
        2308
        2312
        2316
        2320
        2324
        2328
        2332
        2336
        2340
        2344
        2348
        2352
        2356
        2360
        2364
        2368
        2372
        2376
        2380
        2384
        2388
        2392
        2396
        2400
        2404
        2408
        2412
        2416
        2420
        2424
        2428
        2432
        2436
        2440
        2444
        2448
        2452
        2456
        2460
        2464
        2468
        2472
        2476
        2480
        2484
        2488
        2492
        2496
        2500
        2504
        2508
        2512
        2516
        2520
        2524
        2528
        2532
        2536
        2540
        2544
        2548
        2552
        2556
        2560
        2564
        2568
        2572
        2576
        2580
        2584
        2588
        2592
        2596
        2600
        2604
        2608
        2612
        2616
        2620
        2624
        2628
        2632
        2636
        2640
        2644
        2648
        2652
        2656
        2660
        2664
        2668
        2672
        2676
        2680
        2684
        2688
        2692
        2696
        2700
        2704
        2708
        2712
        2716
        2720
        2724
        2728
        2732
        2736
        2740
        2744
        2748
        2752
        2756
        2760
        2764
        2768
        2772
        2776
        2780
        2784
        2788
        2792
        2796
        2800
        2804
        2808
        2812
        2816
        2820
        2824
        2828
        2832
        2836
        2840
        2844
        2848
        2852
        2856
        2860
        2864
        2868
        2872
        2876
        2880
        2884
        2888
        2892
        2896
        2900
        2904
        2908
        2912
        2916
        2920
        2924
        2928
        2932
        2936
        2940
        2944
        2948
        2952
        2956
        2960
        2964
        2968
        2972
        2976
        2980
        2984
        2988
        2992
        2996
        3000
        3004
        3008
        3012
        3016
        3020
        3024
        3028
        3032
        3036
        3040
        3044
        3048
        3052
        3056
        3060
        3064
        3068
        3072
        3076
        3080
        3084
        3088
        3092
        3096
        3100
        3104
        3108
        3112
        3116
        3120
        3124
        3128
        3132
        3136
        3140
        3144
        3148
        3152
        3156
        3160
        3164
        3168
        3172
        3176
        3180
        3184
        3188
        3192
        3196
        3200
        3204
        3208
        3212
        3216
        3220
        3224
        3228
        3232
        3236
        3240
        3244
        3248
        3252
        3256
        3260
        3264
        3268
        3272
        3276
        3280
        3284
        3288
        3292
        3296
        3300
        3304
        3308
        3312
        3316
        3320
        3324
        3328
        3332
        3336
        3340
        3344
        3348
        3352
        3356
        3360
        3364
        3368
        3372
        3376
        3380
        3384
        3388
        3392
        3396
        3400
        3404
        3408
        3412
        3416
        3420
        3424
        3428
        3432
        3436
        3440
        3444
        3448
        3452
        3456
        3460
        3464
        3468
        3472
        3476
        3480
        3484
        3488
        3492
        3496
        3500
        3504
        3508
        3512
        3516
        3520
        3524
        3528
        3532
        3536
        3540
        3544
        3548
        3552
        3556
        3560
        3564
        3568
        3572
        3576
        3580
        3584
        3588
        3592
        3596
        3600
        3604
        3608
        3612
        3616
        3620
        3624
        3628
        3632
        3636
        3640
        3644
        3648
        3652
        3656
        3660
        3664
        3668
        3672
        3676
        3680
        3684
        3688
        3692
        3696
        3700
        3704
        3708
        3712
        3716
        3720
        3724
        3728
        3732
        3736
        3740
        3744
        3748
        3752
        3756
        3760
        3764
        3768
        3772
        3776
        3780
        3784
        3788
        3792
        3796
        3800
        3804
        3808
        3812
        3816
        3820
        3824
        3828
        3832
        3836
        3840
        3844
        3848
        3852
        3856
        3860
        3864
        3868
        3872
        3876
        3880
        3884
        3888
        3892
        3896
        3900
        3904
        3908
        3912
        3916
        3920
        3924
        3928
        3932
        3936
        3940
        3944
        3948
        3952
        3956
        3960
        3964
        3968
        3972
        3976
        3980
        3984
        3988
        3992
        3996
        4000
        4004
        4008
        4012
        4016
        4020
        4024
        4028
        4032
        4036
        4040
        4044
        4048
        4052
        4056
        4060
        4064
        4068
        4072
        4076
        4080
        4084
        4088
        4092
        4096
 </DataArray>
 <DataArray  type="UInt8"  Name="types"  format="ascii">
 9
 9
 9
 9
 9
 9
 9
 9
 9
 9
 9
 9
 9
 9
 9
 9
 9
 9
 9
 9
 9
 9
 9
 9
 9
 9
 9
 9
 9
 9
 9
 9
 9
 9
 9
 9
 9
 9
 9
 9
 9
 9
 9
 9
 9
 9
 9
 9
 9
 9
 9
 9
 9
 9
 9
 9
 9
 9
 9
 9
 9
 9
 9
 9
 9
 9
 9
 9
 9
 9
 9
 9
 9
 9
 9
 9
 9
 9
 9
 9
 9
 9
 9
 9
 9
 9
 9
 9
 9
 9
 9
 9
 9
 9
 9
 9
 9
 9
 9
 9
 9
 9
 9
 9
 9
 9
 9
 9
 9
 9
 9
 9
 9
 9
 9
 9
 9
 9
 9
 9
 9
 9
 9
 9
 9
 9
 9
 9
 9
 9
 9
 9
 9
 9
 9
 9
 9
 9
 9
 9
 9
 9
 9
 9
 9
 9
 9
 9
 9
 9
 9
 9
 9
 9
 9
 9
 9
 9
 9
 9
 9
 9
 9
 9
 9
 9
 9
 9
 9
 9
 9
 9
 9
 9
 9
 9
 9
 9
 9
 9
 9
 9
 9
 9
 9
 9
 9
 9
 9
 9
 9
 9
 9
 9
 9
 9
 9
 9
 9
 9
 9
 9
 9
 9
 9
 9
 9
 9
 9
 9
 9
 9
 9
 9
 9
 9
 9
 9
 9
 9
 9
 9
 9
 9
 9
 9
 9
 9
 9
 9
 9
 9
 9
 9
 9
 9
 9
 9
 9
 9
 9
 9
 9
 9
 9
 9
 9
 9
 9
 9
 9
 9
 9
 9
 9
 9
 9
 9
 9
 9
 9
 9
 9
 9
 9
 9
 9
 9
 9
 9
 9
 9
 9
 9
 9
 9
 9
 9
 9
 9
 9
 9
 9
 9
 9
 9
 9
 9
 9
 9
 9
 9
 9
 9
 9
 9
 9
 9
 9
 9
 9
 9
 9
 9
 9
 9
 9
 9
 9
 9
 9
 9
 9
 9
 9
 9
 9
 9
 9
 9
 9
 9
 9
 9
 9
 9
 9
 9
 9
 9
 9
 9
 9
 9
 9
 9
 9
 9
 9
 9
 9
 9
 9
 9
 9
 9
 9
 9
 9
 9
 9
 9
 9
 9
 9
 9
 9
 9
 9
 9
 9
 9
 9
 9
 9
 9
 9
 9
 9
 9
 9
 9
 9
 9
 9
 9
 9
 9
 9
 9
 9
 9
 9
 9
 9
 9
 9
 9
 9
 9
 9
 9
 9
 9
 9
 9
 9
 9
 9
 9
 9
 9
 9
 9
 9
 9
 9
 9
 9
 9
 9
 9
 9
 9
 9
 9
 9
 9
 9
 9
 9
 9
 9
 9
 9
 9
 9
 9
 9
 9
 9
 9
 9
 9
 9
 9
 9
 9
 9
 9
 9
 9
 9
 9
 9
 9
 9
 9
 9
 9
 9
 9
 9
 9
 9
 9
 9
 9
 9
 9
 9
 9
 9
 9
 9
 9
 9
 9
 9
 9
 9
 9
 9
 9
 9
 9
 9
 9
 9
 9
 9
 9
 9
 9
 9
 9
 9
 9
 9
 9
 9
 9
 9
 9
 9
 9
 9
 9
 9
 9
 9
 9
 9
 9
 9
 9
 9
 9
 9
 9
 9
 9
 9
 9
 9
 9
 9
 9
 9
 9
 9
 9
 9
 9
 9
 9
 9
 9
 9
 9
 9
 9
 9
 9
 9
 9
 9
 9
 9
 9
 9
 9
 9
 9
 9
 9
 9
 9
 9
 9
 9
 9
 9
 9
 9
 9
 9
 9
 9
 9
 9
 9
 9
 9
 9
 9
 9
 9
 9
 9
 9
 9
 9
 9
 9
 9
 9
 9
 9
 9
 9
 9
 9
 9
 9
 9
 9
 9
 9
 9
 9
 9
 9
 9
 9
 9
 9
 9
 9
 9
 9
 9
 9
 9
 9
 9
 9
 9
 9
 9
 9
 9
 9
 9
 9
 9
 9
 9
 9
 9
 9
 9
 9
 9
 9
 9
 9
 9
 9
 9
 9
 9
 9
 9
 9
 9
 9
 9
 9
 9
 9
 9
 9
 9
 9
 9
 9
 9
 9
 9
 9
 9
 9
 9
 9
 9
 9
 9
 9
 9
 9
 9
 9
 9
 9
 9
 9
 9
 9
 9
 9
 9
 9
 9
 9
 9
 9
 9
 9
 9
 9
 9
 9
 9
 9
 9
 9
 9
 9
 9
 9
 9
 9
 9
 9
 9
 9
 9
 9
 9
 9
 9
 9
 9
 9
 9
 9
 9
 9
 9
 9
 9
 9
 9
 9
 9
 9
 9
 9
 9
 9
 9
 9
 9
 9
 9
 9
 9
 9
 9
 9
 9
 9
 9
 9
 9
 9
 9
 9
 9
 9
 9
 9
 9
 9
 9
 9
 9
 9
 9
 9
 9
 9
 9
 9
 9
 9
 9
 9
 9
 9
 9
 9
 9
 9
 9
 9
 9
 9
 9
 9
 9
 9
 9
 9
 9
 9
 9
 9
 9
 9
 9
 9
 9
 9
 9
 9
 9
 9
 9
 9
 9
 9
 9
 9
 9
 9
 9
 9
 9
 9
 9
 9
 9
 9
 9
 9
 9
 9
 9
 9
 9
 9
 9
 9
 9
 9
 9
 9
 9
 9
 9
 9
 9
 9
 9
 9
 9
 9
 9
 9
 9
 9
 9
 9
 9
 9
 9
 9
 9
 9
 9
 9
 9
 9
 9
 9
 9
 9
 9
 9
 9
 9
 9
 9
 9
 9
 9
 9
 9
 9
 9
 9
 9
 9
 9
 9
 9
 9
 9
 9
 9
 9
 9
 9
 9
 9
 9
 9
 9
 9
 9
 9
 9
 9
 9
 9
 9
 9
 9
 9
 9
 9
 9
 9
 9
 9
 9
 9
 9
 9
 9
 9
 9
 9
 9
 9
 9
 9
 9
 9
 9
 9
 9
 9
 9
 9
 9
 9
 9
 9
 9
 9
 9
 9
 9
 9
 9
 9
 9
 9
 9
 9
 9
 9
 9
 9
 9
 9
 9
 9
 9
 9
 9
 9
 9
 9
 9
 9
 9
 9
 9
 9
 9
 9
 9
 9
 9
 9
 9
 9
 9
 9
 9
 9
 9
 9
 9
 9
 9
 9
 9
 9
 9
 9
 9
 9
 9
 9
 9
 9
 9
 9
 9
 9
 9
 9
 9
 9
 9
 9
 9
 9
 9
 9
 9
 9
 9
 9
 9
 9
 9
 9
 9
 9
 9
 9
 9
 9
 9
 9
 9
 9
 9
 9
 9
 9
 9
 9
 9
 9
 9
 9
 9
 </DataArray>
 </Cells> 
 <PointData>
 <DataArray  type="Float64" Name="disp" NumberOfComponents="3" format="ascii">
   0.0000000000000000        0.0000000000000000        0.0000000000000000     
   6.0969533284073703E-003   3.7891531421682424E-003   0.0000000000000000     
   1.1668666250402490E-002   7.3211746853920207E-003   0.0000000000000000     
   1.6715138765985363E-002   1.0596064629671335E-002   0.0000000000000000     
   2.1236370875155980E-002   1.3613822975006186E-002   0.0000000000000000     
   0.0000000000000000        0.0000000000000000        0.0000000000000000     
   4.8926591191346871E-003   3.0204857549176742E-003   0.0000000000000000     
   9.5770921444894748E-003   6.0571828377789655E-003   0.0000000000000000     
   1.4053299076064363E-002   9.1100912485838764E-003   0.0000000000000000     
   1.8321279913859349E-002   1.2179210987332401E-002   0.0000000000000000     
   0.0000000000000000        0.0000000000000000        0.0000000000000000     
   3.9553132148963960E-003   2.4230944811715052E-003   0.0000000000000000     
   7.9143859301846961E-003   5.0589052360287285E-003   0.0000000000000000     
   1.1877218145864904E-002   7.9074322645716708E-003   0.0000000000000000     
   1.5843809861937015E-002   1.0968675566800331E-002   0.0000000000000000     
   0.0000000000000000        0.0000000000000000        0.0000000000000000     
   3.2849156156924955E-003   1.9969793209297366E-003   0.0000000000000000     
   6.6805476074881555E-003   4.3263418801413114E-003   0.0000000000000000     
   1.0186895975386981E-002   6.9880876776347231E-003   0.0000000000000000     
   1.3803960719388974E-002   9.9822167134099755E-003   0.0000000000000000     
   0.0000000000000000        0.0000000000000000        0.0000000000000000     
   2.8814663215229871E-003   1.7421402741923673E-003   0.0000000000000000     
   5.8755771763998547E-003   3.8594927701167112E-003   0.0000000000000000     
   8.9823325646306018E-003   6.3520574877730324E-003   0.0000000000000000     
   1.2201732486215228E-002   9.2198344271613303E-003   0.0000000000000000     
   2.1236370875155980E-002   1.3613822975006186E-002   0.0000000000000000     
   2.5445131859806725E-002   1.6605414328401576E-002   0.0000000000000000     
   2.9554191001829978E-002   1.9801803296862507E-002   0.0000000000000000     
   3.3563548301225730E-002   2.3202989880388977E-002   0.0000000000000000     
   3.7473203757993984E-002   2.6808974078980988E-002   0.0000000000000000     
   1.8321279913859349E-002   1.2179210987332401E-002   0.0000000000000000     
   2.2419229949038409E-002   1.5333206913312605E-002   0.0000000000000000     
   2.6385344472765498E-002   1.8640743885812539E-002   0.0000000000000000     
   3.0219623485040630E-002   2.2101821904832213E-002   0.0000000000000000     
   3.3922066985863794E-002   2.5716440970371623E-002   0.0000000000000000     
   1.5843809861937015E-002   1.0968675566800331E-002   0.0000000000000000     
   1.9742415821285580E-002   1.4201711801004208E-002   0.0000000000000000     
   2.3501290766795149E-002   1.7565617625472804E-002   0.0000000000000000     
   2.7120434698465718E-002   2.1060393040206113E-002   0.0000000000000000     
   3.0599847616297284E-002   2.4686038045204143E-002   0.0000000000000000     
   1.3803960719388974E-002   9.9822167134099755E-003   0.0000000000000000     
   1.7414689476548249E-002   1.3210928991476389E-002   0.0000000000000000     
   2.0902029883918916E-002   1.6576424515843288E-002   0.0000000000000000     
   2.4265981941500984E-002   2.0078703286510680E-002   0.0000000000000000     
   2.7506545649294448E-002   2.3717765303478557E-002   0.0000000000000000     
   1.2201732486215228E-002   9.2198344271613303E-003   0.0000000000000000     
   1.5436050914826407E-002   1.2360858484729141E-002   0.0000000000000000     
   1.8587561824136810E-002   1.5673164556924000E-002   0.0000000000000000     
   2.1656265214146434E-002   1.9156752643745899E-002   0.0000000000000000     
   2.4642161084855292E-002   2.2811622745194850E-002   0.0000000000000000     
   3.7473203757993984E-002   2.6808974078980988E-002   0.0000000000000000     
   4.1287493461423103E-002   3.0615162590565292E-002   0.0000000000000000     
   4.5010753500801463E-002   3.4616962113068639E-002   0.0000000000000000     
   4.8642983876129052E-002   3.8814372646491041E-002   0.0000000000000000     
   5.2184184587405869E-002   4.3207394190832485E-002   0.0000000000000000     
   3.3922066985863794E-002   2.5716440970371623E-002   0.0000000000000000     
   3.7515817142083727E-002   2.9513524118650901E-002   0.0000000000000000     
   4.1024016120549137E-002   3.3521994385890180E-002   0.0000000000000000     
   4.4446663921260038E-002   3.7741851772089476E-002   0.0000000000000000     
   4.7783760544216437E-002   4.2173096277248773E-002   0.0000000000000000     
   3.0599847616297284E-002   2.4686038045204143E-002   0.0000000000000000     
   3.3968954225186941E-002   2.8487224160166989E-002   0.0000000000000000     
   3.7257179230031766E-002   3.2508622904794747E-002   0.0000000000000000     
   4.0464522630831765E-002   3.6750234279087426E-002   0.0000000000000000     
   4.3590984427586923E-002   4.1212058283045014E-002   0.0000000000000000     
   2.7506545649294448E-002   2.3717765303478557E-002   0.0000000000000000     
   3.0646904710732756E-002   2.7536262715113564E-002   0.0000000000000000     
   3.3710242829249337E-002   3.1576847669782346E-002   0.0000000000000000     
   3.6696560004844211E-002   3.5839520167484908E-002   0.0000000000000000     
   3.9605856237517348E-002   4.0324280208221236E-002   0.0000000000000000     
   2.4642161084855292E-002   2.2811622745194850E-002   0.0000000000000000     
   2.7549668598721166E-002   2.6660639783490616E-002   0.0000000000000000     
   3.0383206918201861E-002   3.0726668680852966E-002   0.0000000000000000     
   3.3142776043297378E-002   3.5009709437281905E-002   0.0000000000000000     
   3.5828375974007703E-002   3.9509762052777418E-002   0.0000000000000000     
   5.2184184587405869E-002   4.3207394190832485E-002   0.0000000000000000     
   5.5631584307401824E-002   4.7800743866281435E-002   0.0000000000000000     
   5.8982411708886823E-002   5.2599138793026336E-002   0.0000000000000000     
   6.2236666791860851E-002   5.7602578971067193E-002   0.0000000000000000     
   6.5394349556323922E-002   6.2811064400404001E-002   0.0000000000000000     
   4.7783760544216437E-002   4.2173096277248773E-002   0.0000000000000000     
   5.1031187587761324E-002   4.6809315036399783E-002   0.0000000000000000     
   5.4184826650237737E-002   5.1644095184574232E-002   0.0000000000000000     
   5.7244677731645675E-002   5.6677436721772105E-002   0.0000000000000000     
   6.0210740831985118E-002   6.1909339647993417E-002   0.0000000000000000     
   4.3590984427586923E-002   4.1212058283045014E-002   0.0000000000000000     
   4.6632345438904071E-002   4.5881666272607903E-002   0.0000000000000000     
   4.9584386483390017E-002   5.0746629603716460E-002   0.0000000000000000     
   5.2447107561044738E-002   5.5806948276370671E-002   0.0000000000000000     
   5.5220508671868271E-002   6.1062622290570558E-002   0.0000000000000000     
   3.9605856237517348E-002   4.0324280208221236E-002   0.0000000000000000     
   4.2435057860830072E-002   4.5017797574905788E-002   0.0000000000000000     
   4.5181091208343648E-002   4.9906742050453014E-002   0.0000000000000000     
   4.7843956280058081E-002   5.4991113634862893E-002   0.0000000000000000     
   5.0423653075973372E-002   6.0270912328135452E-002   0.0000000000000000     
   3.5828375974007703E-002   3.9509762052777418E-002   0.0000000000000000     
   3.8439324853539313E-002   4.4217708943293438E-002   0.0000000000000000     
   4.0974940825098637E-002   4.9124432524783893E-002   0.0000000000000000     
   4.3435223888685683E-002   5.4229932797248775E-002   0.0000000000000000     
   4.5820174044300450E-002   5.9534209760688094E-002   0.0000000000000000     
   6.5394349556323922E-002   6.2811064400404001E-002   0.0000000000000000     
   6.8458295938796973E-002   6.8211186011252506E-002   0.0000000000000000     
   7.1431341875800941E-002   7.3789534733828488E-002   0.0000000000000000     
   7.4313487367335798E-002   7.9546110568131906E-002   0.0000000000000000     
   7.7104732413401600E-002   8.5480913514162787E-002   0.0000000000000000     
   6.0210740831985118E-002   6.1909339647993417E-002   0.0000000000000000     
   6.3087386345511226E-002   6.7331239200454057E-002   0.0000000000000000     
   6.5878984666479151E-002   7.2934570616369945E-002   0.0000000000000000     
   6.8585535794888866E-002   7.8719333895741095E-002   0.0000000000000000     
   7.1207039730740426E-002   8.4685529038567478E-002   0.0000000000000000     
   5.5220508671868271E-002   6.1062622290570558E-002   0.0000000000000000     
   5.7909424437978689E-002   6.6507502901390972E-002   0.0000000000000000     
   6.0518689481494088E-002   7.2135441363906747E-002   0.0000000000000000     
   6.3048303802414510E-002   7.7946437678117902E-002   0.0000000000000000     
   6.5498267400739885E-002   8.3940491844024412E-002   0.0000000000000000     
   5.0423653075973372E-002   6.0270912328135452E-002   0.0000000000000000     
   5.2924410216199341E-002   6.5739977114063264E-002   0.0000000000000000     
   5.5350456320845773E-002   7.1392146976438906E-002   0.0000000000000000     
   5.7701791389912653E-002   7.7227421915262343E-002   0.0000000000000000     
   5.9978415423400003E-002   8.3245801930533617E-002   0.0000000000000000     
   4.5820174044300450E-002   5.9534209760688094E-002   0.0000000000000000     
   4.8132343680173197E-002   6.5028661838470919E-002   0.0000000000000000     
   5.0374285184534157E-002   7.0704687453966353E-002   0.0000000000000000     
   5.2545998557383344E-002   7.6562286607174415E-002   0.0000000000000000     
   5.4647483798720767E-002   8.2601459298095065E-002   0.0000000000000000     
   7.7104732413401600E-002   8.5480913514162787E-002   0.0000000000000000     
   7.9795812490231488E-002   9.1581565075557592E-002   0.0000000000000000     
   8.2377463074058702E-002   9.7835686755952875E-002   0.0000000000000000     
   8.4849684164883213E-002  0.10424327855534858        0.0000000000000000     
   8.7212475762705050E-002  0.11080434047374474        0.0000000000000000     
   7.1207039730740426E-002   8.4685529038567478E-002   0.0000000000000000     
   7.3733592101004081E-002   9.0818170297324197E-002   0.0000000000000000     
   7.6155288532650217E-002   9.7102271924486339E-002   0.0000000000000000     
   7.8472129025678780E-002  0.10353783392005390        0.0000000000000000     
   8.0684113580089825E-002  0.11012485628402688        0.0000000000000000     
   6.5498267400739885E-002   8.3940491844024412E-002   0.0000000000000000     
   6.7858783415394142E-002   9.0101242726515485E-002   0.0000000000000000     
   7.0120054985301092E-002   9.6412329190480248E-002   0.0000000000000000     
   7.2282082110460763E-002  0.10287375123591877        0.0000000000000000     
   7.4344864790873127E-002  0.10948550886283100        0.0000000000000000     
   5.9978415423400003E-002   8.3245801930533617E-002   0.0000000000000000     
   6.2171386433401622E-002   8.9430782363131470E-002   0.0000000000000000     
   6.4271762432011326E-002   9.5765858553934671E-002   0.0000000000000000     
   6.6279543419229092E-002  0.10225103050294322        0.0000000000000000     
   6.8194729395054957E-002  0.10888629821015708        0.0000000000000000     
   5.4647483798720767E-002   8.2601459298095065E-002   0.0000000000000000     
   5.6671401155026571E-002   8.8806789207172138E-002   0.0000000000000000     
   5.8610410872780912E-002   9.5162860014849526E-002   0.0000000000000000     
   6.0464512951983830E-002  0.10166967172112720        0.0000000000000000     
   6.2233707392635285E-002  0.10832722432600514        0.0000000000000000     
   8.7212475762705050E-002  0.11080434047374474        0.0000000000000000     
   8.9486162923109819E-002  0.11751540134289526        0.0000000000000000     
   9.1691070701683225E-002  0.12437298999455411        0.0000000000000000     
   9.3827199098425199E-002  0.13137710642872125        0.0000000000000000     
   9.5894548113335795E-002  0.13852775064539671        0.0000000000000000     
   8.0684113580089825E-002  0.11012485628402688        0.0000000000000000     
   8.2813402743951853E-002  0.11686211294057809        0.0000000000000000     
   8.4882157065333377E-002  0.12374837781388033        0.0000000000000000     
   8.6890376544234413E-002  0.13078365090393360        0.0000000000000000     
   8.8838061180654959E-002  0.13796793221073789        0.0000000000000000     
   7.4344864790873127E-002  0.10948550886283100        0.0000000000000000     
   7.6330712895340894E-002  0.11624758734754344        0.0000000000000000     
   7.8261936292666714E-002  0.12315997196638259        0.0000000000000000     
   8.0138534982850618E-002  0.13022266271934846        0.0000000000000000     
   8.1960508965892562E-002  0.13743565960644105        0.0000000000000000     
   6.8194729395054957E-002  0.10888629821015708        0.0000000000000000     
   7.0038093377276969E-002  0.11567182456379133        0.0000000000000000     
   7.1830408383683264E-002  0.12260777245206092        0.0000000000000000     
   7.3571674414273813E-002  0.12969414187496589        0.0000000000000000     
   7.5261891469048603E-002  0.13693093283250621        0.0000000000000000     
   6.2233707392635285E-002  0.10832722432600514        0.0000000000000000     
   6.3935544189760080E-002  0.11513482458932173        0.0000000000000000     
   6.5587573338382971E-002  0.12209177927091527        0.0000000000000000     
   6.7189794838503986E-002  0.12919808837078584        0.0000000000000000     
   6.8742208690123124E-002  0.13645375188893333        0.0000000000000000     
   9.5894548113335795E-002  0.13852775064539671        0.0000000000000000     
   9.7868796026940152E-002  0.14580243992639344        0.0000000000000000     
   9.9725621119763422E-002  0.15317869155352434        0.0000000000000000     
  0.10146502339180560       0.16065650552678948        0.0000000000000000     
  0.10308700284306671       0.16823588184618882        0.0000000000000000     
   8.8838061180654959E-002  0.13796793221073789        0.0000000000000000     
   9.0696478688619436E-002  0.14527316618490654        0.0000000000000000     
   9.2436896782152292E-002  0.15267129727705289        0.0000000000000000     
   9.4059315461253512E-002  0.16016232548717699        0.0000000000000000     
   9.5563734725923083E-002  0.16774625081527877        0.0000000000000000     
   8.1960508965892562E-002  0.13743565960644105        0.0000000000000000     
   8.3699008851746526E-002  0.14476902025533306        0.0000000000000000     
   8.5325185250366517E-002  0.15219280229369717        0.0000000000000000     
   8.6839038161752452E-002  0.15970700572153346        0.0000000000000000     
   8.8240567585904428E-002  0.16731163053884190        0.0000000000000000     
   7.5261891469048603E-002  0.13693093283250621        0.0000000000000000     
   7.6876386516321449E-002  0.14429000213767293        0.0000000000000000     
   7.8390486524406069E-002  0.15174320660345719        0.0000000000000000     
   7.9804191493302493E-002  0.15929054622985891        0.0000000000000000     
   8.1117501423010691E-002  0.16693202101687818        0.0000000000000000     
   6.8742208690123124E-002  0.13645375188893333        0.0000000000000000     
   7.0228611682344178E-002  0.14383611183192621        0.0000000000000000     
   7.1632800604270991E-002  0.15132251020633292        0.0000000000000000     
   7.2954775455903592E-002  0.15891294701215339        0.0000000000000000     
   7.4194536237241940E-002  0.16660742224938765        0.0000000000000000     
   0.0000000000000000        0.0000000000000000        0.0000000000000000     
   2.8814663215229871E-003   1.7421402741923673E-003   0.0000000000000000     
   5.8755771763998547E-003   3.8594927701167112E-003   0.0000000000000000     
   8.9823325646306018E-003   6.3520574877730324E-003   0.0000000000000000     
   1.2201732486215228E-002   9.2198344271613303E-003   0.0000000000000000     
   0.0000000000000000        0.0000000000000000        0.0000000000000000     
   2.6112677807113580E-003   1.5859891501894651E-003   0.0000000000000000     
   5.2917346919611205E-003   3.5511577899660970E-003   0.0000000000000000     
   8.0414007337492894E-003   5.8955059193298949E-003   0.0000000000000000     
   1.0860265906075861E-002   8.6190335382808590E-003   0.0000000000000000     
   0.0000000000000000        0.0000000000000000        0.0000000000000000     
   2.3406224415810943E-003   1.4559377581510973E-003   0.0000000000000000     
   4.7212802092132860E-003   3.2941368237006325E-003   0.0000000000000000     
   7.1419733028965753E-003   5.5145971966486058E-003   0.0000000000000000     
   9.6027017226309620E-003   8.1173188769950166E-003   0.0000000000000000     
   0.0000000000000000        0.0000000000000000        0.0000000000000000     
   2.0695303041321960E-003   1.3519860980772634E-003   0.0000000000000000     
   4.1642137281563494E-003   3.0884298713203177E-003   0.0000000000000000     
   6.2840502720724603E-003   5.2093313197291644E-003   0.0000000000000000     
   8.4290399358805286E-003   7.7146904433038023E-003   0.0000000000000000     
   0.0000000000000000        0.0000000000000000        0.0000000000000000     
   1.7979913683646631E-003   1.2741341699679641E-003   0.0000000000000000     
   3.6205352487903111E-003   2.9340369328251549E-003   0.0000000000000000     
   5.4676316412769444E-003   4.9797082885715722E-003   0.0000000000000000     
   7.3392805458245627E-003   7.4111482372072159E-003   0.0000000000000000     
   1.2201732486215228E-002   9.2198344271613303E-003   0.0000000000000000     
   1.5436050914826407E-002   1.2360858484729141E-002   0.0000000000000000     
   1.8587561824136810E-002   1.5673164556924000E-002   0.0000000000000000     
   2.1656265214146434E-002   1.9156752643745899E-002   0.0000000000000000     
   2.4642161084855292E-002   2.2811622745194850E-002   0.0000000000000000     
   1.0860265906075861E-002   8.6190335382808590E-003   0.0000000000000000     
   1.3694967471260217E-002   1.1639517863342622E-002   0.0000000000000000     
   1.6492142691621730E-002   1.4874736111038811E-002   0.0000000000000000     
   1.9251791567160410E-002   1.8324688281369430E-002   0.0000000000000000     
   2.1973914097876242E-002   2.1989374374334476E-002   0.0000000000000000     
   9.6027017226309620E-003   8.1173188769950166E-003   0.0000000000000000     
   1.2079906480989836E-002   1.1034924709896978E-002   0.0000000000000000     
   1.4550028590546592E-002   1.4200037540511606E-002   0.0000000000000000     
   1.7013068051301226E-002   1.7612657368838904E-002   0.0000000000000000     
   1.9469024863253737E-002   2.1272784194878862E-002   0.0000000000000000     
   8.4290399358805286E-003   7.7146904433038023E-003   0.0000000000000000     
   1.0590867944015271E-002   1.0547079024392213E-002   0.0000000000000000     
   1.2761219520911391E-002   1.3649068845342388E-002   0.0000000000000000     
   1.4940094666568897E-002   1.7020659906154322E-002   0.0000000000000000     
   1.7127493380987787E-002   2.0661852206828014E-002   0.0000000000000000     
   7.3392805458245627E-003   7.4111482372072159E-003   0.0000000000000000     
   9.2278518603365091E-003   1.0175980806828329E-002   0.0000000000000000     
   1.1125715482716131E-002   1.3221830025531152E-002   0.0000000000000000     
   1.3032871412963418E-002   1.6548695893315687E-002   0.0000000000000000     
   1.4949319651078381E-002   2.0156578410181931E-002   0.0000000000000000     
   2.4642161084855292E-002   2.2811622745194850E-002   0.0000000000000000     
   2.7549668598721166E-002   2.6660639783490616E-002   0.0000000000000000     
   3.0383206918201861E-002   3.0726668680852966E-002   0.0000000000000000     
   3.3142776043297378E-002   3.5009709437281905E-002   0.0000000000000000     
   3.5828375974007703E-002   3.9509762052777418E-002   0.0000000000000000     
   2.1973914097876242E-002   2.1989374374334476E-002   0.0000000000000000     
   2.4642322033772469E-002   2.5866936904426277E-002   0.0000000000000000     
   2.7240827124852308E-002   2.9955518386137147E-002   0.0000000000000000     
   2.9769429371115753E-002   3.4255118819467099E-002   0.0000000000000000     
   3.2228128772562828E-002   3.8765738204416117E-002   0.0000000000000000     
   1.9469024863253737E-002   2.1272784194878862E-002   0.0000000000000000     
   2.1889941160506944E-002   2.5161735617048653E-002   0.0000000000000000     
   2.4247859077163647E-002   2.9260829233765412E-002   0.0000000000000000     
   2.6542778613223853E-002   3.3570065045029157E-002   0.0000000000000000     
   2.8774699768687559E-002   3.8089443050839888E-002   0.0000000000000000     
   1.7127493380987787E-002   2.0661852206828014E-002   0.0000000000000000     
   1.9292525978924602E-002   2.4545035921357740E-002   0.0000000000000000     
   2.1404302775135893E-002   2.8642601223737768E-002   0.0000000000000000     
   2.3462823769621655E-002   3.2954548113968099E-002   0.0000000000000000     
   2.5468088962381889E-002   3.7480876592048726E-002   0.0000000000000000     
   1.4949319651078381E-002   2.0156578410181931E-002   0.0000000000000000     
   1.6850076489025444E-002   2.4016837817353552E-002   0.0000000000000000     
   1.8710158218769039E-002   2.8100834356054205E-002   0.0000000000000000     
   2.0529564840309170E-002   3.2408568026283904E-002   0.0000000000000000     
   2.2308296353645830E-002   3.6940038828042636E-002   0.0000000000000000     
   3.5828375974007703E-002   3.9509762052777418E-002   0.0000000000000000     
   3.8439324853539313E-002   4.4217708943293438E-002   0.0000000000000000     
   4.0974940825098637E-002   4.9124432524783893E-002   0.0000000000000000     
   4.3435223888685683E-002   5.4229932797248775E-002   0.0000000000000000     
   4.5820174044300450E-002   5.9534209760688094E-002   0.0000000000000000     
   3.2228128772562828E-002   3.8765738204416117E-002   0.0000000000000000     
   3.4618359145055663E-002   4.3483419661581729E-002   0.0000000000000000     
   3.6941554304456406E-002   4.8404206311561462E-002   0.0000000000000000     
   3.9197714250765049E-002   5.3528098154355302E-002   0.0000000000000000     
   4.1386838983981593E-002   5.8855095189963270E-002   0.0000000000000000     
   2.8774699768687559E-002   3.8089443050839888E-002   0.0000000000000000     
   3.0945373463402988E-002   4.2816949013581539E-002   0.0000000000000000     
   3.3056550617218350E-002   4.7750568695638082E-002   0.0000000000000000     
   3.5108231230133666E-002   5.2890302097009484E-002   0.0000000000000000     
   3.7100415302148915E-002   5.8236149217695779E-002   0.0000000000000000     
   2.5468088962381889E-002   3.7480876592048726E-002   0.0000000000000000     
   2.7420367808581279E-002   4.2218296999292866E-002   0.0000000000000000     
   2.9319929763384499E-002   4.7163519677013731E-002   0.0000000000000000     
   3.1166774826791539E-002   5.2316544625211320E-002   0.0000000000000000     
   3.2960902998802423E-002   5.7677371843885640E-002   0.0000000000000000     
   2.2308296353645830E-002   3.6940038828042636E-002   0.0000000000000000     
   2.4043342180590541E-002   4.1687463618715712E-002   0.0000000000000000     
   2.5731691742954824E-002   4.6643059255688436E-002   0.0000000000000000     
   2.7373345040738684E-002   5.1806825738960810E-002   0.0000000000000000     
   2.8968302073942111E-002   5.7178763068532826E-002   0.0000000000000000     
   4.5820174044300450E-002   5.9534209760688094E-002   0.0000000000000000     
   4.8132343680173197E-002   6.5028661838470919E-002   0.0000000000000000     
   5.0374285184534157E-002   7.0704687453966353E-002   0.0000000000000000     
   5.2545998557383344E-002   7.6562286607174415E-002   0.0000000000000000     
   5.4647483798720767E-002   8.2601459298095065E-002   0.0000000000000000     
   4.1386838983981593E-002   5.8855095189963270E-002   0.0000000000000000     
   4.3509685879943222E-002   6.4373625390891032E-002   0.0000000000000000     
   4.5567012314487114E-002   7.0072116729644307E-002   0.0000000000000000     
   4.7558818287613262E-002   7.5950569206223090E-002   0.0000000000000000     
   4.9485103799321667E-002   8.2008982820627407E-002   0.0000000000000000     
   3.7100415302148915E-002   5.8236149217695779E-002   0.0000000000000000     
   3.9032897865552411E-002   6.3774936087600681E-002   0.0000000000000000     
   4.0905473952632471E-002   6.9493488736627890E-002   0.0000000000000000     
   4.2718143563389065E-002   7.5391807164777405E-002   0.0000000000000000     
   4.4470906697822228E-002   8.1469891372049255E-002   0.0000000000000000     
   3.2960902998802423E-002   5.7677371843885640E-002   0.0000000000000000     
   3.4701979637000765E-002   6.3232593928599826E-002   0.0000000000000000     
   3.6389670098970220E-002   6.8968803474917073E-002   0.0000000000000000     
   3.8023974384710786E-002   7.4886000482837348E-002   0.0000000000000000     
   3.9604892494222464E-002   8.0984184952360649E-002   0.0000000000000000     
   2.8968302073942111E-002   5.7178763068532826E-002   0.0000000000000000     
   3.0516931194288287E-002   6.2746598913888507E-002   0.0000000000000000     
   3.2019600753500382E-002   6.8498060944511857E-002   0.0000000000000000     
   3.3476310751578392E-002   7.4433149160402876E-002   0.0000000000000000     
   3.4887061188522334E-002   8.0551863561561562E-002   0.0000000000000000     
   5.4647483798720767E-002   8.2601459298095065E-002   0.0000000000000000     
   5.6671401155026571E-002   8.8806789207172138E-002   0.0000000000000000     
   5.8610410872780912E-002   9.5162860014849526E-002   0.0000000000000000     
   6.0464512951983830E-002  0.10166967172112720        0.0000000000000000     
   6.2233707392635285E-002  0.10832722432600514        0.0000000000000000     
   4.9485103799321667E-002   8.2008982820627407E-002   0.0000000000000000     
   5.1340048088257748E-002   8.8232931244815807E-002   0.0000000000000000     
   5.3117830393066924E-002   9.4607988150746891E-002   0.0000000000000000     
   5.4818450713749182E-002  0.10113415353842073        0.0000000000000000     
   5.6441909050304537E-002  0.10781142740783725        0.0000000000000000     
   4.4470906697822228E-002   8.1469891372049255E-002   0.0000000000000000     
   4.6158547741083994E-002   8.7712876462240658E-002   0.0000000000000000     
   4.7775851078326374E-002   9.4105897539148803E-002   0.0000000000000000     
   4.9322816709549411E-002  0.10064895460277375        0.0000000000000000     
   5.0799444634753069E-002  0.10734204765311547        0.0000000000000000     
   3.9604892494222464E-002   8.0984184952360649E-002   0.0000000000000000     
   4.1126900113505276E-002   8.7246624859446731E-002   0.0000000000000000     
   4.2584472928559290E-002   9.3656588180055289E-002   0.0000000000000000     
   4.3977610939384508E-002  0.10021407491418632        0.0000000000000000     
   4.5306314145980922E-002  0.10691908506183982        0.0000000000000000     
   3.4887061188522334E-002   8.0551863561561562E-002   0.0000000000000000     
   3.6245105205521613E-002   8.6834176436433999E-002   0.0000000000000000     
   3.7543695943765665E-002   9.3260060073466280E-002   0.0000000000000000     
   3.8782833403254474E-002   9.9829514472658379E-002   0.0000000000000000     
   3.9962517583988055E-002  0.10654253963401031        0.0000000000000000     
   6.2233707392635285E-002  0.10832722432600514        0.0000000000000000     
   6.3935544189760080E-002  0.11513482458932173        0.0000000000000000     
   6.5587573338382971E-002  0.12209177927091527        0.0000000000000000     
   6.7189794838503986E-002  0.12919808837078584        0.0000000000000000     
   6.8742208690123124E-002  0.13645375188893333        0.0000000000000000     
   5.6441909050304537E-002  0.10781142740783725        0.0000000000000000     
   5.8002539237939230E-002  0.11463884883780100        0.0000000000000000     
   5.9514675111859566E-002  0.12161545690711648        0.0000000000000000     
   6.0978316672065505E-002  0.12874125161578370        0.0000000000000000     
   6.2393463918557088E-002  0.13601623296380266        0.0000000000000000     
   5.0799444634753069E-002  0.10734204765311547        0.0000000000000000     
   5.2218552426963466E-002  0.11418615872289549        0.0000000000000000     
   5.3592957659206686E-002  0.12118226984483531        0.0000000000000000     
   5.4922660331482721E-002  0.12833038101893493        0.0000000000000000     
   5.6207660443791579E-002  0.13563049224519441        0.0000000000000000     
   4.5306314145980922E-002  0.10691908506183982        0.0000000000000000     
   4.6583583756832775E-002  0.11377675424460520        0.0000000000000000     
   4.7822420980424336E-002  0.12079221808407176        0.0000000000000000     
   4.9022825816755593E-002  0.12796547658023955        0.0000000000000000     
   5.0184798265826572E-002  0.13529652973310849        0.0000000000000000     
   3.9962517583988055E-002  0.10654253963401031        0.0000000000000000     
   4.1097633227547156E-002  0.11341063540293010        0.0000000000000000     
   4.2203065075512525E-002  0.12044530162482585        0.0000000000000000     
   4.3278813127884168E-002  0.12764653829969749        0.0000000000000000     
   4.4324877384662079E-002  0.13501434542754506        0.0000000000000000     
   6.8742208690123124E-002  0.13645375188893333        0.0000000000000000     
   7.0228611682344178E-002  0.14383611183192621        0.0000000000000000     
   7.1632800604270991E-002  0.15132251020633292        0.0000000000000000     
   7.2954775455903592E-002  0.15891294701215339        0.0000000000000000     
   7.4194536237241940E-002  0.16660742224938765        0.0000000000000000     
   6.2393463918557088E-002  0.13601623296380266        0.0000000000000000     
   6.3751610855695695E-002  0.14342209871268233        0.0000000000000000     
   6.5044251487842680E-002  0.15094054662393169        0.0000000000000000     
   6.6271385814998099E-002  0.15857157669755076        0.0000000000000000     
   6.7433013837161923E-002  0.16631518893353950        0.0000000000000000     
   5.6207660443791579E-002  0.13563049224519441        0.0000000000000000     
   5.7441310542256964E-002  0.14306271215453067        0.0000000000000000     
   5.8616963173002558E-002  0.15060714937786082        0.0000000000000000     
   5.9734618336028396E-002  0.15826380391518491        0.0000000000000000     
   6.0794276031334429E-002  0.16603267576650288        0.0000000000000000     
   5.0184798265826572E-002  0.13529652973310849        0.0000000000000000     
   5.1297710742027998E-002  0.14275795215747134        0.0000000000000000     
   5.2350935659750630E-002  0.15032231846812041        0.0000000000000000     
   5.3344473018994448E-002  0.15798962866505592        0.0000000000000000     
   5.4278322819759466E-002  0.16575988274827777        0.0000000000000000     
   4.4324877384662079E-002  0.13501434542754506        0.0000000000000000     
   4.5320811455008797E-002  0.14250781872150414        0.0000000000000000     
   4.6246168948086863E-002  0.15008605389471036        0.0000000000000000     
   4.7100949863896284E-002  0.15774905094716371        0.0000000000000000     
   4.7885154202437046E-002  0.16549680987886423        0.0000000000000000     
   0.0000000000000000        0.0000000000000000        0.0000000000000000     
   1.7979913683646631E-003   1.2741341699679641E-003   0.0000000000000000     
   3.6205352487903111E-003   2.9340369328251549E-003   0.0000000000000000     
   5.4676316412769444E-003   4.9797082885715722E-003   0.0000000000000000     
   7.3392805458245627E-003   7.4111482372072159E-003   0.0000000000000000     
   0.0000000000000000        0.0000000000000000        0.0000000000000000     
   1.5342893700508098E-003   1.2152137383654546E-003   0.0000000000000000     
   3.0976508876460638E-003   2.8163851705772982E-003   0.0000000000000000     
   4.6900845527857631E-003   4.8035142966355304E-003   0.0000000000000000     
   6.3115903654699049E-003   7.1766011165401520E-003   0.0000000000000000     
   0.0000000000000000        0.0000000000000000        0.0000000000000000     
   1.2867080449629506E-003   1.1680565678119910E-003   0.0000000000000000     
   2.6029667612545008E-003   2.7209017469389052E-003   0.0000000000000000     
   3.9487761488746507E-003   4.6585355373807424E-003   0.0000000000000000     
   5.3241362078234001E-003   6.9809579391375016E-003   0.0000000000000000     
   0.0000000000000000        0.0000000000000000        0.0000000000000000     
   1.0552473931010854E-003   1.1326626583075736E-003   0.0000000000000000     
   2.1364828696156216E-003   2.6475866619099756E-003   0.0000000000000000     
   3.2437064295436080E-003   4.5447720108072066E-003   0.0000000000000000     
   4.3769180728850457E-003   6.8242187049992646E-003   0.0000000000000000     
   0.0000000000000000        0.0000000000000000        0.0000000000000000     
   8.3990741446521343E-004   1.1090320098522018E-003   0.0000000000000000     
   1.6981992127294253E-003   2.5964399154905097E-003   0.0000000000000000     
   2.5748753947926356E-003   4.4622237169149228E-003   0.0000000000000000     
   3.4699359606548442E-003   6.7063834141254421E-003   0.0000000000000000     
   7.3392805458245627E-003   7.4111482372072159E-003   0.0000000000000000     
   9.2278518603365091E-003   1.0175980806828329E-002   0.0000000000000000     
   1.1125715482716131E-002   1.3221830025531152E-002   0.0000000000000000     
   1.3032871412963418E-002   1.6548695893315687E-002   0.0000000000000000     
   1.4949319651078381E-002   2.0156578410181931E-002   0.0000000000000000     
   6.3115903654699049E-003   7.1766011165401520E-003   0.0000000000000000     
   7.9495413228792191E-003   9.8861505854499782E-003   0.0000000000000000     
   9.5913104221944327E-003   1.2882667658523830E-002   0.0000000000000000     
   1.1236897663415544E-002   1.6166152335761703E-002   0.0000000000000000     
   1.2886303046542555E-002   1.9736604617163596E-002   0.0000000000000000     
   5.3241362078234001E-003   6.9809579391375016E-003   0.0000000000000000     
   6.7146194245690585E-003   9.6421088885018224E-003   0.0000000000000000     
   8.1057982855799338E-003   1.2595928321766342E-002   0.0000000000000000     
   9.4976727908560269E-003   1.5842416238931067E-002   0.0000000000000000     
   1.0890242940397336E-002   1.9381572639995990E-002   0.0000000000000000     
   4.3769180728850457E-003   6.8242187049992646E-003   0.0000000000000000     
   5.5230861654060248E-003   9.4438557159838600E-003   0.0000000000000000     
   6.6691790728726314E-003   1.2361612015258698E-002   0.0000000000000000     
   7.8151967952848674E-003   1.5577487602823783E-002   0.0000000000000000     
   8.9611393326427327E-003   1.9091482478679110E-002   0.0000000000000000     
   3.4699359606548442E-003   6.7063834141254421E-003   0.0000000000000000     
   4.3749415453901187E-003   9.2913910678960928E-003   0.0000000000000000     
   5.2814527840725246E-003   1.2179718739000894E-002   0.0000000000000000     
   6.1894696767020654E-003   1.5371366427439852E-002   0.0000000000000000     
   7.0989922232787368E-003   1.8866334133212963E-002   0.0000000000000000     
   1.4949319651078381E-002   2.0156578410181931E-002   0.0000000000000000     
   1.6850076489025444E-002   2.4016837817353552E-002   0.0000000000000000     
   1.8710158218769039E-002   2.8100834356054205E-002   0.0000000000000000     
   2.0529564840309170E-002   3.2408568026283904E-002   0.0000000000000000     
   2.2308296353645830E-002   3.6940038828042636E-002   0.0000000000000000     
   1.2886303046542555E-002   1.9736604617163596E-002   0.0000000000000000     
   1.4523470141410809E-002   2.3567750342534055E-002   0.0000000000000000     
   1.6132342517855655E-002   2.7633315351677620E-002   0.0000000000000000     
   1.7712920175877091E-002   3.1933299644594286E-002   0.0000000000000000     
   1.9265203115475121E-002   3.6467703221284065E-002   0.0000000000000000     
   1.0890242940397336E-002   1.9381572639995990E-002   0.0000000000000000     
   1.2273584386682038E-002   2.3188382534397225E-002   0.0000000000000000     
   1.3637772782188303E-002   2.7237830931570874E-002   0.0000000000000000     
   1.4982808126916129E-002   3.1529917831516950E-002   0.0000000000000000     
   1.6308690420865520E-002   3.6064643234235437E-002   0.0000000000000000     
   8.9611393326427327E-003   1.9091482478679110E-002   0.0000000000000000     
   1.0100419224839135E-002   2.2878734392943051E-002   0.0000000000000000     
   1.1226449011766984E-002   2.6914381095733974E-002   0.0000000000000000     
   1.2339228693426279E-002   3.1198422587051879E-002   0.0000000000000000     
   1.3438758269817021E-002   3.5730858866896774E-002   0.0000000000000000     
   7.0989922232787368E-003   1.8866334133212963E-002   0.0000000000000000     
   8.0039746558820974E-003   2.2638805918171547E-002   0.0000000000000000     
   8.8983712065916990E-003   2.6662965844166924E-002   0.0000000000000000     
   9.7821818754075425E-003   3.0938813911199098E-002   0.0000000000000000     
   1.0655406662329631E-002   3.5466350119268054E-002   0.0000000000000000     
   2.2308296353645830E-002   3.6940038828042636E-002   0.0000000000000000     
   2.4043342180590541E-002   4.1687463618715712E-002   0.0000000000000000     
   2.5731691742954824E-002   4.6643059255688436E-002   0.0000000000000000     
   2.7373345040738684E-002   5.1806825738960810E-002   0.0000000000000000     
   2.8968302073942111E-002   5.7178763068532826E-002   0.0000000000000000     
   1.9265203115475121E-002   3.6467703221284065E-002   0.0000000000000000     
   2.0782774881511278E-002   4.1223419156180059E-002   0.0000000000000000     
   2.2259219018847112E-002   4.6187340523715419E-002   0.0000000000000000     
   2.3694535527482609E-002   5.1359467323890143E-002   0.0000000000000000     
   2.5088724407417776E-002   5.6739799556704232E-002   0.0000000000000000     
   1.6308690420865520E-002   3.6064643234235437E-002   0.0000000000000000     
   1.7607144213424006E-002   4.0825133896015921E-002   0.0000000000000000     
   1.8869894053979118E-002   4.5794516573147960E-002   0.0000000000000000     
   2.0096939942530857E-002   5.0972791265631548E-002   0.0000000000000000     
   2.1288281879079225E-002   5.6359957973466698E-002   0.0000000000000000     
   1.3438758269817021E-002   3.5730858866896774E-002   0.0000000000000000     
   1.4516450176328711E-002   4.0492607838223268E-002   0.0000000000000000     
   1.5563716848350846E-002   4.5464587403986012E-002   0.0000000000000000     
   1.6580558285883423E-002   5.0646797564184998E-002   0.0000000000000000     
   1.7566974488926450E-002   5.6039238318820239E-002   0.0000000000000000     
   1.0655406662329631E-002   3.5466350119268054E-002   0.0000000000000000     
   1.1510692770225402E-002   4.0225840982802130E-002   0.0000000000000000     
   1.2340687401962293E-002   4.5197553016229616E-002   0.0000000000000000     
   1.3145390557540309E-002   5.0381486219550520E-002   0.0000000000000000     
   1.3924802236959449E-002   5.5777640592764841E-002   0.0000000000000000     
   2.8968302073942111E-002   5.7178763068532826E-002   0.0000000000000000     
   3.0516931194288287E-002   6.2746598913888507E-002   0.0000000000000000     
   3.2019600753500382E-002   6.8498060944511857E-002   0.0000000000000000     
   3.3476310751578392E-002   7.4433149160402876E-002   0.0000000000000000     
   3.4887061188522334E-002   8.0551863561561562E-002   0.0000000000000000     
   2.5088724407417776E-002   5.6739799556704232E-002   0.0000000000000000     
   2.6443161793718716E-002   6.2317365580432410E-002   0.0000000000000000     
   2.7759223821451511E-002   6.8081193753349423E-002   0.0000000000000000     
   2.9036910490616172E-002   7.4031284075455284E-002   0.0000000000000000     
   3.0276221801212696E-002   8.0167636546749937E-002   0.0000000000000000     
   2.1288281879079225E-002   5.6359957973466698E-002   0.0000000000000000     
   2.2446080691595809E-002   6.1945308465197212E-002   0.0000000000000000     
   2.3572497208052191E-002   6.7718134509366881E-002   0.0000000000000000     
   2.4667531428448384E-002   7.3678436105975714E-002   0.0000000000000000     
   2.5731183352784369E-002   7.9826213255023717E-002   0.0000000000000000     
   1.7566974488926450E-002   5.6039238318820239E-002   0.0000000000000000     
   1.8525687887919567E-002   6.1630427568182926E-002   0.0000000000000000     
   1.9459420913302414E-002   6.7408883212564261E-002   0.0000000000000000     
   2.0368173565075011E-002   7.3374605251964278E-002   0.0000000000000000     
   2.1251945843237349E-002   7.9527593686382902E-002   0.0000000000000000     
   1.3924802236959449E-002   5.5777640592764841E-002   0.0000000000000000     
   1.4681983382689986E-002   6.1372722889389532E-002   0.0000000000000000     
   1.5419994937202197E-002   6.7153439862941533E-002   0.0000000000000000     
   1.6138836900496084E-002   7.3119791513420851E-002   0.0000000000000000     
   1.6838509272571644E-002   7.9271777840827479E-002   0.0000000000000000     
   3.4887061188522334E-002   8.0551863561561562E-002   0.0000000000000000     
   3.6245105205521613E-002   8.6834176436433999E-002   0.0000000000000000     
   3.7543695943765665E-002   9.3260060073466280E-002   0.0000000000000000     
   3.8782833403254474E-002   9.9829514472658379E-002   0.0000000000000000     
   3.9962517583988055E-002  0.10654253963401031        0.0000000000000000     
   3.0276221801212696E-002   8.0167636546749937E-002   0.0000000000000000     
   3.1469287563675473E-002   8.6467263191613811E-002   0.0000000000000000     
   3.2608237588438900E-002   9.2907176034427150E-002   0.0000000000000000     
   3.3693071875502974E-002   9.9487375075189996E-002   0.0000000000000000     
   3.4723790424867694E-002  0.10620786031390236        0.0000000000000000     
   2.5731183352784369E-002   7.9826213255023717E-002   0.0000000000000000     
   2.6755571734509327E-002   8.6137617123397417E-002   0.0000000000000000     
   2.7732815327072426E-002   9.2588798877983242E-002   0.0000000000000000     
   2.8662914130473650E-002   9.9179758518781233E-002   0.0000000000000000     
   2.9545868144713015E-002  0.10591049604579141        0.0000000000000000     
   2.1251945843237349E-002   7.9527593686382902E-002   0.0000000000000000     
   2.2103957718023180E-002   8.5845238231784804E-002   0.0000000000000000     
   2.2917429159666228E-002   9.2304928604134542E-002   0.0000000000000000     
   2.3692360168166511E-002   9.8906664803432104E-002   0.0000000000000000     
   2.4428750743524033E-002  0.10565044682967746        0.0000000000000000     
   1.6838509272571644E-002   7.9271777840827479E-002   0.0000000000000000     
   1.7514445514217013E-002   8.5590126516776013E-002   0.0000000000000000     
   1.8162079086220320E-002   9.2055565212881038E-002   0.0000000000000000     
   1.8781409988581556E-002   9.8668093929142553E-002   0.0000000000000000     
   1.9372438221300733E-002  0.10542771266556056        0.0000000000000000     
   3.9962517583988055E-002  0.10654253963401031        0.0000000000000000     
   4.1097633227547156E-002  0.11341063540293010        0.0000000000000000     
   4.2203065075512525E-002  0.12044530162482585        0.0000000000000000     
   4.3278813127884168E-002  0.12764653829969749        0.0000000000000000     
   4.4324877384662079E-002  0.13501434542754506        0.0000000000000000     
   3.4723790424867694E-002  0.10620786031390236        0.0000000000000000     
   3.5716289645510525E-002  0.11308547962512416        0.0000000000000000     
   3.6686465946408911E-002  0.12013708088341535        0.0000000000000000     
   3.7634319327562865E-002  0.12736266408877597        0.0000000000000000     
   3.8559849788972388E-002  0.13476222924120598        0.0000000000000000     
   2.9545868144713015E-002  0.10591049604579141        0.0000000000000000     
   3.0395141817126770E-002  0.11279896433844121        0.0000000000000000     
   3.1224199595051148E-002  0.11986311627615810        0.0000000000000000     
   3.2033041478486166E-002  0.12710295185894213        0.0000000000000000     
   3.2821667467431814E-002  0.13451847108679321        0.0000000000000000     
   2.4428750743524033E-002  0.10565044682967746        0.0000000000000000     
   2.5134189742395899E-002  0.11255108954288129        0.0000000000000000     
   2.5816266021439247E-002  0.11962340780305410        0.0000000000000000     
   2.6474979580654069E-002  0.12686740161019597        0.0000000000000000     
   2.7110330420040362E-002  0.13428307096430681        0.0000000000000000     
   1.9372438221300733E-002  0.10542771266556056        0.0000000000000000     
   1.9933433421317922E-002  0.11234185523844437        0.0000000000000000     
   2.0462665225573200E-002  0.11941795546410333        0.0000000000000000     
   2.0960133634066565E-002  0.12665601334253748        0.0000000000000000     
   2.1425838646798024E-002  0.13405602887374676        0.0000000000000000     
   4.4324877384662079E-002  0.13501434542754506        0.0000000000000000     
   4.5320811455008797E-002  0.14250781872150414        0.0000000000000000     
   4.6246168948086863E-002  0.15008605389471036        0.0000000000000000     
   4.7100949863896284E-002  0.15774905094716371        0.0000000000000000     
   4.7885154202437046E-002  0.16549680987886423        0.0000000000000000     
   3.8559849788972388E-002  0.13476222924120598        0.0000000000000000     
   3.9438170334731064E-002  0.14228391173782692        0.0000000000000000     
   4.0244393968932479E-002  0.14987584697576034        0.0000000000000000     
   4.0978520691576634E-002  0.15753803495500626        0.0000000000000000     
   4.1640550502663520E-002  0.16527047567556469        0.0000000000000000     
   3.2821667467431814E-002  0.13451847108679321        0.0000000000000000     
   3.3577345034726515E-002  0.14205783109763725        0.0000000000000000     
   3.4287341653208646E-002  0.14966918902939996        0.0000000000000000     
   3.4951657322878228E-002  0.15735254488208145        0.0000000000000000     
   3.5570292043735269E-002  0.16510789865568165        0.0000000000000000     
   2.7110330420040362E-002  0.13428307096430681        0.0000000000000000     
   2.7738335554995129E-002  0.14182957680093514        0.0000000000000000     
   2.8375012000915377E-002  0.14946608005562931        0.0000000000000000     
   2.9020359757801092E-002  0.15719258072838932        0.0000000000000000     
   2.9674378825652277E-002  0.16500907881921517        0.0000000000000000     
   2.1425838646798024E-002  0.13405602887374676        0.0000000000000000     
   2.1921141895536934E-002  0.14159914884772057        0.0000000000000000     
   2.2507405012052662E-002  0.14926652005444824        0.0000000000000000     
   2.3184627996345204E-002  0.15705814249392980        0.0000000000000000     
   2.3952810848414566E-002  0.16497401616616522        0.0000000000000000     
   0.0000000000000000        0.0000000000000000        0.0000000000000000     
   8.3990741446521343E-004   1.1090320098522018E-003   0.0000000000000000     
   1.6981992127294253E-003   2.5964399154905097E-003   0.0000000000000000     
   2.5748753947926356E-003   4.4622237169149228E-003   0.0000000000000000     
   3.4699359606548442E-003   6.7063834141254421E-003   0.0000000000000000     
   0.0000000000000000        0.0000000000000000        0.0000000000000000     
   6.3184871424170057E-004   1.0935929028715620E-003   0.0000000000000000     
   1.2736853178665912E-003   2.5615568879547722E-003   0.0000000000000000     
   1.9255098108746723E-003   4.4038919552496303E-003   0.0000000000000000     
   2.5873221932659432E-003   6.6205981047561370E-003   0.0000000000000000     
   0.0000000000000000        0.0000000000000000        0.0000000000000000     
   4.2223189761691153E-004   1.0827736177913400E-003   0.0000000000000000     
   8.4851071229779737E-004   2.5370329595770279E-003   0.0000000000000000     
   1.2788364440426572E-003   4.3627780253570657E-003   0.0000000000000000     
   1.7132090928514919E-003   6.5600088151314510E-003   0.0000000000000000     
   0.0000000000000000        0.0000000000000000        0.0000000000000000     
   2.1105696459084621E-004   1.0765741546115352E-003   0.0000000000000000     
   4.2267539602304326E-004   2.5228681303572781E-003   0.0000000000000000     
   6.3485529429659125E-004   4.3388819272372273E-003   0.0000000000000000     
   8.4759665941149041E-004   6.5246155452513841E-003   0.0000000000000000     
   0.0000000000000000        0.0000000000000000        0.0000000000000000     
  -1.6760848364953749E-006   1.0749945133321488E-003   0.0000000000000000     
  -3.8206309576706873E-006   2.5190624002955214E-003   0.0000000000000000     
  -6.4336383635260727E-006   4.3322036608901176E-003   0.0000000000000000     
  -9.5151070540612059E-006   6.5144182951159379E-003   0.0000000000000000     
   3.4699359606548442E-003   6.7063834141254421E-003   0.0000000000000000     
   4.3749415453901187E-003   9.2913910678960928E-003   0.0000000000000000     
   5.2814527840725246E-003   1.2179718739000894E-002   0.0000000000000000     
   6.1894696767020654E-003   1.5371366427439852E-002   0.0000000000000000     
   7.0989922232787368E-003   1.8866334133212963E-002   0.0000000000000000     
   2.5873221932659432E-003   6.6205981047561370E-003   0.0000000000000000     
   3.2558490473956550E-003   9.1783810240106626E-003   0.0000000000000000     
   3.9278169556190594E-003   1.2043946400549581E-002   0.0000000000000000     
   4.6032259179361566E-003   1.5217294234372890E-002   0.0000000000000000     
   5.2820759343469442E-003   1.8698424525480595E-002   0.0000000000000000     
   1.7132090928514919E-003   6.5600088151314510E-003   0.0000000000000000     
   2.1514721542969487E-003   9.0984916640997216E-003   0.0000000000000000     
   2.5934691239516772E-003   1.1947992907461413E-002   0.0000000000000000     
   3.0392000018156771E-003   1.5108512545216524E-002   0.0000000000000000     
   3.4886647878889484E-003   1.8580050577365056E-002   0.0000000000000000     
   8.4759665941149041E-004   6.5246155452513841E-003   0.0000000000000000     
   1.0618108660939997E-003   9.0517229881632646E-003   0.0000000000000000     
   1.2784092890703788E-003   1.1891858259736387E-002   0.0000000000000000     
   1.4973919283406284E-003   1.5045021359970750E-002   0.0000000000000000     
   1.7187587839047472E-003   1.8511212288866357E-002   0.0000000000000000     
  -9.5151070540612059E-006   6.5144182951159379E-003   0.0000000000000000     
  -1.3134817213192258E-005   9.0380749962012952E-003   0.0000000000000000     
  -1.7362549024835910E-005   1.1875542457374506E-002   0.0000000000000000     
  -2.2198302488991171E-005   1.5026820678635566E-002   0.0000000000000000     
  -2.7642077605658693E-005   1.8491909659984481E-002   0.0000000000000000     
   7.0989922232787368E-003   1.8866334133212963E-002   0.0000000000000000     
   8.0039746558820974E-003   2.2638805918171547E-002   0.0000000000000000     
   8.8983712065916990E-003   2.6662965844166924E-002   0.0000000000000000     
   9.7821818754075425E-003   3.0938813911199098E-002   0.0000000000000000     
   1.0655406662329631E-002   3.5466350119268054E-002   0.0000000000000000     
   5.2820759343469442E-003   1.8698424525480595E-002   0.0000000000000000     
   5.9579851226978413E-003   2.2460238844049848E-002   0.0000000000000000     
   6.6245716008352593E-003   2.6475638760257797E-002   0.0000000000000000     
   7.2818353687591998E-003   3.0744624274104449E-002   0.0000000000000000     
   7.9297764264696629E-003   3.5267195385589797E-002   0.0000000000000000     
   3.4886647878889484E-003   1.8580050577365056E-002   0.0000000000000000     
   3.9361850681732839E-003   2.2334674904545083E-002   0.0000000000000000     
   4.3760824286704766E-003   2.6344453427394658E-002   0.0000000000000000     
   4.8083568693805256E-003   3.0609386145913794E-002   0.0000000000000000     
   5.2330083903034310E-003   3.5129473060102480E-002   0.0000000000000000     
   1.7187587839047472E-003   1.8511212288866357E-002   0.0000000000000000     
   1.9385744923084247E-003   2.2262114099657265E-002   0.0000000000000000     
   2.1529036900973489E-003   2.6269409845577518E-002   0.0000000000000000     
   2.3617463772715205E-003   3.0533099526627139E-002   0.0000000000000000     
   2.5651025538309391E-003   3.5053183142806095E-002   0.0000000000000000     
  -2.7642077605658693E-005   1.8491909659984481E-002   0.0000000000000000     
  -3.4846604896736377E-005   2.2242556429386374E-002   0.0000000000000000     
  -4.4964614884121035E-005   2.6250508014806367E-002   0.0000000000000000     
  -5.7996107567815053E-005   3.0515764416244460E-002   0.0000000000000000     
  -7.3941082947815394E-005   3.5038325633700657E-002   0.0000000000000000     
   1.0655406662329631E-002   3.5466350119268054E-002   0.0000000000000000     
   1.1510692770225402E-002   4.0225840982802130E-002   0.0000000000000000     
   1.2340687401962293E-002   4.5197553016229616E-002   0.0000000000000000     
   1.3145390557540309E-002   5.0381486219550520E-002   0.0000000000000000     
   1.3924802236959449E-002   5.5777640592764841E-002   0.0000000000000000     
   7.9297764264696629E-003   3.5267195385589797E-002   0.0000000000000000     
   8.5629470278664622E-003   4.0023439111252737E-002   0.0000000000000000     
   9.1758994268494130E-003   4.4993442467632157E-002   0.0000000000000000     
   9.7686336234185170E-003   5.0177205454728063E-002   0.0000000000000000     
   1.0341149617573774E-002   5.5574728072540429E-002   0.0000000000000000     
   5.2330083903034310E-003   3.5129473060102480E-002   0.0000000000000000     
   5.6462879820042789E-003   3.9884008005075355E-002   0.0000000000000000     
   6.0444466350481497E-003   4.4852284815947059E-002   0.0000000000000000     
   6.4274843494350484E-003   5.0034303492717577E-002   0.0000000000000000     
   6.7954011251649691E-003   5.5430064035386917E-002   0.0000000000000000     
   2.5651025538309391E-003   3.5053183142806095E-002   0.0000000000000000     
   2.7607156326388514E-003   3.9807547664269971E-002   0.0000000000000000     
   2.9463290265585051E-003   4.4774080061174296E-002   0.0000000000000000     
   3.1219427355899010E-003   4.9952780333519076E-002   0.0000000000000000     
   3.2875567597330383E-003   5.5343648481304297E-002   0.0000000000000000     
  -7.3941082947815394E-005   3.5038325633700657E-002   0.0000000000000000     
  -9.3770020229819520E-005   3.9794058088836591E-002   0.0000000000000000     
  -1.1845339861952245E-004   4.4758828203313880E-002   0.0000000000000000     
  -1.4799121811692273E-004   4.9932635977132545E-002   0.0000000000000000     
  -1.8238347872202246E-004   5.5315481410292577E-002   0.0000000000000000     
   1.3924802236959449E-002   5.5777640592764841E-002   0.0000000000000000     
   1.4681983382689986E-002   6.1372722889389532E-002   0.0000000000000000     
   1.5419994937202197E-002   6.7153439862941533E-002   0.0000000000000000     
   1.6138836900496084E-002   7.3119791513420851E-002   0.0000000000000000     
   1.6838509272571644E-002   7.9271777840827479E-002   0.0000000000000000     
   1.0341149617573774E-002   5.5574728072540429E-002   0.0000000000000000     
   1.0896881838458937E-002   6.1171249940597222E-002   0.0000000000000000     
   1.1439264715217765E-002   6.6952010678426349E-002   0.0000000000000000     
   1.1968298247850256E-002   7.2917010286027803E-002   0.0000000000000000     
   1.2483982436356409E-002   7.9066248763401611E-002   0.0000000000000000     
   6.7954011251649691E-003   5.5430064035386917E-002   0.0000000000000000     
   7.1522979177782858E-003   6.1025064233586140E-002   0.0000000000000000     
   7.5022756828153642E-003   6.6804801876946304E-002   0.0000000000000000     
   7.8453344202762051E-003   7.2769276965467422E-002   0.0000000000000000     
   8.1814741301608086E-003   7.8918489499149466E-002   0.0000000000000000     
   3.2875567597330383E-003   5.5343648481304297E-002   0.0000000000000000     
   3.4482316206480325E-003   6.0934165768356315E-002   0.0000000000000000     
   3.6090278399949962E-003   6.6711813458501454E-002   0.0000000000000000     
   3.7699454177739329E-003   7.2676591551739667E-002   0.0000000000000000     
   3.9309843539848382E-003   7.8828500048071015E-002   0.0000000000000000     
  -1.8238347872202246E-004   5.5315481410292577E-002   0.0000000000000000     
  -2.1531705293182551E-004   6.0898554544907710E-002   0.0000000000000000     
  -2.4047881324333983E-004   6.6673045423091701E-002   0.0000000000000000     
  -2.5786875965656358E-004   7.2638954044844564E-002   0.0000000000000000     
  -2.6748689217149829E-004   7.8796280410166272E-002   0.0000000000000000     
   1.6838509272571644E-002   7.9271777840827479E-002   0.0000000000000000     
   1.7514445514217013E-002   8.5590126516776013E-002   0.0000000000000000     
   1.8162079086220320E-002   9.2055565212881038E-002   0.0000000000000000     
   1.8781409988581556E-002   9.8668093929142553E-002   0.0000000000000000     
   1.9372438221300733E-002  0.10542771266556056        0.0000000000000000     
   1.2483982436356409E-002   7.9066248763401611E-002   0.0000000000000000     
   1.2983397807451388E-002   8.5383650077439657E-002   0.0000000000000000     
   1.3463624887850353E-002   9.1853138195033851E-002   0.0000000000000000     
   1.3924663677553300E-002   9.8474713116184179E-002   0.0000000000000000     
   1.4366514176560229E-002  0.10524837484089063        0.0000000000000000     
   8.1814741301608086E-003   7.8918489499149466E-002   0.0000000000000000     
   8.5071772820868481E-003   8.5237177012844362E-002   0.0000000000000000     
   8.8189263456719957E-003   9.1710077041404034E-002   0.0000000000000000     
   9.1167213209162531E-003   9.8337189584828483E-002   0.0000000000000000     
   9.4005622078196203E-003  0.10511851464311771        0.0000000000000000     
   3.9309843539848382E-003   7.8828500048071015E-002   0.0000000000000000     
   4.0857839381233871E-003   8.5150707322990127E-002   0.0000000000000000     
   4.2279834596852485E-003   9.1626381751991601E-002   0.0000000000000000     
   4.3575829186704223E-003   9.8255523335075506E-002   0.0000000000000000     
   4.4745823150789087E-003  0.10503813207224180        0.0000000000000000     
  -2.6748689217149829E-004   7.8796280410166272E-002   0.0000000000000000     
  -2.8078222443899065E-004   8.5124241007876925E-002   0.0000000000000000     
  -3.0920377010988995E-004   9.1602052326796551E-002   0.0000000000000000     
  -3.5275152918419375E-004   9.8229714366925222E-002   0.0000000000000000     
  -4.1142550166190471E-004  0.10500722712826288        0.0000000000000000     
   1.9372438221300733E-002  0.10542771266556056        0.0000000000000000     
   1.9933433421317922E-002  0.11234185523844437        0.0000000000000000     
   2.0462665225573200E-002  0.11941795546410333        0.0000000000000000     
   2.0960133634066565E-002  0.12665601334253748        0.0000000000000000     
   2.1425838646798024E-002  0.13405602887374676        0.0000000000000000     
   1.4366514176560229E-002  0.10524837484089063        0.0000000000000000     
   1.4779264665929196E-002  0.11217375888949419        0.0000000000000000     
   1.5153003426718251E-002  0.11925050078233579        0.0000000000000000     
   1.5487730458927394E-002  0.12647860051941542        0.0000000000000000     
   1.5783445762556622E-002  0.13385805810073315        0.0000000000000000     
   9.4005622078196203E-003  0.10511851464311771        0.0000000000000000     
   9.6580752882660850E-003  0.11204929796039444        0.0000000000000000     
   9.8768868441396346E-003  0.11912478528078137        0.0000000000000000     
   1.0056996875440269E-002  0.12634497660427854        0.0000000000000000     
   1.0198405382167989E-002  0.13370987193088590        0.0000000000000000     
   4.4745823150789087E-003  0.10503813207224180        0.0000000000000000     
   4.5698652883285921E-003  0.11196847245114513        0.0000000000000000     
   4.6343154778373538E-003  0.11904080895944016        0.0000000000000000     
   4.6679328836051956E-003  0.12625514159712684        0.0000000000000000     
   4.6707175056321165E-003  0.13361147036420520        0.0000000000000000     
  -4.1142550166190471E-004  0.10500722712826288        0.0000000000000000     
  -4.8536533388328319E-004  0.11193128236174625        0.0000000000000000     
  -5.7471067218859112E-004  0.11899857181831205        0.0000000000000000     
  -6.7946151657782817E-004  0.12620909549796031        0.0000000000000000     
  -7.9961786705099120E-004  0.13356285340069093        0.0000000000000000     
   2.1425838646798024E-002  0.13405602887374676        0.0000000000000000     
   2.1921141895536934E-002  0.14159914884772057        0.0000000000000000     
   2.2507405012052662E-002  0.14926652005444824        0.0000000000000000     
   2.3184627996345204E-002  0.15705814249392980        0.0000000000000000     
   2.3952810848414566E-002  0.16497401616616522        0.0000000000000000     
   1.5783445762556622E-002  0.13385805810073315        0.0000000000000000     
   1.6136498325814087E-002  0.14138975692091457        0.0000000000000000     
   1.6643237136907928E-002  0.14907458037458554        0.0000000000000000     
   1.7303662195838145E-002  0.15691252846174600        0.0000000000000000     
   1.8117773502604739E-002  0.16490360118239597        0.0000000000000000     
   1.0198405382167989E-002  0.13370987193088590        0.0000000000000000     
   1.0395139115288773E-002  0.14122461070343817        0.0000000000000000     
   1.0741224825768605E-002  0.14889433236476982        0.0000000000000000     
   1.1236662513607483E-002  0.15671903691488093        0.0000000000000000     
   1.1881452178805410E-002  0.16469872435377153        0.0000000000000000     
   4.6707175056321165E-003  0.13361147036420520        0.0000000000000000     
   4.6970642639609910E-003  0.14110371019529130        0.0000000000000000     
   4.8013680786346928E-003  0.14872577602500109        0.0000000000000000     
   4.9836289496532227E-003  0.15647766785333467        0.0000000000000000     
   5.2438468770165791E-003  0.16435938568029199        0.0000000000000000     
  -7.9961786705099120E-004  0.13356285340069093        0.0000000000000000     
  -9.5772622816926115E-004  0.14102705539647398        0.0000000000000000     
  -1.1763331044938111E-003  0.14856891135527939        0.0000000000000000     
  -1.4554384960246420E-003  0.15618842127710714        0.0000000000000000     
  -1.7950424027617521E-003  0.16388558516195728        0.0000000000000000     
   0.0000000000000000        0.0000000000000000        0.0000000000000000     
  -1.6760848364953749E-006   1.0749945133321488E-003   0.0000000000000000     
  -3.8206309576706873E-006   2.5190624002955214E-003   0.0000000000000000     
  -6.4336383635260727E-006   4.3322036608901176E-003   0.0000000000000000     
  -9.5151070540612059E-006   6.5144182951159379E-003   0.0000000000000000     
   0.0000000000000000        0.0000000000000000        0.0000000000000000     
  -2.1432769627116111E-004   1.0779142957650716E-003   0.0000000000000000     
  -4.3011324289000822E-004   2.5253990756417535E-003   0.0000000000000000     
  -6.4735663985654142E-004   4.3424543396300454E-003   0.0000000000000000     
  -8.6605788717076019E-004   6.5290800877299488E-003   0.0000000000000000     
   0.0000000000000000        0.0000000000000000        0.0000000000000000     
  -4.2525831531919916E-004   1.0852131037221958E-003   0.0000000000000000     
  -8.5533831401963297E-004   2.5416614626459699E-003   0.0000000000000000     
  -1.2902399961013012E-003   4.3693450767713230E-003   0.0000000000000000     
  -1.7299633615642043E-003   6.5682639460982540E-003   0.0000000000000000     
   0.0000000000000000        0.0000000000000000        0.0000000000000000     
  -6.3446794198060950E-004   1.0968909372035213E-003   0.0000000000000000     
  -1.2794958443465448E-003   2.5678495613081715E-003   0.0000000000000000     
  -1.9350837070978056E-003   4.4128758723139495E-003   0.0000000000000000     
  -2.6012315302343936E-003   6.6319698702208578E-003   0.0000000000000000     
   0.0000000000000000        0.0000000000000000        0.0000000000000000     
  -8.4195657625539186E-004   1.1129477962090483E-003   0.0000000000000000     
  -1.7025858338707437E-003   2.6039633716283574E-003   0.0000000000000000     
  -2.5818877728460555E-003   4.4730467262579267E-003   0.0000000000000000     
  -3.4798623931813267E-003   6.7201978600977558E-003   0.0000000000000000     
  -9.5151070540612059E-006   6.5144182951159379E-003   0.0000000000000000     
  -1.3134817213192258E-005   9.0380749962012952E-003   0.0000000000000000     
  -1.7362549024835910E-005   1.1875542457374506E-002   0.0000000000000000     
  -2.2198302488991171E-005   1.5026820678635566E-002   0.0000000000000000     
  -2.7642077605658693E-005   1.8491909659984481E-002   0.0000000000000000     
  -8.6605788717076019E-004   6.5290800877299488E-003   0.0000000000000000     
  -1.0872693216000032E-003   9.0571402665169456E-003   0.0000000000000000     
  -1.3120432799116073E-003   1.1898498822566529E-002   0.0000000000000000     
  -1.5403797621055741E-003   1.5053155755878699E-002   0.0000000000000000     
  -1.7722787681819013E-003   1.8521111066453447E-002   0.0000000000000000     
  -1.7299633615642043E-003   6.5682639460982540E-003   0.0000000000000000     
  -2.1744970730418075E-003   9.1085113774133572E-003   0.0000000000000000     
  -2.6238297931675770E-003   1.1960180677503226E-002   0.0000000000000000     
  -3.0779615219415119E-003   1.5123271846367858E-002   0.0000000000000000     
  -3.5368922593636137E-003   1.8597784884007259E-002   0.0000000000000000     
  -2.6012315302343936E-003   6.6319698702208578E-003   0.0000000000000000     
  -3.2748180715386059E-003   9.1921883288905264E-003   0.0000000000000000     
  -3.9527220887927428E-003   1.2060588022184593E-002   0.0000000000000000     
  -4.6349435819968065E-003   1.5237168950103054E-002   0.0000000000000000     
  -5.3214825511507958E-003   1.8721931112645914E-002   0.0000000000000000     
  -3.4798623931813267E-003   6.7201978600977558E-003   0.0000000000000000     
  -4.3882323170903971E-003   9.3081711209484531E-003   0.0000000000000000     
  -5.2987201667871074E-003   1.2199720856610630E-002   0.0000000000000000     
  -6.2113259422714564E-003   1.5394847067084284E-002   0.0000000000000000     
  -7.1260496435434440E-003   1.8893549752369412E-002   0.0000000000000000     
  -2.7642077605658693E-005   1.8491909659984481E-002   0.0000000000000000     
  -3.4846604896736377E-005   2.2242556429386374E-002   0.0000000000000000     
  -4.4964614884121035E-005   2.6250508014806367E-002   0.0000000000000000     
  -5.7996107567815053E-005   3.0515764416244460E-002   0.0000000000000000     
  -7.3941082947815394E-005   3.5038325633700657E-002   0.0000000000000000     
  -1.7722787681819013E-003   1.8521111066453447E-002   0.0000000000000000     
  -2.0059032702765475E-003   2.2274523898524218E-002   0.0000000000000000     
  -2.2394162405254695E-003   2.6285553396324445E-002   0.0000000000000000     
  -2.4728176789286680E-003   3.0554199559854126E-002   0.0000000000000000     
  -2.7061075854861415E-003   3.5080462389113269E-002   0.0000000000000000     
  -3.5368922593636137E-003   1.8597784884007259E-002   0.0000000000000000     
  -3.9964205506653602E-003   2.2356538511862579E-002   0.0000000000000000     
  -4.4523449410782331E-003   2.6372351451374978E-002   0.0000000000000000     
  -4.9046654306022274E-003   3.0645223702544466E-002   0.0000000000000000     
  -5.3533820192373498E-003   3.5175155265371023E-002   0.0000000000000000     
  -5.3214825511507958E-003   1.8721931112645914E-002   0.0000000000000000     
  -6.0063984460631721E-003   2.2488600269401453E-002   0.0000000000000000     
  -6.6837507165424066E-003   2.6510902179957975E-002   0.0000000000000000     
  -7.3535393625884958E-003   3.0788836844315475E-002   0.0000000000000000     
  -8.0157643842014396E-003   3.5322404262473940E-002   0.0000000000000000     
  -7.1260496435434440E-003   1.8893549752369412E-002   0.0000000000000000     
  -8.0358369564699859E-003   2.2670709171140849E-002   0.0000000000000000     
  -8.9336335669179950E-003   2.6701205582073430E-002   0.0000000000000000     
  -9.8194394748874706E-003   3.0985038985167149E-002   0.0000000000000000     
  -1.0693254680378414E-002   3.5522209380422012E-002   0.0000000000000000     
  -7.3941082947815394E-005   3.5038325633700657E-002   0.0000000000000000     
  -9.3770020229819520E-005   3.9794058088836591E-002   0.0000000000000000     
  -1.1845339861952245E-004   4.4758828203313880E-002   0.0000000000000000     
  -1.4799121811692273E-004   4.9932635977132545E-002   0.0000000000000000     
  -1.8238347872202246E-004   5.5315481410292577E-002   0.0000000000000000     
  -2.7061075854861415E-003   3.5080462389113269E-002   0.0000000000000000     
  -2.9389160006837826E-003   3.9838482248353235E-002   0.0000000000000000     
  -3.1708729650074792E-003   4.4802399501825428E-002   0.0000000000000000     
  -3.4019784784572347E-003   4.9972214149529834E-002   0.0000000000000000     
  -3.6322325410330478E-003   5.5347926191466459E-002   0.0000000000000000     
  -5.3533820192373498E-003   3.5175155265371023E-002   0.0000000000000000     
  -5.7964693328050841E-003   3.9935763112397958E-002   0.0000000000000000     
  -6.2319019971269155E-003   4.4900664216168541E-002   0.0000000000000000     
  -6.6596800122028449E-003   5.0069858576682780E-002   0.0000000000000000     
  -7.0798033780328767E-003   5.5443346193940680E-002   0.0000000000000000     
  -8.0157643842014396E-003   3.5322404262473940E-002   0.0000000000000000     
  -8.6664300165937239E-003   4.0085900680970739E-002   0.0000000000000000     
  -9.3015404949778318E-003   4.5053622346343219E-002   0.0000000000000000     
  -9.9210958193537580E-003   5.0225569258591382E-002   0.0000000000000000     
  -1.0525095989721504E-002   5.5601741417715220E-002   0.0000000000000000     
  -1.0693254680378414E-002   3.5522209380422012E-002   0.0000000000000000     
  -1.1548798052049706E-002   4.0288894954071598E-002   0.0000000000000000     
  -1.2379788458560222E-002   4.5261273892349477E-002   0.0000000000000000     
  -1.3186225899909967E-002   5.0439346195255648E-002   0.0000000000000000     
  -1.3968110376098941E-002   5.5823111862790112E-002   0.0000000000000000     
  -1.8238347872202246E-004   5.5315481410292577E-002   0.0000000000000000     
  -2.1531705293182551E-004   6.0898554544907710E-002   0.0000000000000000     
  -2.4047881324333983E-004   6.6673045423091701E-002   0.0000000000000000     
  -2.5786875965656358E-004   7.2638954044844564E-002   0.0000000000000000     
  -2.6748689217149829E-004   7.8796280410166272E-002   0.0000000000000000     
  -3.6322325410330478E-003   5.5347926191466459E-002   0.0000000000000000     
  -3.8547434002865252E-003   6.0924417033240287E-002   0.0000000000000000     
  -4.0626193037692753E-003   6.6696568080456292E-002   0.0000000000000000     
  -4.2558602514812969E-003   7.2664379333114495E-002   0.0000000000000000     
  -4.4344662434225891E-003   7.8827850791214890E-002   0.0000000000000000     
  -7.0798033780328767E-003   5.5443346193940680E-002   0.0000000000000000     
  -7.4864427187413072E-003   6.1017939703353959E-002   0.0000000000000000     
  -7.8737686584524434E-003   6.6790451740334350E-002   0.0000000000000000     
  -8.2417811971662817E-003   7.2760882304881869E-002   0.0000000000000000     
  -8.5904803348828239E-003   7.8929231396996480E-002   0.0000000000000000     
  -1.0525095989721504E-002   5.5601741417715220E-002   0.0000000000000000     
  -1.1110415008296171E-002   6.1179122555248724E-002   0.0000000000000000     
  -1.1673926877292842E-002   6.6954696402725875E-002   0.0000000000000000     
  -1.2215631596711522E-002   7.2928462960146656E-002   0.0000000000000000     
  -1.2735529166552205E-002   7.9100422227511097E-002   0.0000000000000000     
  -1.3968110376098941E-002   5.5823111862790112E-002   0.0000000000000000     
  -1.4726660268951116E-002   6.1407965588924605E-002   0.0000000000000000     
  -1.5463093960290473E-002   6.7189302067630879E-002   0.0000000000000000     
  -1.6177411450117012E-002   7.3167121298908899E-002   0.0000000000000000     
  -1.6869612738430729E-002   7.9341423282758672E-002   0.0000000000000000     
  -2.6748689217149829E-004   7.8796280410166272E-002   0.0000000000000000     
  -2.8078222443899065E-004   8.5124241007876925E-002   0.0000000000000000     
  -3.0920377010988995E-004   9.1602052326796551E-002   0.0000000000000000     
  -3.5275152918419375E-004   9.8229714366925222E-002   0.0000000000000000     
  -4.1142550166190471E-004  0.10500722712826288        0.0000000000000000     
  -4.4344662434225891E-003   7.8827850791214890E-002   0.0000000000000000     
  -4.6135993174381907E-003   8.5161880428383241E-002   0.0000000000000000     
  -4.8084215113731376E-003   9.1641366218245410E-002   0.0000000000000000     
  -5.0189328252274283E-003   9.8266308160801341E-002   0.0000000000000000     
  -5.2451332590010644E-003  0.10503670625605104        0.0000000000000000     
  -8.5904803348828239E-003   7.8929231396996480E-002   0.0000000000000000     
  -8.9337454527121211E-003   8.5267727945387631E-002   0.0000000000000000     
  -9.2854559317642194E-003   9.1748600878764658E-002   0.0000000000000000     
  -9.6456117720391150E-003   9.8371850197127575E-002   0.0000000000000000     
  -1.0014212973536810E-002  0.10513747590047640        0.0000000000000000     
  -1.2735529166552205E-002   7.9100422227511097E-002   0.0000000000000000     
  -1.3241220630260781E-002   8.5441783558890025E-002   0.0000000000000000     
  -1.3740307031283129E-002   9.1923756308354282E-002   0.0000000000000000     
  -1.4232788369619250E-002   9.8546340475903937E-002   0.0000000000000000     
  -1.4718664645269143E-002  0.10530953606153889        0.0000000000000000     
  -1.6869612738430729E-002   7.9341423282758672E-002   0.0000000000000000     
  -1.7536024850084167E-002   8.5684047268890423E-002   0.0000000000000000     
  -1.8172974809929871E-002   9.2166832507014337E-002   0.0000000000000000     
  -1.8780462617967834E-002   9.8789778997130373E-002   0.0000000000000000     
  -1.9358488274198064E-002  0.10555288673923854        0.0000000000000000     
  -4.1142550166190471E-004  0.10500722712826288        0.0000000000000000     
  -4.8536533388328319E-004  0.11193128236174625        0.0000000000000000     
  -5.7471067218859112E-004  0.11899857181831205        0.0000000000000000     
  -6.7946151657782817E-004  0.12620909549796031        0.0000000000000000     
  -7.9961786705099120E-004  0.13356285340069093        0.0000000000000000     
  -5.2451332590010644E-003  0.10503670625605104        0.0000000000000000     
  -5.4785783201401848E-003  0.11195343848190678        0.0000000000000000     
  -5.7108235160909281E-003  0.11901738281628074        0.0000000000000000     
  -5.9418688468532918E-003  0.12622853925917296        0.0000000000000000     
  -6.1717143124272811E-003  0.13358690781058341        0.0000000000000000     
  -1.0014212973536810E-002  0.10513747590047640        0.0000000000000000     
  -1.0380735412212749E-002  0.11205065160133562        0.0000000000000000     
  -1.0734654964022381E-002  0.11911655091222977        0.0000000000000000     
  -1.1075971628965694E-002  0.12633517383315890        0.0000000000000000     
  -1.1404685407042696E-002  0.13370652036412289        0.0000000000000000     
  -1.4718664645269143E-002  0.10530953606153889        0.0000000000000000     
  -1.5191836610100986E-002  0.11222292172003277        0.0000000000000000     
  -1.5646205015982951E-002  0.11929607610615917        0.0000000000000000     
  -1.6081769862915034E-002  0.12652899921991806        0.0000000000000000     
  -1.6498531150897239E-002  0.13392169106130938        0.0000000000000000     
  -1.9358488274198064E-002  0.10555288673923854        0.0000000000000000     
  -1.9911881913804885E-002  0.11247024883799828        0.0000000000000000     
  -2.0445473671972629E-002  0.11955595839806890        0.0000000000000000     
  -2.0959263548701309E-002  0.12681001541945044        0.0000000000000000     
  -2.1453251543990907E-002  0.13423241990214291        0.0000000000000000     
  -7.9961786705099120E-004  0.13356285340069093        0.0000000000000000     
  -9.5772622816926115E-004  0.14102705539647398        0.0000000000000000     
  -1.1763331044938111E-003  0.14856891135527939        0.0000000000000000     
  -1.4554384960246420E-003  0.15618842127710714        0.0000000000000000     
  -1.7950424027617521E-003  0.16388558516195728        0.0000000000000000     
  -6.1717143124272811E-003  0.13358690781058341        0.0000000000000000     
  -6.4934473551993971E-003  0.14103280854168704        0.0000000000000000     
  -7.0001554175561477E-003  0.14850656152365871        0.0000000000000000     
  -7.6918384994975296E-003  0.15600816675649851        0.0000000000000000     
  -8.5684966010235435E-003  0.16353762424020640        0.0000000000000000     
  -1.1404685407042696E-002  0.13370652036412289        0.0000000000000000     
  -1.1834314111226839E-002  0.14115913186563123        0.0000000000000000     
  -1.2478375554491557E-002  0.14862154969819324        0.0000000000000000     
  -1.3336869736836862E-002  0.15609377386180900        0.0000000000000000     
  -1.4409796658262754E-002  0.16357580435647837        0.0000000000000000     
  -1.6498531150897239E-002  0.13392169106130938        0.0000000000000000     
  -1.6980326496251572E-002  0.14140602536830657        0.0000000000000000     
  -1.7610993515300044E-002  0.14891387587888294        0.0000000000000000     
  -1.8390532208042640E-002  0.15644524259303846        0.0000000000000000     
  -1.9318942574479379E-002  0.16400012551077317        0.0000000000000000     
  -2.1453251543990907E-002  0.13423241990214291        0.0000000000000000     
  -2.1931484510273616E-002  0.14177348904971307        0.0000000000000000     
  -2.2398009299981602E-002  0.14938354006572779        0.0000000000000000     
  -2.2852825913114872E-002  0.15706257295018705        0.0000000000000000     
  -2.3295934349673419E-002  0.16481058770309082        0.0000000000000000     
   0.0000000000000000        0.0000000000000000        0.0000000000000000     
  -8.4195657625539186E-004   1.1129477962090483E-003   0.0000000000000000     
  -1.7025858338707437E-003   2.6039633716283574E-003   0.0000000000000000     
  -2.5818877728460555E-003   4.4730467262579267E-003   0.0000000000000000     
  -3.4798623931813267E-003   6.7201978600977558E-003   0.0000000000000000     
   0.0000000000000000        0.0000000000000000        0.0000000000000000     
  -1.0566406353306132E-003   1.1369836587464756E-003   0.0000000000000000     
  -2.1392908146320305E-003   2.6559365230821009E-003   0.0000000000000000     
  -3.2479505379042523E-003   4.5568585930068767E-003   0.0000000000000000     
  -4.3826198051472778E-003   6.8397498685208022E-003   0.0000000000000000     
   0.0000000000000000        0.0000000000000000        0.0000000000000000     
  -1.2874365363933406E-003   1.1725985028235024E-003   0.0000000000000000     
  -2.6042933186702076E-003   2.7297026451449775E-003   0.0000000000000000     
  -3.9505703468305994E-003   4.6713124269644251E-003   0.0000000000000000     
  -5.3262676208745184E-003   6.9974278482818463E-003   0.0000000000000000     
   0.0000000000000000        0.0000000000000000        0.0000000000000000     
  -1.5343442794435737E-003   1.2197923284401285E-003   0.0000000000000000     
  -3.0975933459852726E-003   2.8252617378169867E-003   0.0000000000000000     
  -4.6897471996250979E-003   4.8164082281305729E-003   0.0000000000000000     
  -6.3108058403630466E-003   7.1932317993808875E-003   0.0000000000000000     
   0.0000000000000000        0.0000000000000000        0.0000000000000000     
  -1.7973638644813127E-003   1.2785651355963544E-003   0.0000000000000000     
  -3.6191908965772278E-003   2.9426138010981272E-003   0.0000000000000000     
  -5.4654810962877455E-003   4.9921459965053183E-003   0.0000000000000000     
  -7.3362344636128665E-003   7.4271617218179282E-003   0.0000000000000000     
  -3.4798623931813267E-003   6.7201978600977558E-003   0.0000000000000000     
  -4.3882323170903971E-003   9.3081711209484531E-003   0.0000000000000000     
  -5.2987201667871074E-003   1.2199720856610630E-002   0.0000000000000000     
  -6.2113259422714564E-003   1.5394847067084284E-002   0.0000000000000000     
  -7.1260496435434440E-003   1.8893549752369412E-002   0.0000000000000000     
  -4.3826198051472778E-003   6.8397498685208022E-003   0.0000000000000000     
  -5.5304028037893496E-003   9.4627046274797719E-003   0.0000000000000000     
  -6.6784037212587136E-003   1.2383817147739685E-002   0.0000000000000000     
  -7.8266225575553683E-003   1.5603087429300541E-002   0.0000000000000000     
  -8.9750593126793118E-003   1.9120515472162335E-002   0.0000000000000000     
  -5.3262676208745184E-003   6.9974278482818463E-003   0.0000000000000000     
  -6.7169925257276313E-003   9.6620337223771151E-003   0.0000000000000000     
  -8.1083524463156070E-003   1.2619114862530109E-002   0.0000000000000000     
  -9.5003473826384480E-003   1.5868671268740826E-002   0.0000000000000000     
  -1.0892977334696149E-002   1.9410702941009269E-002   0.0000000000000000     
  -6.3108058403630466E-003   7.1932317993808875E-003   0.0000000000000000     
  -7.9480014829052380E-003   9.9061584056404813E-003   0.0000000000000000     
  -9.5885663419577865E-003   1.2905614000981901E-002   0.0000000000000000     
  -1.1232500417520693E-002   1.6191598585405146E-002   0.0000000000000000     
  -1.2879803709593957E-002   1.9764112158910215E-002   0.0000000000000000     
  -7.3362344636128665E-003   7.4271617218179282E-003   0.0000000000000000     
  -9.2234296753221749E-003   1.0195078677269870E-002   0.0000000000000000     
  -1.1119045408185254E-002   1.3243314563095059E-002   0.0000000000000000     
  -1.3023081662202106E-002   1.6571869379293492E-002   0.0000000000000000     
  -1.4935538437372730E-002   2.0180743125865173E-002   0.0000000000000000     
  -7.1260496435434440E-003   1.8893549752369412E-002   0.0000000000000000     
  -8.0358369564699859E-003   2.2670709171140849E-002   0.0000000000000000     
  -8.9336335669179950E-003   2.6701205582073430E-002   0.0000000000000000     
  -9.8194394748874706E-003   3.0985038985167149E-002   0.0000000000000000     
  -1.0693254680378414E-002   3.5522209380422012E-002   0.0000000000000000     
  -8.9750593126793118E-003   1.9120515472162335E-002   0.0000000000000000     
  -1.0114910534864723E-002   2.2911734479062033E-002   0.0000000000000000     
  -1.1237372772345775E-002   2.6952377652736580E-002   0.0000000000000000     
  -1.2342446025122472E-002   3.1242444993185989E-002   0.0000000000000000     
  -1.3430130293194804E-002   3.5781936500410248E-002   0.0000000000000000     
  -1.0892977334696149E-002   1.9410702941009269E-002   0.0000000000000000     
  -1.2273793634226314E-002   2.3220545455146277E-002   0.0000000000000000     
  -1.3630347612966533E-002   2.7273534386962672E-002   0.0000000000000000     
  -1.4962639270916811E-002   3.1569669736458465E-002   0.0000000000000000     
  -1.6270668608077143E-002   3.6108951503633642E-002   0.0000000000000000     
  -1.2879803709593957E-002   1.9764112158910215E-002   0.0000000000000000     
  -1.4512486254554757E-002   2.3597142099393582E-002   0.0000000000000000     
  -1.6112558088780270E-002   2.7664675784751697E-002   0.0000000000000000     
  -1.7680019212270495E-002   3.1966713214984573E-002   0.0000000000000000     
  -1.9214869625025437E-002   3.6503254390092207E-002   0.0000000000000000     
  -1.4935538437372730E-002   2.0180743125865173E-002   0.0000000000000000     
  -1.6830988395850049E-002   2.4041524411803943E-002   0.0000000000000000     
  -1.8684004199786976E-002   2.8125801846103665E-002   0.0000000000000000     
  -2.0494585849183518E-002   3.2433575428764329E-002   0.0000000000000000     
  -2.2262733344039679E-002   3.6964845159785931E-002   0.0000000000000000     
  -1.0693254680378414E-002   3.5522209380422012E-002   0.0000000000000000     
  -1.1548798052049706E-002   4.0288894954071598E-002   0.0000000000000000     
  -1.2379788458560222E-002   4.5261273892349477E-002   0.0000000000000000     
  -1.3186225899909967E-002   5.0439346195255648E-002   0.0000000000000000     
  -1.3968110376098941E-002   5.5823111862790112E-002   0.0000000000000000     
  -1.3430130293194804E-002   3.5781936500410248E-002   0.0000000000000000     
  -1.4492306947383354E-002   4.0549947352083421E-002   0.0000000000000000     
  -1.5520857358508697E-002   4.5525572725879593E-002   0.0000000000000000     
  -1.6515781526570832E-002   5.0708812621798750E-002   0.0000000000000000     
  -1.7477079451569760E-002   5.6099667039840879E-002   0.0000000000000000     
  -1.6270668608077143E-002   3.6108951503633642E-002   0.0000000000000000     
  -1.7545690210805005E-002   4.0874259295389140E-002   0.0000000000000000     
  -1.8778958665457854E-002   4.5848472718625875E-002   0.0000000000000000     
  -1.9970473972035704E-002   5.1031591773343862E-002   0.0000000000000000     
  -2.1120236130538549E-002   5.6423616459543080E-002   0.0000000000000000     
  -1.9214869625025437E-002   3.6503254390092207E-002   0.0000000000000000     
  -2.0708947842314657E-002   4.1261830783988748E-002   0.0000000000000000     
  -2.2154092379407703E-002   4.6229973870588345E-002   0.0000000000000000     
  -2.3550303236304592E-002   5.1407683649891012E-002   0.0000000000000000     
  -2.4897580413005310E-002   5.6794960121896727E-002   0.0000000000000000     
  -2.2262733344039679E-002   3.6964845159785931E-002   0.0000000000000000     
  -2.3982079841912300E-002   4.1712661817882232E-002   0.0000000000000000     
  -2.5646258500358236E-002   4.6670076181766974E-002   0.0000000000000000     
  -2.7255269319377481E-002   5.1837088251440178E-002   0.0000000000000000     
  -2.8809112298970041E-002   5.7213698026901814E-002   0.0000000000000000     
  -1.3968110376098941E-002   5.5823111862790112E-002   0.0000000000000000     
  -1.4726660268951116E-002   6.1407965588924605E-002   0.0000000000000000     
  -1.5463093960290473E-002   6.7189302067630879E-002   0.0000000000000000     
  -1.6177411450117012E-002   7.3167121298908899E-002   0.0000000000000000     
  -1.6869612738430729E-002   7.9341423282758672E-002   0.0000000000000000     
  -1.7477079451569760E-002   5.6099667039840879E-002   0.0000000000000000     
  -1.8410191526720798E-002   6.1691201433606312E-002   0.0000000000000000     
  -1.9320558145239281E-002   6.7476481256695364E-002   0.0000000000000000     
  -2.0208179307125200E-002   7.3455506509108037E-002   0.0000000000000000     
  -2.1073055012378557E-002   7.9628277190844324E-002   0.0000000000000000     
  -2.1120236130538549E-002   5.6423616459543080E-002   0.0000000000000000     
  -2.2236021807619886E-002   6.2015562718518588E-002   0.0000000000000000     
  -2.3325607669933218E-002   6.7798446491565412E-002   0.0000000000000000     
  -2.4388993717478543E-002   7.3772267778683578E-002   0.0000000000000000     
  -2.5426179950255867E-002   7.9937026579873074E-002   0.0000000000000000     
  -2.4897580413005310E-002   5.6794960121896727E-002   0.0000000000000000     
  -2.6204151111648370E-002   6.2381049443661421E-002   0.0000000000000000     
  -2.7478242534372282E-002   6.8155197772241022E-002   0.0000000000000000     
  -2.8719854681177038E-002   7.4117405107635523E-002   0.0000000000000000     
  -2.9928987552062643E-002   8.0267671449844910E-002   0.0000000000000000     
  -2.8809112298970041E-002   5.7213698026901814E-002   0.0000000000000000     
  -3.0314579438806260E-002   6.2787661609034831E-002   0.0000000000000000     
  -3.1778462738556473E-002   6.8546735098722181E-002   0.0000000000000000     
  -3.3200762198220685E-002   7.4490918495963857E-002   0.0000000000000000     
  -3.4581477817798897E-002   8.0620211800759845E-002   0.0000000000000000     
  -1.6869612738430729E-002   7.9341423282758672E-002   0.0000000000000000     
  -1.7536024850084167E-002   8.5684047268890423E-002   0.0000000000000000     
  -1.8172974809929871E-002   9.2166832507014337E-002   0.0000000000000000     
  -1.8780462617967834E-002   9.8789778997130373E-002   0.0000000000000000     
  -1.9358488274198064E-002  0.10555288673923854        0.0000000000000000     
  -2.1073055012378557E-002   7.9628277190844324E-002   0.0000000000000000     
  -2.1900677810808386E-002   8.5968287070761540E-002   0.0000000000000000     
  -2.2676540252223720E-002   9.2449029917716988E-002   0.0000000000000000     
  -2.3400642336624543E-002   9.9070505731710695E-002   0.0000000000000000     
  -2.4072984064010872E-002  0.10583271451274262        0.0000000000000000     
  -2.5426179950255867E-002   7.9937026579873074E-002   0.0000000000000000     
  -2.6417699211059544E-002   8.6268270959876006E-002   0.0000000000000000     
  -2.7344084342683934E-002   9.2741548983434549E-002   0.0000000000000000     
  -2.8205335345129045E-002   9.9356860650548662E-002   0.0000000000000000     
  -2.9001452218394862E-002  0.10611420596121839        0.0000000000000000     
  -2.9928987552062643E-002   8.0267671449844910E-002   0.0000000000000000     
  -3.1087089050837624E-002   8.6583998936233836E-002   0.0000000000000000     
  -3.2175607081310523E-002   9.3044389704166966E-002   0.0000000000000000     
  -3.3194541643481332E-002   9.9648843753644287E-002   0.0000000000000000     
  -3.4143892737350044E-002  0.10639736108466580        0.0000000000000000     
  -3.4581477817798897E-002   8.0620211800759845E-002   0.0000000000000000     
  -3.5908847330142650E-002   8.6915470999835001E-002   0.0000000000000000     
  -3.7171108468103481E-002   9.3357552079914266E-002   0.0000000000000000     
  -3.8368261231681411E-002   9.9946455040997542E-002   0.0000000000000000     
  -3.9500305620876419E-002  0.10668217988308491        0.0000000000000000     
  -1.9358488274198064E-002  0.10555288673923854        0.0000000000000000     
  -1.9911881913804885E-002  0.11247024883799828        0.0000000000000000     
  -2.0445473671972629E-002  0.11955595839806890        0.0000000000000000     
  -2.0959263548701309E-002  0.12681001541945044        0.0000000000000000     
  -2.1453251543990907E-002  0.13423241990214291        0.0000000000000000     
  -2.4072984064010872E-002  0.10583271451274262        0.0000000000000000     
  -2.4709077433586888E-002  0.11275301483134531        0.0000000000000000     
  -2.5324434444556811E-002  0.11984876525805123        0.0000000000000000     
  -2.5919055096920628E-002  0.12711996579286042        0.0000000000000000     
  -2.6492939390678337E-002  0.13456661643577278        0.0000000000000000     
  -2.9001452218394862E-002  0.10611420596121839        0.0000000000000000     
  -2.9751629279709455E-002  0.11303160157618714        0.0000000000000000     
  -3.0475060846300871E-002  0.12012706415619842        0.0000000000000000     
  -3.1171746918169103E-002  0.12740059370125220        0.0000000000000000     
  -3.1841687495314158E-002  0.13485219021134848        0.0000000000000000     
  -3.4143892737350044E-002  0.10639736108466580        0.0000000000000000     
  -3.5039537452172573E-002  0.11330600907252378        0.0000000000000000     
  -3.5897352877204802E-002  0.12039085509251043        0.0000000000000000     
  -3.6717339012446726E-002  0.12765189914462582        0.0000000000000000     
  -3.7499495857898371E-002  0.13508914122886989        0.0000000000000000     
  -3.9500305620876419E-002  0.10668217988308491        0.0000000000000000     
  -4.0572801950976234E-002  0.11357623732035520        0.0000000000000000     
  -4.1591310537268611E-002  0.12064013806698734        0.0000000000000000     
  -4.2555831379753516E-002  0.12787388212298129        0.0000000000000000     
  -4.3466364478430976E-002  0.13527746948833710        0.0000000000000000     
  -2.1453251543990907E-002  0.13423241990214291        0.0000000000000000     
  -2.1931484510273616E-002  0.14177348904971307        0.0000000000000000     
  -2.2398009299981602E-002  0.14938354006572779        0.0000000000000000     
  -2.2852825913114872E-002  0.15706257295018705        0.0000000000000000     
  -2.3295934349673419E-002  0.16481058770309082        0.0000000000000000     
  -2.6492939390678337E-002  0.13456661643577278        0.0000000000000000     
  -2.6973225031334151E-002  0.14215832079538163        0.0000000000000000     
  -2.7287049724392273E-002  0.14986468248028001        0.0000000000000000     
  -2.7434413469852696E-002  0.15768570149046798        0.0000000000000000     
  -2.7415316267715428E-002  0.16562137782594552        0.0000000000000000     
  -3.1841687495314158E-002  0.13485219021134848        0.0000000000000000     
  -3.2390984937474374E-002  0.14245731849084309        0.0000000000000000     
  -3.2725741604388070E-002  0.15019144334409176        0.0000000000000000     
  -3.2845957496055268E-002  0.15805456477109464        0.0000000000000000     
  -3.2751632612475955E-002  0.16604668277185161        0.0000000000000000     
  -3.7499495857898371E-002  0.13508914122886989        0.0000000000000000     
  -3.8184764228694282E-002  0.14267048213609743        0.0000000000000000     
  -3.8714084939969022E-002  0.15036382265716314        0.0000000000000000     
  -3.9087457991722599E-002  0.15816916279206700        0.0000000000000000     
  -3.9304883383954999E-002  0.16608650254080906        0.0000000000000000     
  -4.3466364478430976E-002  0.13527746948833710        0.0000000000000000     
  -4.4354562904993872E-002  0.14279781173114470        0.0000000000000000     
  -4.5252079731135098E-002  0.15038182041949399        0.0000000000000000     
  -4.6158914956854660E-002  0.15802949555338508        0.0000000000000000     
  -4.7075068582152560E-002  0.16574083713281787        0.0000000000000000     
   0.0000000000000000        0.0000000000000000        0.0000000000000000     
  -1.7973638644813127E-003   1.2785651355963544E-003   0.0000000000000000     
  -3.6191908965772278E-003   2.9426138010981272E-003   0.0000000000000000     
  -5.4654810962877455E-003   4.9921459965053183E-003   0.0000000000000000     
  -7.3362344636128665E-003   7.4271617218179282E-003   0.0000000000000000     
   0.0000000000000000        0.0000000000000000        0.0000000000000000     
  -2.0682926655184257E-003   1.3561620181964122E-003   0.0000000000000000     
  -4.1617423589624695E-003   3.0964853454953931E-003   0.0000000000000000     
  -6.2803490803321309E-003   5.2209699818969420E-003   0.0000000000000000     
  -8.4241128296274129E-003   7.7296159274010592E-003   0.0000000000000000     
   0.0000000000000000        0.0000000000000000        0.0000000000000000     
  -2.3389280565667817E-003   1.4598280701445347E-003   0.0000000000000000     
  -4.7179041216573962E-003   3.3016028815157747E-003   0.0000000000000000     
  -7.1369281952718428E-003   5.5253244341137197E-003   0.0000000000000000     
  -9.5960002774101230E-003   8.1309927279383729E-003   0.0000000000000000     
   0.0000000000000000        0.0000000000000000        0.0000000000000000     
  -2.6092700376263806E-003   1.5895632914407214E-003   0.0000000000000000     
  -5.2876761846620069E-003   3.5579664091592725E-003   0.0000000000000000     
  -8.0352184411068804E-003   5.9052093531556521E-003   0.0000000000000000     
  -1.0851896806960998E-002   8.6312921234298640E-003   0.0000000000000000     
   0.0000000000000000        0.0000000000000000        0.0000000000000000     
  -2.8793186086972225E-003   1.7453676820849730E-003   0.0000000000000000     
  -5.8710585479763025E-003   3.8655759284258870E-003   0.0000000000000000     
  -8.9752198178372402E-003   6.3606247390227411E-003   0.0000000000000000     
  -1.2191802418280037E-002   9.2305141138755379E-003   0.0000000000000000     
  -7.3362344636128665E-003   7.4271617218179282E-003   0.0000000000000000     
  -9.2234296753221749E-003   1.0195078677269870E-002   0.0000000000000000     
  -1.1119045408185254E-002   1.3243314563095059E-002   0.0000000000000000     
  -1.3023081662202106E-002   1.6571869379293492E-002   0.0000000000000000     
  -1.4935538437372730E-002   2.0180743125865173E-002   0.0000000000000000     
  -8.4241128296274129E-003   7.7296159274010592E-003   0.0000000000000000     
  -1.0584126658788053E-002   1.0564701899797080E-002   0.0000000000000000     
  -1.2751483619753794E-002   1.3668506616874338E-002   0.0000000000000000     
  -1.4926183712524637E-002   1.7041030078632835E-002   0.0000000000000000     
  -1.7108226937100585E-002   2.0682272285072568E-002   0.0000000000000000     
  -9.5960002774101230E-003   8.1309927279383729E-003   0.0000000000000000     
  -1.2070941989112488E-002   1.1050935435753903E-002   0.0000000000000000     
  -1.4537574951419196E-002   1.4217480230324493E-002   0.0000000000000000     
  -1.6995899164330246E-002   1.7630627111650136E-002   0.0000000000000000     
  -1.9445914627845635E-002   2.1290376079730847E-002   0.0000000000000000     
  -1.0851896806960998E-002   8.6312921234298640E-003   0.0000000000000000     
  -1.3683875666295484E-002   1.1653779285140343E-002   0.0000000000000000     
  -1.6477319403181461E-002   1.4890235403445523E-002   0.0000000000000000     
  -1.9232228017618924E-002   1.8340660478345407E-002   0.0000000000000000     
  -2.1948601509607878E-002   2.2005054509840003E-002   0.0000000000000000     
  -1.2191802418280037E-002   9.2305141138755379E-003   0.0000000000000000     
  -1.5422927690337035E-002   1.2373233447956395E-002   0.0000000000000000     
  -1.8570716975040581E-002   1.5686772136237429E-002   0.0000000000000000     
  -2.1635170272390675E-002   1.9171130178718642E-002   0.0000000000000000     
  -2.4616287582387316E-002   2.2826307575400030E-002   0.0000000000000000     
  -1.4935538437372730E-002   2.0180743125865173E-002   0.0000000000000000     
  -1.6830988395850049E-002   2.4041524411803943E-002   0.0000000000000000     
  -1.8684004199786976E-002   2.8125801846103665E-002   0.0000000000000000     
  -2.0494585849183518E-002   3.2433575428764329E-002   0.0000000000000000     
  -2.2262733344039679E-002   3.6964845159785931E-002   0.0000000000000000     
  -1.7108226937100585E-002   2.0682272285072568E-002   0.0000000000000000     
  -1.9267836396737958E-002   2.4564801224389931E-002   0.0000000000000000     
  -2.1375235194693074E-002   2.8661184884781313E-002   0.0000000000000000     
  -2.3430423330965938E-002   3.2971423266246726E-002   0.0000000000000000     
  -2.5433400805556554E-002   3.7495516368786147E-002   0.0000000000000000     
  -1.9445914627845635E-002   2.1290376079730847E-002   0.0000000000000000     
  -2.1861566595844248E-002   2.5178081369164104E-002   0.0000000000000000     
  -2.4216800322204964E-002   2.9275097214547408E-002   0.0000000000000000     
  -2.6511615806927794E-002   3.3581423615880755E-002   0.0000000000000000     
  -2.8746013050012734E-002   3.8097060573164150E-002   0.0000000000000000     
  -2.1948601509607878E-002   2.2005054509840003E-002   0.0000000000000000     
  -2.4612178993168931E-002   2.5881364846126454E-002   0.0000000000000000     
  -2.7208699582322662E-002   2.9967538835401940E-002   0.0000000000000000     
  -2.9738163277069098E-002   3.4263576477666445E-002   0.0000000000000000     
  -3.2200570077408223E-002   3.8769477772919968E-002   0.0000000000000000     
  -2.4616287582387316E-002   2.2826307575400030E-002   0.0000000000000000     
  -2.7519673588711983E-002   2.6674651655276990E-002   0.0000000000000000     
  -3.0350932975046156E-002   3.0738509747344898E-002   0.0000000000000000     
  -3.3110065741389832E-002   3.5017881851603774E-002   0.0000000000000000     
  -3.5797071887743025E-002   3.9512767968053586E-002   0.0000000000000000     
  -2.2262733344039679E-002   3.6964845159785931E-002   0.0000000000000000     
  -2.3982079841912300E-002   4.1712661817882232E-002   0.0000000000000000     
  -2.5646258500358236E-002   4.6670076181766974E-002   0.0000000000000000     
  -2.7255269319377481E-002   5.1837088251440178E-002   0.0000000000000000     
  -2.8809112298970041E-002   5.7213698026901814E-002   0.0000000000000000     
  -2.5433400805556554E-002   3.7495516368786147E-002   0.0000000000000000     
  -2.7379755349935014E-002   4.2230946134622742E-002   0.0000000000000000     
  -2.9265074695571446E-002   4.7175194505979692E-002   0.0000000000000000     
  -3.1089358842465848E-002   5.2328261482856964E-002   0.0000000000000000     
  -3.2852607790618209E-002   5.7690147065254577E-002   0.0000000000000000     
  -2.8746013050012734E-002   3.8097060573164150E-002   0.0000000000000000     
  -3.0916643506719882E-002   4.2820877471763420E-002   0.0000000000000000     
  -3.3020158632309352E-002   4.7751743697044352E-002   0.0000000000000000     
  -3.5056558426781161E-002   5.2889659249006973E-002   0.0000000000000000     
  -3.7025842890135274E-002   5.8234624127651263E-002   0.0000000000000000     
  -3.2200570077408223E-002   3.8769477772919968E-002   0.0000000000000000     
  -3.4592744312266888E-002   4.3482455829304247E-002   0.0000000000000000     
  -3.6911510310571959E-002   4.8399723754960988E-002   0.0000000000000000     
  -3.9156868072323402E-002   5.3521281549890207E-002   0.0000000000000000     
  -4.1328817597521245E-002   5.8847129214091874E-002   0.0000000000000000     
  -3.5797071887743025E-002   3.9512767968053586E-002   0.0000000000000000     
  -3.8408057766576041E-002   4.4215681207245242E-002   0.0000000000000000     
  -4.0939129730359236E-002   4.9119134679729594E-002   0.0000000000000000     
  -4.3390287779092589E-002   5.4223128385506650E-002   0.0000000000000000     
  -4.5761531912776113E-002   5.9527662324576402E-002   0.0000000000000000     
  -2.8809112298970041E-002   5.7213698026901814E-002   0.0000000000000000     
  -3.0314579438806260E-002   6.2787661609034831E-002   0.0000000000000000     
  -3.1778462738556473E-002   6.8546735098722181E-002   0.0000000000000000     
  -3.3200762198220685E-002   7.4490918495963857E-002   0.0000000000000000     
  -3.4581477817798897E-002   8.0620211800759845E-002   0.0000000000000000     
  -3.2852607790618209E-002   5.7690147065254577E-002   0.0000000000000000     
  -3.4559786699188480E-002   6.3247732798133713E-002   0.0000000000000000     
  -3.6215860727336603E-002   6.8987900226455540E-002   0.0000000000000000     
  -3.7820829875062578E-002   7.4910649350220099E-002   0.0000000000000000     
  -3.9374694142366405E-002   8.1015980169427335E-002   0.0000000000000000     
  -3.7025842890135274E-002   5.8234624127651263E-002   0.0000000000000000     
  -3.8932252802889963E-002   6.3773596594452961E-002   0.0000000000000000     
  -4.0780028945563471E-002   6.9493534910887791E-002   0.0000000000000000     
  -4.2569171318155796E-002   7.5394439076955741E-002   0.0000000000000000     
  -4.4299679920666947E-002   8.1476309092656837E-002   0.0000000000000000     
  -4.1328817597521245E-002   5.8847129214091874E-002   0.0000000000000000     
  -4.3431977749910727E-002   6.4365252997992589E-002   0.0000000000000000     
  -4.5470967393237097E-002   7.0063639152018894E-002   0.0000000000000000     
  -4.7445786527500373E-002   7.5942287676170839E-002   0.0000000000000000     
  -4.9356435152700530E-002   8.2001198570448339E-002   0.0000000000000000     
  -4.5761531912776113E-002   5.9527662324576402E-002   0.0000000000000000     
  -4.8058961540250744E-002   6.5022702008752584E-002   0.0000000000000000     
  -5.0288676070357474E-002   7.0698212949848890E-002   0.0000000000000000     
  -5.2450675503096275E-002   7.6554195147865323E-002   0.0000000000000000     
  -5.4544959838467161E-002   8.2590648602801880E-002   0.0000000000000000     
  -3.4581477817798897E-002   8.0620211800759845E-002   0.0000000000000000     
  -3.5908847330142650E-002   8.6915470999835001E-002   0.0000000000000000     
  -3.7171108468103481E-002   9.3357552079914266E-002   0.0000000000000000     
  -3.8368261231681411E-002   9.9946455040997542E-002   0.0000000000000000     
  -3.9500305620876419E-002  0.10668217988308491        0.0000000000000000     
  -3.9374694142366405E-002   8.1015980169427335E-002   0.0000000000000000     
  -4.0873417098341525E-002   8.7287302597493233E-002   0.0000000000000000     
  -4.2312962312081349E-002   9.3708026547833695E-002   0.0000000000000000     
  -4.3693329783585901E-002  0.10027815202044876        0.0000000000000000     
  -4.5014519512855164E-002  0.10699767901533841        0.0000000000000000     
  -4.4299679920666947E-002   8.1476309092656837E-002   0.0000000000000000     
  -4.5971241404801147E-002   8.7724109176022094E-002   0.0000000000000000     
  -4.7583542422262634E-002   9.4122803545082553E-002   0.0000000000000000     
  -4.9136582973051422E-002  0.10067239219983821        0.0000000000000000     
  -5.0630363057167477E-002  0.10737287514028909        0.0000000000000000     
  -4.9356435152700530E-002   8.2001198570448339E-002   0.0000000000000000     
  -5.1202320249521552E-002   8.8225890735421628E-002   0.0000000000000000     
  -5.2982848798647363E-002   9.4601883071660828E-002   0.0000000000000000     
  -5.4698020800077962E-002  0.10112917557916595        0.0000000000000000     
  -5.6347836253813365E-002  0.10780776825793693        0.0000000000000000     
  -5.4544959838467161E-002   8.2590648602801880E-002   0.0000000000000000     
  -5.6566653632502711E-002   8.8792647275691847E-002   0.0000000000000000     
  -5.8510881441235507E-002   9.5145265127568518E-002   0.0000000000000000     
  -6.0377643264665548E-002  0.10164850215843189        0.0000000000000000     
  -6.2166939102792820E-002  0.10830235836828195        0.0000000000000000     
  -3.9500305620876419E-002  0.10668217988308491        0.0000000000000000     
  -4.0572801950976234E-002  0.11357623732035520        0.0000000000000000     
  -4.1591310537268611E-002  0.12064013806698734        0.0000000000000000     
  -4.2555831379753516E-002  0.12787388212298129        0.0000000000000000     
  -4.3466364478430976E-002  0.13527746948833710        0.0000000000000000     
  -4.5014519512855164E-002  0.10699767901533841        0.0000000000000000     
  -4.6271747288223544E-002  0.11387314263981711        0.0000000000000000     
  -4.7460228898025453E-002  0.12091107800119925        0.0000000000000000     
  -4.8579964342260848E-002  0.12811148509948489        0.0000000000000000     
  -4.9630953620929771E-002  0.13547436393467399        0.0000000000000000     
  -5.0630363057167477E-002  0.10737287514028909        0.0000000000000000     
  -5.2056697976017585E-002  0.11422758135104517        0.0000000000000000     
  -5.3407403031008466E-002  0.12123983981671642        0.0000000000000000     
  -5.4682478222140132E-002  0.12840965053730288        0.0000000000000000     
  -5.5881923549412585E-002  0.13573701351280448        0.0000000000000000     
  -5.6347836253813365E-002  0.10780776825793693        0.0000000000000000     
  -5.7927654014358343E-002  0.11463955345403939        0.0000000000000000     
  -5.9432832936217678E-002  0.12162642351353882        0.0000000000000000     
  -6.0863373019391355E-002  0.12876837843643524        0.0000000000000000     
  -6.2219274263879389E-002  0.13606541822272861        0.0000000000000000     
  -6.2166939102792820E-002  0.10830235836828195        0.0000000000000000     
  -6.3884615403245831E-002  0.11510905894879978        0.0000000000000000     
  -6.5536518613653075E-002  0.12207082909166644        0.0000000000000000     
  -6.7122648734014537E-002  0.12918766879688198        0.0000000000000000     
  -6.8643005764330217E-002  0.13645957806444634        0.0000000000000000     
  -4.3466364478430976E-002  0.13527746948833710        0.0000000000000000     
  -4.4354562904993872E-002  0.14279781173114470        0.0000000000000000     
  -4.5252079731135098E-002  0.15038182041949399        0.0000000000000000     
  -4.6158914956854660E-002  0.15802949555338508        0.0000000000000000     
  -4.7075068582152560E-002  0.16574083713281787        0.0000000000000000     
  -4.9630953620929771E-002  0.13547436393467399        0.0000000000000000     
  -5.0737041495605498E-002  0.14292509056766128        0.0000000000000000     
  -5.2022072727861315E-002  0.15038904105934145        0.0000000000000000     
  -5.3486047317697231E-002  0.15786621540971452        0.0000000000000000     
  -5.5128965265113225E-002  0.16535661361878051        0.0000000000000000     
  -5.5881923549412585E-002  0.13573701351280448        0.0000000000000000     
  -5.7168860529761528E-002  0.14313810193732360        0.0000000000000000     
  -5.8706410680122667E-002  0.15052908900496248        0.0000000000000000     
  -6.0494574000496036E-002  0.15790997471572107        0.0000000000000000     
  -6.2533350490881601E-002  0.16528075906959946        0.0000000000000000     
  -6.2219274263879389E-002  0.13606541822272861        0.0000000000000000     
  -6.3650020007461949E-002  0.14343684584013164        0.0000000000000000     
  -6.5305093587919152E-002  0.15080196425635700        0.0000000000000000     
  -6.7184495005251102E-002  0.15816077347140473        0.0000000000000000     
  -6.9288224259457673E-002  0.16551327348527475        0.0000000000000000     
  -6.8643005764330217E-002  0.13645957806444634        0.0000000000000000     
  -7.0180519928706761E-002  0.14382132227608541        0.0000000000000000     
  -7.1818121451250827E-002  0.15120766681352513        0.0000000000000000     
  -7.3555810331962374E-002  0.15861861167676541        0.0000000000000000     
  -7.5393586570841470E-002  0.16605415686580632        0.0000000000000000     
   0.0000000000000000        0.0000000000000000        0.0000000000000000     
  -2.8793186086972225E-003   1.7453676820849730E-003   0.0000000000000000     
  -5.8710585479763025E-003   3.8655759284258870E-003   0.0000000000000000     
  -8.9752198178372402E-003   6.3606247390227411E-003   0.0000000000000000     
  -1.2191802418280037E-002   9.2305141138755379E-003   0.0000000000000000     
   0.0000000000000000        0.0000000000000000        0.0000000000000000     
  -3.2827189352368598E-003   1.9998032173079274E-003   0.0000000000000000     
  -6.6757824479896435E-003   4.3316239206217400E-003   0.0000000000000000     
  -1.0179190538258354E-002   6.9954621099414388E-003   0.0000000000000000     
  -1.3792943206042987E-002   9.9913177852670228E-003   0.0000000000000000     
   0.0000000000000000        0.0000000000000000        0.0000000000000000     
  -3.9531161827028481E-003   2.4254318723402231E-003   0.0000000000000000     
  -7.9095791210913972E-003   5.0633028670529550E-003   0.0000000000000000     
  -1.1869388815165643E-002   7.9136129841381967E-003   0.0000000000000000     
  -1.5832545264925595E-002   1.0976362223595947E-002   0.0000000000000000     
   0.0000000000000000        0.0000000000000000        0.0000000000000000     
  -4.8905103510951875E-003   3.0222536471818605E-003   0.0000000000000000     
  -9.5724485672815593E-003   6.0606127677195320E-003   0.0000000000000000     
  -1.4045814648559116E-002   9.1150773616130183E-003   0.0000000000000000     
  -1.8310608594927859E-002   1.2185647428862311E-002   0.0000000000000000     
   0.0000000000000000        0.0000000000000000        0.0000000000000000     
  -6.0949014404138753E-003   3.7902685418328384E-003   0.0000000000000000     
  -1.1664390786560131E-002   7.3235536226214709E-003   0.0000000000000000     
  -1.6708468038438763E-002   1.0599855242365896E-002   0.0000000000000000     
  -2.1227133196049779E-002   1.3619173401066116E-002   0.0000000000000000     
  -1.2191802418280037E-002   9.2305141138755379E-003   0.0000000000000000     
  -1.5422927690337035E-002   1.2373233447956395E-002   0.0000000000000000     
  -1.8570716975040581E-002   1.5686772136237429E-002   0.0000000000000000     
  -2.1635170272390675E-002   1.9171130178718642E-002   0.0000000000000000     
  -2.4616287582387316E-002   2.2826307575400030E-002   0.0000000000000000     
  -1.3792943206042987E-002   9.9913177852670228E-003   0.0000000000000000     
  -1.7400122026582615E-002   1.3221496213547387E-002   0.0000000000000000     
  -2.0883808575116306E-002   1.6588302661731436E-002   0.0000000000000000     
  -2.4244002851644075E-002   2.0091737129819161E-002   0.0000000000000000     
  -2.7480704856165904E-002   2.3731799617810564E-002   0.0000000000000000     
  -1.5832545264925595E-002   1.0976362223595947E-002   0.0000000000000000     
  -1.9727482640377693E-002   1.4210765871258654E-002   0.0000000000000000     
  -2.3482635111528389E-002   1.7576039212958777E-002   0.0000000000000000     
  -2.7098002678377687E-002   2.1072182248696291E-002   0.0000000000000000     
  -3.0573585340925587E-002   2.4699194978471225E-002   0.0000000000000000     
  -1.8310608594927859E-002   1.2185647428862311E-002   0.0000000000000000     
  -2.2405009531722267E-002   1.5341042421090195E-002   0.0000000000000000     
  -2.6367196584276820E-002   1.8649981789919438E-002   0.0000000000000000     
  -3.0197169752591523E-002   2.2112465535350047E-002   0.0000000000000000     
  -3.3894929036666369E-002   2.5728493657382015E-002   0.0000000000000000     
  -2.1227133196049779E-002   1.3619173401066116E-002   0.0000000000000000     
  -2.5432702700616337E-002   1.6612325863042007E-002   0.0000000000000000     
  -2.9537492993361600E-002   1.9810130392613437E-002   0.0000000000000000     
  -3.3541504074285571E-002   2.3212586989780411E-002   0.0000000000000000     
  -3.7444735943388249E-002   2.6819695654542928E-002   0.0000000000000000     
  -2.4616287582387316E-002   2.2826307575400030E-002   0.0000000000000000     
  -2.7519673588711983E-002   2.6674651655276990E-002   0.0000000000000000     
  -3.0350932975046156E-002   3.0738509747344898E-002   0.0000000000000000     
  -3.3110065741389832E-002   3.5017881851603774E-002   0.0000000000000000     
  -3.5797071887743025E-002   3.9512767968053586E-002   0.0000000000000000     
  -2.7480704856165904E-002   2.3731799617810564E-002   0.0000000000000000     
  -3.0617445384680232E-002   2.7550317701081007E-002   0.0000000000000000     
  -3.3677755233185495E-002   3.1589118955005852E-002   0.0000000000000000     
  -3.6661634401681707E-002   3.5848203379585074E-002   0.0000000000000000     
  -3.9569082890168854E-002   4.0327570974818691E-002   0.0000000000000000     
  -3.0573585340925587E-002   2.4699194978471225E-002   0.0000000000000000     
  -3.3938889383280470E-002   2.8500738888003814E-002   0.0000000000000000     
  -3.7223421089550748E-002   3.2520475463014301E-002   0.0000000000000000     
  -4.0427180459736409E-002   3.6758404703502702E-002   0.0000000000000000     
  -4.3550167493837444E-002   4.1214526609468997E-002   0.0000000000000000     
  -3.3894929036666369E-002   2.5728493657382015E-002   0.0000000000000000     
  -3.7484005584512710E-002   2.9525915216045404E-002   0.0000000000000000     
  -4.0987930544141897E-002   3.3532579271370280E-002   0.0000000000000000     
  -4.4406703915553916E-002   3.7748485823356645E-002   0.0000000000000000     
  -4.7740325698748795E-002   4.2173634872004491E-002   0.0000000000000000     
  -3.7444735943388249E-002   2.6819695654542928E-002   0.0000000000000000     
  -4.1252793988376946E-002   3.0625846685205786E-002   0.0000000000000000     
  -4.4971283596958941E-002   3.4625430380073770E-002   0.0000000000000000     
  -4.8600204769134257E-002   3.8818446739146896E-002   0.0000000000000000     
  -5.2139557504902886E-002   4.3204895762425158E-002   0.0000000000000000     
  -3.5797071887743025E-002   3.9512767968053586E-002   0.0000000000000000     
  -3.8408057766576041E-002   4.4215681207245242E-002   0.0000000000000000     
  -4.0939129730359236E-002   4.9119134679729594E-002   0.0000000000000000     
  -4.3390287779092589E-002   5.4223128385506650E-002   0.0000000000000000     
  -4.5761531912776113E-002   5.9527662324576402E-002   0.0000000000000000     
  -3.9569082890168854E-002   4.0327570974818691E-002   0.0000000000000000     
  -4.2395305190180289E-002   4.5016026810073204E-002   0.0000000000000000     
  -4.5135505793249354E-002   4.9902375954715077E-002   0.0000000000000000     
  -4.7789684699376042E-002   5.4986618408744317E-002   0.0000000000000000     
  -5.0357841908560366E-002   6.0268754172160925E-002   0.0000000000000000     
  -4.3550167493837444E-002   4.1214526609468997E-002   0.0000000000000000     
  -4.6587207903612565E-002   4.5878965842274973E-002   0.0000000000000000     
  -4.9533127400820443E-002   5.0741847063282379E-002   0.0000000000000000     
  -5.2387925985461103E-002   5.5803170272491216E-002   0.0000000000000000     
  -5.5151603657534527E-002   6.1062935469901498E-002   0.0000000000000000     
  -4.7740325698748795E-002   4.2173634872004491E-002   0.0000000000000000     
  -5.0983765906872855E-002   4.6804498303850535E-002   0.0000000000000000     
  -5.4131994553072528E-002   5.1637548005431473E-002   0.0000000000000000     
  -5.7185011637347745E-002   5.6672783976747340E-002   0.0000000000000000     
  -6.0142817159698568E-002   6.1910206217798101E-002   0.0000000000000000     
  -5.2139557504902886E-002   4.3204895762425158E-002   0.0000000000000000     
  -5.5584979199961193E-002   4.7792624194799876E-002   0.0000000000000000     
  -5.8932107250005562E-002   5.2589478781162387E-002   0.0000000000000000     
  -6.2180941655036001E-002   5.7595459521512689E-002   0.0000000000000000     
  -6.5331482415052503E-002   6.2810566415850783E-002   0.0000000000000000     
  -4.5761531912776113E-002   5.9527662324576402E-002   0.0000000000000000     
  -4.8058961540250744E-002   6.5022702008752584E-002   0.0000000000000000     
  -5.0288676070357474E-002   7.0698212949848890E-002   0.0000000000000000     
  -5.2450675503096275E-002   7.6554195147865323E-002   0.0000000000000000     
  -5.4544959838467161E-002   8.2590648602801880E-002   0.0000000000000000     
  -5.0357841908560366E-002   6.0268754172160925E-002   0.0000000000000000     
  -5.2847476147953307E-002   6.5740066539201086E-002   0.0000000000000000     
  -5.5266086144705816E-002   7.1391838804100979E-002   0.0000000000000000     
  -5.7613671898817907E-002   7.7224070966860597E-002   0.0000000000000000     
  -5.9890233410289602E-002   8.3236763027479940E-002   0.0000000000000000     
  -5.5151603657534527E-002   6.1062935469901498E-002   0.0000000000000000     
  -5.7831793547061631E-002   6.6511469501806211E-002   0.0000000000000000     
  -6.0436128784063355E-002   7.2139099214498376E-002   0.0000000000000000     
  -6.2964609368539676E-002   7.7945824607977970E-002   0.0000000000000000     
  -6.5417235300490623E-002   8.3931645682245010E-002   0.0000000000000000     
  -6.0142817159698568E-002   6.1910206217798101E-002   0.0000000000000000     
  -6.3011913737575739E-002   6.7336910896567972E-002   0.0000000000000000     
  -6.5798803988430091E-002   7.2939994181041093E-002   0.0000000000000000     
  -6.8503487912261574E-002   7.8719456071217511E-002   0.0000000000000000     
  -7.1125965509070230E-002   8.4675296567097158E-002   0.0000000000000000     
  -6.5331482415052503E-002   6.2810566415850783E-002   0.0000000000000000     
  -6.8387836719495651E-002   6.8216390723486370E-002   0.0000000000000000     
  -7.1354111757806010E-002   7.3794523703729159E-002   0.0000000000000000     
  -7.4230307529983594E-002   7.9544965356579136E-002   0.0000000000000000     
  -7.7016424036028416E-002   8.5467715682036330E-002   0.0000000000000000     
  -5.4544959838467161E-002   8.2590648602801880E-002   0.0000000000000000     
  -5.6566653632502711E-002   8.8792647275691847E-002   0.0000000000000000     
  -5.8510881441235507E-002   9.5145265127568518E-002   0.0000000000000000     
  -6.0377643264665548E-002  0.10164850215843189        0.0000000000000000     
  -6.2166939102792820E-002  0.10830235836828195        0.0000000000000000     
  -5.9890233410289602E-002   8.3236763027479940E-002   0.0000000000000000     
  -6.2085937870822894E-002   8.9414866033991638E-002   0.0000000000000000     
  -6.4190952472119797E-002   9.5743331034428295E-002   0.0000000000000000     
  -6.6205277214180347E-002  0.10222215802878991        0.0000000000000000     
  -6.8128912097004529E-002  0.10885134701707649        0.0000000000000000     
  -6.5417235300490623E-002   8.3931645682245010E-002   0.0000000000000000     
  -6.7781869281560339E-002   9.0083034247479835E-002   0.0000000000000000     
  -7.0046374013392990E-002   9.6386462113862773E-002   0.0000000000000000     
  -7.2210749495988602E-002  0.10284192928139380        0.0000000000000000     
  -7.4274995729347135E-002  0.10944943575007293        0.0000000000000000     
  -7.1125965509070230E-002   8.4675296567097158E-002   0.0000000000000000     
  -7.3654447864715047E-002   9.0797151916156504E-002   0.0000000000000000     
  -7.6077146065055071E-002   9.7074658365871994E-002   0.0000000000000000     
  -7.8394060110090258E-002  0.10350781591624358        0.0000000000000000     
  -8.0605189999820678E-002  0.11009662456727130        0.0000000000000000     
  -7.7016424036028416E-002   8.5467715682036330E-002   0.0000000000000000     
  -7.9703673620287033E-002   9.1557219040021620E-002   0.0000000000000000     
  -8.2283268627106013E-002   9.7807919790455930E-002   0.0000000000000000     
  -8.4755209056485370E-002  0.10421981793333923        0.0000000000000000     
  -8.7119494908425119E-002  0.11079291346867157        0.0000000000000000     
  -6.2166939102792820E-002  0.10830235836828195        0.0000000000000000     
  -6.3884615403245831E-002  0.11510905894879978        0.0000000000000000     
  -6.5536518613653075E-002  0.12207082909166644        0.0000000000000000     
  -6.7122648734014537E-002  0.12918766879688198        0.0000000000000000     
  -6.8643005764330217E-002  0.13645957806444634        0.0000000000000000     
  -6.8128912097004529E-002  0.10885134701707649        0.0000000000000000     
  -6.9979052411262524E-002  0.11563304365646995        0.0000000000000000     
  -7.1772893447624608E-002  0.12256939360415221        0.0000000000000000     
  -7.3510435206090713E-002  0.12966039686012326        0.0000000000000000     
  -7.5191677686660893E-002  0.13690605342438311        0.0000000000000000     
  -7.4274995729347135E-002  0.10944943575007293        0.0000000000000000     
  -7.6262435306990908E-002  0.11620845339819354        0.0000000000000000     
  -7.8196390822442188E-002  0.12311845410404899        0.0000000000000000     
  -8.0076862275700988E-002  0.13017943786763927        0.0000000000000000     
  -8.1903849666767281E-002  0.13739140468896435        0.0000000000000000     
  -8.0605189999820678E-002  0.11009662456727130        0.0000000000000000     
  -8.2734764090430957E-002  0.11683528817397057        0.0000000000000000     
  -8.4807010738105856E-002  0.12371801059135680        0.0000000000000000     
  -8.6821929942845322E-002  0.13074479181942997        0.0000000000000000     
  -8.8779521704649395E-002  0.13791563185819011        0.0000000000000000     
  -8.7119494908425119E-002  0.11079291346867157        0.0000000000000000     
  -8.9396038761582697E-002  0.11751354798380101        0.0000000000000000     
  -9.1604753194615585E-002  0.12436806306607559        0.0000000000000000     
  -9.3745638207523740E-002  0.13135645871549539        0.0000000000000000     
  -9.5818693800307206E-002  0.13847873493206034        0.0000000000000000     
  -6.8643005764330217E-002  0.13645957806444634        0.0000000000000000     
  -7.0180519928706761E-002  0.14382132227608541        0.0000000000000000     
  -7.1818121451250827E-002  0.15120766681352513        0.0000000000000000     
  -7.3555810331962374E-002  0.15861861167676541        0.0000000000000000     
  -7.5393586570841470E-002  0.16605415686580632        0.0000000000000000     
  -7.5191677686660893E-002  0.13690605342438311        0.0000000000000000     
  -7.6825091789965383E-002  0.14426034508250954        0.0000000000000000     
  -7.8419148416634443E-002  0.15167725362008019        0.0000000000000000     
  -7.9973847566668088E-002  0.15915677903709524        0.0000000000000000     
  -8.1489189240066304E-002  0.16669892133355457        0.0000000000000000     
  -8.1903849666767281E-002  0.13739140468896435        0.0000000000000000     
  -8.3648467087707207E-002  0.14472272809672845        0.0000000000000000     
  -8.5281828630586920E-002  0.15214178161963574        0.0000000000000000     
  -8.6803934295406365E-002  0.15964856525768620        0.0000000000000000     
  -8.8214784082165570E-002  0.16724307901087979        0.0000000000000000     
  -8.8779521704649395E-002  0.13791563185819011        0.0000000000000000     
  -9.0650645821932288E-002  0.14520847131874232        0.0000000000000000     
  -9.2406162093108216E-002  0.15260125081219167        0.0000000000000000     
  -9.4046070518177219E-002  0.16009397033853823        0.0000000000000000     
  -9.5570371097139270E-002  0.16768662989778194        0.0000000000000000     
  -9.5818693800307206E-002  0.13847873493206034        0.0000000000000000     
  -9.7831627992640557E-002  0.14571757474855104        0.0000000000000000     
  -9.9792148804198358E-002  0.15305566119774805        0.0000000000000000     
 -0.10170025623498065       0.16049299427965144        0.0000000000000000     
 -0.10355595028498737       0.16802957399426111        0.0000000000000000     
 </DataArray>
 <DataArray  type="Float64" Name="stress" NumberOfComponents="3" format="ascii">
   13418001297.470232        4025400389.2410698        2893084756.9037352     
   11769054576.528347        1890449920.4731886        1715312478.2076046     
   10317442871.473911        413282837.99680138        810422911.04079592     
   9063166182.3069210       -406100858.18809319        178416055.40330935     
   8006224509.0273819       -567701168.08149672       -180708088.70485547     
   10542640174.469563        3162792052.3408689        2224526836.3907928     
   9670970949.8272915        1589874970.3913198        1445738852.0374117     
   8948000832.1273174        512621578.24943447        862273910.19633412     
   8373729821.3696461       -68968124.084784508        474132010.86756122     
   7948157917.5542736       -154894136.61133862        281313154.05109167     
   8341310167.2800541        2502393050.1840162        1710820685.0426924     
   8025319384.6030579        1425029638.7524974        1274275101.2627213     
   7809391799.9232111        681210220.64481473        955492890.97803617     
   7693527413.2405186        270934795.86097002        754474054.18863595     
   7677726224.5549736        194203364.40096092        671218590.89452183     
   6814011275.9017048        2044203382.7705116        1351966302.8594344     
   6832099880.8556452        1395913925.5567212        1200921225.8835337     
   6901615774.8615894        919048765.18294024        1090079853.3858998     
   7022558957.9195366        613607901.64916849        1019442185.3665336     
   7194929430.0294847        479591334.95540500        989008221.82543492     
   5960743500.3345175        1788223050.1003551        1147963689.8410182     
   6091312438.5850582        1502527830.8039927        1225677225.8998473     
   6224672756.9424524        1226137211.8638105        1266034797.4199259     
   6360824455.4067011        959051193.27981019        1269036404.4012537     
   6499767533.9778061        701269775.05199194        1234682046.8438308     
   8006224509.0273819       -567701168.08149672       -180708088.70485547     
   7925044733.3131676       -200208627.64622211       -78613396.687683851     
   7802374522.6295805        28982462.891133785       -9197660.0254804492     
   7638213876.9766169        119872103.53057146        27539121.281761698     
   7432562796.3542795        72460294.272094727        31596947.234036908     
   7948157917.5542736       -154894136.61133862        281313154.05109167     
   7746412800.7246828        16369413.915931702        280178532.90793675     
   7521270682.6394501        109642960.25772238        264263910.08669010     
   7272731563.2985706        124926502.41402626        233569285.58734748     
   7000795442.7020473        62220040.384844780        188094659.40991330     
   7677726224.5549736        194203364.40096092        671218590.89452183     
   7406555634.2582169        184579885.31469727        587963662.59039307     
   7130081476.4195452        157277847.75538015        507827686.28504288     
   6848303751.0389566        112297251.72301149        430810661.97847337     
   6561222458.1164484        49638097.217589617        356912589.67068213     
   7194929430.0294847        479591334.95540500        989008221.82543492     
   6905473233.9137669        304422786.55006552        844741992.35968244     
   6628806903.9698601        171887125.38410330        721493668.56958222     
   6364930440.1977692        81984351.457525492        619263250.45513296     
   6113843842.5974922        34714464.770326614        538050738.01633668     
   6499767533.9778061        701269775.05199194        1234682046.8438308     
   6243165599.6913300        375898117.62203574        1050513522.2158071     
   6017446965.2903986        153470793.14389420        905261856.94030821     
   5822611630.7750092        33987801.617566347        798927051.01733124     
   5658659596.1451664        17449143.043051958        731509104.44687998     
   7432562796.3542795        72460294.272094727        31596947.234036908     
   7230556594.9500113       -18303860.483891487        14703505.095252473     
   7040735899.3307714       -68449662.623113632        2154389.7918163901     
   6863100709.4965591       -77977112.145582199       -6050398.6762625352     
   6697651025.4473705       -46886209.051294327       -9910860.3089934289     
   7000795442.7020473        62220040.384844780        188094659.40991330     
   6818708682.7947454        2791711.6560549736        179820620.04273188     
   6644407929.6993237       -30683261.033141613        175293556.67774212     
   6477893183.4157810       -38204877.682735920        174513469.31494284     
   6319164443.9441156       -19773138.292737722        177480357.95433789     
   6561222458.1164484        49638097.217589617        356912589.67068213     
   6397348423.0399418        21033579.516138077        352125204.27309829     
   6236860895.8021669        3717421.2771253586        350487444.04454249     
   6079759876.4031200       -2310377.4994499683        351999308.98502219     
   5926045364.8428049        2950183.1864080429        356660799.09453046     
   6113843842.5974922        34714464.770326614        538050738.01633668     
   5966475815.6856022        36421743.096363544        531617257.78634328     
   5818094797.6392956        34752384.307679415        527736051.89222151     
   5668700788.4585743        29706388.404264450        526407120.33396804     
   5518293788.1434288        21283755.386129618        527630463.11158854     
   5658659596.1451664        17449143.043051958        731509104.44687998     
   5526090860.7317238        48956202.396725655        718296780.58247268     
   5388109635.2107143        62421628.058513880        707039380.22077465     
   5244715919.5821390        57845420.028416872        697736903.36178887     
   5095909713.8460016        35227578.306438923        690389350.00551093     
   6697651025.4473705       -46886209.051294327       -9910860.3089934289     
   6524028979.7538834       -7563522.8927745819       -3915104.4444542155     
   6345265488.6429529        14621011.874285221        3515112.2533761272     
   6161360552.1145916        19667395.249903679        12379789.784505285     
   5972314170.1687984        7575627.2340800762        22678928.148923010     
   6319164443.9441156       -19773138.292737722        177480357.95433789     
   6145416609.6730490        1310492.9753193855        174188322.02869582     
   5968602078.6898088        12171801.869465590        173574077.49249750     
   5788720850.9943800        12810788.389656067        175637624.34575373     
   5605772926.5867805        3227452.5359280109        180378962.58845216     
   5926045364.8428049        2950183.1864080429        356660799.09453046     
   5755724115.0117483        6860471.4692859650        346501511.53483480     
   5584410917.1737728        7464266.3957579136        340263345.92074072     
   5412105771.3288717        4761567.9658229351        337946302.25225359     
   5238808677.4770527       -1247623.8205199242        339550380.52937043     
   5518293788.1434288        21283755.386129618        527630463.11158854     
   5354951495.7699728        9086412.5891070366        513024464.07397479     
   5192692004.0948534        498405.45319867134        503582917.53811562     
   5031515313.1180658       -4480266.0216019154        499305823.50401765     
   4871421422.8396091       -5849601.8352894783        500193181.97167724     
   5095909713.8460016        35227578.306438923        690389350.00551093     
   4943098751.9477291        7988316.3347849846        673757179.64610779     
   4793445339.4530478       -8725780.9582288265        663532792.34461808     
   4646949476.3619547       -14914713.572619915        659716188.10104418     
   4503611162.6744547       -10578481.508373737        662307366.91538250     
   5972314170.1687984        7575627.2340800762        22678928.148923010     
   5793928171.7562952       -5281516.4721000195        16136662.559923520     
   5618070328.1566000       -9711477.4689335823        14085457.439665211     
   5444740639.3697214       -5714255.7563762665        16525312.788152890     
   5273939105.3956528        6710148.6655550003        23456228.605365738     
   5605772926.5867805        3227452.5359280109        180378962.58845216     
   5440498181.8397255       -3386330.9151601791        175886572.63688907     
   5276752286.6649265       -4903949.1253871918        175547926.51576278     
   5114535241.0623970       -1325402.0947306156        179363024.22506347     
   4953847045.0321283        7349310.1768047810        187331865.76479232     
   5238808677.4770527       -1247623.8205199242        339550380.52937043     
   5085681424.5716944       -1907175.5636558533        335942010.10127449     
   4933083715.9980545       -801579.53440594673        336150066.86530679     
   4781015551.7561350        2069164.2672472000        340174550.82145768     
   4629476931.8459244        6705055.8412740231        348015461.96972406     
   4871421422.8396091       -5849601.8352894783        500193181.97167724     
   4729477899.9522123       -844050.41758155823        496302974.95308459     
   4587064616.1559868        2595631.3040223122        495891878.48829979     
   4444181571.4509268        4469443.3295280933        498959892.57732087     
   4300828765.8370399        4777385.6589236259        505507017.22015369     
   4503611162.6744547       -10578481.508373737        662307366.91538250     
   4371887607.9812765       -196955.47694015503        656969467.19231069     
   4238694987.1387148        5287683.3898868561        654773361.38473845     
   4104033300.1467791        5875435.0921325684        655719049.49266171     
   3967902547.0054665        1566299.6297767162        659806531.51608491     
   5273939105.3956528        6710148.6655550003        23456228.605365738     
   5064531303.5495253        9032897.7290134430        15847665.126582900     
   4853571319.4201260        6181705.8482325077        11233256.460793009     
   4641059153.0074759       -1843426.9767270088        9613002.6079928633     
   4426994804.3115520       -15042500.745912552        10986903.568176698     
   4953847045.0321283        7349310.1768047810        187331865.76479232     
   4751632981.6585407        4380439.4171261787        177125099.47624367     
   4548426888.8259373       -1895196.2059290409        170678966.38969943     
   4344228766.5343409       -11477596.692306995        167993466.50513488     
   4139038614.7837229       -24366762.042076111        169068599.82257921     
   4629476931.8459244        6705055.8412740231        348015461.96972406     
   4436646545.1991701       -898453.26526808739        335864004.49971366     
   4243384281.9176660       -9941551.1543083191        328239658.62070215     
   4049690142.0014110       -20424237.825838566        325142424.33269167     
   3855564125.4504042       -32346513.279886484        326572301.63567817     
   4300828765.8370399        4777385.6589236259        505507017.22015369     
   4119571994.1714168       -6803780.3181622028        492064380.19697958     
   3938443498.6952958       -17957358.996927261        483915333.15381259     
   3757443279.4086933       -28683350.377300024        481059876.09064329     
   3576571336.3115830       -38981754.459347725        483498009.00747770     
   3967902547.0054665        1566299.6297767162        659806531.51608491     
   3800409328.5752726       -13335541.741600275        645726226.56804919     
   3633604539.1588469       -25942619.733750343        637705989.98901761     
   3467488178.7561798       -36254934.346706867        635745821.77899492     
   3302060247.3672767       -44272485.580458164        639845721.93798208     
   4426994804.3115520       -15042500.745912552        10986903.568176698     
   4298893772.0999775       -1857897.7302150726        12206337.949430909     
   4172737020.0878730        17807639.283707142        20375981.332842164     
   4048524548.2752266        43954110.295825481        35495833.718416870     
   3926256356.6620436        76581515.306154728        57565895.106128126     
   4139038614.7837229       -24366762.042076111        169068599.82257921     
   4027462983.7060137       -8862540.4259641171        172826400.76966903     
   3917083138.6350121        10627634.545844316        181810543.14055729     
   3807899079.5707173        34103762.873338223        196021026.93524790     
   3699910806.5131273        61565844.556503057        215457852.15373826     
   3855564125.4504042       -32346513.279886484        326572301.63567817     
   3755588559.5684128       -16000273.844774961        331995225.92371231     
   3656060285.5003643        1836938.3034667969        340920624.05719310     
   3556979303.2462673        21165123.164875746        353348496.03612691     
   3458345612.8060999        41984280.739404917        369278841.86050934     
   3576571336.3115830       -38981754.459347725        483498009.00747770     
   3483270499.6871662       -23271097.986694098        489712813.41157168     
   3389668460.6839228       -8564449.4434494972        497706224.08276045     
   3295765219.3018656        5138191.1704175472        507478241.02104509     
   3201560775.5409946        17836823.854889989        519028864.22642303     
   3302060247.3672767       -44272485.580458164        639845721.93798208     
   3210508804.0622663       -30675012.851724505        645979163.23324525     
   3117907664.1856809       -20576528.694918275        652167343.21725166     
   3024256827.7375236       -13977033.110019088        658410261.89000428     
   2929556294.7177849       -10876526.097056150        664707919.25149059     
   3926256356.6620436        76581515.306154728        57565895.106128126     
   3698606155.2121096        69253563.471983433        48538608.014180563     
   3463512275.3911667        37113350.401090860        36776905.605570354     
   3220974717.1992178       -19839123.906476140        22280787.880316708     
   2970993480.6362724       -101603859.45069933        5050254.8384055393     
   3699910806.5131273        61565844.556503057        215457852.15373826     
   3469513529.8593936        48771174.739858389        197013375.18329227     
   3235590324.0642643        24223407.785189152        180451729.06099135     
   2998141189.1277328       -12077456.307463646        165772913.78683865     
   2757166125.0498042       -60131417.538094878        152976929.36085534     
   3458345612.8060999        41984280.739404917        369278841.86050934     
   3238393392.8480330        27680532.510146499        345987882.44609094     
   3018832992.9781628        14682851.241562366        329197000.04462337     
   2799664413.1964846        2991236.9336200953        318906194.65612358     
   2580887653.5030103       -7394310.4136551619        315115466.28057909     
   3201560775.5409946        17836823.854889989        519028864.22642303     
   3005245744.1780195        5981636.7828557491        495462129.80257618     
   2813240282.1328464        8491680.7701469660        483012718.55648518     
   2625544389.4054713        25366955.816767693        481680630.48816150     
   2442158065.9958968        56607461.922722459        491465865.59760052     
   2929556294.7177849       -10876526.097056150        664707919.25149059     
   2770070583.8493614       -16325512.442028761        645436117.25274396     
   2618812191.5283270        5649896.3709690571        641898884.59656799     
   2475781117.7546983        55049700.341996789        654096221.28294921     
   2340977362.5284724        131873899.47100639        682028127.31191003     
   5960743500.3345175        1788223050.1003551        1147963689.8410182     
   6091312438.5850582        1502527830.8039927        1225677225.8998473     
   6224672756.9424524        1226137211.8638105        1266034797.4199259     
   6360824455.4067011        959051193.27981019        1269036404.4012537     
   6499767533.9778061        701269775.05199194        1234682046.8438308     
   5436486784.2296019        1630946035.2688806        1031187253.2154205     
   5491910966.6624069        1372818874.5991027        1111500520.6243217     
   5549566068.5149250        1122128111.9950416        1165004234.5675793     
   5609452089.7871599        878873747.45669746        1191698395.0451949     
   5671569030.4791098        643055780.98407030        1191583002.0571678     
   4896221071.2380733        1468866321.3714221        934011400.21061778     
   4906633100.9191647        1247347000.2480359        1016270528.1679275     
   4918715589.3328323        1031395874.8999023        1082266513.7327025     
   4932468536.4790764        821012945.32702160        1131999356.9049430     
   4947891942.3578959        616198211.52939355        1165469057.6846499     
   4339946361.3599300        1301983908.4079790        856436130.82661021     
   4335478841.3553333        1126112207.7507920        939987248.53066611     
   4332121319.3961716        953940500.57839298        1017821634.9152958     
   4329873795.4824486        785468786.89078259        1089939289.9804993     
   4328736269.6141605        620697066.68795979        1156340213.7262766     
   3767662654.5951729        1130298796.3785517        798461445.06339741     
   3778448187.9709096        1009114497.1073707        882650681.71253741     
   3789783258.7049441        889761989.03051341        971669598.11535883     
   3801667866.7972760        772241272.14798045        1065518194.2718624     
   3814102012.2479048        656552346.45977080        1164196470.1820486     
   6499767533.9778061        701269775.05199194        1234682046.8438308     
   6243165599.6913300        375898117.62203574        1050513522.2158071     
   6017446965.2903986        153470793.14389420        905261856.94030821     
   5822611630.7750092        33987801.617566347        798927051.01733124     
   5658659596.1451664        17449143.043051958        731509104.44687998     
   5671569030.4791098        643055780.98407030        1191583002.0571678     
   5521684381.2883215        383608890.54762006        1070606082.0632801     
   5395923682.7883663        204575169.08061504        977589114.25351036     
   5294286934.9792442        105954616.58305383        912532098.62786007     
   5216774137.8609571        87747233.054938078        875435035.18632710     
   4947891942.3578959        616198211.52939355        1165469057.6846499     
   4873419129.2102070        413284453.37067151        1099797834.9310677     
   4816310917.5586395        268252700.19902563        1051129657.1931995     
   4776567307.4031963        181102952.01445532        1019464524.4710447     
   4754188298.7438774        151835208.81696177        1004802436.7646033     
   4328736269.6141605        620697066.68795979        1156340213.7262766     
   4298369843.4569845        464924806.09119141        1138088780.8191721     
   4278608669.6012225        344503386.49912930        1125883485.7593756     
   4269452748.0468707        259432807.91177440        1119724328.5468867     
   4270902078.7939320        209713070.32912612        1119611309.1817067     
   3814102012.2479048        656552346.45977080        1164196470.1820486     
   3796536524.0286574        538529948.70917881        1185478919.7275922     
   3782816938.9161100        433327227.98092580        1201850599.9520373     
   3772943256.9102631        340944184.27500761        1213311510.8553863     
   3766915478.0111203        261380817.59143078        1219861652.4376388     
   5658659596.1451664        17449143.043051958        731509104.44687998     
   5526090860.7317238        48956202.396725655        718296780.58247268     
   5388109635.2107143        62421628.058513880        707039380.22077465     
   5244715919.5821390        57845420.028416872        697736903.36178887     
   5095909713.8460016        35227578.306438923        690389350.00551093     
   5216774137.8609571        87747233.054938078        875435035.18632710     
   5081925391.1667395        85629617.565731764        851599965.63265789     
   4944902508.8882933        76264883.462436914        831815658.09327137     
   4805705491.0256233        59653030.745055676        816082112.56816614     
   4664334337.5787277        35794059.413589716        804399329.05734253     
   4754188298.7438774        151835208.81696177        1004802436.7646033     
   4623047650.8019476        117889351.49479294        974122701.79889977     
   4492971221.7991323        87490890.636335611        949589567.35905337     
   4363959011.7354326        60639826.241591215        931203033.44506037     
   4236011020.6108422        37336158.310557127        918963100.05692315     
   4270902078.7939320        209713070.32912612        1119611309.1817067     
   4149457639.6373577        145735404.18391633        1085864989.0812006     
   4032315773.9432344        96099649.580213785        1060361108.0181223     
   3919476481.7115660        60805806.518023014        1043099665.9924710     
   3810939762.9423485        39853874.997342825        1034080663.0042471     
   3766915478.0111203        261380817.59143078        1219861652.4376388     
   3661155357.6729612        169167775.63309669        1186826827.4795587     
   3562936165.3205957        102091160.29407012        1164130280.0704784     
   3472257900.9540224        60150971.574355125        1151772010.2103982     
   3389120564.5732422        43347209.473944068        1149752017.8993163     
   5095909713.8460016        35227578.306438923        690389350.00551093     
   4943098751.9477291        7988316.3347849846        673757179.64610779     
   4793445339.4530478       -8725780.9582288265        663532792.34461808     
   4646949476.3619547       -14914713.572619915        659716188.10104418     
   4503611162.6744547       -10578481.508373737        662307366.91538250     
   4664334337.5787277        35794059.413589716        804399329.05734253     
   4529087528.4184637        13996726.002120256        791821557.04948556     
   4396162767.7879248       -60445.643603324890        785091059.03752232     
   4265560055.6871099       -6377455.5235803127        784207835.02145755     
   4137279392.1160164       -4954303.6378149986        789171885.00128913     
   4236011020.6108422        37336158.310557127        918963100.05692315     
   4116726909.7256827        20500317.120393276        909464975.38109815     
   3998929346.4963827        8619634.7830941677        905253615.63915408     
   3882618330.9229369        1694111.2986543179        906329020.83109021     
   3767793863.0053530       -276253.33292174339        912691190.95690632     
   3810939762.9423485        39853874.997342825        1034080663.0042471     
   3706016895.8693843        27499089.689614773        1026687434.6409467     
   3601745075.5784144        17314460.321863651        1024020462.1495113     
   3498124302.0694389        9299986.8940947056        1026079745.5299393     
   3395154575.3424568        3455669.4063014984        1032865284.7822309     
   3389120564.5732422        43347209.473944068        1149752017.8993163     
   3296957486.8495717        34993043.709780574        1143488934.8290322     
   3204609955.0340285        26024030.972710848        1141391598.5685961     
   3112077969.1266146        16440171.262736440        1143460009.1180065     
   3019361529.1273284        6241464.5798517466        1149694166.4772613     
   4503611162.6744547       -10578481.508373737        662307366.91538250     
   4371887607.9812765       -196955.47694015503        656969467.19231069     
   4238694987.1387148        5287683.3898868561        654773361.38473845     
   4104033300.1467791        5875435.0921325684        655719049.49266171     
   3967902547.0054665        1566299.6297767162        659806531.51608491     
   4137279392.1160164       -4954303.6378149986        789171885.00128913     
   4013069649.4886436        344174.01115107536        781874113.86840689     
   3888287781.0656643        3735565.6747560501        778387415.42044568     
   3762933786.8470726        5219871.3530001640        778711789.65740609     
   3637007666.8328810        4797091.0458939075        782847236.57928586     
   3767793863.0053530       -276253.33292174339        912691190.95690632     
   3653010157.4992790        512843.45022416115        904479978.82694530     
   3538551266.5513682        2384655.4272475243        900749118.15132797     
   3424417190.1616211        5339182.5981502533        901498608.93005621     
   3310607928.3300366        9376424.9629349709        906728451.16312444     
   3395154575.3424568        3455669.4063014984        1032865284.7822309     
   3291709132.0131745        309052.84027791023        1024787062.0679233     
   3189485443.5958281        1234952.6473662853        1021858469.5773864     
   3088483510.0904136        6233368.8275754452        1024079507.3106118     
   2988703331.4969416        15304301.380905032        1031450175.2676048     
   3019361529.1273284        6241464.5798517466        1149694166.4772613     
   2929166573.0303330       -267197.81869363785        1142795363.5913448     
   2841090312.1990414        286457.33511233330        1141715469.6986141     
   2755132746.6334548        7902430.0412656069        1146454484.7990739     
   2671293876.3335795        22580720.299788117        1157012408.8927248     
   3967902547.0054665        1566299.6297767162        659806531.51608491     
   3800409328.5752726       -13335541.741600275        645726226.56804919     
   3633604539.1588469       -25942619.733750343        637705989.98901761     
   3467488178.7561798       -36254934.346706867        635745821.77899492     
   3302060247.3672767       -44272485.580458164        639845721.93798208     
   3637007666.8328810        4797091.0458939075        782847236.57928586     
   3486121603.7968879       -4319753.9951827526        770271476.74225199     
   3335012447.7691922       -14180242.341933489        763075384.30168045     
   3183680198.7497940       -24784373.994358301        761258959.25757337     
   3032124856.7386861       -36132148.952475905        764822201.60992277     
   3310607928.3300366        9376424.9629349709        906728451.16312444     
   3174385017.9095445        5461375.4185502529        894593794.09738505     
   3037027492.4918804       -2235724.1163971424        887158403.45556283     
   2898535352.0770459       -13714873.641918302        884422279.23765802     
   2758908596.6650405       -28976073.158008456        886385421.44366848     
   2988703331.4969416        15304301.380905032        1031450175.2676048     
   2865199570.9132433        16007846.499595761        1018693178.6334460     
   2739649673.3269081        9890934.9428309202        1009955047.4506596     
   2612053638.7379389       -3046433.2893828154        1005235781.7192447     
   2482411467.1463280       -22804258.197060347        1004535381.4392029     
   2671293876.3335795        22580720.299788117        1157012408.8927248     
   2558565262.8079782        27319659.247945666        1142569630.3504353     
   2442878990.2742758        22199734.835767865        1131465316.2869785     
   2324235058.7324672        7220947.0632392168        1123699466.7023451     
   2202633468.1825585       -17616704.069632649        1119272081.5965345     
   3302060247.3672767       -44272485.580458164        639845721.93798208     
   3210508804.0622663       -30675012.851724505        645979163.23324525     
   3117907664.1856809       -20576528.694918275        652167343.21725166     
   3024256827.7375236       -13977033.110019088        658410261.89000428     
   2929556294.7177849       -10876526.097056150        664707919.25149059     
   3032124856.7386861       -36132148.952475905        764822201.60992277     
   2941362252.2660179       -28310556.089379430        770598548.85512042     
   2851436947.3079123       -17697964.844395876        778259851.86697769     
   2762348941.8643723       -4294375.2175276279        787806110.64550138     
   2674098235.9354062        11900212.791242361        799237325.19068682     
   2758908596.6650405       -28976073.158008456        886385421.44366848     
   2674164022.6759048       -25361602.665199637        894006170.07262993     
   2592143744.2874765       -12666146.836687446        905342091.54617834     
   2512847761.4997649        9110294.3275337219        920393185.86430752     
   2436276074.3127613        39967720.827461123        939159453.02702260     
   2482411467.1463280       -22804258.197060347        1004535381.4392029     
   2408914115.2919307       -21828152.579171777        1016202026.8857678     
   2340028055.1243844       -5481074.6717739105        1033414062.2548375     
   2275753286.6436982        26236975.525160432        1056171487.5464127     
   2216089809.8498697        73325998.011605859        1084474302.7604895     
   2202633468.1825585       -17616704.069632649        1119272081.5965345     
   2145612530.1140969       -17710205.831306815        1137186119.2945437     
   2095089879.8186336        3857251.6503492594        1162475763.9929681     
   2051065517.2961717        47085668.375341892        1195141015.6918204     
   2013539442.5467145        111975044.34367490        1235181874.3910999     
   2929556294.7177849       -10876526.097056150        664707919.25149059     
   2770070583.8493614       -16325512.442028761        645436117.25274396     
   2618812191.5283270        5649896.3709690571        641898884.59656799     
   2475781117.7546983        55049700.341996789        654096221.28294921     
   2340977362.5284724        131873899.47100639        682028127.31191003     
   2674098235.9354062        11900212.791242361        799237325.19068682     
   2551666988.3783073        23036406.213778973        789050776.63082874     
   2431824222.3410606        42800871.369148850        787805742.86768913     
   2314569937.8236699        71193608.257370949        795502223.90127039     
   2199904134.8261318        108214616.87845576        812140219.73157537     
   2436276074.3127613        39967720.827461123        939159453.02702260     
   2331490562.7931490        61866475.835345149        931479514.70724261     
   2223654695.7658520        73597379.150933623        925948036.63834226     
   2112768473.2308569        75160430.774216413        922565018.82031631     
   1998831895.1881738        66555630.705199838        921330461.25317085     
   2216089809.8498697        73325998.011605859        1084474302.7604895     
   2109541307.0938954        100164696.42269456        1072722331.4819924     
   1994303611.8026912        98039419.716338992        1056325765.9085275     
   1870376723.9762528        66950167.892524719        1035284606.0400931     
   1737760643.6145685        6896940.9512566328        1009598851.8766860     
   2013539442.5467145        111975044.34367490        1235181874.3910999     
   1885819221.2805400        137931067.97579998        1212779226.9550767     
   1743770970.4515915        116126993.06535834        1178938930.6782453     
   1587394690.0598600        46562819.612291873        1133660985.5605962     
   1416690380.1053500       -70761452.383364081        1076945391.6021345     
   3767662654.5951729        1130298796.3785517        798461445.06339741     
   3778448187.9709096        1009114497.1073707        882650681.71253741     
   3789783258.7049441        889761989.03051341        971669598.11535883     
   3801667866.7972760        772241272.14798045        1065518194.2718624     
   3814102012.2479048        656552346.45977080        1164196470.1820486     
   3206512449.2910857        961953734.78732574        754881150.60351515     
   3234279673.3179131        868449403.92563999        851114528.18790853     
   3261736749.3300157        773911246.34820509        949193379.96342087     
   3288883677.3273945        678339262.05502129        1049117705.9300529     
   3315720457.3100476        581733451.04608810        1150887506.0878036     
   2683638243.7949548        805091473.13848650        720489055.12949896     
   2719860856.8655505        736709220.20409930        827763607.38062036     
   2754913636.5483994        664427522.64389014        933899428.26029801     
   2788796582.8435011        588246380.45785880        1038896517.7685320     
   2821509695.7508559        508165793.64600539        1142754875.9053226     
   2199040038.1067810        659712011.43203425        695285158.64134836     
   2235191738.6138215        613893945.94274867        812597919.29067242     
   2269313920.3600922        561310817.91756809        925787743.00599003     
   2301406583.3455963        501962627.35649312        1034854629.7873013     
   2331469727.5703301        435849374.25952226        1139798579.6346059     
   1752717832.2265618        525815349.66796857        679269461.13906384     
   1780272318.5627246        500003581.14158785        805617463.91806519     
   1804937600.7650971        464561132.16923964        924858324.20049727     
   1826713678.8336792        419488002.75092316        1036992041.9863595     
   1845600552.7684710        364784192.88663948        1142018617.2756524     
   3814102012.2479048        656552346.45977080        1164196470.1820486     
   3796536524.0286574        538529948.70917881        1185478919.7275922     
   3782816938.9161100        433327227.98092580        1201850599.9520373     
   3772943256.9102631        340944184.27500761        1213311510.8553863     
   3766915478.0111203        261380817.59143078        1219861652.4376388     
   3315720457.3100476        581733451.04608810        1150887506.0878036     
   3290962793.3818812        474771796.42111814        1178892593.0644524     
   3269892743.1105566        380102187.31895101        1203723527.3263481     
   3252510306.4960713        297724623.73958588        1225380308.8734925     
   3238815483.5384278        227639105.68302274        1243862937.7058847     
   2821509695.7508559        508165793.64600539        1142754875.9053226     
   2794521617.8461866        413753410.66638231        1177297929.2882388     
   2771062864.1484976        331105441.71002579        1210403446.5627475     
   2751133434.6577878        260221886.77693546        1242071427.7288501     
   2734733329.3740592        201102745.86711276        1272301872.7865441     
   2331469727.5703301        435849374.25952226        1139798579.6346059     
   2307212997.4215727        355474791.44496983        1180694928.3989520     
   2286327302.0299344        286336991.15414906        1221890357.6612363     
   2268812641.3954134        228435973.38705826        1263384867.4214592     
   2254669015.5180140        181771738.14369905        1305178457.6796181     
   1845600552.7684710        364784192.88663948        1142018617.2756524     
   1829036932.1080387        299935938.75688237        1189083590.3965919     
   1815686056.7548642        245796835.65131962        1238184260.6218135     
   1805547926.7089491        202366883.56995374        1289320627.9513192     
   1798622541.9702926        169646082.51278323        1342492692.3851061     
   3766915478.0111203        261380817.59143078        1219861652.4376388     
   3661155357.6729612        169167775.63309669        1186826827.4795587     
   3562936165.3205957        102091160.29407012        1164130280.0704784     
   3472257900.9540224        60150971.574355125        1151772010.2103982     
   3389120564.5732422        43347209.473944068        1149752017.8993163     
   3238815483.5384278        227639105.68302274        1243862937.7058847     
   3162200847.2188497        153343182.52757764        1225926879.5706890     
   3091568183.3367376        98987167.497019529        1215937427.2539673     
   3026917491.8920918        64571060.591348290        1213894580.7557163     
   2968248772.8849115        50094861.810559988        1219798340.0759406     
   2734733329.3740592        201102745.86711276        1272301872.7865441     
   2680430829.2715583        142673937.17410564        1267645800.0011852     
   2630551346.0581965        98988518.111563087        1268544661.3037734     
   2585094879.7339740        70046488.679485083        1274998456.6943085     
   2544061430.2988915        55847848.877870321        1287007186.1727891     
   2254669015.5180140        181771738.14369905        1305178457.6796181     
   2215845303.8310843        137160039.57267702        1311983588.7710483     
   2179885653.4849701        102095212.13770068        1321951982.2198989     
   2146790064.4796672        76577255.838765860        1335083638.0261707     
   2116558536.8151760        60606170.675871611        1351378556.1898587     
   1798622541.9702926        169646082.51278323        1342492692.3851061     
   1768444270.8974330        136801489.72329801        1358940245.8802791     
   1739571105.6170595        108307249.57543421        1376159390.0023429     
   1712003046.1291726        84163362.069190621        1394150124.7513013     
   1685740092.4337704        64369827.204564869        1412912450.1271541     
   3389120564.5732422        43347209.473944068        1149752017.8993163     
   3296957486.8495717        34993043.709780574        1143488934.8290322     
   3204609955.0340285        26024030.972710848        1141391598.5685961     
   3112077969.1266146        16440171.262736440        1143460009.1180065     
   3019361529.1273284        6241464.5798517466        1149694166.4772613     
   2968248772.8849115        50094861.810559988        1219798340.0759406     
   2885609128.6808438        37846204.812448978        1212346831.4823971     
   2803197722.5943031        26358341.539426088        1208954022.9173083     
   2721014554.6252894        15631271.991491914        1209619914.3806691     
   2639059624.7738037        5664996.1686521769        1214344505.8724809     
   2544061430.2988915        55847848.877870321        1287007186.1727891     
   2470639371.6675801        39612946.261755824        1278848726.3002892     
   2397858243.3631964        25514478.068725228        1274641919.6748426     
   2325718045.3857393        13552444.298785448        1274386766.2964501     
   2254218777.7352066        3726844.9519281387        1278083266.1651173     
   2116558536.8151760        60606170.675871611        1351378556.1898587     
   2052048215.8097789        40293268.057699323        1342994619.2826979     
   1988591517.3407071        23492440.560612202        1338455288.8411977     
   1926188441.4079597        10203688.184603930        1337760564.8653557     
   1864838988.0115387        427010.92968523502        1340910447.3551748     
   1685740092.4337704        64369827.204564869        1412912450.1271541     
   1629835661.1074419        39887170.200286627        1404784510.4296324     
   1575397544.5268359        20292229.015080452        1400394130.4163740     
   1522425742.6919563        5585003.6489627957        1399741310.0873783     
   1470920255.6027977       -4234505.8980830312        1402826049.4426486     
   3019361529.1273284        6241464.5798517466        1149694166.4772613     
   2929166573.0303330       -267197.81869363785        1142795363.5913448     
   2841090312.1990414        286457.33511233330        1141715469.6986141     
   2755132746.6334548        7902430.0412656069        1146454484.7990739     
   2671293876.3335795        22580720.299788117        1157012408.8927248     
   2639059624.7738037        5664996.1686521769        1214344505.8724809     
   2563634932.1420765       -148351.10102832317        1207585363.9210010     
   2489428500.7690201       -1900827.5084700584        1206208596.7660310     
   2416440330.6546340        407566.94632220268        1210214204.4075751     
   2344670421.7989211        6776832.2633551359        1219602186.8456256     
   2254218777.7352066        3726844.9519281387        1278083266.1651173     
   2192317108.0068092       -1765359.3574675322        1270413278.8065374     
   2130733265.5300469       -6198139.4947425127        1267689132.0477886     
   2069467250.3049202       -9571495.4598988295        1269910825.8888702     
   2008519062.3314335       -11885427.252928495        1277078360.3297861     
   1864838988.0115387        427010.92968523502        1340910447.3551748     
   1815213100.6245317       -5118222.5880092382        1331279108.2479496     
   1765004606.4821258       -12605478.623695493        1326157075.5438790     
   1714213505.5843205       -22034757.177379131        1325544349.2429626     
   1662839797.9311194       -33406058.249055862        1329440929.3451972     
   1470920255.6027977       -4234505.8980830312        1402826049.4426486     
   1432322909.9952419       -10206940.792655230        1390182852.2452419     
   1392242523.6252544       -21122844.895335615        1381612427.2543104     
   1350679096.4928296       -36982218.206136465        1377114774.4698544     
   1307632628.5979748       -57785060.725039124        1376689893.8918693     
   2671293876.3335795        22580720.299788117        1157012408.8927248     
   2558565262.8079782        27319659.247945666        1142569630.3504353     
   2442878990.2742758        22199734.835767865        1131465316.2869785     
   2324235058.7324672        7220947.0632392168        1123699466.7023451     
   2202633468.1825585       -17616704.069632649        1119272081.5965345     
   2344670421.7989211        6776832.2633551359        1219602186.8456256     
   2239698981.9589167        3212754.0725362301        1200002221.5378125     
   2133527159.4014101       -4352599.8432899714        1184946929.3106334     
   2026154954.1264029       -15919229.484120607        1174436310.1640804     
   1917582366.1338882       -31487134.849973679        1168470364.0981548     
   2008519062.3314335       -11885427.252928495        1277078360.3297861     
   1914751106.4678929       -22718629.495463610        1254371363.9288163     
   1821540044.1774476       -31695519.827677011        1237415249.2102768     
   1728885875.4600999       -38816098.249565244        1226210016.1741674     
   1636788600.3158503       -44080364.761131763        1220755664.8204937     
   1662839797.9311194       -33406058.249055862        1329440929.3451972     
   1583721636.3349068       -50474491.456047893        1305677057.5234358     
   1506917644.6023881       -59829025.117393017        1288870275.9859107     
   1432427822.7335706       -61469659.233064473        1279020584.7326193     
   1360252170.7284472       -55396393.803095937        1276127983.7635617     
   1307632628.5979748       -57785060.725039124        1376689893.8918693     
   1246610571.5599568       -80054831.809224725        1353919302.3216827     
   1189659960.6762300       -88753115.712442040        1339312009.6375349     
   1136780795.9468074       -83879912.434644699        1332868015.8394237     
   1087973077.3716767       -65435221.975873709        1334587320.9273512     
   2202633468.1825585       -17616704.069632649        1119272081.5965345     
   2145612530.1140969       -17710205.831306815        1137186119.2945437     
   2095089879.8186336        3857251.6503492594        1162475763.9929681     
   2051065517.2961717        47085668.375341892        1195141015.6918204     
   2013539442.5467145        111975044.34367490        1235181874.3910999     
   1917582366.1338882       -31487134.849973679        1168470364.0981548     
   1876931026.4909475       -24124913.962069392        1191407689.5111201     
   1839163861.9274168       -7148776.1427932978        1217840855.3318532     
   1804280872.4432912        19441278.607829928        1247769861.5603485     
   1772282058.0385704        55645250.289807737        1281194708.1966095     
   1636788600.3158503       -44080364.761131763        1220755664.8204937     
   1601421811.6908362       -32587935.445904851        1244499813.1392345     
   1565325085.4516299       -23528631.511313796        1267860035.2730730     
   1528498421.5982411       -16902452.957329631        1290836331.2220197     
   1490941820.1306658       -12709399.783975720        1313428700.9860706     
   1360252170.7284472       -55396393.803095937        1276127983.7635617     
   1319084885.7137547       -43099270.282844186        1296462490.1788766     
   1273573550.3912807       -45282314.455194592        1312533303.8166363     
   1223718164.7610264       -61945526.320147038        1324340424.6768398     
   1169518728.8229923       -93088905.877699077        1331883852.7594938     
   1087973077.3716767       -65435221.975873709        1334587320.9273512     
   1029920248.5597085       -55658918.472866356        1347295720.6300497     
   963909256.74636221       -72409824.974457860        1351860660.9625382     
   889940101.93164933       -115687941.48060018        1348282141.9248083     
   808012784.11555696       -185493267.99134105        1336560163.5168657     
   2013539442.5467145        111975044.34367490        1235181874.3910999     
   1885819221.2805400        137931067.97579998        1212779226.9550767     
   1743770970.4515915        116126993.06535834        1178938930.6782453     
   1587394690.0598600        46562819.612291873        1133660985.5605962     
   1416690380.1053500       -70761452.383364081        1076945391.6021345     
   1772282058.0385704        55645250.289807737        1281194708.1966095     
   1634687886.9099083        58418247.160745382        1244363562.1927745     
   1493054133.3652215        47725969.311599970        1216724648.2342677     
   1347380797.4045150        23568416.742386281        1198277966.3210928     
   1197667879.0277855       -14054410.546909988        1189023516.4532392     
   1490941820.1306658       -12709399.783975720        1313428700.9860706     
   1402416215.9570570       -15436674.628998458        1274172244.7523084     
   1320139476.5141876        2665599.6284427643        1264737901.4500122     
   1244111601.8020511        41597422.988331676        1285125671.0791931     
   1174332591.8206537        101358795.45068055        1335335553.6398361     
   1169518728.8229923       -93088905.877699077        1331883852.7594938     
   1189004208.4219902       -83633697.393405318        1302205274.6336837     
   1225026999.8984852       -19054115.984111845        1322978690.3254864     
   1277587103.2524743        100649838.35014999        1394204099.8349080     
   1346684518.4839544        275478165.60939425        1515881503.1619358     
   808012784.11555696       -185493267.99134105        1336560163.5168657     
   994451864.30471134       -146172821.13246244        1328462651.8368981     
   1207716703.5181160       -17433177.526078999        1391447014.8606851     
   1447807301.7557800        200725662.82782978        1525513252.5882232     
   1714723659.0176938        508303699.92924625        1730661365.0195282     
   1752717832.2265618        525815349.66796857        679269461.13906384     
   1780272318.5627246        500003581.14158785        805617463.91806519     
   1804937600.7650971        464561132.16923964        924858324.20049727     
   1826713678.8336792        419488002.75092316        1036992041.9863595     
   1845600552.7684710        364784192.88663948        1142018617.2756524     
   1322594678.6112118        396778403.58336347        669346974.84239113     
   1335357679.3828564        375399247.43642938        791586967.79315817     
   1345940054.3566704        346751338.63005912        908533126.87253177     
   1354341803.5326536        310834677.16425240        1020185452.0805117     
   1360562926.9108057        267649263.03900972        1126543943.4170983     
   886593629.71764266        265978088.91529280        662422711.97107625     
   889746026.71098661        250585809.68367049        781381369.81889474     
   891426376.24245918        230286705.57914335        896859502.42049623     
   891634678.31206012        205080776.60171121        1008857109.7758797     
   890370932.91978967        174968022.75137436        1117374191.8850460     
   444714685.54585463        133414405.66375639        658496672.52511895     
   443437360.54711479        125563267.88331091        775000669.99527538     
   441396566.42246300        115167233.01649190        889837450.84439027     
   438592303.17189908        102226301.06329997        1003007015.0724636     
   435024570.79542309        86740472.023733601        1114509362.6794956     
  -3042153.9041520655       -912646.17124561977        657568856.50451958     
  -3568319.1087585841        331622.03535091947        772444868.32229972     
  -4149375.1033177511        1392920.9421054239        887466972.14421451     
  -4785321.8878294984        2271250.5490180184        1002635167.9702631     
  -5476159.4622938130        2966610.8560885517        1117949455.8004467     
   1845600552.7684710        364784192.88663948        1142018617.2756524     
   1829036932.1080387        299935938.75688237        1189083590.3965919     
   1815686056.7548642        245796835.65131962        1238184260.6218135     
   1805547926.7089491        202366883.56995374        1289320627.9513192     
   1798622541.9702926        169646082.51278323        1342492692.3851061     
   1360562926.9108057        267649263.03900972        1126543943.4170983     
   1353098839.0831177        220746224.08041945        1181493749.4277940     
   1348071160.6983626        181964549.93160507        1237266295.4737408     
   1345479891.7565403        151304240.59256768        1293861581.5549383     
   1345325032.2576516        128765296.06330830        1351279607.6713884     
   890370932.91978967        174968022.75137436        1117374191.8850460     
   888540786.29904127        144970521.47621024        1179303105.6104515     
   888370713.25690019        120506598.79640284        1240841802.3020766     
   889860713.79336631        101576254.71195367        1301990281.9599206     
   893010787.90843964        88179489.222861230        1362748544.5839853     
   435024570.79542309        86740472.023733601        1114509362.6794956     
   435362773.75580925        72608830.944253951        1182511658.9445646     
   436584714.43047726        61422982.245712802        1248910781.1068213     
   438690392.81942624        53182925.928109229        1313706729.1662641     
   441679808.92265689        47888661.991444096        1376899503.1228960     
  -5476159.4622938130        2966610.8560885517        1117949455.8004467     
  -6435198.5465780143        3661152.4845518405        1191119409.4301319     
  -7286835.7809068859        4713700.2795328535        1261473231.8879731     
  -8031071.1652795430        6124254.2410347778        1329010923.1739700     
  -8667904.6996967662        7892814.3690544628        1393732483.2881231     
   1798622541.9702926        169646082.51278323        1342492692.3851061     
   1768444270.8974330        136801489.72329801        1358940245.8802791     
   1739571105.6170595        108307249.57543421        1376159390.0023429     
   1712003046.1291726        84163362.069190621        1394150124.7513013     
   1685740092.4337704        64369827.204564869        1412912450.1271541     
   1345325032.2576516        128765296.06330830        1351279607.6713884     
   1320006711.9828124        104036240.51343584        1369633715.8406355     
   1295785340.8664744        82963682.158566535        1389081840.7877095     
   1272660918.9086354        65547620.998696148        1409623982.5126102     
   1250633446.1092987        51788057.033831418        1431260141.0153384     
   893010787.90843964        88179489.222861230        1362748544.5839853     
   873473636.00571597        71842336.184831709        1382766358.0209911     
   854825276.62750757        58467824.895186067        1404200614.3867567     
   837065709.77381277        48055955.353920043        1427051313.6812825     
   820194935.44463289        40606727.561036795        1451318455.9045672     
   441679808.92265689        47888661.991444096        1376899503.1228960     
   428845042.96614367        40219776.737486050        1398338172.4213452     
   416690912.90015817        34819677.785287917        1421515710.7994862     
   405217418.72470278        31688365.134855598        1446432118.2573192     
   394424560.43977553        30825838.786185399        1473087394.7948475     
  -8667904.6996967662        7892814.3690544628        1393732483.2881231     
  -13879067.135905880        9168562.1713940986        1416349159.0416965     
  -18617750.315571394        12019240.828879576        1441027130.0258963     
  -22883954.238694660        16444850.341505729        1467766396.2407224     
  -26677678.905274592        22445390.709276132        1496566957.6861746     
   1685740092.4337704        64369827.204564869        1412912450.1271541     
   1629835661.1074419        39887170.200286627        1404784510.4296324     
   1575397544.5268359        20292229.015080452        1400394130.4163740     
   1522425742.6919563        5585003.6489627957        1399741310.0873783     
   1470920255.6027977       -4234505.8980830312        1402826049.4426486     
   1250633446.1092987        51788057.033831418        1431260141.0153384     
   1206406794.2629118        33762379.661169350        1425911000.7955351     
   1162661417.6358178        17340953.019480824        1424317135.9610486     
   1119397316.2280185        2523777.1087779403        1426478546.5118830     
   1076614490.0395112       -10689148.070953488        1432395232.4480309     
   820194935.44463289        40606727.561036795        1451318455.9045672     
   787696679.36691487        29053214.706615478        1447598902.3816473     
   754694658.98205721        15820487.495063543        1447652339.9450998     
   721188874.29006410        908545.92639148235        1451478768.5949237     
   687179325.29093158       -15682609.999410987        1459078188.3311183     
   394424560.43977553        30825838.786185399        1473087394.7948475     
   373705316.41944951        25759675.336619347        1469848215.1879749     
   351497268.56555444        15730832.441822648        1470399742.3685277     
   327800416.87809128        739310.10179863870        1474741976.3365049     
   302614761.35705888       -19214891.683454365        1482874917.0919082     
  -26677678.905274592        22445390.709276132        1496566957.6861746     
  -35567294.579482764        23881761.551184807        1492658939.2145133     
  -46930753.613693014        17071987.859754261        1492559343.2313309     
  -60768056.007899553        2016069.6350018457        1496268169.7366283     
  -77079201.762109026       -21285993.123092953        1503785418.7304034     
   1470920255.6027977       -4234505.8980830312        1402826049.4426486     
   1432322909.9952419       -10206940.792655230        1390182852.2452419     
   1392242523.6252544       -21122844.895335615        1381612427.2543104     
   1350679096.4928296       -36982218.206136465        1377114774.4698544     
   1307632628.5979748       -57785060.725039124        1376689893.8918693     
   1076614490.0395112       -10689148.070953488        1432395232.4480309     
   1048422858.0954463       -19225452.142616868        1420651252.0520151     
   1019947267.0868583       -28708286.429357886        1413430556.6930802     
   991187717.01374698       -39137650.931178212        1410733146.3712246     
   962144207.87611175       -50513545.648075104        1412559021.0864427     
   687179325.29093158       -15682609.999410987        1459078188.3311183     
   670680586.52636981       -26396629.393364072        1449632353.3840563     
   655096970.39519548       -34060240.009356886        1445160316.3046780     
   640428476.89740646       -38673441.847398877        1445662077.0929811     
   626675106.03300571       -40236234.907480717        1451137635.7489703     
   302614761.35705888       -19214891.683454365        1482874917.0919082     
   299096095.28801090       -31720472.544895306        1477126156.2413621     
   297691633.55026138       -37178705.635342240        1476801706.0891011     
   298401376.14380974       -35589590.954797253        1481901566.6351314     
   301225323.06865311       -26953128.503266901        1492425737.8794427     
  -77079201.762109026       -21285993.123092953        1503785418.7304034     
  -66330615.619628035       -35196981.597211406        1503132660.6239333     
  -52268743.447938368       -38063683.307300240        1508354726.0463548     
  -34893585.247044109       -29886098.253374308        1519451614.9976673     
  -14205141.016941130       -10664226.435418962        1536423327.4778709     
   1307632628.5979748       -57785060.725039124        1376689893.8918693     
   1246610571.5599568       -80054831.809224725        1353919302.3216827     
   1189659960.6762300       -88753115.712442040        1339312009.6375349     
   1136780795.9468074       -83879912.434644699        1332868015.8394237     
   1087973077.3716767       -65435221.975873709        1334587320.9273512     
   962144207.87611175       -50513545.648075104        1412559021.0864427     
   921766259.67237806       -62301645.872685432        1395552442.8930688     
   883642463.64006042       -66575905.525908411        1383843802.4108984     
   847772819.77915692       -63336324.607751846        1377433099.6399300     
   814157328.08966351       -52582903.118226707        1376320334.5801642     
   626675106.03300571       -40236234.907480717        1451137635.7489703     
   598754520.44974709       -43998688.136643499        1437774894.6190434     
   571270793.05501473       -46304947.404050857        1426844730.0254846     
   544223923.84881866       -47155012.709671974        1418347141.9682930     
   517613912.83114994       -46548884.053534865        1412282130.4474690     
   301225323.06865311       -26953128.503266901        1492425737.8794427     
   277575353.89205241       -25145958.601136446        1480586657.4996040     
   252544948.92109913       -27940241.346849322        1468314792.4812958     
   226134108.15579459       -35335976.740399539        1455610142.8245189     
   198342831.59613580       -47333164.781797364        1442472708.5292783     
  -14205141.016941130       -10664226.435418962        1536423327.4778709     
  -41771240.000694670       -5743457.2661301512        1523987731.5347509     
  -72535068.761688024       -11481787.354308426        1508253989.7783272     
  -106496627.29991242       -27879216.699922629        1489222102.2086036     
  -143655915.61537525       -54935745.302998915        1466892068.8255768     
   1087973077.3716767       -65435221.975873709        1334587320.9273512     
   1029920248.5597085       -55658918.472866356        1347295720.6300497     
   963909256.74636221       -72409824.974457860        1351860660.9625382     
   889940101.93164933       -115687941.48060018        1348282141.9248083     
   808012784.11555696       -185493267.99134105        1336560163.5168657     
   814157328.08966351       -52582903.118226707        1376320334.5801642     
   737113389.09155941       -59720970.200470865        1376037344.6375322     
   654608954.37532079       -85060689.676497608        1373192584.0569890     
   566644023.94095314       -128602061.54628760        1367786052.8385363     
   473218597.78844780       -190345085.80986702        1359817750.9821768     
   517613912.83114994       -46548884.053534865        1412282130.4474690     
   437526545.73921627       -65817017.093325227        1401921696.0232868     
   354476350.21238720       -94961244.916097596        1394581179.6934936     
   268463326.25066340       -133981567.52185288        1390260581.4580991     
   179487473.85404819       -182877984.91058183        1388959901.3171036     
   198342831.59613580       -47333164.781797364        1442472708.5292783     
   131159718.50267386       -73947059.151445270        1424948774.7873144     
   63511444.257559866       -102111490.69326614        1416026447.8720562     
  -4601991.1392122582       -131826459.40728068        1415705727.7834976     
  -73180587.687640280       -163091965.29348245        1423986614.5216427     
  -143655915.61537525       -54935745.302998915        1466892068.8255768     
  -181987092.61806357       -84111096.374817133        1445118580.9296176     
  -218285763.48916519       -106511427.00801232        1437528388.5926681     
  -252551928.22868732       -122136737.20260872        1444121491.8147266     
  -284785586.83661741       -130987026.95856632        1464897890.5957899     
   808012784.11555696       -185493267.99134105        1336560163.5168657     
   994451864.30471134       -146172821.13246244        1328462651.8368981     
   1207716703.5181160       -17433177.526078999        1391447014.8606851     
   1447807301.7557800        200725662.82782978        1525513252.5882232     
   1714723659.0176938        508303699.92924625        1730661365.0195282     
   473218597.78844780       -190345085.80986702        1359817750.9821768     
   788497509.69660902       -123007365.60214216        1362653351.4846511     
   1113502484.1711104       -23249436.839947402        1387049115.5251791     
   1448233521.2119474        108928700.47669619        1433005043.1037633     
   1792690620.8191221        273527046.34779996        1500521134.2203989     
   179487473.85404819       -182877984.91058183        1388959901.3171036     
   482115614.15064228       -129970172.35316786        1382778968.1344509     
   777370120.55565381       -101641139.43436152        1348636487.3241458     
   1065250993.0690877       -97890886.154145837        1286532458.8861935     
   1345758231.6909413       -118719412.51253563        1196466882.8205948     
  -73180587.687640280       -163091965.29348245        1423986614.5216427     
   75306177.666803807       -167061241.38556507        1388839501.7862930     
   199319612.67174786       -252608285.30931187        1276209130.2575865     
   298859717.32720172       -419733097.06469893        1086095499.9355304     
   373926491.63315398       -668435676.65174997        818498610.82012510     
  -284785586.83661741       -130987026.95856632        1464897890.5957899     
  -431930799.75489956       -234280572.69931173        1380834952.4401751     
  -620649039.48060048       -476150874.46478415        1169767044.3255005     
  -850940306.01370966       -856597932.25495195        831694166.25177109     
  -1122804599.3542361       -1375621746.0698450        366616318.21898788     
  -3042153.9041520655       -912646.17124561977        657568856.50451958     
  -3568319.1087585841        331622.03535091947        772444868.32229972     
  -4149375.1033177511        1392920.9421054239        887466972.14421451     
  -4785321.8878294984        2271250.5490180184        1002635167.9702631     
  -5476159.4622938130        2966610.8560885517        1117949455.8004467     
  -450669934.62291312       -135200980.38687393        659541455.04684293     
  -450511823.23304874       -125343700.19546950        776055450.52026451     
  -449669511.96157753       -113205753.73204227        890962102.45034289     
  -448143000.80849957       -98787140.996592581        1004261410.8370776     
  -445932289.77381474       -82087861.989119470        1115953375.6804698     
  -892161702.60096395       -267648510.78028920        664316659.28965402     
  -896329130.46656501       -250681163.35905778        783330910.86886966     
  -899073267.77899969       -228969514.09393880        898984383.35726392     
  -900394114.53826809       -202513562.98493207        1011277076.7548380     
  -900291670.74437022       -171313310.03203803        1120208991.0615907     
  -1327517457.8383048       -398255237.35149139        671894469.23295295     
  -1341020240.8093071       -375680767.45541382        794271249.36811531     
  -1352360642.5555842       -345898360.14358395        911533814.86497903     
  -1361538663.0771348       -308908015.41600180        1023682165.7235441     
  -1368554302.3739600       -264709733.27266684        1130716301.9438107     
  -1756737200.3349352       -527021160.10048056        682274884.87673938     
  -1784585154.2612751       -500342512.48453766        808876466.01800108     
  -1809531636.2913299       -463992291.88097763        928610396.97348666     
  -1831576646.4250998       -417970498.28980029        1041476677.7431957     
  -1850720184.6625841       -362277131.71100593        1147475308.3271289     
  -5476159.4622938130        2966610.8560885517        1117949455.8004467     
  -6435198.5465780143        3661152.4845518405        1191119409.4301319     
  -7286835.7809068859        4713700.2795328535        1261473231.8879731     
  -8031071.1652795430        6124254.2410347778        1329010923.1739700     
  -8667904.6996967662        7892814.3690544628        1393732483.2881231     
  -445932289.77381474       -82087861.989119470        1115953375.6804698     
  -448198131.03531772       -66840513.347014263        1184513161.4798651     
  -451220017.02008361       -54113313.782452568        1251525505.9270186     
  -454997947.72811174       -43906263.295432046        1316990409.0219316     
  -459531923.15940344       -36219361.885955989        1380907870.7646024     
  -900291670.74437022       -171313310.03203803        1120208991.0615907     
  -900239486.12708414       -140425705.95948845        1183151254.6952748     
  -901806792.80627978       -114936406.20854381        1245814766.7963202     
  -904993590.78195620       -94845410.779203355        1308199527.3647263     
  -909799880.05411470       -80152719.671468854        1370305536.4004939     
  -1368554302.3739600       -264709733.27266684        1130716301.9438107     
  -1362559263.8218775       -217094425.35287049        1187033689.0763612     
  -1359047163.1394947       -177755576.99874094        1244341014.4958758     
  -1358018000.3268120       -146693188.21027768        1302638278.2023542     
  -1359471775.3838303       -123907258.98748338        1361925480.1957960     
  -1850720184.6625841       -362277131.71100593        1147475308.3271289     
  -1835157464.1196978       -296846671.52716058        1196160464.6231248     
  -1822941128.0197296       -242570826.15304416        1247104249.0256867     
  -1814071176.3626800       -199449595.58865553        1300306661.5348158     
  -1808547609.1485496       -167482979.83399802        1355767702.1505105     
  -8667904.6996967662        7892814.3690544628        1393732483.2881231     
  -13879067.135905880        9168562.1713940986        1416349159.0416965     
  -18617750.315571394        12019240.828879576        1441027130.0258963     
  -22883954.238694660        16444850.341505729        1467766396.2407224     
  -26677678.905274592        22445390.709276132        1496566957.6861746     
  -459531923.15940344       -36219361.885955989        1380907870.7646024     
  -456730916.15019661       -27596475.667901769        1404136018.7454917     
  -454007607.22447729       -19232583.061472595        1429770585.2809098     
  -451361996.38224638       -11127684.066672564        1457811570.3708582     
  -448794083.62350285       -3281778.6834962070        1488258974.0153344     
  -909799880.05411470       -80152719.671468854        1370305536.4004939     
  -898000636.95976889       -63886875.045782596        1393503283.0453286     
  -886829269.28894138       -49713948.498493075        1419452571.5685961     
  -876285777.04163289       -37633940.029598862        1448153401.9702952     
  -866370160.21784341       -27646849.639101386        1479605774.2504263     
  -1359471775.3838303       -123907258.98748338        1361925480.1957960     
  -1337688229.5646231       -99702635.962250292        1384450951.9412079     
  -1317082736.5089648       -79424855.482181847        1410073088.8889554     
  -1297655296.2168565       -63073917.547277391        1438791891.0390363     
  -1279405908.6882982       -50649822.157541335        1470607358.3914542     
  -1808547609.1485496       -167482979.83399802        1355767702.1505105     
  -1775793693.9647570       -135043758.41729599        1376979025.4331298     
  -1744768008.8845468       -108365304.01253611        1401632137.2419870     
  -1715470553.9079156       -87447616.619706213        1429727037.5770814     
  -1687901329.0348654       -72290696.238814950        1461263726.4384146     
  -26677678.905274592        22445390.709276132        1496566957.6861746     
  -35567294.579482764        23881761.551184807        1492658939.2145133     
  -46930753.613693014        17071987.859754261        1492559343.2313309     
  -60768056.007899553        2016069.6350018457        1496268169.7366283     
  -77079201.762109026       -21285993.123092953        1503785418.7304034     
  -448794083.62350285       -3281778.6834962070        1488258974.0153344     
  -445454634.67561471        2400432.2162329555        1484026264.6659319     
  -443616710.94546384        3077559.0568365753        1484412296.3701668     
  -443280312.43305206       -1250398.1616887450        1489417069.1280389     
  -444445439.13837522       -10583439.439331919        1499040582.9395468     
  -866370160.21784341       -27646849.639101386        1479605774.2504263     
  -848486450.74740744       -17024239.911416322        1476182745.1892579     
  -831131948.35244775       -8165653.7686516941        1478188775.7468817     
  -814306653.03296316       -1071091.2108027339        1485623865.9233024     
  -798010564.78895283        4259447.7621298432        1498488015.7185178     
  -1279405908.6882982       -50649822.157541335        1470607358.3914542     
  -1244662742.7948637       -34392254.831766725        1469128380.7844887     
  -1209476465.8346412       -16657650.616699457        1473888781.3614767     
  -1173847077.8076322        2553990.4876554012        1484888560.1224172     
  -1137774578.7138357        23242668.481303811        1502127717.0673099     
  -1687901329.0348654       -72290696.238814950        1461263726.4384146     
  -1633983510.8179801       -49703612.544811845        1462863171.4516275     
  -1578650263.3920455       -22398431.487311006        1471512313.2139502     
  -1521901586.7570624        9624846.9336860180        1487211151.7253840     
  -1463737480.9130292        46366222.718181252        1509959686.9859278     
  -77079201.762109026       -21285993.123092953        1503785418.7304034     
  -66330615.619628035       -35196981.597211406        1503132660.6239333     
  -52268743.447938368       -38063683.307300240        1508354726.0463548     
  -34893585.247044109       -29886098.253374308        1519451614.9976673     
  -14205141.016941130       -10664226.435418962        1536423327.4778709     
  -444445439.13837522       -10583439.439331919        1499040582.9395468     
  -416250952.30138421       -10265533.582020566        1505544451.6358235     
  -385999074.48472446       -3089657.7924819589        1516309829.4148097     
  -353689805.68839556        10944187.929289177        1531336716.2765074     
  -319323145.91239816        31836003.583286449        1550625112.2209120     
  -798010564.78895283        4259447.7621298432        1498488015.7185178     
  -756979647.10368276        17423406.997002929        1510683300.3264112     
  -715147233.48828268        33259019.332311183        1525526779.5708323     
  -672513323.94275212        51766284.768052787        1543018453.4517829     
  -629077918.46709132        72945203.304229409        1563158321.9692616     
  -1137774578.7138357        23242668.481303811        1502127717.0673099     
  -1088516700.0265205        47869840.139867842        1518549206.6956942     
  -1039713220.4586153        70982348.067067027        1536005576.5144258     
  -991364140.01011682        92580192.262909710        1554496826.5235031     
  -943469458.68102419        112663372.72739792        1574022956.7229283     
  -1463737480.9130292        46366222.718181252        1509959686.9859278     
  -1410862111.0699008        81073765.846566677        1529142170.7436743     
  -1359697035.3957212        110080328.41179138        1547746220.2455854     
  -1310242253.8904846        133385910.41387343        1565771835.4916613     
  -1262497766.5541952        150990511.85279489        1583219016.4819050     
  -14205141.016941130       -10664226.435418962        1536423327.4778709     
  -41771240.000694670       -5743457.2661301512        1523987731.5347509     
  -72535068.761688024       -11481787.354308426        1508253989.7783272     
  -106496627.29991242       -27879216.699922629        1489222102.2086036     
  -143655915.61537525       -54935745.302998915        1466892068.8255768     
  -319323145.91239816        31836003.583286449        1550625112.2209120     
  -349091010.14224428        33020156.967605472        1536203888.7719617     
  -381224378.58336127        26319296.314355507        1524249441.5127714     
  -415723251.23574841        11733421.623538822        1514761770.4433444     
  -452587628.09940815       -10737467.104854882        1507740875.5636778     
  -629077918.46709132        72945203.304229409        1563158321.9692616     
  -644576342.21998954        75334102.620489895        1547722400.8414404     
  -661608044.61819243        72612073.119068265        1540518177.9064450     
  -680173025.66170120        64779114.799961805        1541545653.1642785     
  -700271285.35051680        51835227.663164794        1550804826.6149359     
  -943469458.68102419        112663372.72739792        1574022956.7229283     
  -928227236.23393273        121198379.69251454        1558543267.7431951     
  -913686066.86617982        127396543.05983609        1557060198.9593518     
  -899845950.57777047        131257862.82934481        1569573750.3714006     
  -886706887.36869764        132782339.00106531        1596083921.9793382     
  -1262497766.5541952        150990511.85279489        1583219016.4819050     
  -1200043692.1840744        170612988.18367630        1568666489.4772179     
  -1137458445.3273232        190672706.13665617        1573875504.6714890     
  -1074742025.9839535        211169665.71169853        1598846062.0647140     
  -1011894434.1539538        232103866.90884316        1643578161.6568954     
  -143655915.61537525       -54935745.302998915        1466892068.8255768     
  -181987092.61806357       -84111096.374817133        1445118580.9296176     
  -218285763.48916519       -106511427.00801232        1437528388.5926681     
  -252551928.22868732       -122136737.20260872        1444121491.8147266     
  -284785586.83661741       -130987026.95856632        1464897890.5957899     
  -452587628.09940815       -10737467.104854882        1507740875.5636778     
  -453499237.14783967       -21455301.138573095        1508420854.8554671     
  -451407611.64426559       -22162353.332272023        1519442394.6211903     
  -446312751.58868951       -12858623.685964853        1540805494.8608508     
  -438214656.98111194        6455887.8003478646        1572510155.5744426     
  -700271285.35051680        51835227.663164794        1550804826.6149359     
  -674739712.40204144        56281994.880348265        1575070789.5849562     
  -645234176.48114479        73975305.338935494        1605836577.9438424     
  -611754677.58782899        104915159.03892139        1643102191.6915855     
  -574301215.72209108        149101555.98031500        1686867630.8281958     
  -886706887.36869764        132782339.00106531        1596083921.9793382     
  -845708518.38066995        149100791.68193913        1645068385.1180844     
  -799765457.99980462        181901549.00560671        1696710938.5606151     
  -748877706.22610009        231184610.97206974        1751011582.3069372     
  -693045263.05955446        296949977.58133769        1807970316.3570464     
  -1011894434.1539538        232103866.90884316        1643578161.6568954     
  -966405655.08372653        257001089.26620156        1718413641.4548497     
  -915001456.20024168        301616377.66774982        1792065476.4715168     
  -857681837.50350034        365949732.11348963        1864533666.7069006     
  -794446798.99350095        450001152.60341883        1935818212.1609998     
  -284785586.83661741       -130987026.95856632        1464897890.5957899     
  -431930799.75489956       -234280572.69931173        1380834952.4401751     
  -620649039.48060048       -476150874.46478415        1169767044.3255005     
  -850940306.01370966       -856597932.25495195        831694166.25177109     
  -1122804599.3542361       -1375621746.0698450        366616318.21898788     
  -438214656.98111194        6455887.8003478646        1572510155.5744426     
  -832159821.76529860       -122854536.13862666        1492824306.4680912     
  -1247577643.7000155       -323740483.91269791        1356301205.4696944     
  -1684468122.7852473       -596201955.52182388        1162940852.5792394     
  -2142831259.0210052       -940238950.96603358        912743247.79674423     
  -574301215.72209108        149101555.98031500        1686867630.8281958     
  -1014567137.8950281        53918012.186257601        1635009302.0374837     
  -1456205347.5615997       -45839823.253246188        1596481439.4217250     
  -1899215844.7218063       -150171950.33819556        1571284042.9809241     
  -2343598629.3756452       -259078369.06859666        1559417112.7150712     
  -693045263.05955446        296949977.58133769        1807970316.3570464     
  -979152748.14408457        296037072.27535129        1807389939.1483452     
  -1246532151.0653634        357551107.51354355        1890307746.1816039     
  -1495183471.8233819        481492083.29592776        2056723737.4568152     
  -1725106710.4181516        667859999.62248337        2306637912.9739928     
  -794446798.99350095        450001152.60341883        1935818212.1609998     
  -725916652.51247334        603502644.12864208        2009966217.8006816     
  -618558054.21130061        886432308.38768375        2237780125.7493253     
  -472371004.08998388        1298790145.3805387        2619259936.0069304     
  -287355502.14852118        1840576155.1072114        3154405648.5735030     
  -1756737200.3349352       -527021160.10048056        682274884.87673938     
  -1784585154.2612751       -500342512.48453766        808876466.01800108     
  -1809531636.2913299       -463992291.88097763        928610396.97348666     
  -1831576646.4250998       -417970498.28980029        1041476677.7431957     
  -1850720184.6625841       -362277131.71100593        1147475308.3271289     
  -2201956986.3986878       -660587095.91960645        698583918.24140358     
  -2237955800.5953698       -614122061.82873499        816168577.08707154     
  -2271917138.1295676       -560865438.86291456        929784904.41634607     
  -2303840999.0012803       -500817227.02214515        1039432900.2292268     
  -2333727383.2105083       -433977426.30642629        1145112564.5257139     
  -2685312872.3373947       -805593861.70121837        723947581.34733498     
  -2721178779.1776118       -736857310.84737670        831507323.45797551     
  -2755871204.5891452       -664209155.23125374        937998052.72160518     
  -2789390148.5719929       -587649394.85284972        1043419769.1382240     
  -2821735611.1261568       -507178029.71216440        1147772472.7078316     
  -3206804858.1510563       -962041457.44531691        758365874.19453371     
  -3234254090.0080004       -868548259.54046202        854892705.13071311     
  -3261393835.6700606       -774023440.98599434        953249841.88926399     
  -3288224095.1372375       -678467001.78191388        1053437284.4701865     
  -3314744868.4095302       -581878941.92821920        1155455032.8734808     
  -3766432943.8396726       -1129929883.1519017        801838796.78299952     
  -3777181733.0865364       -1009194907.9079919        886324722.10528374     
  -3788485031.3723173       -890308296.12713718        975540271.91932237     
  -3800342838.6970139       -773270047.80933714        1069485446.2251155     
  -3812755155.0606275       -658080162.95459211        1168160245.0226624     
  -1850720184.6625841       -362277131.71100593        1147475308.3271289     
  -1835157464.1196978       -296846671.52716058        1196160464.6231248     
  -1822941128.0197296       -242570826.15304416        1247104249.0256867     
  -1814071176.3626800       -199449595.58865553        1300306661.5348158     
  -1808547609.1485496       -167482979.83399802        1355767702.1505105     
  -2333727383.2105083       -433977426.30642629        1145112564.5257139     
  -2309934209.0720053       -353272165.35008740        1187190302.9839942     
  -2289654384.5171065       -284278069.67243165        1229815577.4617605     
  -2272887909.5458136       -226995139.27346051        1272988387.9590130     
  -2259634784.1581249       -181423374.15317190        1316708734.4757521     
  -2821735611.1261568       -507178029.71216440        1147772472.7078316     
  -2794600817.9265504       -412664618.34368521        1183048000.6642611     
  -2771146339.4512372       -330418922.72284508        1217159972.5530975     
  -2751372175.7002149       -260440942.84964335        1250108388.3743403     
  -2735278326.6734834       -202730678.72407997        1281893248.1279886     
  -3314744868.4095302       -581878941.92821920        1155455032.8734808     
  -3289157290.6833372       -475024030.50795627        1183733557.6639268     
  -3267416992.8221211       -380993385.30428445        1209137434.2996991     
  -3249523974.8258843       -299787006.31720793        1231666662.7807968     
  -3235478236.6946244       -231404893.54672337        1251321243.1072214     
  -3812755155.0606275       -658080162.95459211        1168160245.0226624     
  -3793603627.3423619       -540350401.84289730        1189246973.9829900     
  -3778466344.6297588       -436001457.41674960        1205747962.7015634     
  -3767343306.9228206       -345033329.67615139        1217663211.1783824     
  -3760234514.2215495       -267446018.62110198        1224992719.4134481     
  -1808547609.1485496       -167482979.83399802        1355767702.1505105     
  -1775793693.9647570       -135043758.41729599        1376979025.4331298     
  -1744768008.8845468       -108365304.01253611        1401632137.2419870     
  -1715470553.9079156       -87447616.619706213        1429727037.5770814     
  -1687901329.0348654       -72290696.238814950        1461263726.4384146     
  -2259634784.1581249       -181423374.15317190        1316708734.4757521     
  -2212602276.3585091       -135937850.26234722        1326980493.3481536     
  -2168794917.4058609       -101202822.52808583        1341783311.2893844     
  -2128212707.3001864       -77218290.950400352        1361117188.2994428     
  -2090855646.0414817       -63984255.529283524        1384982124.3783298     
  -2735278326.6734834       -202730678.72407997        1281893248.1279886     
  -2670855024.7077823       -143265191.89404809        1279479037.3895514     
  -2611153790.3324447       -99539930.365221977        1282685156.2625332     
  -2556174623.5474644       -71554894.137594223        1291511604.7469349     
  -2505917524.3528485       -59310083.211175323        1305958382.8427546     
  -3235478236.6946244       -231404893.54672337        1251321243.1072214     
  -3150551939.0125813       -157025783.31240952        1234474657.5573227     
  -3071844627.6642900       -103376627.52393436        1224337672.1614344     
  -2999356302.6497498       -70457426.181295156        1220910286.9195549     
  -2933086963.9689603       -58268179.284490108        1224192501.8316867     
  -3760234514.2215495       -267446018.62110198        1224992719.4134481     
  -3651693019.2729044       -177219624.51742887        1191967353.8514674     
  -3550867429.4014034       -112712914.00422609        1166740858.9860873     
  -3457757744.6070414       -73925887.081492186        1149313234.8173077     
  -3372363964.8898215       -60858543.749233007        1139684481.3451276     
  -1687901329.0348654       -72290696.238814950        1461263726.4384146     
  -1633983510.8179801       -49703612.544811845        1462863171.4516275     
  -1578650263.3920455       -22398431.487311006        1471512313.2139502     
  -1521901586.7570624        9624846.9336860180        1487211151.7253840     
  -1463737480.9130292        46366222.718181252        1509959686.9859278     
  -2090855646.0414817       -63984255.529283524        1384982124.3783298     
  -2020344013.6284451       -44153436.423690438        1383413193.8636475     
  -1948815751.7059047       -20933852.286420107        1388195100.1172969     
  -1876270860.2738588        5674496.8825336695        1399327843.1392782     
  -1802709339.3323112        35671611.083160996        1416811422.9295909     
  -2505917524.3528485       -59310083.211175323        1305958382.8427546     
  -2420808820.5458827       -42834551.534660578        1300755810.4840403     
  -2335082286.9289603       -24299587.158284545        1301205214.9128799     
  -2248737923.5020781       -3705190.0820487738        1307306596.1292720     
  -2161775730.2652411        18948639.694043994        1319059954.1332181     
  -2933086963.9689603       -58268179.284490108        1224192501.8316867     
  -2835377931.5702925       -45746957.877720594        1214891021.3128042     
  -2737449869.0612140       -32495636.102912545        1210542657.6006966     
  -2639302776.4417200       -18514213.960056424        1211147410.6953633     
  -2540936653.7118168       -3802691.4491646290        1216705280.5968046     
  -3372363964.8898215       -60858543.749233007        1139684481.3451276     
  -3264051346.7016754       -52890655.452874422        1125818826.3499401     
  -3155918498.1026626       -45521999.120293736        1116207428.1807492     
  -3047965419.0927844       -38752574.751493216        1110850286.8375535     
  -2940192109.6720390       -32582382.346470594        1109747402.3203540     
  -1463737480.9130292        46366222.718181252        1509959686.9859278     
  -1410862111.0699008        81073765.846566677        1529142170.7436743     
  -1359697035.3957212        110080328.41179138        1547746220.2455854     
  -1310242253.8904846        133385910.41387343        1565771835.4916613     
  -1262497766.5541952        150990511.85279489        1583219016.4819050     
  -1802709339.3323112        35671611.083160996        1416811422.9295909     
  -1752474255.6040382        57550967.729012012        1427982527.3301105     
  -1703994148.4561238        73580402.440336704        1440661427.3940830     
  -1657269017.8885684        83759915.217128873        1454848123.1215096     
  -1612298863.9013724        88089506.059391499        1470542614.5123889     
  -2161775730.2652411        18948639.694043994        1319059954.1332181     
  -2108220275.7395709        29788006.931039572        1322167549.6965284     
  -2056464480.2056732        34628510.862127900        1328869170.8425806     
  -2006508343.6635456        33470151.487316132        1339164817.5713744     
  -1958351866.1131899        26312928.806600928        1353054489.8829098     
  -2540936653.7118168       -3802691.4491646290        1216705280.5968046     
  -2478100171.4764986       -2215116.5473508835        1211697237.8429258     
  -2417108030.6443653       -6775346.3228154182        1212369450.5910769     
  -2357960231.2154155       -17483380.775562525        1218721918.8412578     
  -2300656773.1896491       -34339219.905589700        1230754642.5934665     
  -2940192109.6720390       -32582382.346470594        1109747402.3203540     
  -2862113942.8148217       -38458402.706160903        1096571591.7693045     
  -2785924799.7722025       -50631169.114510179        1091162266.6395721     
  -2711624680.5441790       -69100681.571513057        1093519426.9311574     
  -2639213585.1307502       -93866940.077162862        1103643072.6440606     
  -1262497766.5541952        150990511.85279489        1583219016.4819050     
  -1200043692.1840744        170612988.18367630        1568666489.4772179     
  -1137458445.3273232        190672706.13665617        1573875504.6714890     
  -1074742025.9839535        211169665.71169853        1598846062.0647140     
  -1011894434.1539538        232103866.90884316        1643578161.6568954     
  -1612298863.9013724        88089506.059391499        1470542614.5123889     
  -1506691656.3159378        108847246.45137084        1454428935.1005421     
  -1400491867.6642675        131580257.06413376        1451486447.3335717     
  -1293699497.9463704        156288537.89765632        1461715151.2114813     
  -1186314547.1622362        182972088.95197058        1485115046.7342703     
  -1958351866.1131899        26312928.806600928        1353054489.8829098     
  -1828421098.3240941        42557061.356170893        1335917968.0734422     
  -1697436340.8891494        62314492.725227118        1325362287.3547761     
  -1565397593.8083720        85585222.913738668        1321387447.7269125     
  -1432304857.0817490        112369251.92172736        1323993449.1898491     
  -2300656773.1896491       -34339219.905589700        1230754642.5934665     
  -2165232018.2085342       -28257567.101900935        1213133588.3959227     
  -2028291865.0019705       -17124586.880058050        1195503024.7351019     
  -1889836313.5699599       -940279.24006152153        1177862951.6110067     
  -1749865363.9124973        20295355.818115830        1160213369.0236359     
  -2639213585.1307502       -93866940.077162862        1103643072.6440606     
  -2517124415.9692702       -103596638.92288303        1086075796.0679801     
  -2393058440.0027266       -106736981.75172484        1061908659.4745492     
  -2267015657.2311325       -103287968.56373000        1031141662.8637640     
  -2138996067.6544785       -93249599.358868837        993774806.23562980     
  -1011894434.1539538        232103866.90884316        1643578161.6568954     
  -966405655.08372653        257001089.26620156        1718413641.4548497     
  -915001456.20024168        301616377.66774982        1792065476.4715168     
  -857681837.50350034        365949732.11348963        1864533666.7069006     
  -794446798.99350095        450001152.60341883        1935818212.1609998     
  -1186314547.1622362        182972088.95197058        1485115046.7342703     
  -1142552501.8963835        196132878.09241062        1542019709.3184104     
  -1095714393.9110813        219547209.63101292        1601488167.5766828     
  -1045800223.2063309        253215083.56778020        1663520421.5090871     
  -992809989.78213477        297136499.90269971        1728116471.1156213     
  -1432304857.0817490        112369251.92172736        1323993449.1898491     
  -1379562572.8905118        117005699.66417497        1359654711.2840686     
  -1326583583.0736341        122431166.15876132        1401627209.5078363     
  -1273367887.6311159        128645651.40548086        1449910943.8611517     
  -1219915486.5629594        135649155.40432817        1504505914.3440118     
  -1749865363.9124973        20295355.818115830        1160213369.0236359     
  -1677435868.0661144        19619553.981498599        1171318647.3518238     
  -1607609023.6878967        10268247.250997186        1192482602.2649765     
  -1540384830.7778475       -7758564.3734005690        1223705233.7630899     
  -1475763289.3359704       -34460880.891701579        1264986541.8461695     
  -2138996067.6544785       -93249599.358868837        993774806.23562980     
  -2036172387.4231906       -96025558.955624700        977011517.52167666     
  -1938790715.7538719       -116941547.09227985        974054345.84810185     
  -1846851052.6465361       -155997563.76887572        984903291.21490908     
  -1760353398.1011741       -213193608.98538595        1009558353.6220955     
  -794446798.99350095        450001152.60341883        1935818212.1609998     
  -725916652.51247334        603502644.12864208        2009966217.8006816     
  -618558054.21130061        886432308.38768375        2237780125.7493253     
  -472371004.08998388        1298790145.3805387        2619259936.0069304     
  -287355502.14852118        1840576155.1072114        3154405648.5735030     
  -992809989.78213477        297136499.90269971        1728116471.1156213     
  -621322023.42850804        470079656.45622516        1786547304.8516130     
  -230840392.09777519        706335029.60009480        1919870175.0202711     
   178634904.21006432        1005902619.3343210        2128085081.6215818     
   607103865.49499679        1368782425.6588759        2411192024.6555586     
  -1219915486.5629594        135649155.40432817        1504505914.3440118     
  -770537888.55473685        260513520.52074516        1524078991.5260992     
  -322001412.41244996        382574146.08404946        1539770239.2645512     
   125693941.86390132        501831032.09423172        1551579657.5593626     
   572548174.27431643        618284178.55128729        1559507246.4105272     
  -1475763289.3359704       -34460880.891701579        1264986541.8461695     
  -1173564247.8911567       -25195763.677783072        1222561277.8241427     
  -892041115.15531731       -84850342.160455614        1097480318.4821761     
  -631193891.12845290       -213424616.33970746        889743663.82026052     
  -391022575.81057501       -410918586.21557117        599351313.83841467     
  -1760353398.1011741       -213193608.98538595        1009558353.6220955     
  -1830401101.4377735       -387048196.13938367        881994163.74574006     
  -1940959500.3263905       -695938435.13342822        593000412.67313683     
  -2092028594.7670152       -1139864325.9675140        142577100.40429369     
  -2283608384.7596693       -1718825868.6416836       -469275773.06079036     
  -3766432943.8396726       -1129929883.1519017        801838796.78299952     
  -3777181733.0865364       -1009194907.9079919        886324722.10528374     
  -3788485031.3723173       -890308296.12713718        975540271.91932237     
  -3800342838.6970139       -773270047.80933714        1069485446.2251155     
  -3812755155.0606275       -658080162.95459211        1168160245.0226624     
  -4337330957.1283340       -1301199287.1385002        859629314.69178689     
  -4333042790.6088953       -1125900420.0164156        943355502.79751027     
  -4329873959.4075556       -954332670.62132549        1021327288.1059797     
  -4327824463.5243139       -786496038.95322907        1093544670.6171947     
  -4326894302.9591703       -622390525.01212716        1160007650.3311558     
  -4892632725.7421331       -1467789817.7226400        937000393.49994957     
  -4903261967.1392736       -1246913367.8272452        1019307880.3967334     
  -4915575370.1336937       -1031650789.9227836        1085376937.2072549     
  -4929572934.7253942       -822002084.00925541        1135207563.9315131     
  -4945254660.9143744       -617967250.08666027        1168799760.5695097     
  -5432338249.6810703       -1629701474.9043212        1033952033.2074881     
  -5487839262.6776714       -1372233751.3404803        1114181854.9029534     
  -5545589263.5507326       -1122262654.0315115        1167689219.2231481     
  -5605588252.3002558       -879788182.97741556        1194474126.1680715     
  -5667836228.9262409       -644810338.17819238        1194536575.7377243     
  -5956447528.9451466       -1786934258.6835439        1150484233.8144019     
  -6086774677.2240868       -1501861570.5561211        1227977426.3161702     
  -6219915639.6586704       -1226168262.9475098        1268264134.1536593     
  -6355870416.2488985       -959854335.85771036        1271344357.3268688     
  -6494639006.9947691       -702919789.28672290        1237218095.8357995     
  -3812755155.0606275       -658080162.95459211        1168160245.0226624     
  -3793603627.3423619       -540350401.84289730        1189246973.9829900     
  -3778466344.6297588       -436001457.41674960        1205747962.7015634     
  -3767343306.9228206       -345033329.67615139        1217663211.1783824     
  -3760234514.2215495       -267446018.62110198        1224992719.4134481     
  -4326894302.9591703       -622390525.01212716        1160007650.3311558     
  -4294273859.4262929       -466659669.68321669        1141432015.6367869     
  -4272324241.1264229       -346498231.79766893        1129033342.3760543     
  -4261045448.0595651       -261906211.35548806        1122811630.5489573     
  -4260437480.2257137       -212883608.35666633        1122766880.1554973     
  -4945254660.9143744       -617967250.08666027        1168799760.5695097     
  -4868414725.3514853       -415010127.67591500        1102795751.9552093     
  -4808902195.2489491       -269811023.46634769        1053731406.4499351     
  -4766717070.6067677       -182369937.45795941        1021606724.0536870     
  -4741859351.4249382       -152686869.65074849        1006421704.7664646     
  -5667836228.9262409       -644810338.17819238        1194536575.7377243     
  -5516026225.1179409       -385401775.82099080        1073338182.9382570     
  -5388200206.9973373       -205939832.42278481        979842154.92320609     
  -5284358174.5644321       -106424507.98356986        914048491.69257104     
  -5204500127.8192272       -86855802.503349781        875957193.24635339     
  -6494639006.9947691       -702919789.28672290        1237218095.8357995     
  -6237108358.7256575       -377834614.11844707        1053059308.5859303     
  -6010218276.3715878       -154884658.66697955        907365587.79586756     
  -5813968759.9325600       -34069922.932320595        800136933.46561038     
  -5648359809.4085751       -15390406.914469957        731373345.59516001     
  -3760234514.2215495       -267446018.62110198        1224992719.4134481     
  -3651693019.2729044       -177219624.51742887        1191967353.8514674     
  -3550867429.4014034       -112712914.00422609        1166740858.9860873     
  -3457757744.6070414       -73925887.081492186        1149313234.8173077     
  -3372363964.8898215       -60858543.749233007        1139684481.3451276     
  -4260437480.2257137       -212883608.35666633        1122766880.1554973     
  -4141757718.2077608       -151432636.39657545        1088615778.3561399     
  -4027567462.3594131       -104946685.00183177        1061104954.8697087     
  -3917866712.6806650       -73425754.172423363        1040234409.6962029     
  -3812655469.1715198       -56869843.908358574        1026004142.8356223     
  -4741859351.4249382       -152686869.65074849        1006421704.7664646     
  -4616351586.2910366       -121004399.02025032        974908998.78852642     
  -4492106928.4191961       -93532285.929965496        948877978.73983932     
  -4369125377.8094196       -70270530.379892588        928328644.62040198     
  -4247406934.4617100       -51219132.370036840        913260996.43021572     
  -5204500127.8192272       -86855802.503349781        875957193.24635339     
  -5075474623.5227270       -85934912.388447046        850847015.14862776     
  -4944485827.5807562       -78469716.788633347        830059930.59647822     
  -4811533739.9933071       -64460215.703902721        813595939.58990514     
  -4676618360.7603874       -43906409.134260416        801455042.12890756     
  -5648359809.4085751       -15390406.914469957        731373345.59516001     
  -5519126829.9028406       -46224176.501173735        716429827.43644226     
  -5384704159.8440895       -59758977.577834129        704650810.43962789     
  -5245091799.2323284       -55994810.144450903        696036294.60471261     
  -5100289748.0675526       -34931674.201027870        690586279.93169725     
  -3372363964.8898215       -60858543.749233007        1139684481.3451276     
  -3264051346.7016754       -52890655.452874422        1125818826.3499401     
  -3155918498.1026626       -45521999.120293736        1116207428.1807492     
  -3047965419.0927844       -38752574.751493216        1110850286.8375535     
  -2940192109.6720390       -32582382.346470594        1109747402.3203540     
  -3812655469.1715198       -56869843.908358574        1026004142.8356223     
  -3691473435.2709045       -43555002.855336189        1013580728.2655845     
  -3571097921.3513331       -32928561.739120960        1005568695.2429881     
  -3451528927.4128017       -24990520.559712648        1001968043.7678348     
  -3332766453.4553170       -19740879.317120790        1002778773.8401251     
  -4247406934.4617100       -51219132.370036840        913260996.43021572     
  -4112906557.0730639       -32422660.227677107        901548613.49476552     
  -3979839450.0573683       -18403755.995156288        894404736.82820451     
  -3848205613.4146266       -9162419.6724808216        891829366.43053150     
  -3718005047.1448393       -4698651.2596454620        893822502.30174792     
  -4676618360.7603874       -43906409.134260416        801455042.12890756     
  -4528350712.1081457       -19493627.569893360        789722482.03748322     
  -4382143084.2207708       -1947581.8884050846        782715552.93639672     
  -4237995477.0982533        8731727.9102134705        780434254.82564342     
  -4095907890.7406015        12544301.825957775        782878587.70522523     
  -5100289748.0675526       -34931674.201027870        690586279.93169725     
  -4937805900.3761606       -4767904.8819923401        678102333.89374077     
  -4778008823.8415384        16439960.581139565        670501143.56756413     
  -4620898518.4636889        28691922.188366652        667782708.95316899     
  -4466474984.2426100        31987979.939687252        669947030.05055714     
  -2940192109.6720390       -32582382.346470594        1109747402.3203540     
  -2862113942.8148217       -38458402.706160903        1096571591.7693045     
  -2785924799.7722025       -50631169.114510179        1091162266.6395721     
  -2711624680.5441790       -69100681.571513057        1093519426.9311574     
  -2639213585.1307502       -93866940.077162862        1103643072.6440606     
  -3332766453.4553170       -19740879.317120790        1002778773.8401251     
  -3236014882.9112501       -24306878.871976256        989567925.08945191     
  -3140574838.3905907       -33244631.838191748        982652435.10623074     
  -3046446319.8933444       -46554138.215784431        982032303.89046037     
  -2953629327.4195070       -64235398.004732490        987707531.44214225     
  -3718005047.1448393       -4698651.2596454620        893822502.30174792     
  -3606783291.9249649       -9215595.7129695415        881250362.77450526     
  -3496295564.9373169       -16179300.940378428        873502455.36084557     
  -3386541866.1818938       -25589766.941864729        870578780.06077051     
  -3277522195.6586909       -37446993.717429996        872479336.87427962     
  -4095907890.7406015        12544301.825957775        782878587.70522523     
  -3974419169.8559718        6815446.7708456516        771618904.82446015     
  -3853086979.4123812        564823.57893514633        763712327.40341067     
  -3731911319.4098268       -6207567.7497630119        759158855.44208467     
  -3610892189.8483081       -13501727.215250969        757958488.94047296     
  -4466474984.2426100        31987979.939687252        669947030.05055714     
  -4338922516.7042685        23786248.579474688        660673551.23931992     
  -4210949081.8157821        16987741.719747782        653282051.23393643     
  -4082554679.5771446        11592459.360521317        647772530.03440571     
  -3953739309.9883604        7600401.5017876625        644144987.64072216     
  -2639213585.1307502       -93866940.077162862        1103643072.6440606     
  -2517124415.9692702       -103596638.92288303        1086075796.0679801     
  -2393058440.0027266       -106736981.75172484        1061908659.4745492     
  -2267015657.2311325       -103287968.56373000        1031141662.8637640     
  -2138996067.6544785       -93249599.358868837        993774806.23562980     
  -2953629327.4195070       -64235398.004732490        987707531.44214225     
  -2843790822.1807323       -76844597.514624476        970948542.92228699     
  -2732663467.9847636       -85157633.833864927        952030326.94020498     
  -2620247264.8315959       -89174506.962434292        930952883.49589348     
  -2506542212.7212238       -88895216.900341272        907716212.58935344     
  -3277522195.6586909       -37446993.717429996        872479336.87427962     
  -3167246832.7565641       -49129437.415687561        855726018.92148387     
  -3056370578.7451005       -58808910.749484777        841254106.06158316     
  -2944893433.6242914       -66485413.718808055        829063598.29457426     
  -2832815397.3941469       -72158946.323663950        819154495.62046051     
  -3610892189.8483081       -13501727.215250969        757958488.94047296     
  -3487492447.6967640       -20451158.626057386        740408224.06556726     
  -3364179772.2837386       -27690812.498601675        729579996.83868098     
  -3240954163.6092267       -35220688.832852244        725473807.25981069     
  -3117815621.6732306       -43040787.628834605        728089655.32895577     
  -3953739309.9883604        7600401.5017876625        644144987.64072216     
  -3804527667.0013266        9190238.8542642593        624995158.35454202     
  -3656091048.6006770        8196660.9187960625        617007999.27149951     
  -3508429454.7863989        4619667.6954295635        620183510.39159763     
  -3361542885.5584955       -1540740.8158628941        634521691.71483445     
  -2138996067.6544785       -93249599.358868837        993774806.23562980     
  -2036172387.4231906       -96025558.955624700        977011517.52167666     
  -1938790715.7538719       -116941547.09227985        974054345.84810185     
  -1846851052.6465361       -155997563.76887572        984903291.21490908     
  -1760353398.1011741       -213193608.98538595        1009558353.6220955     
  -2506542212.7212238       -88895216.900341272        907716212.58935344     
  -2373949372.4447870       -86894542.271063685        897047247.07181430     
  -2245246448.3009171       -97860254.750345588        894369218.18877161     
  -2120433440.2896113       -121792354.33817697        899682125.94022834     
  -1999510348.4108725       -158690841.03455478        912985970.32617867     
  -2832815397.3941469       -72158946.323663950        819154495.62046051     
  -2687068198.2322283       -70366077.816273689        816390627.80031753     
  -2543658822.7734680       -76365954.986060023        815802516.20878661     
  -2402587271.0178618       -90158577.833040714        817390160.84586918     
  -2263853542.9654093       -111743946.35719025        821153561.71156704     
  -3117815621.6732306       -43040787.628834605        728089655.32895577     
  -2975528864.7855082       -46440165.591233015        735041659.70718277     
  -2834027839.1715212       -52458647.799423575        738354239.90814745     
  -2693312544.8312860       -61096234.253445148        738027395.93183947     
  -2553382981.7647905       -72352924.953278303        734061127.77825546     
  -3361542885.5584955       -1540740.8158628941        634521691.71483445     
  -3239331372.1046247       -15116805.595940232        653000342.79241681     
  -3116353497.4950805       -26138333.190443039        662024389.28685033     
  -2992609261.7298799       -34605323.599414706        661593831.19812727     
  -2868098664.8090010       -40517776.822804928        651708668.52624881     
  -1760353398.1011741       -213193608.98538595        1009558353.6220955     
  -1830401101.4377735       -387048196.13938367        881994163.74574006     
  -1940959500.3263905       -695938435.13342822        593000412.67313683     
  -2092028594.7670152       -1139864325.9675140        142577100.40429369     
  -2283608384.7596693       -1718825868.6416836       -469275773.06079036     
  -1999510348.4108725       -158690841.03455478        912985970.32617867     
  -2414803036.5656667       -397762313.03795224        775524738.42454660     
  -2853442018.2342224       -714654763.42054486        548970052.82425320     
  -3315427293.4165573       -1109368192.1823902        233321913.52529472     
  -3800758862.1126413       -1581902599.3234482       -171419679.47232115     
  -2263853542.9654093       -111743946.35719025        821153561.71156704     
  -2817716623.0881615       -354029925.35490143        693820423.49594712     
  -3377761594.6864238       -616922209.27099323        549729939.07924342     
  -3943988457.7602105       -900420798.10549498        388882108.46147090     
  -4516397212.3095160       -1204525691.8583903        211276931.64260876     
  -2553382981.7647905       -72352924.953278303        734061127.77825546     
  -3039141861.0052609       -255851033.09023213        636881218.95994103     
  -3513918229.6830020       -402740772.68475091        595280071.43812919     
  -3977712087.7980185       -513022143.73684883        609257685.21281004     
  -4430523435.3503036       -586695146.24650931        678814060.28401768     
  -2868098664.8090010       -40517776.822804928        651708668.52624881     
  -3079078750.3169613       -103225636.24394310        604707124.81652677     
  -3261911923.2239428       -72110453.661809683        685620449.90089071     
  -3416598183.5299468        52827770.923565149        894448643.77933705     
  -3543137531.2349701        271589037.51222110        1231191706.4518764     
  -5956447528.9451466       -1786934258.6835439        1150484233.8144019     
  -6086774677.2240868       -1501861570.5561211        1227977426.3161702     
  -6219915639.6586704       -1226168262.9475098        1268264134.1536593     
  -6355870416.2488985       -959854335.85771036        1271344357.3268688     
  -6494639006.9947691       -702919789.28672290        1237218095.8357995     
  -6809768748.6148167       -2042930624.5844452        1354186688.7175272     
  -6827354575.0291710       -1395344749.8637114        1202889727.9813344     
  -6896337780.8527889       -919083473.17385101        1091866456.4375691     
  -7016718366.0856667       -614146794.51486301        1021116874.0862316     
  -7188496330.7278090       -480534713.88674974        990640980.92732167     
  -8337110093.7705460       -2501133028.1311636        1712649091.3137000     
  -8020582673.0154381       -1424622389.2256558        1275881151.2103245     
  -7804036196.9232111       -681381565.86308289        956867074.15608358     
  -7687470665.4938641       -271410558.04344463        755606860.15097737     
  -7670886078.7273941       -194709365.76674080        672100509.19500506     
  -10538471564.412331       -3161541469.3236995        2225871441.6029205     
  -9666458971.1828823       -1589694488.6419549        1446951696.0031400     
  -8943010887.8699341       -513062541.01520538        863265987.30920184     
  -8368127314.4734821        68354373.556546688        474814315.52110517     
  -7941808250.9935265        154556255.07330608        281596680.63884985     
  -13413853160.540174       -4024155948.1620522        2893853739.5851879     
  -11764983469.531507       -1890561048.1126068        1716101362.3597822     
  -10313261853.692959       -414126398.63021851        811063195.89692438     
  -9058688313.0245285        405148000.28511143        178739240.19661567     
  -8001262847.5262136        567262148.63338327       -180870504.74114430     
  -6494639006.9947691       -702919789.28672290        1237218095.8357995     
  -6237108358.7256575       -377834614.11844707        1053059308.5859303     
  -6010218276.3715878       -154884658.66697955        907365587.79586756     
  -5813968759.9325600       -34069922.932320595        800136933.46561038     
  -5648359809.4085751       -15390406.914469957        731373345.59516001     
  -7188496330.7278090       -480534713.88674974        990640980.92732167     
  -6898924633.4058676       -305646263.65158796        846435665.14107883     
  -6621996345.0145617       -172902509.85187864        723073026.38177073     
  -6357711465.5538921       -82303452.487617970        620553064.64939892     
  -6106069995.0238562       -33849091.558809996        538875779.94395792     
  -7670886078.7273941       -194709365.76674080        672100509.19500506     
  -7399623016.4465446       -185122545.69286919        588845348.02086401     
  -7123006206.1119232       -157689898.77309179        508810474.44078714     
  -6841035647.7235298       -112411425.00741029        431995888.45477122     
  -6553711341.2813663       -49287124.395818949        358401590.06281894     
  -7941808250.9935265        154556255.07330608        281596680.63884985     
  -7739203507.8476915       -16263460.242291451        280288357.22528762     
  -7513247859.6636715       -109246825.43062210        264577931.97291330     
  -7263941306.4414749       -124393840.49169016        234465404.88173330     
  -6991283848.1810970       -61704505.425495148        189950775.95174053     
  -8001262847.5262136        567262148.63338327       -180870504.74114430     
  -7917666107.6093054        200930992.70014715       -79235307.245656982     
  -7792721305.6698084       -27573289.824470520       -9624601.0218486059     
  -7626428441.7077265       -118250698.94046640        27961613.930278338     
  -7418787515.7230587       -71101234.647840500        33523337.610723823     
  -5648359809.4085751       -15390406.914469957        731373345.59516001     
  -5519126829.9028406       -46224176.501173735        716429827.43644226     
  -5384704159.8440895       -59758977.577834129        704650810.43962789     
  -5245091799.2323284       -55994810.144450903        696036294.60471261     
  -5100289748.0675526       -34931674.201027870        690586279.93169725     
  -6106069995.0238562       -33849091.558809996        538875779.94395792     
  -5959621141.6631775       -34842599.081202984        530992077.27758253     
  -5812324538.6908035       -33010274.564615726        526300639.01519215     
  -5664180186.1067362       -28352118.009046793        524801465.15678406     
  -5515188083.9109707       -20868129.414498091        526494555.70235974     
  -6553711341.2813663       -49287124.395818949        358401590.06281894     
  -6389967290.5169325       -20416572.789259434        352512105.12391359     
  -6229717431.0821247       -3193325.6147797108        349842647.83107483     
  -6072961762.9769440        2382617.1276159286        350393218.18430203     
  -5919700286.2013845       -3688744.5620629787        354163816.18359691     
  -6991283848.1810970       -61704505.425495148        189950775.95174053     
  -6810165276.4641075       -2946097.6253399849        180989910.97543314     
  -6636882837.0180597        29691869.271671295        175276836.88727710     
  -6471436529.8429537        36209395.265545607        172811553.68726683     
  -6313826354.9387894        16606480.356271267        173594061.37540919     
  -7418787515.7230587       -71101234.647840500        33523337.610723823     
  -7220215099.5046997        17568826.410555840        16425494.832146024     
  -7033820756.4986000        65645310.094740868        2603206.1837969124     
  -6859604486.7047615        73128216.404727936       -7943528.3343191883     
  -6697566290.1231842        40017545.340515137       -15214708.722202439     
  -5100289748.0675526       -34931674.201027870        690586279.93169725     
  -4937805900.3761606       -4767904.8819923401        678102333.89374077     
  -4778008823.8415384        16439960.581139565        670501143.56756413     
  -4620898518.4636889        28691922.188366652        667782708.95316899     
  -4466474984.2426100        31987979.939687252        669947030.05055714     
  -5515188083.9109707       -20868129.414498091        526494555.70235974     
  -5345868145.1304502       -7007193.9105923176        515318711.20979595     
  -5177212266.3348618        4640208.3102135658        508280835.03134918     
  -5009220447.5241985        14074077.247928619        505380927.16701585     
  -4841892688.6984634        21294412.902546406        506618987.61679989     
  -5919700286.2013845       -3688744.5620629787        354163816.18359691     
  -5745672220.3250704       -6769032.0712947845        346655902.93690962     
  -5570285503.2618389       -5320482.2908072472        342541170.60667652     
  -5393540135.0116978        656904.77938985825        341819619.19289118     
  -5215436115.5746365        11163129.139307261        344491248.69555467     
  -6313826354.9387894        16606480.356271267        173594061.37540919     
  -6137218125.9600077       -4053419.3640904427        172113909.07508597     
  -5957228534.6224747       -13442111.221931219        173282150.29354838     
  -5773857580.9261799       -11559595.217242479        177098785.03079292     
  -5587105264.8711271        1594128.6499691010        183563813.28682283     
  -6697566290.1231842        40017545.340515137       -15214708.722202439     
  -6520505862.0352755        1139644.2110109329       -8307270.3756792434     
  -6338041360.4167624       -19724678.483150244        503774.09196498222     
  -6150172785.2676468       -22575422.741967678        11218424.680721510     
  -5956900136.5879307       -7412588.5654492378        23836681.390600510     
  -4466474984.2426100        31987979.939687252        669947030.05055714     
  -4338922516.7042685        23786248.579474688        660673551.23931992     
  -4210949081.8157821        16987741.719747782        653282051.23393643     
  -4082554679.5771446        11592459.360521317        647772530.03440571     
  -3953739309.9883604        7600401.5017876625        644144987.64072216     
  -4841892688.6984634        21294412.902546406        506618987.61679989     
  -4706757613.9562426        17189509.144613028        498554815.43230522     
  -4572057886.3856916        11633448.147799730        493496017.45979840     
  -4437793505.9868002        4626229.9121086597        491442593.69928354     
  -4303964472.7595692       -3832145.5624549389        492394544.15075487     
  -5215436115.5746365        11163129.139307261        344491248.69555467     
  -5069508732.4681473        12117963.331773520        336637349.52902186     
  -4924873011.0551310        8767258.5459878445        332912219.98061347     
  -4781528951.3355904        1111014.7819559574        333315860.05033273     
  -4639476553.3095226       -10850767.960319519        337848269.73817891     
  -5587105264.8711271        1594128.6499691010        183563813.28682283     
  -5427175872.2399712        8571611.1409511566        174921153.52947009     
  -5269394455.8241014        8389172.9143176079        171530658.79638430     
  -5113761015.6235209        1046813.9700541496        173392329.08755934     
  -4960275551.6382189       -13455465.691807508        180506164.40300089     
  -5956900136.5879307       -7412588.5654492378        23836681.390600510     
  -5779759033.2717180        6550452.5721650124        13406227.433645843     
  -5605622220.6925983        10499191.252802610        9351333.9071007576     
  -5434489698.8505812        4433627.4764270782        11672000.810948361     
  -5266361467.7456579       -11646238.756925106        20368228.145210512     
  -3953739309.9883604        7600401.5017876625        644144987.64072216     
  -3804527667.0013266        9190238.8542642593        624995158.35454202     
  -3656091048.6006770        8196660.9187960625        617007999.27149951     
  -3508429454.7863989        4619667.6954295635        620183510.39159763     
  -3361542885.5584955       -1540740.8158628941        634521691.71483445     
  -4303964472.7595692       -3832145.5624549389        492394544.15075487     
  -4128636100.5297308        180662.75755143166        476807024.45196027     
  -3952858283.0444169        5691621.9291505814        469587479.12890774     
  -3776631020.3036213        12700731.952346087        470735908.18159699     
  -3599954312.3073473        21207992.827143908        480252311.61002713     
  -4639476553.3095226       -10850767.960319519        337848269.73817891     
  -4446016297.0580072       -6810442.2391092777        327251607.77560198     
  -4250882125.7091651        2809600.4732058048        322228224.36136544     
  -4054074039.2629890        18009360.176635742        322778119.49548113     
  -3855592037.7194743        38788836.871177912        328901293.17793185     
  -4960275551.6382189       -13455465.691807508        180506164.40300089     
  -4756668256.5861616       -11783076.135730028        176328908.32546854     
  -4550162576.5949230       -449403.44904041290        174930234.96887788     
  -4340758511.6644993        20545552.368273735        176310144.33324188     
  -4128456061.7948761        51201791.316229582        180468636.41854990     
  -5266361467.7456579       -11646238.756925106        20368228.145210512     
  -5060591979.1141987       -14737238.932342529        24038926.101552013     
  -4850699635.7016973       -4085389.8376030922        27693510.951447286     
  -4636684437.5081615        20309308.527255297        31331982.694889363     
  -4418546384.5335703        58446856.162277222        34954341.331885695     
  -3361542885.5584955       -1540740.8158628941        634521691.71483445     
  -3239331372.1046247       -15116805.595940232        653000342.79241681     
  -3116353497.4950805       -26138333.190443039        662024389.28685033     
  -2992609261.7298799       -34605323.599414706        661593831.19812727     
  -2868098664.8090010       -40517776.822804928        651708668.52624881     
  -3599954312.3073473        21207992.827143908        480252311.61002713     
  -3496259884.8020515        6540705.9774091244        494852929.22978127     
  -3393858768.6471291       -12437618.706901073        504916059.64216375     
  -3292750963.8425775       -35726981.225773215        510441702.84718102     
  -3192936470.3883905       -63327381.579210401        511429858.84483117     
  -3855592037.7194743        38788836.871177912        328901293.17793185     
  -3756365789.3748031        27244999.988149643        337220926.08281434     
  -3660492524.8865447        4524550.2504215240        345920189.15611124     
  -3567972244.2546849       -29372512.341961622        354999082.39782745     
  -3478804947.4792299       -74446187.789049506        364457605.80795634     
  -4128456061.7948761        51201791.316229582        180468636.41854990     
  -4019649085.8228760        46996076.436299324        180104333.35151759     
  -3916254766.2133164        24748173.681565046        185036777.82868883     
  -3818273102.9661984       -15541916.947981834        195265969.85005409     
  -3725704096.0815215       -73874195.452318192        210791909.41562229     
  -4418546384.5335703        58446856.162277222        34954341.331885695     
  -4286109774.1462703        65793935.321856022        23503151.035893980     
  -4161145492.6274691        48233251.586444378        22265825.659882288     
  -4043653539.9771142        5764804.9562065601        31242365.203876883     
  -3933633916.1952615       -61611404.569034576        50432769.667845093     
  -2868098664.8090010       -40517776.822804928        651708668.52624881     
  -3079078750.3169613       -103225636.24394310        604707124.81652677     
  -3261911923.2239428       -72110453.661809683        685620449.90089071     
  -3416598183.5299468        52827770.923565149        894448643.77933705     
  -3543137531.2349701        271589037.51222110        1231191706.4518764     
  -3192936470.3883905       -63327381.579210401        511429858.84483117     
  -3119524202.6696868       -70507672.983585477        481201121.24183935     
  -3026132397.2249904       -11089505.301308751        529006809.32294178     
  -2912761054.0542994        114927121.46762705        654846923.08813381     
  -2779410173.1575994        307542207.32323050        858721462.53742445     
  -3478804947.4792299       -74446187.789049506        364457605.80795634     
  -3263515878.2767010       -68853576.699511170        341473070.29088372     
  -3036414646.2231631       -23887089.439948797        346642517.34791362     
  -2797501251.3186026        60453273.989700437        379965946.97904265     
  -2546775693.5630302        184167513.58937943        441443359.18427879     
  -3725704096.0815215       -73874195.452318192        210791909.41562229     
  -3511053777.1380010       -98263347.391741157        185522971.96365723     
  -3292758670.2184510       -110503206.07770491        138527573.97580612     
  -3070818775.3228683       -110593771.51021314        69805715.452054009     
  -2845234092.4512477       -98535043.689304352       -20642603.607576091     
  -3933633916.1952615       -61611404.569034576        50432769.667845093     
  -3862137899.2535791       -158736985.06022072        13350826.260168839     
  -3795164469.2108679       -270937855.21462321       -95338020.793378502     
  -3732713626.0670795       -398214015.03211129       -275633771.49281931     
  -3674785369.8222547       -540565464.51281142       -527536425.83813763     
 </DataArray>
 <DataArray  type="Float64" Name="VM" NumberOfComponents="1" format="ascii">
   12936135346.340010     
   11342950627.264559     
   10214047382.097727     
   9278036192.3278828     
   8310536971.2708378     
   10131727187.289282     
   9324710685.3907051     
   8830238408.6790981     
   8448433680.3928175     
   8041501153.7743330     
   7984166327.2665997     
   7737665915.1057119     
   7672659912.4697332     
   7673787769.9390402     
   7671098868.6428127     
   6493360523.6436338     
   6589064916.7695189     
   6760092583.7759390     
   6964304589.5451994     
   7175012427.1617727     
   5658845088.0225172     
   5892042483.5513239     
   6117695057.7166729     
   6333314365.0633020     
   6538653228.8465919     
   8310536971.2708378     
   8028176632.8417711     
   7787940031.5692854     
   7579138935.0371675     
   7396801310.6882648     
   8041501153.7743330     
   7753442785.6502409     
   7481068514.6070194     
   7222419119.5966358     
   6977503650.4116488     
   7671098868.6428127     
   7386551205.6342478     
   7107394824.3865538     
   6833712221.6593027     
   6565712244.4820194     
   7175012427.1617727     
   6914970536.0126343     
   6662798130.8080759     
   6414647080.5743456     
   6167377773.3398342     
   6538653228.8465919     
   6331062934.7803164     
   6145585081.5735559     
   5968326139.1309738     
   5790277268.5407448     
   7396801310.6882648     
   7239770671.9484444     
   7075210052.1152067     
   6902427571.1067038     
   6721238704.0532455     
   6977503650.4116488     
   6824424253.5281382     
   6666719867.7246609     
   6504107292.9384117     
   6336535156.6474361     
   6565712244.4820194     
   6415911984.9748220     
   6264486168.7698908     
   6111402668.2557726     
   5956690375.2999210     
   6167377773.3398342     
   6019194421.1423016     
   5872372447.1108608     
   5726951007.3186655     
   5582987643.9214964     
   5790277268.5407448     
   5640690674.3022661     
   5495361806.1653891     
   5354205705.1795578     
   5217272524.9175377     
   6721238704.0532455     
   6527817549.7034969     
   6337970555.4174862     
   6151587805.1052370     
   5968659222.3710470     
   6336535156.6474361     
   6152163701.7502508     
   5970100013.0394526     
   5790323035.4121733     
   5612861824.8883438     
   5956690375.2999210     
   5783520559.7981758     
   5611715861.4905672     
   5441301733.2923450     
   5272336992.3615608     
   5582987643.9214964     
   5423699207.0424366     
   5265192275.3395815     
   5107507010.4870949     
   4950743018.0035276     
   5217272524.9175377     
   5075100812.7498760     
   4933543170.5007639     
   4792634573.1231880     
   4652549830.0451756     
   5968659222.3710470     
   5796638116.7535810     
   5622985282.6281586     
   5447675208.8530188     
   5270743816.7726841     
   5612861824.8883438     
   5450712203.0361605     
   5287954887.4601393     
   5124623360.5855818     
   4960799016.6125441     
   5272336992.3615608     
   5119807572.4916019     
   4967721857.4396687     
   4816157955.8932323     
   4665233649.4792490     
   4950743018.0035276     
   4807380135.2915440     
   4665510525.8731155     
   4525239189.4208517     
   4386709041.2032280     
   4652549830.0451756     
   4517641974.0047474     
   4385240556.7824230     
   4255456883.0835195     
   4128446696.8377457     
   5270743816.7726841     
   5060095351.8717394     
   4850522443.4205933     
   4642011002.0376034     
   4434576020.6615267     
   4960799016.6125441     
   4759342480.0931854     
   4558969713.0875607     
   4359699763.8939486     
   4161591274.6340766     
   4665233649.4792490     
   4475067975.1683245     
   4286235952.5399013     
   4098813489.1207457     
   3912937960.5551777     
   4386709041.2032280     
   4210146129.5562167     
   4035456089.7049379     
   3862801393.7842531     
   3692440128.2468176     
   4128446696.8377457     
   3967978893.2988682     
   3810252875.6422806     
   3655546538.6280432     
   3504277384.6482382     
   4434576020.6615267     
   4299874998.7207747     
   4164011322.8706541     
   4027196735.9321885     
   3889809319.5271411     
   4161591274.6340766     
   4042998525.5576229     
   3924434883.4326262     
   3806135508.4369502     
   3688442551.2600803     
   3912937960.5551777     
   3807289636.0841870     
   3702532220.5349889     
   3598865279.5104380     
   3496544221.5822153     
   3692440128.2468176     
   3596419103.2140846     
   3501726820.2678695     
   3408483974.6356788     
   3316832338.5203462     
   3504277384.6482382     
   3414477613.6613541     
   3325942579.6484084     
   3238689098.1185994     
   3152743508.7523007     
   3889809319.5271411     
   3665434473.6609988     
   3445694379.9800329     
   3231170428.2989783     
   3023088904.6628814     
   3688442551.2600803     
   3462243971.8684125     
   3238663763.7119265     
   3017888061.3678412     
   2800281942.7219439     
   3496544221.5822153     
   3279853711.6049943     
   3065021230.6557016     
   2852167385.9352756     
   2641592873.9211917     
   3316832338.5203462     
   3122500542.9301882     
   2930939732.2554393     
   2742913313.2542424     
   2560021903.3177853     
   3152743508.7523007     
   2994752698.9734664     
   2842448897.0724154     
   2698102519.1759439     
   2565996691.9690766     
   5658845088.0225172     
   5892042483.5513239     
   6117695057.7166729     
   6333314365.0633020     
   6538653228.8465919     
   5151582127.0861397     
   5311555225.8820410     
   5468202223.1596861     
   5618612535.7169762     
   5761309825.4669209     
   4642820985.3637915     
   4754899179.3288651     
   4868089969.4956388     
   4979754535.2138252     
   5087966894.2202854     
   4132820432.8213911     
   4222913439.8884382     
   4318862612.5548849     
   4419014658.2679558     
   4521919581.8915730     
   3623105673.5947952     
   3717433605.6189642     
   3822898622.5806379     
   3939443791.8418341     
   4066981409.0121036     
   6538653228.8465919     
   6331062934.7803164     
   6145585081.5735559     
   5968326139.1309738     
   5790277268.5407448     
   5761309825.4669209     
   5653015046.5802841     
   5560666580.4963608     
   5475206925.9041967     
   5391088386.2898159     
   5087966894.2202854     
   5053273742.8963060     
   5029059815.2953739     
   5010116448.8941603     
   4993234517.6487570     
   4521919581.8915730     
   4536458733.3691568     
   4555658067.1985254     
   4577034383.8311777     
   4598859489.2034912     
   4066981409.0121036     
   4107947939.2682338     
   4146277064.4972210     
   4181071054.4948831     
   4211598278.1015344     
   5790277268.5407448     
   5640690674.3022661     
   5495361806.1653891     
   5354205705.1795578     
   5217272524.9175377     
   5391088386.2898159     
   5251076298.1928864     
   5114343223.5657816     
   4980929521.3347702     
   4850929334.5466146     
   4993234517.6487570     
   4867052959.0069866     
   4744102870.0242529     
   4624348926.8142700     
   4507827249.9267092     
   4598859489.2034912     
   4491305261.1081600     
   4387983426.2176075     
   4288570513.3270574     
   4192962907.5381274     
   4211598278.1015344     
   4127832425.9229484     
   4050529639.8025837     
   3978827675.8779287     
   3912403017.4213991     
   5217272524.9175377     
   5075100812.7498760     
   4933543170.5007639     
   4792634573.1231880     
   4652549830.0451756     
   4850929334.5466146     
   4725503305.0315781     
   4601697157.1767216     
   4479642001.9548225     
   4359584778.8665485     
   4507827249.9267092     
   4398277632.1474972     
   4291327677.0443511     
   4187176526.9750752     
   4086113944.3461595     
   4192962907.5381274     
   4098251652.4417081     
   4007038660.7183766     
   3919559483.5239105     
   3836116016.2134080     
   3912403017.4213991     
   3831250897.2898402     
   3754348104.4270430     
   3681934117.7858419     
   3614294923.0398922     
   4652549830.0451756     
   4517641974.0047474     
   4385240556.7824230     
   4255456883.0835195     
   4128446696.8377457     
   4359584778.8665485     
   4235248319.2413735     
   4113627568.6942906     
   3994900756.5932488     
   3879297631.1738086     
   4086113944.3461595     
   3974526657.0706015     
   3866129776.4899988     
   3761180298.2818027     
   3660005540.7186389     
   3836116016.2134080     
   3739638667.1684451     
   3647117252.3057885     
   3558895067.5780964     
   3475415112.0401502     
   3614294923.0398922     
   3535356174.4199786     
   3461433667.4587293     
   3392951563.6589365     
   3330470577.2310543     
   4128446696.8377457     
   3967978893.2988682     
   3810252875.6422806     
   3655546538.6280432     
   3504277384.6482382     
   3879297631.1738086     
   3734712322.0012178     
   3593974473.6367478     
   3457439081.6006923     
   3325583086.6530848     
   3660005540.7186389     
   3529916108.0055261     
   3404626417.4922972     
   3284517717.2814260     
   3170078223.1586585     
   3475415112.0401502     
   3358119493.7006102     
   3246337638.0288057     
   3140427975.6276379     
   3040850255.4629793     
   3330470577.2310543     
   3223895084.7201786     
   3123229195.7862239     
   3028768569.3029399     
   2940921226.9843888     
   3504277384.6482382     
   3414477613.6613541     
   3325942579.6484084     
   3238689098.1185994     
   3152743508.7523007     
   3325583086.6530848     
   3243015781.3609734     
   3162046126.2236195     
   3082915517.0109682     
   3005904449.3128695     
   3170078223.1586585     
   3101186645.9232020     
   3034985173.5695448     
   2972030440.1176505     
   2913027216.0778441     
   3040850255.4629793     
   2992311064.4277387     
   2948291213.8476224     
   2909729738.4103107     
   2877878956.8635068     
   2940921226.9843888     
   2919168174.3373928     
   2904373409.1237812     
   2897860791.6549211     
   2901454138.4197559     
   3152743508.7523007     
   2994752698.9734664     
   2842448897.0724154     
   2698102519.1759439     
   2565996691.9690766     
   3005904449.3128695     
   2884537613.3150759     
   2770095744.3214478     
   2663830194.6992917     
   2567477756.8907342     
   2913027216.0778441     
   2810408664.1661463     
   2712663068.3034668     
   2619927816.7749181     
   2532444379.6934881     
   2877878956.8635068     
   2775084778.7967057     
   2671855277.9286070     
   2567686122.8334098     
   2462873101.6591058     
   2901454138.4197559     
   2779878849.0984335     
   2649795237.9988112     
   2510704705.0858822     
   2364677570.9553857     
   3623105673.5947952     
   3717433605.6189642     
   3822898622.5806379     
   3939443791.8418341     
   4066981409.0121036     
   3135617499.5847068     
   3252560366.5838470     
   3378827415.5274019     
   3513952895.7373147     
   3657482277.4365249     
   2691992881.1747813     
   2827050539.7020054     
   2969356337.8907619     
   3117825943.3145351     
   3271547163.4141235     
   2295763109.7188897     
   2445756190.6663866     
   2600444940.0059805     
   2757896111.2257361     
   2916670799.4156513     
   1952208145.6746347     
   2115724242.2432649     
   2280614323.4665136     
   2443895673.2208147     
   2603590322.2932444     
   4066981409.0121036     
   4107947939.2682338     
   4146277064.4972210     
   4181071054.4948831     
   4211598278.1015344     
   3657482277.4365249     
   3696315907.3161645     
   3733715820.8698745     
   3768790461.4555140     
   3800795872.1949739     
   3271547163.4141235     
   3313969123.2421074     
   3356506476.5773449     
   3398348093.8904858     
   3438822833.7501812     
   2916670799.4156513     
   2968427129.9102736     
   3022196132.3663902     
   3077310407.0294108     
   3133242832.5312004     
   2603590322.2932444     
   2669925675.3647046     
   2740463983.2660499     
   2814714125.6487970     
   2892326651.8416276     
   4211598278.1015344     
   4127832425.9229484     
   4050529639.8025837     
   3978827675.8779287     
   3912403017.4213991     
   3800795872.1949739     
   3747908287.3300323     
   3700956389.2253146     
   3659449113.1013856     
   3623263754.1547575     
   3438822833.7501812     
   3412244904.1510901     
   3390696300.8460002     
   3373930707.9863186     
   3361911610.5044427     
   3133242832.5312004     
   3128699517.2146401     
   3127689264.6597614     
   3130099251.8826327     
   3135903162.7508621     
   2892326651.8416276     
   2905914615.3540931     
   2920765983.4353275     
   2936820335.0337310     
   2954034040.1904893     
   3912403017.4213991     
   3831250897.2898402     
   3754348104.4270430     
   3681934117.7858419     
   3614294923.0398922     
   3623263754.1547575     
   3553634413.3954492     
   3488471596.5212827     
   3427998342.5243177     
   3372479098.4463773     
   3361911610.5044427     
   3303652672.4162574     
   3250127860.9419131     
   3201533042.3797183     
   3158101576.7623501     
   3135903162.7508621     
   3088809696.4524627     
   3046755475.9552608     
   3009893982.7761221     
   2978414143.5325971     
   2954034040.1904893     
   2917739587.1427755     
   2886803081.5436907     
   2861317141.8848515     
   2841410868.7173991     
   3614294923.0398922     
   3535356174.4199786     
   3461433667.4587293     
   3392951563.6589365     
   3330470577.2310543     
   3372479098.4463773     
   3308684276.0893078     
   3250662606.9922686     
   3198758265.0410047     
   3153398857.8403420     
   3158101576.7623501     
   3106763161.7131824     
   3061760352.2012634     
   3023344956.6878581     
   2991813765.8616104     
   2978414143.5325971     
   2936192714.0001254     
   2900642455.3669953     
   2871931269.5514030     
   2850252731.8317833     
   2841410868.7173991     
   2804299881.1300507     
   2773941643.1281962     
   2750452348.5107994     
   2733976778.8513932     
   3330470577.2310543     
   3223895084.7201786     
   3123229195.7862239     
   3028768569.3029399     
   2940921226.9843888     
   3153398857.8403420     
   3054354636.3574171     
   2962016399.4915032     
   2876754088.4787006     
   2799010846.7892928     
   2991813765.8616104     
   2903554892.3249173     
   2823178509.0639687     
   2751078820.2358828     
   2687732021.3879499     
   2850252731.8317833     
   2775794872.7372088     
   2710737441.8097482     
   2655439663.2189131     
   2610405272.3997455     
   2733976778.8513932     
   2675730988.8059702     
   2628692439.8284383     
   2593119922.8551059     
   2569538654.4518752     
   2940921226.9843888     
   2919168174.3373928     
   2904373409.1237812     
   2897860791.6549211     
   2901454138.4197559     
   2799010846.7892928     
   2797693646.0383840     
   2800916213.2247372     
   2809184718.9363818     
   2823090620.1102614     
   2687732021.3879499     
   2695206889.6148958     
   2703707340.6535459     
   2713153846.0652900     
   2723472576.1839371     
   2610405272.3997455     
   2615557119.2683244     
   2617239281.2146068     
   2615102281.3803129     
   2609032888.2670841     
   2569538654.4518752     
   2562571980.8877826     
   2546908415.8133035     
   2522285992.1039262     
   2489247387.4184041     
   2901454138.4197559     
   2779878849.0984335     
   2649795237.9988112     
   2510704705.0858822     
   2364677570.9553857     
   2823090620.1102614     
   2688018527.2691870     
   2569336016.6429315     
   2468166344.6879129     
   2385952463.6961899     
   2723472576.1839371     
   2619008000.0669112     
   2556940018.3944449     
   2540164592.7366838     
   2572870930.9069185     
   2609032888.2670841     
   2570482863.7831664     
   2602924098.3021326     
   2710200265.0958767     
   2900371601.3867631     
   2489247387.4184041     
   2539705079.4372497     
   2699687440.5795751     
   2971093526.9543471     
   3363423223.3002806     
   1952208145.6746347     
   2115724242.2432649     
   2280614323.4665136     
   2443895673.2208147     
   2603590322.2932444     
   1651056903.4608197     
   1817317320.0362458     
   1985291397.5217152     
   2152258950.4896746     
   2316445058.8634276     
   1391901460.8683729     
   1569443865.4653323     
   1747987473.8744121     
   1925510684.4842441     
   2100752964.9147205     
   1207100995.3175743     
   1399500446.0013795     
   1591443390.7519574     
   1782146731.6291156     
   1971149260.8553751     
   1138945878.5856690     
   1337918999.7903636     
   1537145997.3712442     
   1736626259.9367387     
   1936359468.6705472     
   2603590322.2932444     
   2669925675.3647046     
   2740463983.2660499     
   2814714125.6487970     
   2892326651.8416276     
   2316445058.8634276     
   2401811055.0269117     
   2489495821.9390788     
   2579121105.2913413     
   2670415417.5211973     
   2100752964.9147205     
   2203174165.7387676     
   2305587770.2707229     
   2407761863.2053156     
   2509531717.6297050     
   1971149260.8553751     
   2087630972.1030354     
   2201566959.6797724     
   2312881959.0428348     
   2421524240.5517182     
   1936359468.6705472     
   2063098329.8487146     
   2184960825.5562716     
   2301947282.3379121     
   2414058107.8695569     
   2892326651.8416276     
   2905914615.3540931     
   2920765983.4353275     
   2936820335.0337310     
   2954034040.1904893     
   2670415417.5211973     
   2691394112.7146230     
   2714237384.6469088     
   2738916158.9555130     
   2765414058.8564262     
   2509531717.6297050     
   2538009757.6807971     
   2568949797.4565144     
   2602342932.9328122     
   2638188580.7328768     
   2421524240.5517182     
   2456486633.9523149     
   2494485003.2984166     
   2535520114.2129288     
   2579597239.1852117     
   2414058107.8695569     
   2453271033.3514175     
   2496075403.9919677     
   2542476157.8955784     
   2592479944.2920032     
   2954034040.1904893     
   2917739587.1427755     
   2886803081.5436907     
   2861317141.8848515     
   2841410868.7173991     
   2765414058.8564262     
   2741439883.3240089     
   2723592945.9202638     
   2711965107.2023444     
   2706656501.2148166     
   2638188580.7328768     
   2623938408.9095478     
   2616288701.7206602     
   2615307024.3638859     
   2621061924.8145866     
   2579597239.1852117     
   2571391456.7496138     
   2569921137.1820521     
   2575228728.4884048     
   2587375827.9260259     
   2592479944.2920032     
   2585880296.3551207     
   2585825850.4511862     
   2592349251.3743682     
   2605545114.9898367     
   2841410868.7173991     
   2804299881.1300507     
   2773941643.1281962     
   2750452348.5107994     
   2733976778.8513932     
   2706656501.2148166     
   2678519451.2531590     
   2657772628.9912696     
   2644481354.7776160     
   2638720025.8015513     
   2621061924.8145866     
   2602405582.9182239     
   2591927838.5165420     
   2589638655.4920249     
   2595564871.7686400     
   2587375827.9260259     
   2577917216.7529001     
   2577576418.2222514     
   2586315282.9407949     
   2604147822.3192387     
   2605545114.9898367     
   2604136579.9296880     
   2612966372.4185572     
   2631970276.9978528     
   2661194083.2210913     
   2733976778.8513932     
   2675730988.8059702     
   2628692439.8284383     
   2593119922.8551059     
   2569538654.4518752     
   2638720025.8015513     
   2598780858.4470501     
   2566935266.0976110     
   2543303145.6020494     
   2528082447.7506542     
   2595564871.7686400     
   2566783437.7919049     
   2542165372.6660218     
   2521743842.2543888     
   2505555379.4158297     
   2604147822.3192387     
   2580905043.9288702     
   2557236939.4708099     
   2533136119.3963637     
   2508615364.2638083     
   2661194083.2210913     
   2639915477.8261318     
   2613245229.2987328     
   2581181347.5460401     
   2543831782.5992179     
   2569538654.4518752     
   2562571980.8877826     
   2546908415.8133035     
   2522285992.1039262     
   2489247387.4184041     
   2528082447.7506542     
   2504268394.3450165     
   2479597409.2443919     
   2454182468.5142121     
   2428488187.1745586     
   2505555379.4158297     
   2474007149.4334211     
   2450082169.3713217     
   2434022639.2371569     
   2426131332.0945830     
   2508615364.2638083     
   2474632689.3260055     
   2456896092.9497943     
   2455496050.2027297     
   2470472193.0636497     
   2543831782.5992179     
   2507985243.8503051     
   2497039654.1685247     
   2510839429.3347440     
   2549261599.7533336     
   2489247387.4184041     
   2539705079.4372497     
   2699687440.5795751     
   2971093526.9543471     
   3363423223.3002806     
   2428488187.1745586     
   2510841015.5122962     
   2652929017.3095498     
   2848157642.9298201     
   3090776336.0124846     
   2426131332.0945830     
   2459313193.7025847     
   2479941357.2098360     
   2492813264.3297019     
   2505898271.8340349     
   2470472193.0636497     
   2415116292.7401829     
   2244998501.5243392     
   1982358348.8094869     
   1687125665.1957519     
   2549261599.7533336     
   2420820956.8304629     
   2102728493.3027866     
   1674542108.7181151     
   1418341816.1662185     
   1138945878.5856690     
   1337918999.7903636     
   1537145997.3712442     
   1736626259.9367387     
   1936359468.6705472     
   1210552134.7115152     
   1403206796.5885327     
   1595479063.0535018     
   1786601026.1056759     
   1976118469.6184902     
   1397409155.9968042     
   1575555798.5599835     
   1754827106.7320950     
   1933241646.1403959     
   2109560605.3067098     
   1657270523.4937415     
   1824356397.4108834     
   1993345765.6481924     
   2161572810.7052393     
   2327294683.4316988     
   1958197199.6003871     
   2122504745.4874389     
   2288457267.8142715     
   2453130317.8708611     
   2614581242.1189661     
   1936359468.6705472     
   2063098329.8487146     
   2184960825.5562716     
   2301947282.3379121     
   2414058107.8695569     
   1976118469.6184902     
   2093945012.3834546     
   2209311888.3670163     
   2322146602.8372960     
   2432397401.7774787     
   2109560605.3067098     
   2214333854.7666163     
   2319262541.5565581     
   2424114801.8656034     
   2528724804.0748992     
   2327294683.4316988     
   2415582880.7068853     
   2506428077.0070338     
   2599445949.0587654     
   2694362844.2279344     
   2614581242.1189661     
   2683944867.3437886     
   2757819727.6631541     
   2835702885.2986760     
   2917243947.1053128     
   2414058107.8695569     
   2453271033.3514175     
   2496075403.9919677     
   2542476157.8955784     
   2592479944.2920032     
   2432397401.7774787     
   2472155822.1596165     
   2516047066.3832927     
   2564073436.4594264     
   2616237446.7776046     
   2528724804.0748992     
   2564891892.8237720     
   2605645151.1517420     
   2650992232.5461564     
   2700945934.0840425     
   2694362844.2279344     
   2723250390.1666918     
   2757049960.4649038     
   2795783557.5872297     
   2839489603.7129674     
   2917243947.1053128     
   2935997941.9362760     
   2959831764.2520113     
   2988784151.0543838     
   3022927771.8258586     
   2592479944.2920032     
   2585880296.3551207     
   2585825850.4511862     
   2592349251.3743682     
   2605545114.9898367     
   2616237446.7776046     
   2608928274.2037411     
   2609331353.2533979     
   2617448058.5922618     
   2633307426.8059301     
   2700945934.0840425     
   2691304653.2362075     
   2690573624.3372879     
   2698788448.3067327     
   2715996518.4956388     
   2839489603.7129674     
   2825345290.3925920     
   2821348645.9146776     
   2827649834.6087494     
   2844411919.2006321     
   3022927771.8258586     
   3001843376.0886474     
   2992210640.6292100     
   2994380766.8233948     
   3008733950.7918706     
   2605545114.9898367     
   2604136579.9296880     
   2612966372.4185572     
   2631970276.9978528     
   2661194083.2210913     
   2633307426.8059301     
   2639903309.9521604     
   2654316997.4175792     
   2676576828.2358351     
   2706743706.2654061     
   2715996518.4956388     
   2726353430.3856916     
   2741901290.9220839     
   2762695292.3612370     
   2788788279.0685349     
   2844411919.2006321     
   2856088641.4325194     
   2870153785.6861091     
   2886613203.0109358     
   2905471891.3062716     
   3008733950.7918706     
   3020979326.5489030     
   3032676159.7337670     
   3043717914.5465569     
   3054025424.1997919     
   2661194083.2210913     
   2639915477.8261318     
   2613245229.2987328     
   2581181347.5460401     
   2543831782.5992179     
   2706743706.2654061     
   2685935417.6363711     
   2669469492.1318974     
   2657320269.4775877     
   2649516720.6636519     
   2788788279.0685349     
   2766956154.0577497     
   2758736525.8318372     
   2764051679.5881882     
   2782867642.5895686     
   2905471891.3062716     
   2876797844.5882325     
   2870672733.6775408     
   2887169633.2635269     
   2926443391.9304996     
   3054025424.1997919     
   3009335534.7632113     
   2996381549.1714807     
   3015881654.6784058     
   3068666596.8141336     
   2543831782.5992179     
   2507985243.8503051     
   2497039654.1685247     
   2510839429.3347440     
   2549261599.7533336     
   2649516720.6636519     
   2649979688.8712549     
   2668402390.6611233     
   2704785789.6134791     
   2759214996.4967527     
   2782867642.5895686     
   2817616193.8934145     
   2864553059.1536908     
   2923831006.1396770     
   2995705188.6073442     
   2926443391.9304996     
   2997048502.9291053     
   3074845616.3009791     
   3159986998.1586065     
   3252777397.1865683     
   3068666596.8141336     
   3179181197.3377209     
   3292214383.1757169     
   3407765127.2264590     
   3526092055.0387259     
   2549261599.7533336     
   2420820956.8304629     
   2102728493.3027866     
   1674542108.7181151     
   1418341816.1662185     
   2759214996.4967527     
   2700170703.3185744     
   2603079977.2134628     
   2499180009.4075150     
   2441373052.9494596     
   2995705188.6073442     
   3017734800.4565821     
   3114826169.6544833     
   3278896784.4650278     
   3499677930.9768538     
   3252777397.1865683     
   3337097352.7355161     
   3584295506.1086955     
   3984678762.7239594     
   4531654807.3635464     
   3526092055.0387259     
   3667309045.7682180     
   4091413670.2667336     
   4806773226.3371077     
   5818076867.8245363     
   1958197199.6003871     
   2122504745.4874389     
   2288457267.8142715     
   2453130317.8708611     
   2614581242.1189661     
   2300970226.3908215     
   2451450077.0713320     
   2606806019.9681253     
   2765132952.5320196     
   2925009958.7057071     
   2696092622.1599445     
   2831406974.3024864     
   2974062214.2414770     
   3122982584.5319672     
   3277261669.8423934     
   3138375111.7504864     
   3255486822.1132917     
   3381931776.7560506     
   3517239537.8007731     
   3660951434.7902317     
   3624333027.3620610     
   3718921641.3741550     
   3824576382.8573141     
   3941225485.6789942     
   4068767370.3127451     
   2614581242.1189661     
   2683944867.3437886     
   2757819727.6631541     
   2835702885.2986760     
   2917243947.1053128     
   2925009958.7057071     
   2978728631.4289904     
   3034760576.4689841     
   3092427855.6933966     
   3151202771.3088899     
   3277261669.8423934     
   3320491026.1078844     
   3364108307.9049129     
   3407289438.6024470     
   3449358392.4533286     
   3660951434.7902317     
   3699385106.4520760     
   3736622205.7370081     
   3771753113.9209733     
   3804021123.5350776     
   4068767370.3127451     
   4108096504.3524580     
   4144993703.7331553     
   4178537504.0981255     
   4207974894.5017376     
   2917243947.1053128     
   2935997941.9362760     
   2959831764.2520113     
   2988784151.0543838     
   3022927771.8258586     
   3151202771.3088899     
   3145781814.5457230     
   3145722905.9933457     
   3151005402.2148528     
   3161726732.3648558     
   3449358392.4533286     
   3417974654.9582815     
   3391749088.3511333     
   3370496800.1684752     
   3354265350.4294062     
   3804021123.5350776     
   3745357095.3121061     
   3691390986.0869212     
   3641653654.5890098     
   3596029828.3622470     
   4207974894.5017376     
   4120858594.3386974     
   4037943509.1441422     
   3958370698.1239710     
   3881745414.7838993     
   3022927771.8258586     
   3001843376.0886474     
   2992210640.6292100     
   2994380766.8233948     
   3008733950.7918706     
   3161726732.3648558     
   3120261290.8634181     
   3088491824.0393572     
   3066826808.2709789     
   3055716413.0254574     
   3354265350.4294062     
   3291557825.6780887     
   3236643825.7957692     
   3189930341.6262879     
   3151880955.2576666     
   3596029828.3622470     
   3512781158.1690278     
   3435399999.2441759     
   3364228211.1719723     
   3299670644.1778355     
   3881745414.7838993     
   3779761221.2244620     
   3681845619.8153901     
   3588236827.4116449     
   3499230012.5596199     
   3008733950.7918706     
   3020979326.5489030     
   3032676159.7337670     
   3043717914.5465569     
   3054025424.1997919     
   3055716413.0254574     
   3048399090.4820743     
   3043173796.2099442     
   3040085231.9517918     
   3039207255.4282031     
   3151880955.2576666     
   3122925043.1276460     
   3098247474.6782317     
   3078058048.2372174     
   3062618770.3890944     
   3299670644.1778355     
   3246556125.2665672     
   3199312339.7529554     
   3158307513.5922370     
   3124014881.8437796     
   3499230012.5596199     
   3419138883.9028492     
   3345861795.1146970     
   3279887560.5675526     
   3221895178.6669788     
   3054025424.1997919     
   3009335534.7632113     
   2996381549.1714807     
   3015881654.6784058     
   3068666596.8141336     
   3039207255.4282031     
   2965140349.1380377     
   2912628818.7452593     
   2882725871.6224580     
   2876557586.2656002     
   3062618770.3890944     
   2962562657.1262050     
   2874143992.5858750     
   2798207233.2348237     
   2735680361.1175871     
   3124014881.8437796     
   3007145374.5390015     
   2892612993.0049367     
   2780609393.7648559     
   2671374181.6649961     
   3221895178.6669788     
   3102348121.0582581     
   2977523072.7404065     
   2847039223.3553610     
   2710591122.8750319     
   3068666596.8141336     
   3179181197.3377209     
   3292214383.1757169     
   3407765127.2264590     
   3526092055.0387259     
   2876557586.2656002     
   2949823857.0813723     
   3030452953.0551653     
   3118417700.4776568     
   3213739484.4699616     
   2735680361.1175871     
   2761210370.8512769     
   2798375434.3740983     
   2847552274.7868571     
   2909070149.0378857     
   2671374181.6649961     
   2638758928.5191426     
   2620508310.8046942     
   2617872790.0262399     
   2632257887.9511776     
   2710591122.8750319     
   2612154058.1970091     
   2528281073.2072616     
   2461136579.8842778     
   2413840035.1291208     
   3526092055.0387259     
   3667309045.7682180     
   4091413670.2667336     
   4806773226.3371077     
   5818076867.8245363     
   3213739484.4699616     
   3236408596.1063299     
   3431173499.3506813     
   3801354960.3262982     
   4341968248.3800087     
   2909070149.0378857     
   2798353406.4424667     
   2736039925.0401196     
   2725207245.7845440     
   2766275079.3296556     
   2632257887.9511776     
   2415012889.6322861     
   2083419325.5841179     
   1638345153.7855122     
   1112987101.2100677     
   2413840035.1291208     
   2263948358.1568232     
   1988922883.9701803     
   1830909677.6019418     
   2214670113.0484290     
   3624333027.3620610     
   3718921641.3741550     
   3824576382.8573141     
   3941225485.6789942     
   4068767370.3127451     
   4132640214.5658417     
   4223043416.4379883     
   4319229961.4312611     
   4419541112.8789930     
   4522523576.9639816     
   4641639220.5307674     
   4753924025.2230110     
   4867253501.2832546     
   4978990475.8790970     
   5087209490.5373764     
   5149787036.3239889     
   5309709088.1244869     
   5466252862.5770512     
   5616513323.4487638     
   5759012188.4715090     
   5656806782.7332726     
   5889542159.6826143     
   6114708313.5593243     
   6329822172.9956322     
   6534626816.3568058     
   4068767370.3127451     
   4108096504.3524580     
   4144993703.7331553     
   4178537504.0981255     
   4207974894.5017376     
   4522523576.9639816     
   4534666023.5626688     
   4551550451.8053284     
   4570692155.1717873     
   4590368836.0711145     
   5087209490.5373764     
   5049923696.3479652     
   5023135785.5050373     
   5001658267.7299299     
   4982286389.9661350     
   5759012188.4715090     
   5648482814.6342831     
   5553894091.8304052     
   5466245165.5359268     
   5379983967.3430643     
   6534626816.3568058     
   6325700432.8671684     
   6138872804.5643692     
   5960366546.6501131     
   5781175983.9363222     
   4207974894.5017376     
   4120858594.3386974     
   4037943509.1441422     
   3958370698.1239710     
   3881745414.7838993     
   4590368836.0711145     
   4483876056.2456837     
   4380349848.1856890     
   4279446399.1186290     
   4181005176.7115893     
   4982286389.9661350     
   4859844426.6483707     
   4740118581.9363594     
   4623046179.1043701     
   4508622573.6061211     
   5379983967.3430643     
   5244376886.3088169     
   5112054739.3577137     
   4983038692.0540304     
   4857400961.3695107     
   5781175983.9363222     
   5634500478.2367916     
   5492396917.8539591     
   5354794585.4038401     
   5221756630.3289957     
   3881745414.7838993     
   3779761221.2244620     
   3681845619.8153901     
   3588236827.4116449     
   3499230012.5596199     
   4181005176.7115893     
   4068184939.7126794     
   3958502082.6363616     
   3852173521.5924640     
   3749483431.4924569     
   4508622573.6061211     
   4384298109.3609133     
   4262170368.7336454     
   4142413592.9090481     
   4025278871.7904873     
   4857400961.3695107     
   4721128147.6978369     
   4586128883.0103216     
   4452518367.0237741     
   4320497166.1874962     
   5221756630.3289957     
   5073250947.8187923     
   4925129868.3697710     
   4777437602.3346844     
   4630311285.1236467     
   3499230012.5596199     
   3419138883.9028492     
   3345861795.1146970     
   3279887560.5675526     
   3221895178.6669788     
   3749483431.4924569     
   3651227158.1064773     
   3557629223.4402637     
   3469054643.9032421     
   3386004036.8769178     
   4025278871.7904873     
   3912229363.3095374     
   3802209416.5921369     
   3695454243.7103348     
   3592280786.2306671     
   4320497166.1874962     
   4196347082.0676880     
   4074091979.9882240     
   3953859006.1955452     
   3835814728.9546022     
   4630311285.1236467     
   4498832037.8800220     
   4368552115.2670326     
   4239521399.6467686     
   4111803813.2853003     
   3221895178.6669788     
   3102348121.0582581     
   2977523072.7404065     
   2847039223.3553610     
   2710591122.8750319     
   3386004036.8769178     
   3271504942.7364502     
   3156117793.6037960     
   3039738208.7042274     
   2922273563.1463618     
   3592280786.2306671     
   3474919021.2945910     
   3359798087.8195419     
   3247008552.0983706     
   3136666905.8298368     
   3835814728.9546022     
   3706253037.2558041     
   3580806664.0654297     
   3459741678.8656287     
   3343467834.2556486     
   4111803813.2853003     
   3959966741.1931643     
   3813021543.7388887     
   3671401519.6435962     
   3535908229.9705000     
   2710591122.8750319     
   2612154058.1970091     
   2528281073.2072616     
   2461136579.8842778     
   2413840035.1291208     
   2922273563.1463618     
   2801960801.0733461     
   2688991771.8339028     
   2584782883.4492826     
   2491294961.1840644     
   3136666905.8298368     
   3005942349.4811716     
   2877218147.2651997     
   2751058039.6789351     
   2628198462.9045105     
   3343467834.2556486     
   3215369867.5992179     
   3085659959.4625292     
   2954177934.9366503     
   2820778631.5136452     
   3535908229.9705000     
   3423997116.9031029     
   3308430885.4481072     
   3188489721.2226286     
   3063591883.0040154     
   2413840035.1291208     
   2263948358.1568232     
   1988922883.9701803     
   1830909677.6019418     
   2214670113.0484290     
   2491294961.1840644     
   2614055619.4254975     
   2741849960.9793453     
   2950939458.3659449     
   3320227034.0787878     
   2628198462.9045105     
   2917442114.3377066     
   3257707671.8462510     
   3642559706.6617465     
   4067250087.0210357     
   2820778631.5136452     
   3121078095.5935073     
   3486789125.0062456     
   3893368152.6284308     
   4330906151.8675117     
   3063591883.0040154     
   3204770466.0390835     
   3438063054.6539116     
   3775783404.3194747     
   4258798015.4653773     
   5656806782.7332726     
   5889542159.6826143     
   6114708313.5593243     
   6329822172.9956322     
   6534626816.3568058     
   6491232208.7021294     
   6585899725.5855675     
   6755915645.9027262     
   6959185069.6229239     
   7169043153.7167559     
   7981876374.3431282     
   7734119979.1564322     
   7667888835.2718096     
   7667935406.7378187     
   7664330948.6251726     
   10129186715.903353     
   9321043326.2219486     
   8825419962.5644302     
   8442663742.8429585     
   8035020357.4698830     
   12933252457.221853     
   11339384872.799961     
   10209669302.700068     
   9273075620.1946487     
   8305356673.4728251     
   6534626816.3568058     
   6325700432.8671684     
   6138872804.5643692     
   5960366546.6501131     
   5781175983.9363222     
   7169043153.7167559     
   6908640257.2541380     
   6656145648.0052319     
   6407750436.1615782     
   6160333833.6030579     
   7664330948.6251726     
   7379638922.3412943     
   7100388840.4498053     
   6826657735.6078634     
   6558651010.5827303     
   8035020357.4698830     
   7746312277.2744150     
   7473288047.3408041     
   7213989856.7314014     
   6968407814.6690321     
   8305356673.4728251     
   8021193743.3293390     
   7778989174.0446482     
   7568150967.4555130     
   7383721966.5662222     
   5781175983.9363222     
   5634500478.2367916     
   5492396917.8539591     
   5354794585.4038401     
   5221756630.3289957     
   6160333833.6030579     
   6013028124.5932407     
   5867138730.2753172     
   5722709083.2673702     
   5579805818.5398483     
   6558651010.5827303     
   6408933759.2761564     
   6257528712.4339914     
   6104397268.8714228     
   5949565097.4781857     
   6968407814.6690321     
   6815905545.4227209     
   6658702783.9979086     
   6496516003.4128838     
   6329291756.8461084     
   7383721966.5662222     
   7229071506.2965460     
   7066873524.8373070     
   6896473112.4203205     
   6717716147.5683184     
   5221756630.3289957     
   5073250947.8187923     
   4925129868.3697710     
   4777437602.3346844     
   4630311285.1236467     
   5579805818.5398483     
   5416415411.8330297     
   5253819557.9391384     
   5092073975.4748106     
   4931274877.6434155     
   5949565097.4781857     
   5773596226.6860065     
   5599149547.0908556     
   5426263965.0125704     
   5255011107.4337292     
   6329291756.8461084     
   6142430759.0821495     
   5958083155.3754387     
   5776236964.6302547     
   5596940357.6610622     
   6717716147.5683184     
   6521091632.8945360     
   6328202136.6745777     
   6138946957.4962254     
   5953340465.3229523     
   4630311285.1236467     
   4498832037.8800220     
   4368552115.2670326     
   4239521399.6467686     
   4111803813.2853003     
   4931274877.6434155     
   4793791847.8776789     
   4657000366.0804510     
   4520963428.9107685     
   4385771153.5246801     
   5255011107.4337292     
   5108959959.7011957     
   4962874198.8360929     
   4816807146.2165518     
   4670861045.2926216     
   5596940357.6610622     
   5439910228.2820692     
   5281956310.9947233     
   5123094833.8441172     
   4963418097.0770826     
   5953340465.3229523     
   5783083659.2031870     
   5610902561.6439924     
   5436745456.0263948     
   5260666310.9299259     
   4111803813.2853003     
   3959966741.1931643     
   3813021543.7388887     
   3671401519.6435962     
   3535908229.9705000     
   4385771153.5246801     
   4210512651.6517463     
   4038459653.9947710     
   3869863826.5626540     
   3705184945.8986263     
   4670861045.2926216     
   4478628004.5365219     
   4288757757.9860649     
   4101391114.6964574     
   3916781414.3435283     
   4963418097.0770826     
   4760594417.8864517     
   4560014975.6301889     
   4361770931.4696684     
   4166036750.8618312     
   5260666310.9299259     
   5053411008.6213408     
   4848895486.4851637     
   4647189255.3722067     
   4448469821.2067213     
   3535908229.9705000     
   3423997116.9031029     
   3308430885.4481072     
   3188489721.2226286     
   3063591883.0040154     
   3705184945.8986263     
   3602968531.0226793     
   3498719936.8378010     
   3392270253.2705097     
   3283494305.8469920     
   3916781414.3435283     
   3815038961.5915060     
   3711437782.1098900     
   3606183774.7101636     
   3499590028.8997536     
   4166036750.8618312     
   4055367782.6699648     
   3941738175.8016686     
   3825505738.2666378     
   3707343348.4027586     
   4448469821.2067213     
   4319574407.4556389     
   4185648233.6411347     
   4046900828.3456454     
   3904170261.9054112     
   3063591883.0040154     
   3204770466.0390835     
   3438063054.6539116     
   3775783404.3194747     
   4258798015.4653773     
   3283494305.8469920     
   3195483648.5105820     
   3156514939.6654415     
   3180976881.8342280     
   3299499463.6026196     
   3499590028.8997536     
   3283349438.4782000     
   3083559062.6918826     
   2903774840.0467892     
   2752023650.2694192     
   3707343348.4027586     
   3477844552.8459635     
   3247796159.7378306     
   3019464193.6797800     
   2797496967.1702676     
   3904170261.9054112     
   3785337130.4215450     
   3670925627.5359988     
   3582349573.1091995     
   3555935955.1345997     
 </DataArray>
 <DataArray  type="Float64" Name="strain" NumberOfComponents="3" format="ascii">
  0.20350635301163186        0.0000000000000000       0.12536700613249518     
  0.18669866000643984       -2.7337774208088590E-002   7.4330207388996206E-002
  0.16989096700124784       -4.4699167057422863E-002   3.5118326145101159E-002
  0.15308327399605584       -5.2084178548002832E-002   7.7313624008100712E-003
  0.13627558099086384       -4.9492808679828526E-002  -7.8306838438770704E-003
  0.15989670931278838        0.0000000000000000        9.6396162910267688E-002
  0.15323347431183160       -2.1856938575947796E-002   6.2648683588287846E-002
  0.14657023931087479       -3.6196311189812681E-002   3.7365202775174480E-002
  0.13990700430991801       -4.3018117841594629E-002   2.0545720470927654E-002
  0.13324376930896126       -4.2322358531293680E-002   1.2190236675547306E-002
  0.12650987087041415        0.0000000000000000        7.4135563018516676E-002
  0.12663017488295514       -1.6376102943807001E-002   5.5218587721384590E-002
  0.12675047889549612       -2.7693455322202479E-002   4.1404691942381569E-002
  0.12687078290803713       -3.3952057135186425E-002   3.2693875681507556E-002
  0.12699108692057809       -3.5151908382758848E-002   2.9086138938762614E-002
  0.10334583768450920        0.0000000000000000        5.8585206457242155E-002
  0.10688876171981049       -1.0895267311666209E-002   5.2039919788286461E-002
  0.11043168575511179       -1.9190599454592280E-002   4.7236793646722321E-002
  0.11397460979041311       -2.4885996428778208E-002   4.4175828032549790E-002
  0.11751753382571439       -2.7981458234224005E-002   4.2857022945768847E-002
   9.0404609755073514E-002   0.0000000000000000        4.9745093226444118E-002
   9.4009234822397675E-002  -5.4144316795254133E-003   5.3112679788993387E-002
   9.7613859889721821E-002  -1.0687743586982084E-002   5.4861507888196791E-002
  0.10121848495704597       -1.5819935722370001E-002   5.4991577524054328E-002
  0.10482311002437014       -2.0811008085689163E-002   5.3502888696566005E-002
  0.13627558099086384       -4.9492808679828526E-002  -7.8306838438770704E-003
  0.13308512202678391       -4.2962034127336207E-002  -3.4065805231329668E-003
  0.12989466306270400       -3.8528831564962340E-002  -3.9856526777081944E-004
  0.12670420409862410       -3.6193200992706898E-002   1.1933619222096736E-003
  0.12351374513454419       -3.5955142410569824E-002   1.3692010468082660E-003
  0.13324376930896126       -4.2322358531293680E-002   1.2190236675547306E-002
  0.12902503294249840       -3.8459240438357890E-002   1.2141069759343925E-002
  0.12480629657603556       -3.5778970742235211E-002   1.1451436103756572E-002
  0.12058756020957272       -3.4281549442925753E-002   1.0121335708785057E-002
  0.11636882384310990       -3.3966976540429489E-002   8.1507685744295760E-003
  0.12699108692057809       -3.5151908382758848E-002   2.9086138938762614E-002
  0.12251969447773013       -3.3956446749379463E-002   2.5478425378917036E-002
  0.11804830203488217       -3.3029109919508054E-002   2.2005866405685193E-002
  0.11357690959203422       -3.2369897893144595E-002   1.8668462019067179E-002
  0.10910551714918620       -3.1978810670289085E-002   1.5466212219062893E-002
  0.11751753382571439       -2.7981458234224005E-002   4.2857022945768847E-002
  0.11356910663247911       -2.9453653060401076E-002   3.6605486335586239E-002
  0.10962067943924382       -3.0279249096780911E-002   3.1264725638015231E-002
  0.10567225224600851       -3.0458246343363415E-002   2.6834740853055764E-002
  0.10172382505277325       -2.9990644800148687E-002   2.3315531980707925E-002
  0.10482311002437014       -2.0811008085689163E-002   5.3502888696566005E-002
  0.10217326940674532       -2.4950859371422718E-002   4.5522252629351639E-002
   9.9523428789120502E-002  -2.7529388274053754E-002   3.9228013800746690E-002
   9.6873588171495661E-002  -2.8546594793582274E-002   3.4620172210751018E-002
   9.4223747553870862E-002  -2.8002478930008304E-002   3.1698727859364798E-002
  0.12351374513454419       -3.5955142410569824E-002   1.3692010468082660E-003
  0.12060079588491965       -3.6457847316148248E-002   6.3715188746094054E-004
  0.11768784663529509       -3.6344507207039085E-002   9.3356890978710250E-005
  0.11477489738567057       -3.5615122083242495E-002  -2.6218394263804318E-004
  0.11186194813604600       -3.4269691944758429E-002  -4.2947061338971526E-004
  0.11636882384310990       -3.3966976540429489E-002   8.1507685744295760E-003
  0.11363118615496549       -3.4047014886372809E-002   7.7922268685183815E-003
  0.11089354846682110       -3.3733427332382306E-002   7.5960541227021589E-003
  0.10815591077867670       -3.3026213878457840E-002   7.5622503369808559E-003
  0.10541827309053228       -3.1925374524599537E-002   7.6908155113546428E-003
  0.10910551714918620       -3.1978810670289085E-002   1.5466212219062893E-002
  0.10651730581975166       -3.1636182456597405E-002   1.5258758851834260E-002
  0.10392909449031715       -3.1122347457725411E-002   1.5187789241930174E-002
  0.10134088316088259       -3.0437305673673101E-002   1.5253303389350962E-002
   9.8752671831448049E-002  -2.9581057104440561E-002   1.5455301294096321E-002
  0.10172382505277325       -2.9990644800148687E-002   2.3315531980707925E-002
   9.9259154879278222E-002  -2.9225350026821955E-002   2.3036747837408209E-002
   9.6794484705783196E-002  -2.8511267583068489E-002   2.2868562248662933E-002
   9.4329814532288239E-002  -2.7848397468888460E-002   2.2810975214471948E-002
   9.1865144358793172E-002  -2.7236739684281655E-002   2.2863986734835504E-002
   9.4223747553870862E-002  -2.8002478930008304E-002   3.1698727859364798E-002
   9.1856733333545104E-002  -2.6814517597046526E-002   3.1126193825240484E-002
   8.9489719113219332E-002  -2.5900187708411671E-002   3.0638373142900237E-002
   8.7122704892893560E-002  -2.5259489264103745E-002   3.0235265812344186E-002
   8.4755690672567829E-002  -2.4892422264122693E-002   2.9916871833572140E-002
  0.11186194813604600       -3.4269691944758429E-002  -4.2947061338971526E-004
  0.10877163394369527       -3.2746203613648994E-002  -1.6965452592634933E-004
  0.10568131975134445       -3.1482643911976679E-002   1.5232153097963219E-004
  0.10259100555899368       -3.0479012839741231E-002   5.3645755732856237E-004
   9.9500691366642913E-002  -2.9735310396942660E-002   9.8275355311999713E-004
  0.10541827309053228       -3.1925374524599537E-002   7.6908155113546428E-003
  0.10241705769634088       -3.0705241498776584E-002   7.5481606212434854E-003
   9.9415842302149490E-002  -2.9640147028957953E-002   7.5215433580082258E-003
   9.6414626907958045E-002  -2.8730091115144296E-002   7.6109637216493289E-003
   9.3413411513766698E-002  -2.7975073757335100E-002   7.8164217121662605E-003
   9.8752671831448049E-002  -2.9581057104440561E-002   1.5455301294096321E-002
   9.5894432892849379E-002  -2.8664279383903979E-002   1.5015065499842842E-002
   9.3036193954250751E-002  -2.7797650145939566E-002   1.4744744989898764E-002
   9.0177955015652081E-002  -2.6981169390547309E-002   1.4644339764264321E-002
   8.7319716077053480E-002  -2.6214837117727263E-002   1.4713849822939384E-002
   9.1865144358793172E-002  -2.7236739684281655E-002   2.2863986734835504E-002
   8.9203759533220683E-002  -2.6623317269031416E-002   2.2231060109872240E-002
   8.6542374707648223E-002  -2.5955153262920954E-002   2.1821926426651678E-002
   8.3880989882075763E-002  -2.5232247665950360E-002   2.1636585685174098E-002
   8.1219605056503275E-002  -2.4454600478119537E-002   2.1675037885439348E-002
   8.4755690672567829E-002  -2.4892422264122693E-002   2.9916871833572140E-002
   8.2345037617454889E-002  -2.4582355154158894E-002   2.9196144451331341E-002
   7.9934384562341948E-002  -2.4112656379902390E-002   2.8753087668266786E-002
   7.7523731507229007E-002  -2.3483325941353439E-002   2.8587701484378579E-002
   7.5113078452116122E-002  -2.2694363838511838E-002   2.8699985899666575E-002
   9.9500691366642913E-002  -2.9735310396942660E-002   9.8275355311999713E-004
   9.6591877111632085E-002  -2.9057666133316479E-002   6.9925537759668588E-004
   9.3683062856621341E-002  -2.8252209598598560E-002   6.1036982238549253E-004
   9.0774248601610583E-002  -2.7318940792788217E-002   7.1609688748662526E-004
   8.7865434346599769E-002  -2.6257859715885679E-002   1.0164365728991820E-003
   9.3413411513766698E-002  -2.7975073757335100E-002   7.8164217121662605E-003
   9.0691901351904552E-002  -2.7258929757784628E-002   7.6217514809318598E-003
   8.7970391190042380E-002  -2.6465493918747751E-002   7.6070768156830532E-003
   8.5248881028180276E-002  -2.5594766240224165E-002   7.7723977164194172E-003
   8.2527370866318117E-002  -2.4646746722213897E-002   8.1177141831410005E-003
   8.7319716077053480E-002  -2.6214837117727263E-002   1.4713849822939384E-002
   8.4770892954013188E-002  -2.5460193382252735E-002   1.4557487104388561E-002
   8.2222069830972938E-002  -2.4678778238897039E-002   1.4566502897496628E-002
   7.9673246707932674E-002  -2.3870591687659887E-002   1.4740897202263167E-002
   7.7124423584892382E-002  -2.3035633728541727E-002   1.5080670018688042E-002
   8.1219605056503275E-002  -2.4454600478119537E-002   2.1675037885439348E-002
   7.8828851917958104E-002  -2.3661457006720753E-002   2.1506462247966998E-002
   7.6438098779412988E-002  -2.2892062559046224E-002   2.1488648067826324E-002
   7.4047345640867804E-002  -2.2146417135095832E-002   2.1621595345017237E-002
   7.1656592502322716E-002  -2.1424520734869806E-002   2.1905304079539993E-002
   7.5113078452116122E-002  -2.2694363838511838E-002   2.8699985899666575E-002
   7.2865778243739299E-002  -2.1862720631188715E-002   2.8468676911666796E-002
   7.0618478035362475E-002  -2.1105346879195457E-002   2.8373512326671999E-002
   6.8371177826985652E-002  -2.0422242582531683E-002   2.8414492144682009E-002
   6.6123877618608884E-002  -1.9813407741197719E-002   2.8591616365697015E-002
   8.7865434346599769E-002  -2.6257859715885679E-002   1.0164365728991820E-003
   8.4363690570513683E-002  -2.5172108222264067E-002   6.8673215548525901E-004
   8.0861946794427597E-002  -2.4164828166296753E-002   4.8677444663436376E-004
   7.7360203018341567E-002  -2.3236019547982829E-002   4.1656344634635745E-004
   7.3858459242255425E-002  -2.2385682367322968E-002   4.7609915462099028E-004
   8.2527370866318117E-002  -2.4646746722213897E-002   8.1177141831410005E-003
   7.9171980830556710E-002  -2.3685157584673933E-002   7.6754209773038928E-003
   7.5816590794795274E-002  -2.2773721047561840E-002   7.3960885435536416E-003
   7.2461200759033881E-002  -2.1912437110876821E-002   7.2797168818891783E-003
   6.9105810723272432E-002  -2.1101305774619883E-002   7.3263059923117657E-003
   7.7124423584892382E-002  -2.3035633728541727E-002   1.5080670018688042E-002
   7.3948601352979190E-002  -2.2198206947083660E-002   1.4554106861654259E-002
   7.0772779121065971E-002  -2.1382613928826802E-002   1.4223718540230426E-002
   6.7596956889152710E-002  -2.0588854673771032E-002   1.4089505054416640E-002
   6.4421134657239504E-002  -1.9816929181916798E-002   1.4151466404212720E-002
   7.1656592502322716E-002  -2.1424520734869806E-002   2.1905304079539993E-002
   6.8693552137781097E-002  -2.0711256309493123E-002   2.1322789808535782E-002
   6.5730511773239575E-002  -1.9991506810091937E-002   2.0969664436665213E-002
   6.2767471408698053E-002  -1.9265272236665132E-002   2.0845927963927875E-002
   5.9804431044156454E-002  -1.8532552589213713E-002   2.0951580390324034E-002
   6.6123877618608884E-002  -1.9813407741197719E-002   2.8591616365697015E-002
   6.3406833184962541E-002  -1.9224305671903030E-002   2.7981469817948801E-002
   6.0689788751316198E-002  -1.8600399691356739E-002   2.7633926232857431E-002
   5.7972744317669869E-002  -1.7941689799559346E-002   2.7548985610423113E-002
   5.5255699884023568E-002  -1.7248175996510684E-002   2.7726647950645888E-002
   7.3858459242255425E-002  -2.2385682367322968E-002   4.7609915462099028E-004
   7.1657519023650695E-002  -2.1525433822670137E-002   5.2894131114200604E-004
   6.9456578805046021E-002  -2.0566891112377583E-002   8.8295919108982712E-004
   6.7255638586441319E-002  -1.9510054236445709E-002   1.5381527944647311E-003
   6.5054698367836616E-002  -1.8354923194874306E-002   2.4945221212655522E-003
   6.9105810723272432E-002  -2.1101305774619883E-002   7.3263059923117657E-003
   6.7168695763896724E-002  -2.0285023925629475E-002   7.4891440333523240E-003
   6.5231580804520989E-002  -1.9408288450744327E-002   7.8784568694241497E-003
   6.3294465845145267E-002  -1.8471099349964618E-002   8.4942445005274092E-003
   6.1357350885769602E-002  -1.7473456623290584E-002   9.3365069266619916E-003
   6.4421134657239504E-002  -1.9816929181916798E-002   1.4151466404212720E-002
   6.2673144028697420E-002  -1.9044614028588314E-002   1.4386459790027534E-002
   6.0925153400155405E-002  -1.8249685789110709E-002   1.4773227042478368E-002
   5.9177162771613410E-002  -1.7432144463483408E-002   1.5311768161565500E-002
   5.7429172143071305E-002  -1.6591990051707084E-002   1.6002083147288737E-002
   5.9804431044156454E-002  -1.8532552589213713E-002   2.0951580390324034E-002
   5.8170863818052913E-002  -1.7804204131547402E-002   2.1220888581168107E-002
   5.6537296591949296E-002  -1.7091083127477105E-002   2.1567269710252954E-002
   5.4903729365845672E-002  -1.6393189577002368E-002   2.1990723777578620E-002
   5.3270162139742130E-002  -1.5710523480123473E-002   2.2491250783144998E-002
   5.5255699884023568E-002  -1.7248175996510684E-002   2.7726647950645888E-002
   5.3661855131963060E-002  -1.6563794234506740E-002   2.7992430406773960E-002
   5.2068010379902607E-002  -1.5932480465843710E-002   2.8260584872747574E-002
   5.0474165627842155E-002  -1.5354234690521270E-002   2.8531111348566854E-002
   4.8880320875781702E-002  -1.4829056908539862E-002   2.8804009834231259E-002
   6.5054698367836616E-002  -1.8354923194874306E-002   2.4945221212655522E-003
   6.1297168102841915E-002  -1.7338804718194156E-002   2.1033396806144911E-003
   5.7539637837847324E-002  -1.6699005536937650E-002   1.5936659095747152E-003
   5.3782107572852678E-002  -1.6435525651104024E-002   9.6550080814705730E-004
   5.0024577307858031E-002  -1.6548365060693015E-002   2.1884437633090670E-004
   6.1357350885769602E-002  -1.7473456623290584E-002   9.3365069266619916E-003
   5.7581369623957268E-002  -1.6534714736965994E-002   8.5372462579426656E-003
   5.3805388362145129E-002  -1.5774228157234838E-002   7.8195749259762914E-003
   5.0029407100332865E-002  -1.5191996884096393E-002   7.1834929307630080E-003
   4.6253425838520545E-002  -1.4788020917550604E-002   6.6290002723037311E-003
   5.7429172143071305E-002  -1.6591990051707084E-002   1.6002083147288737E-002
   5.3834820551583146E-002  -1.5730624755737721E-002   1.4992808239330607E-002
   5.0240468960094903E-002  -1.4849450777531442E-002   1.4265203335267013E-002
   4.6646117368606646E-002  -1.3948468117088754E-002   1.3819268435098689E-002
   4.3051765777118445E-002  -1.3027676774409302E-002   1.3655003538825095E-002
   5.3270162139742130E-002  -1.5710523480123473E-002   2.2491250783144998E-002
   5.0057520885719381E-002  -1.4926534774509170E-002   2.1470025624778302E-002
   4.6844879631696708E-002  -1.3924673397828449E-002   2.0930551137447691E-002
   4.3632238377674021E-002  -1.2704939350081230E-002   2.0872827321153666E-002
   4.0419597123651341E-002  -1.1267332631267446E-002   2.1296854175896024E-002
   4.8880320875781702E-002  -1.4829056908539862E-002   2.8804009834231259E-002
   4.6249470626366168E-002  -1.4122444793280620E-002   2.7968898414285570E-002
   4.3618620376950606E-002  -1.2999896018125484E-002   2.7815618332517944E-002
   4.0987770127534989E-002  -1.1461410583073546E-002   2.8344169588927798E-002
   3.8356919878119511E-002  -9.5069884881255895E-003   2.9554552183516103E-002
   9.0404609755073514E-002   0.0000000000000000        4.9745093226444118E-002
   9.4009234822397675E-002  -5.4144316795254133E-003   5.3112679788993387E-002
   9.7613859889721821E-002  -1.0687743586982084E-002   5.4861507888196791E-002
  0.10121848495704597       -1.5819935722370001E-002   5.4991577524054328E-002
  0.10482311002437014       -2.0811008085689163E-002   5.3502888696566005E-002
   8.2453382894148969E-002   0.0000000000000000        4.4684780972668224E-002
   8.4667755071377929E-002  -4.5792402566603198E-003   4.8165022560387273E-002
   8.6882127248606889E-002  -9.0456951426572691E-003   5.0483516831261767E-002
   8.9096499425835848E-002  -1.3399364657990845E-002   5.1640263785291782E-002
   9.1310871603064822E-002  -1.7640248802661049E-002   5.1635263422477269E-002
   7.4259352913777443E-002   0.0000000000000000        4.0473827342460106E-002
   7.5540483347412576E-002  -3.7440488337952258E-003   4.4038389553943527E-002
   7.6821613781047696E-002  -7.4036466983324559E-003   4.6898215595083774E-002
   7.8102744214682829E-002  -1.0978793593611686E-002   4.9053305465880867E-002
   7.9383874648317976E-002  -1.4469489519632922E-002   5.0503659166334827E-002
   6.5822519813958938E-002   0.0000000000000000        3.7112232335819777E-002
   6.6627419650501590E-002  -2.9088574109301310E-003   4.0732780769662198E-002
   6.7432319487044229E-002  -5.7615982540076419E-003   4.4105604179662819E-002
   6.8237219323586895E-002  -8.5582225292325335E-003   4.7230702565821639E-002
   6.9042119160129534E-002  -1.1298730236604802E-002   5.0108075928138651E-002
   5.7142883594693453E-002   0.0000000000000000        3.4599995952747223E-002
   5.7928563980644977E-002  -2.0736659880650384E-003   3.8248196207543286E-002
   5.8714244366596502E-002  -4.1195498096828296E-003   4.2105682584998881E-002
   5.9499924752548033E-002  -6.1376514648533720E-003   4.6172455085114035E-002
   6.0285605138499558E-002  -8.1279709535766777E-003   5.0448513707888776E-002
  0.10482311002437014       -2.0811008085689163E-002   5.3502888696566005E-002
  0.10217326940674532       -2.4950859371422718E-002   4.5522252629351639E-002
   9.9523428789120502E-002  -2.7529388274053754E-002   3.9228013800746690E-002
   9.6873588171495661E-002  -2.8546594793582274E-002   3.4620172210751018E-002
   9.4223747553870862E-002  -2.8002478930008304E-002   3.1698727859364798E-002
   9.1310871603064822E-002  -1.7640248802661049E-002   5.1635263422477269E-002
   9.0110028568733930E-002  -2.1214940397314606E-002   4.6392930222742136E-002
   8.8909185534403037E-002  -2.3570032262598250E-002   4.2362194950985449E-002
   8.7708342500072131E-002  -2.4705524398511990E-002   3.9543057607207270E-002
   8.6507499465741267E-002  -2.4621416805055821E-002   3.7935518191407509E-002
   7.9383874648317976E-002  -1.4469489519632922E-002   5.0503659166334827E-002
   7.9157229886650096E-002  -1.7479021423206509E-002   4.7657906180346273E-002
   7.8930585124982203E-002  -1.9610676251142774E-002   4.5548951811705311E-002
   7.8703940363314337E-002  -2.0864454003441731E-002   4.4176796060411937E-002
   7.8477295601646485E-002  -2.1240354680103359E-002   4.3541438926466142E-002
   6.9042119160129534E-002  -1.1298730236604802E-002   5.0108075928138651E-002
   6.9314873360493787E-002  -1.3743102449098401E-002   4.9317180502164132E-002
   6.9587627560858054E-002  -1.5651320239687287E-002   4.8788284382906270E-002
   6.9860381761222307E-002  -1.7023383608371447E-002   4.8521387570365088E-002
   7.0133135961586573E-002  -1.7859292555150893E-002   4.8516490064540625E-002
   6.0285605138499558E-002  -8.1279709535766777E-003   5.0448513707888776E-002
   6.0582958990265064E-002  -1.0007183474990307E-002   5.1370753188195666E-002
   6.0880312842030535E-002  -1.1691964228231787E-002   5.2080192664588285E-002
   6.1177666693796012E-002  -1.3182313213301189E-002   5.2576832137066737E-002
   6.1475020545561518E-002  -1.4478230430198420E-002   5.2860671605631009E-002
   9.4223747553870862E-002  -2.8002478930008304E-002   3.1698727859364798E-002
   9.1856733333545104E-002  -2.6814517597046526E-002   3.1126193825240484E-002
   8.9489719113219332E-002  -2.5900187708411671E-002   3.0638373142900237E-002
   8.7122704892893560E-002  -2.5259489264103745E-002   3.0235265812344186E-002
   8.4755690672567829E-002  -2.4892422264122693E-002   2.9916871833572140E-002
   8.6507499465741267E-002  -2.4621416805055821E-002   3.7935518191407509E-002
   8.4270608431616989E-002  -2.3982466663071501E-002   3.6902665177415174E-002
   8.2033717397492711E-002  -2.3453431153400851E-002   3.6045345184041760E-002
   7.9796826363368434E-002  -2.3034310276043850E-002   3.5363558211287199E-002
   7.7559935329244184E-002  -2.2725104031000476E-002   3.4857304259151511E-002
   7.8477295601646485E-002  -2.1240354680103359E-002   4.3541438926466142E-002
   7.6461347422558501E-002  -2.1150415729096522E-002   4.2211983744618993E-002
   7.4445399243470531E-002  -2.1006674598390070E-002   4.1148881252225648E-002
   7.2429451064382575E-002  -2.0809131287983972E-002   4.0352131449285948E-002
   7.0413502885294590E-002  -2.0557785797878259E-002   3.9821734335800003E-002
   7.0133135961586573E-002  -1.7859292555150893E-002   4.8516490064540625E-002
   6.8428950306369710E-002  -1.8318364795121514E-002   4.7054149526852031E-002
   6.6724764651152846E-002  -1.8559918043379278E-002   4.5948981347451970E-002
   6.5020578995935982E-002  -1.8583952299924111E-002   4.5200985526340408E-002
   6.3316393340719090E-002  -1.8390467564756027E-002   4.4810162063517373E-002
   6.1475020545561518E-002  -1.4478230430198420E-002   5.2860671605631009E-002
   6.0173417083050532E-002  -1.5486313861146527E-002   5.1429162524114211E-002
   5.8871813620539580E-002  -1.6113161488368478E-002   5.0445645469720732E-002
   5.7570210158028601E-002  -1.6358773311864194E-002   4.9910120442450585E-002
   5.6268606695517656E-002  -1.6223149331633810E-002   4.9822587442303709E-002
   8.4755690672567829E-002  -2.4892422264122693E-002   2.9916871833572140E-002
   8.2345037617454889E-002  -2.4582355154158894E-002   2.9196144451331341E-002
   7.9934384562341948E-002  -2.4112656379902390E-002   2.8753087668266786E-002
   7.7523731507229007E-002  -2.3483325941353439E-002   2.8587701484378579E-002
   7.5113078452116122E-002  -2.2694363838511838E-002   2.8699985899666575E-002
   7.7559935329244184E-002  -2.2725104031000476E-002   3.4857304259151511E-002
   7.5414808510297138E-002  -2.2412158875390317E-002   3.4312267472144373E-002
   7.3269681691350105E-002  -2.1981821266333017E-002   3.4020612558292633E-002
   7.1124554872403073E-002  -2.1434091203828554E-002   3.3982339517596494E-002
   6.8979428053456027E-002  -2.0768968687877004E-002   3.4197448350055865E-002
   7.0413502885294590E-002  -2.0557785797878259E-002   3.9821734335800003E-002
   6.8509613576492739E-002  -2.0241962596621858E-002   3.9410148933180920E-002
   6.6605724267690902E-002  -1.9850986152763674E-002   3.9227656677696676E-002
   6.4701834958889010E-002  -1.9384856466303779E-002   3.9274257569347243E-002
   6.2797945650087159E-002  -1.8843573537242128E-002   3.9549951608132607E-002
   6.3316393340719090E-002  -1.8390467564756027E-002   4.4810162063517373E-002
   6.1629452816041666E-002  -1.8071766317853340E-002   4.4489788834441026E-002
   5.9942512291364256E-002  -1.7720151039194346E-002   4.4374220026478825E-002
   5.8255571766686845E-002  -1.7335621728778949E-002   4.4463455639630702E-002
   5.6568631242009441E-002  -1.6918178386607259E-002   4.4757495673896669E-002
   5.6268606695517656E-002  -1.6223149331633810E-002   4.9822587442303709E-002
   5.4774326228943959E-002  -1.5901570039084850E-002   4.9551187175924730E-002
   5.3280045762370255E-002  -1.5589315925624962E-002   4.9460302604639163E-002
   5.1785765295796565E-002  -1.5286386991254133E-002   4.9549933728446946E-002
   5.0291484829222882E-002  -1.4992783235972446E-002   4.9820080547347989E-002
   7.5113078452116122E-002  -2.2694363838511838E-002   2.8699985899666575E-002
   7.2865778243739299E-002  -2.1862720631188715E-002   2.8468676911666796E-002
   7.0618478035362475E-002  -2.1105346879195457E-002   2.8373512326671999E-002
   6.8371177826985652E-002  -2.0422242582531683E-002   2.8414492144682009E-002
   6.6123877618608884E-002  -1.9813407741197719E-002   2.8591616365697015E-002
   6.8979428053456027E-002  -2.0768968687877004E-002   3.4197448350055865E-002
   6.6882773288088310E-002  -2.0059612013924033E-002   3.3881211600964301E-002
   6.4786118522720620E-002  -1.9379179477415721E-002   3.3730121334885982E-002
   6.2689463757352876E-002  -1.8727671078352028E-002   3.3744177551820929E-002
   6.0592808991985214E-002  -1.8105086816732840E-002   3.3923380251769053E-002
   6.2797945650087159E-002  -1.8843573537242128E-002   3.9549951608132607E-002
   6.0880938407736861E-002  -1.8256503396659324E-002   3.9194132415834297E-002
   5.8963931165386563E-002  -1.7653012075636045E-002   3.9032461786557546E-002
   5.7046923923036265E-002  -1.7033099574172268E-002   3.9064939720302436E-002
   5.5129916680685939E-002  -1.6396765892267934E-002   3.9291566217068724E-002
   5.6568631242009441E-002  -1.6918178386607259E-002   4.4757495673896669E-002
   5.4860273602684854E-002  -1.6453394779394573E-002   4.4407439356276675E-002
   5.3151915963360302E-002  -1.5926844673856369E-002   4.4280533681686746E-002
   5.1443558324035688E-002  -1.5338528069992478E-002   4.4376778650126514E-002
   4.9735200684711170E-002  -1.4688444967802958E-002   4.4696174261596208E-002
   5.0291484829222882E-002  -1.4992783235972446E-002   4.9820080547347989E-002
   4.8820778872932347E-002  -1.4650286162129891E-002   4.9521132422291614E-002
   4.7350072916641797E-002  -1.4200677272076669E-002   4.9474337020273276E-002
   4.5879366960351255E-002  -1.3643956565812848E-002   4.9679694341293205E-002
   4.4408661004060712E-002  -1.2980124043338093E-002   5.0137204385351408E-002
   6.6123877618608884E-002  -1.9813407741197719E-002   2.8591616365697015E-002
   6.3406833184962541E-002  -1.9224305671903030E-002   2.7981469817948801E-002
   6.0689788751316198E-002  -1.8600399691356739E-002   2.7633926232857431E-002
   5.7972744317669869E-002  -1.7941689799559346E-002   2.7548985610423113E-002
   5.5255699884023568E-002  -1.7248175996510684E-002   2.7726647950645888E-002
   6.0592808991985214E-002  -1.8105086816732840E-002   3.3923380251769053E-002
   5.8123625499924045E-002  -1.7502603918904153E-002   3.3378430658830921E-002
   5.5654442007862875E-002  -1.6911399611211519E-002   3.3066599986406153E-002
   5.3185258515801692E-002  -1.6331473893654941E-002   3.2987888234494847E-002
   5.0716075023740481E-002  -1.5762826766234694E-002   3.3142295403096655E-002
   5.5129916680685939E-002  -1.6396765892267934E-002   3.9291566217068724E-002
   5.2879110088066325E-002  -1.5780902165905220E-002   3.8765731077553350E-002
   5.0628303495446662E-002  -1.5222399531066022E-002   3.8443530816407723E-002
   4.8377496902827027E-002  -1.4721257987750536E-002   3.8324965433631848E-002
   4.6126690310207386E-002  -1.4277477535958677E-002   3.8410034929225637E-002
   4.9735200684711170E-002  -1.4688444967802958E-002   4.4696174261596208E-002
   4.7673286949389410E-002  -1.4059200412906286E-002   4.4143371074115992E-002
   4.5611373214067642E-002  -1.3533399450920691E-002   4.3764718722861917E-002
   4.3549459478745896E-002  -1.3111042081846075E-002   4.3560217207833936E-002
   4.1487545743424101E-002  -1.2792128305682646E-002   4.3529866529032124E-002
   4.4408661004060712E-002  -1.2980124043338093E-002   5.0137204385351408E-002
   4.2506156083893243E-002  -1.2337498659907464E-002   4.9511350648518859E-002
   4.0603651163725760E-002  -1.1844399370775249E-002   4.9030163705769070E-002
   3.8701146243558263E-002  -1.1500826175941684E-002   4.8693643557101624E-002
   3.6798641323390807E-002  -1.1306779075406670E-002   4.8501790202516493E-002
   5.5255699884023568E-002  -1.7248175996510684E-002   2.7726647950645888E-002
   5.3661855131963060E-002  -1.6563794234506740E-002   2.7992430406773960E-002
   5.2068010379902607E-002  -1.5932480465843710E-002   2.8260584872747574E-002
   5.0474165627842155E-002  -1.5354234690521270E-002   2.8531111348566854E-002
   4.8880320875781702E-002  -1.4829056908539862E-002   2.8804009834231259E-002
   5.0716075023740481E-002  -1.5762826766234694E-002   3.3142295403096655E-002
   4.9164256984880528E-002  -1.5178653862819746E-002   3.3392603783721886E-002
   4.7612438946020519E-002  -1.4552150817279494E-002   3.3724593580902365E-002
   4.6060620907160510E-002  -1.3883317629613989E-002   3.4138264794638391E-002
   4.4508802868300557E-002  -1.3172154299822991E-002   3.4633617424929763E-002
   4.6126690310207386E-002  -1.4277477535958677E-002   3.8410034929225637E-002
   4.4696208391257743E-002  -1.3793513491132850E-002   3.8740267369813966E-002
   4.3265726472308044E-002  -1.3171821168715507E-002   3.9231490633667730E-002
   4.1835244553358415E-002  -1.2412400568706598E-002   3.9883704720786659E-002
   4.0404762634408717E-002  -1.1515251691106121E-002   4.0696909631170980E-002
   4.1487545743424101E-002  -1.2792128305682646E-002   4.3529866529032124E-002
   4.0257709351094705E-002  -1.2408373119445849E-002   4.4035421165049937E-002
   3.9027872958765281E-002  -1.1791491520151489E-002   4.4781276031042962E-002
   3.7798036566435836E-002  -1.0941483507799152E-002   4.5767431127011218E-002
   3.6568200174106467E-002  -9.8583490823892506E-003   4.6993886452954541E-002
   3.6798641323390807E-002  -1.1306779075406670E-002   4.8501790202516493E-002
   3.5848759864391483E-002  -1.1023232747758932E-002   4.9278065169430230E-002
   3.4898878405392145E-002  -1.0411161871587346E-002   5.0373949773028615E-002
   3.3948996946392813E-002  -9.4705664468918253E-003   5.1789444013312216E-002
   3.2999115487393538E-002  -8.2014464736723247E-003   5.3524547890280993E-002
   4.8880320875781702E-002  -1.4829056908539862E-002   2.8804009834231259E-002
   4.6249470626366168E-002  -1.4122444793280620E-002   2.7968898414285570E-002
   4.3618620376950606E-002  -1.2999896018125484E-002   2.7815618332517944E-002
   4.0987770127534989E-002  -1.1461410583073546E-002   2.8344169588927798E-002
   3.8356919878119511E-002  -9.5069884881255895E-003   2.9554552183516103E-002
   4.4508802868300557E-002  -1.3172154299822991E-002   3.4633617424929763E-002
   4.2412601108569564E-002  -1.2374394838328556E-002   3.4192200320669247E-002
   4.0316399348838600E-002  -1.1445773255552821E-002   3.4138248857599862E-002
   3.8220197589107649E-002  -1.0386289551495502E-002   3.4471763035721720E-002
   3.6123995829376587E-002  -9.1959437261563970E-003   3.5192742855034931E-002
   4.0404762634408717E-002  -1.1515251691106121E-002   4.0696909631170980E-002
   3.8548843667375758E-002  -1.0626344883376659E-002   4.0364112303980515E-002
   3.6692924700342869E-002  -9.8916504929803667E-003   4.0124414920994833E-002
   3.4837005733309868E-002  -9.3111685199173434E-003   3.9977817482213705E-002
   3.2981086766276896E-002  -8.8848989641875376E-003   3.9924319987637402E-002
   3.6568200174106467E-002  -9.8583490823892506E-003   4.6993886452954541E-002
   3.4658198302784785E-002  -8.8782949284245682E-003   4.6484634364219672E-002
   3.2748196431463164E-002  -8.3375277304078080E-003   4.5774116522702857E-002
   3.0838194560141592E-002  -8.2360474883391866E-003   4.4862332928404032E-002
   2.8928192688819861E-002  -8.5738542022185671E-003   4.3749283581323059E-002
   3.2999115487393538E-002  -8.2014464736723247E-003   5.3524547890280993E-002
   3.0740665014796664E-002  -7.1302449734726991E-003   5.2553766501386656E-002
   2.8482214542199735E-002  -6.7834049678353187E-003   5.1087353662723961E-002
   2.6223764069602876E-002  -7.1609264567611026E-003   4.9125309374292506E-002
   2.3965313597005988E-002  -8.2628094402494856E-003   4.6667633636092498E-002
   5.7142883594693453E-002   0.0000000000000000        3.4599995952747223E-002
   5.7928563980644977E-002  -2.0736659880650384E-003   3.8248196207543286E-002
   5.8714244366596502E-002  -4.1195498096828296E-003   4.2105682584998881E-002
   5.9499924752548033E-002  -6.1376514648533720E-003   4.6172455085114035E-002
   6.0285605138499558E-002  -8.1279709535766777E-003   5.0448513707888776E-002
   4.8632105480914803E-002   0.0000000000000000        3.2711516526152326E-002
   4.9562414202337021E-002  -1.6972416344955667E-003   3.6881629554809371E-002
   5.0492722923759240E-002  -3.4101629741799932E-003   4.1131713131748238E-002
   5.1423031645181472E-002  -5.1387640190532855E-003   4.5461767256968960E-002
   5.2353340366603690E-002  -6.8830447691154385E-003   4.9871791930471490E-002
   4.0701846697556818E-002   0.0000000000000000        3.1221192388944954E-002
   4.1647468180072013E-002  -1.3208172809260977E-003   3.5869756319826883E-002
   4.2593089662587201E-002  -2.7007761386771594E-003   4.0468975224612916E-002
   4.3538711145102389E-002  -4.1398765732531921E-003   4.5018849103303053E-002
   4.4484332627617570E-002  -5.6381185846541889E-003   4.9519377955897316E-002
   3.3352107244619511E-002   0.0000000000000000        3.0129023541125097E-002
   3.4183725913849945E-002  -9.4439292735662775E-004   3.5212576502595808E-002
   3.5015344583080366E-002  -1.9913893031743269E-003   4.0117468863592902E-002
   3.5846963252310807E-002  -3.1409891274530952E-003   4.4843700624116391E-002
   3.6678581921541227E-002  -4.3931924001929462E-003   4.9391271784166253E-002
   2.6582887122102855E-002   0.0000000000000000        2.9435009982692769E-002
   2.7171187403670805E-002  -5.6796857378715784E-004   3.4910090103116159E-002
   2.7759487685238754E-002  -1.2820024676714909E-003   4.0077194048688217E-002
   2.8347787966806703E-002  -2.1421016816530088E-003   4.4936321819408910E-002
   2.8936088248374653E-002  -3.1482662157316975E-003   4.9487473415278267E-002
   6.0285605138499558E-002  -8.1279709535766777E-003   5.0448513707888776E-002
   6.0582958990265064E-002  -1.0007183474990307E-002   5.1370753188195666E-002
   6.0880312842030535E-002  -1.1691964228231787E-002   5.2080192664588285E-002
   6.1177666693796012E-002  -1.3182313213301189E-002   5.2576832137066737E-002
   6.1475020545561518E-002  -1.4478230430198420E-002   5.2860671605631009E-002
   5.2353340366603690E-002  -6.8830447691154385E-003   4.9871791930471490E-002
   5.2475520907592429E-002  -8.5419506932241044E-003   5.1085345699459606E-002
   5.2597701448581183E-002  -1.0014427260236930E-002   5.2161352850808418E-002
   5.2719881989569922E-002  -1.1300474470153924E-002   5.3099813384518003E-002
   5.2842062530558682E-002  -1.2400092322975093E-002   5.3900727300588341E-002
   4.4484332627617570E-002  -5.6381185846541889E-003   4.9519377955897316E-002
   4.4506593244104532E-002  -7.0767179114578950E-003   5.1016243602490345E-002
   4.4528853860591501E-002  -8.3368902922420600E-003   5.2450816017719060E-002
   4.4551114477078456E-002  -9.4186357270066821E-003   5.3823095201583501E-002
   4.4573375093565418E-002  -1.0321954215751748E-002   5.5133081154083573E-002
   3.6678581921541227E-002  -4.3931924001929462E-003   4.9391271784166253E-002
   3.6676175999801358E-002  -5.6114851296916995E-003   5.1163446897287926E-002
   3.6673770078061489E-002  -6.6593533242471862E-003   5.2948582165320238E-002
   3.6671364156321606E-002  -7.5367969838594315E-003   5.4746677588263230E-002
   3.6668958234581737E-002  -8.2438161085284182E-003   5.6557733166116786E-002
   2.8936088248374653E-002  -3.1482662157316975E-003   4.9487473415278267E-002
   2.8984269174682900E-002  -4.1462523479254875E-003   5.1526955583852313E-002
   2.9032450100991140E-002  -4.9818163562523271E-003   5.3654651293611917E-002
   2.9080631027299384E-002  -5.6549582407121827E-003   5.5870560544557163E-002
   2.9128811953607628E-002  -6.1656780013050749E-003   5.8174683336687932E-002
   6.1475020545561518E-002  -1.4478230430198420E-002   5.2860671605631009E-002
   6.0173417083050532E-002  -1.5486313861146527E-002   5.1429162524114211E-002
   5.8871813620539580E-002  -1.6113161488368478E-002   5.0445645469720732E-002
   5.7570210158028601E-002  -1.6358773311864194E-002   4.9910120442450585E-002
   5.6268606695517656E-002  -1.6223149331633810E-002   4.9822587442303709E-002
   5.2842062530558682E-002  -1.2400092322975093E-002   5.3900727300588341E-002
   5.1936631541009609E-002  -1.3255284527301289E-002   5.3123498114729856E-002
   5.1031200551460529E-002  -1.3808054791733363E-002   5.2690621847671919E-002
   5.0125769561911462E-002  -1.4058403116271323E-002   5.2602098499414378E-002
   4.9220338572362389E-002  -1.4006329500915224E-002   5.2857928069957427E-002
   4.4573375093565418E-002  -1.0321954215751748E-002   5.5133081154083573E-002
   4.3960477468655446E-002  -1.1024255193456031E-002   5.4931318000051355E-002
   4.3347579843745460E-002  -1.1502948095098265E-002   5.4970268656496846E-002
   4.2734682218835474E-002  -1.1758032920678452E-002   5.5249933123420032E-002
   4.2121784593925501E-002  -1.1789509670196617E-002   5.5770311400820866E-002
   3.6668958234581737E-002  -8.2438161085284182E-003   5.6557733166116786E-002
   3.6244954865988020E-002  -8.7932258596108044E-003   5.6852622180078763E-002
   3.5820951497394331E-002  -9.1978413984631722E-003   5.7284585896195617E-002
   3.5396948128800620E-002  -9.4576627250855701E-003   5.7853624314467396E-002
   3.4972944760206910E-002  -9.5726898394780206E-003   5.8559737434893872E-002
   2.9128811953607628E-002  -6.1656780013050749E-003   5.8174683336687932E-002
   2.8790063733007392E-002  -6.5621965257655311E-003   5.8887410654812095E-002
   2.8451315512407156E-002  -6.8927347018280620E-003   5.9633573566768190E-002
   2.8112567291806920E-002  -7.1572925294926841E-003   6.0413172072556393E-002
   2.7773819071206685E-002  -7.3558700087594381E-003   6.1226206172176681E-002
   5.6268606695517656E-002  -1.6223149331633810E-002   4.9822587442303709E-002
   5.4774326228943959E-002  -1.5901570039084850E-002   4.9551187175924730E-002
   5.3280045762370255E-002  -1.5589315925624962E-002   4.9460302604639163E-002
   5.1785765295796565E-002  -1.5286386991254133E-002   4.9549933728446946E-002
   5.0291484829222882E-002  -1.4992783235972446E-002   4.9820080547347989E-002
   4.9220338572362389E-002  -1.4006329500915224E-002   5.2857928069957427E-002
   4.7904254453951821E-002  -1.3797275563196737E-002   5.2535029364237207E-002
   4.6588170335541260E-002  -1.3576682920647749E-002   5.2388007659750033E-002
   4.5272086217130691E-002  -1.3344551573268245E-002   5.2416862956495662E-002
   4.3956002098720137E-002  -1.3100881521058150E-002   5.2621595254474171E-002
   4.2121784593925501E-002  -1.1789509670196617E-002   5.5770311400820866E-002
   4.0979258129817557E-002  -1.1692981087308638E-002   5.5416778139679199E-002
   3.9836731665709647E-002  -1.1564049915670562E-002   5.5234483185909844E-002
   3.8694205201601731E-002  -1.1402716155282273E-002   5.5223426539512843E-002
   3.7551678737493800E-002  -1.1208979806143896E-002   5.5383608200488411E-002
   3.4972944760206910E-002  -9.5726898394780206E-003   5.8559737434893872E-002
   3.3999337256541154E-002  -9.5886866114205729E-003   5.8196433502250247E-002
   3.3025729752875391E-002  -9.5514169106933333E-003   5.7999729183118569E-002
   3.2052122249209641E-002  -9.4608807372963989E-003   5.7969624477498753E-002
   3.1078514745543885E-002  -9.3170780912296067E-003   5.8106119385390904E-002
   2.7773819071206685E-002  -7.3558700087594381E-003   6.1226206172176681E-002
   2.6964491834122598E-002  -7.4843921355324319E-003   6.0873995451950741E-002
   2.6155164597038531E-002  -7.5387839057161725E-003   6.0683745651376207E-002
   2.5345837359954458E-002  -7.5190453193104021E-003   6.0655456770453059E-002
   2.4536510122870378E-002  -7.4251763763153733E-003   6.0789128809181442E-002
   5.0291484829222882E-002  -1.4992783235972446E-002   4.9820080547347989E-002
   4.8820778872932347E-002  -1.4650286162129891E-002   4.9521132422291614E-002
   4.7350072916641797E-002  -1.4200677272076669E-002   4.9474337020273276E-002
   4.5879366960351255E-002  -1.3643956565812848E-002   4.9679694341293205E-002
   4.4408661004060712E-002  -1.2980124043338093E-002   5.0137204385351408E-002
   4.3956002098720137E-002  -1.3100881521058150E-002   5.2621595254474171E-002
   4.2727990624539747E-002  -1.2820647179060854E-002   5.2328699103243378E-002
   4.1499979150359349E-002  -1.2478822962319600E-002   5.2269039193194679E-002
   4.0271967676178952E-002  -1.2075408870834466E-002   5.2442615524328259E-002
   3.9043956201998575E-002  -1.1610404904605354E-002   5.2849428096643780E-002
   3.7551678737493800E-002  -1.1208979806143896E-002   5.5383608200488411E-002
   3.6547445263567492E-002  -1.0991008195991837E-002   5.5051242081616616E-002
   3.5543211789641163E-002  -1.0756968652562610E-002   5.4933195722070838E-002
   3.4538978315714834E-002  -1.0506861175856249E-002   5.5029469121851048E-002
   3.3534744841788533E-002  -1.0240685765872642E-002   5.5340062280957392E-002
   3.1078514745543885E-002  -9.3170780912296067E-003   5.8106119385390904E-002
   3.0279142790015572E-002  -9.1613692129228104E-003   5.7688761357411147E-002
   2.9479770834487242E-002  -9.0351143428055534E-003   5.7466806606901427E-002
   2.8680398878958908E-002  -8.9383134808779224E-003   5.7440255133861709E-002
   2.7881026923430606E-002  -8.8709666271398618E-003   5.7609106938291882E-002
   2.4536510122870378E-002  -7.4251763763153733E-003   6.0789128809181442E-002
   2.3923083203883977E-002  -7.3317302298537973E-003   6.0241256930627152E-002
   2.3309656284897583E-002  -7.3132600330485312E-003   5.9869871847686787E-002
   2.2696229365911178E-002  -7.3697657858997571E-003   5.9674973560360355E-002
   2.2082802446924774E-002  -7.5012474884071922E-003   5.9656562068647667E-002
   4.4408661004060712E-002  -1.2980124043338093E-002   5.0137204385351408E-002
   4.2506156083893243E-002  -1.2337498659907464E-002   4.9511350648518859E-002
   4.0603651163725760E-002  -1.1844399370775249E-002   4.9030163705769070E-002
   3.8701146243558263E-002  -1.1500826175941684E-002   4.8693643557101624E-002
   3.6798641323390807E-002  -1.1306779075406670E-002   4.8501790202516493E-002
   3.9043956201998575E-002  -1.1610404904605354E-002   5.2849428096643780E-002
   3.7312252595619266E-002  -1.1144949008585647E-002   5.2000096266638540E-002
   3.5580548989239957E-002  -1.0740179127728552E-002   5.1347700270127444E-002
   3.3848845382860648E-002  -1.0396095262034024E-002   5.0892240107110145E-002
   3.2117141776481339E-002  -1.0112697411502336E-002   5.0633715777586713E-002
   3.3534744841788533E-002  -1.0240685765872642E-002   5.5340062280957392E-002
   3.2026111588608866E-002  -9.9523993572638580E-003   5.4356092436915374E-002
   3.0517478335429178E-002  -9.6359588846818556E-003   5.3621327465778662E-002
   2.9008845082249490E-002  -9.2913643481265865E-003   5.3135767367547257E-002
   2.7500211829069830E-002  -8.9186157475981132E-003   5.2899412142221394E-002
   2.7881026923430606E-002  -8.8709666271398618E-003   5.7609106938291882E-002
   2.6647733062862021E-002  -8.7598497059419994E-003   5.6579339159348888E-002
   2.5414439202293436E-002  -8.5317386416351587E-003   5.5851045292722799E-002
   2.4181145341724834E-002  -8.1866334342189269E-003   5.5424225338413499E-002
   2.2947851481156266E-002  -7.7245340836938348E-003   5.5298879296421008E-002
   2.2082802446924774E-002  -7.5012474884071922E-003   5.9656562068647667E-002
   2.1177117018378738E-002  -7.5673000546201963E-003   5.8669836433939582E-002
   2.0271431589832710E-002  -7.4275183985885174E-003   5.8036853750959849E-002
   1.9365746161286678E-002  -7.0819025203114477E-003   5.7757614019708359E-002
   1.8460060732740646E-002  -6.5304524197896119E-003   5.7832117240185221E-002
   3.6798641323390807E-002  -1.1306779075406670E-002   4.8501790202516493E-002
   3.5848759864391483E-002  -1.1023232747758932E-002   4.9278065169430230E-002
   3.4898878405392145E-002  -1.0411161871587346E-002   5.0373949773028615E-002
   3.3948996946392813E-002  -9.4705664468918253E-003   5.1789444013312216E-002
   3.2999115487393538E-002  -8.2014464736723247E-003   5.3524547890280993E-002
   3.2117141776481339E-002  -1.0112697411502336E-002   5.0633715777586713E-002
   3.1402808344659472E-002  -9.7867370318225622E-003   5.1627666545481871E-002
   3.0688474912837577E-002  -9.3149655786836372E-003   5.2773103731046975E-002
   2.9974141481015702E-002  -8.6973830520859566E-003   5.4070027334281769E-002
   2.9259808049193800E-002  -7.9339894520293885E-003   5.5518437355186412E-002
   2.7500211829069830E-002  -8.9186157475981132E-003   5.2899412142221394E-002
   2.6853303205410128E-002  -8.5502413158859286E-003   5.3928325236033497E-002
   2.6206394581750402E-002  -8.2187692857800462E-003   5.4940601528499826E-002
   2.5559485958090669E-002  -7.9241996572800340E-003   5.5936241019620858E-002
   2.4912577334430974E-002  -7.6665324303862581E-003   5.6915243709396393E-002
   2.2947851481156266E-002  -7.7245340836938348E-003   5.5298879296421008E-002
   2.2200244446643466E-002  -7.3137455999495102E-003   5.6180041241084659E-002
   2.1452637412130649E-002  -7.1225729928763130E-003   5.6876443165387570E-002
   2.0705030377617843E-002  -7.1510162624742494E-003   5.7388085069329728E-002
   1.9957423343105036E-002  -7.3990754087432803E-003   5.7714966952911395E-002
   1.8460060732740646E-002  -6.5304524197896119E-003   5.7832117240185221E-002
   1.7443632068359471E-002  -6.0772498840129807E-003   5.8382814560635488E-002
   1.6427203403978324E-002  -6.0263766999727741E-003   5.8580628641709986E-002
   1.5410774739597156E-002  -6.3778328676682497E-003   5.8425559483408357E-002
   1.4394346075215989E-002  -7.1316183871001360E-003   5.7917607085730849E-002
   3.2999115487393538E-002  -8.2014464736723247E-003   5.3524547890280993E-002
   3.0740665014796664E-002  -7.1302449734726991E-003   5.2553766501386656E-002
   2.8482214542199735E-002  -6.7834049678353187E-003   5.1087353662723961E-002
   2.6223764069602876E-002  -7.1609264567611026E-003   4.9125309374292506E-002
   2.3965313597005988E-002  -8.2628094402494856E-003   4.6667633636092498E-002
   2.9259808049193800E-002  -7.9339894520293885E-003   5.5518437355186412E-002
   2.6952706879361410E-002  -7.1998019818704517E-003   5.3922421028353568E-002
   2.4645605709529027E-002  -6.6698378449661089E-003   5.2724734756818270E-002
   2.2338504539696654E-002  -6.3440970413161379E-003   5.1925378540580686E-002
   2.0031403369864309E-002  -6.2225795709207610E-003   5.1524352379640370E-002
   2.4912577334430974E-002  -7.6665324303862581E-003   5.6915243709396393E-002
   2.3450786972429277E-002  -7.2693589902685929E-003   5.5214130605933359E-002
   2.1988996610427580E-002  -6.5562707220968922E-003   5.4805309062833867E-002
   2.0527206248425859E-002  -5.5272676258713935E-003   5.5688779080098366E-002
   1.9065415886424159E-002  -4.1823497015919253E-003   5.7864540657726227E-002
   1.9957423343105036E-002  -7.3990754087432803E-003   5.7714966952911395E-002
   2.0234905294000197E-002  -7.3389159986667063E-003   5.6428895234126294E-002
   2.0512387244895312E-002  -6.4427035992276234E-003   5.7329076580771084E-002
   2.0789869195790490E-002  -4.7104382104265390E-003   6.0415510992846012E-002
   2.1067351146685599E-002  -2.1421198322632007E-003   6.5688198470350553E-002
   1.4394346075215989E-002  -7.1316183871001360E-003   5.7917607085730849E-002
   1.7305061844074168E-002  -7.4084730070645977E-003   5.7566714912932249E-002
   2.0215777612932327E-002  -6.3291364763585628E-003   6.0296037310629685E-002
   2.3126493381790517E-002  -3.8936087949817365E-003   6.6105574278823007E-002
   2.6037209150648666E-002  -1.0188996293436503E-004   7.4995325817512892E-002
   2.6582887122102855E-002   0.0000000000000000        2.9435009982692769E-002
   2.7171187403670805E-002  -5.6796857378715784E-004   3.4910090103116159E-002
   2.7759487685238754E-002  -1.2820024676714909E-003   4.0077194048688217E-002
   2.8347787966806703E-002  -2.1421016816530088E-003   4.4936321819408910E-002
   2.8936088248374653E-002  -3.1482662157316975E-003   4.9487473415278267E-002
   2.0059352625603377E-002   0.0000000000000000        2.9005035576503614E-002
   2.0378965085865459E-002  -4.2013427297379197E-004   3.4302101937703521E-002
   2.0698577546127545E-002  -9.5051129461570013E-004   3.9369768831143043E-002
   2.1018190006389631E-002  -1.5911310649257271E-003   4.4208036256822174E-002
   2.1337802466651713E-002  -2.3419935839038668E-003   4.8816904214740928E-002
   1.3446670050717580E-002   0.0000000000000000        2.8704984185413306E-002
   1.3576171396764758E-002  -2.7229997216042480E-004   3.3859859358818772E-002
   1.3705672742811936E-002  -6.1902012155990675E-004   3.8863911771554835E-002
   1.3835174088859113E-002  -1.0401604481984471E-003   4.3717141423621458E-002
   1.3964675434906291E-002  -1.5357209520760425E-003   4.8419548315018657E-002
   6.7448393974454618E-003   0.0000000000000000        2.8534855809421823E-002
   6.7628063363686921E-003  -1.2446567134705871E-004   3.3583362366461936E-002
   6.7807732752919233E-003  -2.8752894850411640E-004   3.8559622869923579E-002
   6.7987402142151519E-003  -4.8918983147116287E-004   4.3463637319806757E-002
   6.8167071531383830E-003  -7.2944832024822198E-004   4.8295405716111475E-002
  -4.6139334212972997E-005   0.0000000000000000        2.8494650448529182E-002
  -6.1130095322730997E-005   2.3368629466308244E-005   3.3472610960632990E-002
  -7.6120856432489647E-005   4.3962224551679155E-005   3.8456902126249297E-002
  -9.1111617542248406E-005   6.1780785256114468E-005   4.3447523945378069E-002
  -1.0610237865200630E-004   7.6824311579611580E-005   4.8444476418019362E-002
   2.8936088248374653E-002  -3.1482662157316975E-003   4.9487473415278267E-002
   2.8984269174682900E-002  -4.1462523479254875E-003   5.1526955583852313E-002
   2.9032450100991140E-002  -4.9818163562523271E-003   5.3654651293611917E-002
   2.9080631027299384E-002  -5.6549582407121827E-003   5.5870560544557163E-002
   2.9128811953607628E-002  -6.1656780013050749E-003   5.8174683336687932E-002
   2.1337802466651713E-002  -2.3419935839038668E-003   4.8816904214740928E-002
   2.1447916197649866E-002  -3.0863904607419316E-003   5.1198062475204406E-002
   2.1558029928648016E-002  -3.7076133046317272E-003   5.3614872803862103E-002
   2.1668143659646165E-002  -4.2056621155732391E-003   5.6067335200713990E-002
   2.1778257390644318E-002  -4.5805368935664531E-003   5.8555449665760165E-002
   1.3964675434906291E-002  -1.5357209520760425E-003   4.8419548315018657E-002
   1.4084160497602969E-002  -2.0265285735583693E-003   5.1103134576452901E-002
   1.4203645560299655E-002  -2.4334102530111199E-003   5.3769811433089988E-002
   1.4323130622996337E-002  -2.7563659904342704E-003   5.6419578884929898E-002
   1.4442615685693022E-002  -2.9953957858278452E-003   5.9052436931972693E-002
   6.8167071531383830E-003  -7.2944832024822198E-004   4.8295405716111475E-002
   6.8930020745422175E-003  -9.6666668637481368E-004   5.1242171887597804E-002
   6.9692969959460564E-003  -1.1592072013905058E-003   5.4119467181295587E-002
   7.0455919173498908E-003  -1.3070698652953108E-003   5.6927291597204777E-002
   7.1218868387537279E-003  -1.4102546780892164E-003   5.9665645135325490E-002
  -1.0610237865200630E-004   7.6824311579611580E-005   4.8444476418019362E-002
  -1.2555907153239277E-004   9.3195200808754083E-005   5.1615174408639053E-002
  -1.4501576441277903E-004   1.1499585023008198E-004   5.4663840048478830E-002
  -1.6447245729316626E-004   1.4222625984364401E-004   5.7590473337538702E-002
  -1.8392915017355176E-004   1.7488642964939155E-004   6.0395074275818673E-002
   2.9128811953607628E-002  -6.1656780013050749E-003   5.8174683336687932E-002
   2.8790063733007392E-002  -6.5621965257655311E-003   5.8887410654812095E-002
   2.8451315512407156E-002  -6.8927347018280620E-003   5.9633573566768190E-002
   2.8112567291806920E-002  -7.1572925294926841E-003   6.0413172072556393E-002
   2.7773819071206685E-002  -7.3558700087594381E-003   6.1226206172176681E-002
   2.1778257390644318E-002  -4.5805368935664531E-003   5.8555449665760165E-002
   2.1479930663813027E-002  -4.8660962180234642E-003   5.9350794353094205E-002
   2.1181603936981739E-002  -5.0961986683562624E-003   6.0193546434134076E-002
   2.0883277210150444E-002  -5.2708442445649085E-003   6.1083705908879772E-002
   2.0584950483319157E-002  -5.3900329466493035E-003   6.2021272777331334E-002
   1.4442615685693022E-002  -2.9953957858278452E-003   5.9052436931972693E-002
   1.4198682252504442E-002  -3.1699959102813851E-003   5.9919875514242944E-002
   1.3954748819315863E-002  -3.2996626348844368E-003   6.0848693290092785E-002
   1.3710815386127281E-002  -3.3843959596370639E-003   6.1838890259522244E-002
   1.3466881952938697E-002  -3.4241958845392176E-003   6.2890466422531252E-002
   7.1218868387537279E-003  -1.4102546780892164E-003   5.9665645135325490E-002
   6.9463184990816310E-003  -1.4738956025392843E-003   6.0594654138258291E-002
   6.7707501594095297E-003  -1.5031266014126589E-003   6.1599014134644400E-002
   6.5951818197374345E-003  -1.4979476747092539E-003   6.2678725124483831E-002
   6.4196134800653323E-003  -1.4583588224291212E-003   6.3833787107776721E-002
  -1.8392915017355176E-004   1.7488642964939155E-004   6.0395074275818673E-002
  -2.7716059645540182E-004   2.2220470520276439E-004   6.1375130225140184E-002
  -3.7039204273725448E-004   2.9340943205918325E-004   6.2444508967788845E-002
  -4.6362348901910627E-004   3.8850061021856877E-004   6.3603210503764634E-002
  -5.5685493530095720E-004   5.0747823968097516E-004   6.4851234833067567E-002
   2.7773819071206685E-002  -7.3558700087594381E-003   6.1226206172176681E-002
   2.6964491834122598E-002  -7.4843921355324319E-003   6.0873995451950741E-002
   2.6155164597038531E-002  -7.5387839057161725E-003   6.0683745651376207E-002
   2.5345837359954458E-002  -7.5190453193104021E-003   6.0655456770453059E-002
   2.4536510122870378E-002  -7.4251763763153733E-003   6.0789128809181442E-002
   2.0584950483319157E-002  -5.3900329466493035E-003   6.2021272777331334E-002
   1.9937968006076019E-002  -5.4693276436284036E-003   6.1789476701139857E-002
   1.9290985528832891E-002  -5.5242912045210743E-003   6.1720409224978776E-002
   1.8644003051589753E-002  -5.5549236293271267E-003   6.1814070348848268E-002
   1.7997020574346621E-002  -5.5612249180467810E-003   6.2070460072748010E-002
   1.3466881952938697E-002  -3.4241958845392176E-003   6.2890466422531252E-002
   1.2983011915915502E-002  -3.4542631517243162E-003   6.2729285769871385E-002
   1.2499141878892304E-002  -3.5097985033258946E-003   6.2731601397620990E-002
   1.2015271841869112E-002  -3.5908019393437961E-003   6.2897413305780026E-002
   1.1531401804845916E-002  -3.6972734597781748E-003   6.3226721494348465E-002
   6.4196134800653323E-003  -1.4583588224291212E-003   6.3833787107776721E-002
   6.0996235636410620E-003  -1.4391986598202584E-003   6.3693422658145579E-002
   5.7796336472167933E-003  -1.4953058021307279E-003   6.3717322169302870E-002
   5.4596437307925282E-003  -1.6266802493604792E-003   6.3905485641248552E-002
   5.1396538143682535E-003  -1.8333220015095339E-003   6.4257913073982695E-002
  -5.5685493530095720E-004   5.0747823968097516E-004   6.4851234833067567E-002
  -7.1219705074730341E-004   5.7586583208382724E-004   6.4681887365962240E-002
  -8.6753916619365483E-004   5.1918689906436943E-004   6.4677571540024334E-002
  -1.0228812816400019E-003   3.3744144062286194E-004   6.4838287355253890E-002
  -1.1782233970863525E-003   3.0629456758995977E-005   6.5164034811650812E-002
   2.4536510122870378E-002  -7.4251763763153733E-003   6.0789128809181442E-002
   2.3923083203883977E-002  -7.3317302298537973E-003   6.0241256930627152E-002
   2.3309656284897583E-002  -7.3132600330485312E-003   5.9869871847686787E-002
   2.2696229365911178E-002  -7.3697657858997571E-003   5.9674973560360355E-002
   2.2082802446924774E-002  -7.5012474884071922E-003   5.9656562068647667E-002
   1.7997020574346621E-002  -5.5612249180467810E-003   6.2070460072748010E-002
   1.7569841562303859E-002  -5.5625384928541799E-003   6.1561554255587320E-002
   1.7142662550261097E-002  -5.5782077759235910E-003   6.1248657456700141E-002
   1.6715483538218341E-002  -5.6082327672550385E-003   6.1131769676086398E-002
   1.6288304526175572E-002  -5.6526134668484773E-003   6.1210890913745847E-002
   1.1531401804845916E-002  -3.6972734597781748E-003   6.3226721494348465E-002
   1.1309992922406316E-002  -3.7933467558545833E-003   6.2817401979975776E-002
   1.1088584039966707E-002  -3.8431555187985918E-003   6.2623613706536047E-002
   1.0867175157527102E-002  -3.8466997486103468E-003   6.2645356674029179E-002
   1.0645766275087499E-002  -3.8039794452897069E-003   6.2882630882455381E-002
   5.1396538143682535E-003  -1.8333220015095339E-003   6.4257913073982695E-002
   5.1435372841913251E-003  -2.0241550188549763E-003   6.4008800103792354E-002
   5.1474207540144010E-003  -2.1081032616736776E-003   6.3994740597194386E-002
   5.1513042238374813E-003  -2.0851667299656694E-003   6.4215734554189025E-002
   5.1551876936605538E-003  -1.9553454237310475E-003   6.4671781974775855E-002
  -1.1782233970863525E-003   3.0629456758995977E-005   6.5164034811650812E-002
  -9.2952535234107694E-004  -2.5496328185538319E-004   6.5135748627037110E-002
  -6.8082730759580490E-004  -3.7305100454864543E-004   6.5362038128675373E-002
  -4.3212926285053025E-004  -3.2363371132101797E-004   6.5842903316565587E-002
  -1.8343121810525734E-004  -1.0671140217227704E-004   6.6578344190707739E-002
   2.2082802446924774E-002  -7.5012474884071922E-003   5.9656562068647667E-002
   2.1177117018378738E-002  -7.5673000546201963E-003   5.8669836433939582E-002
   2.0271431589832710E-002  -7.4275183985885174E-003   5.8036853750959849E-002
   1.9365746161286678E-002  -7.0819025203114477E-003   5.7757614019708359E-002
   1.8460060732740646E-002  -6.5304524197896119E-003   5.7832117240185221E-002
   1.6288304526175572E-002  -5.6526134668484773E-003   6.1210890913745847E-002
   1.5674279223903062E-002  -5.6471920629066474E-003   6.0473939192032977E-002
   1.5060253921630549E-002  -5.5278107436321083E-003   5.9966564771138930E-002
   1.4446228619358041E-002  -5.2944695090249815E-003   5.9688767651063637E-002
   1.3832203317085526E-002  -4.9471683590854298E-003   5.9640547831807111E-002
   1.0645766275087499E-002  -3.8039794452897069E-003   6.2882630882455381E-002
   1.0199235448179002E-002  -3.7270840711927933E-003   6.2303578766825213E-002
   9.7527046212704995E-003  -3.6281030886759214E-003   6.1829938301104337E-002
   9.3061737943620042E-003  -3.5070364977386262E-003   6.1461709485292698E-002
   8.8596429674535071E-003  -3.3638842983813311E-003   6.1198892319390324E-002
   5.1551876936605538E-003  -1.9553454237310475E-003   6.4671781974775855E-002
   4.7519856912065558E-003  -1.8069760794792028E-003   6.4158755158316177E-002
   4.3487836887525656E-003  -1.7283954337196511E-003   6.3626974340856152E-002
   3.9455816862985745E-003  -1.7196034864522987E-003   6.3076439522395819E-002
   3.5423796838445834E-003  -1.7806002376773017E-003   6.2507150702935388E-002
  -1.8343121810525734E-004  -1.0671140217227704E-004   6.6578344190707739E-002
  -6.6747004701426041E-004   1.1313191223463748E-004   6.6039468366505871E-002
  -1.1515088759232583E-003   1.7131222123663303E-004   6.5357672890394181E-002
  -1.6355477048322605E-003   6.7829524834184945E-005   6.4532957762372820E-002
  -2.1195865337412592E-003  -1.9731617697310577E-004   6.3565322982441663E-002
   1.8460060732740646E-002  -6.5304524197896119E-003   5.7832117240185221E-002
   1.7443632068359471E-002  -6.0772498840129807E-003   5.8382814560635488E-002
   1.6427203403978324E-002  -6.0263766999727741E-003   5.8580628641709986E-002
   1.5410774739597156E-002  -6.3778328676682497E-003   5.8425559483408357E-002
   1.4394346075215989E-002  -7.1316183871001360E-003   5.7917607085730849E-002
   1.3832203317085526E-002  -4.9471683590854298E-003   5.9640547831807111E-002
   1.2583828002528344E-002  -4.6809164487989774E-003   5.9628284934293063E-002
   1.1335452687971169E-002  -4.6907229331515643E-003   5.9505011975802852E-002
   1.0087077373413991E-002  -4.9765878121428922E-003   5.9270728956336574E-002
   8.8387020588567983E-003  -5.5385110857733566E-003   5.8925435875894328E-002
   8.8596429674535071E-003  -3.3638842983813311E-003   6.1198892319390324E-002
   7.6211941811202312E-003  -3.2845830135848353E-003   6.0749940161009097E-002
   6.3827453947869414E-003  -3.3550691663302296E-003   6.0431851120051394E-002
   5.1442966084536534E-003  -3.5753427566175312E-003   6.0244625196517625E-002
   3.9058478221203792E-003  -3.9454037844466050E-003   6.0188262390407823E-002
   3.5423796838445834E-003  -1.7806002376773017E-003   6.2507150702935388E-002
   2.5557306041351239E-003  -1.8882495783707903E-003   6.1747780240783624E-002
   1.5690815244256617E-003  -2.0194153995089018E-003   6.1361146074455766E-002
   5.8243244471619911E-004  -2.1740977010919500E-003   6.1347248203951557E-002
  -4.0421663499325914E-004  -2.3522964831198395E-003   6.1706086629271184E-002
  -2.1195865337412592E-003  -1.9731617697310577E-004   6.3565322982441663E-002
  -2.6125627284269738E-003  -4.9191614315663434E-004   6.2621805173616762E-002
  -3.1055389231126919E-003  -6.8376163268771273E-004   6.2292896839015621E-002
  -3.5985151177984117E-003  -7.7285264556670868E-004   6.2578597978638156E-002
  -4.0914913124841246E-003  -7.5918918179301853E-004   6.3478908592484229E-002
   1.4394346075215989E-002  -7.1316183871001360E-003   5.7917607085730849E-002
   1.7305061844074168E-002  -7.4084730070645977E-003   5.7566714912932249E-002
   2.0215777612932327E-002  -6.3291364763585628E-003   6.0296037310629685E-002
   2.3126493381790517E-002  -3.8936087949817365E-003   6.6105574278823007E-002
   2.6037209150648666E-002  -1.0188996293436503E-004   7.4995325817512892E-002
   8.8387020588567983E-003  -5.5385110857733566E-003   5.8925435875894328E-002
   1.3756661989620861E-002  -5.9926103085187477E-003   5.9048311897668210E-002
   1.8674621920384910E-002  -5.9550030348546751E-003   6.0105461672757765E-002
   2.3592581851148979E-002  -5.4256892647814685E-003   6.2096885201163077E-002
   2.8510541781913035E-002  -4.4046689982989440E-003   6.5022582482883950E-002
   3.9058478221203792E-003  -3.9454037844466050E-003   6.0188262390407823E-002
   8.6851110976098773E-003  -4.5767476099726756E-003   5.9920421952492878E-002
   1.3464374373099370E-002  -5.5808695933509608E-003   5.8440914450712984E-002
   1.8243637648588856E-002  -6.9577697345812022E-003   5.5749739885068386E-002
   2.3022900924078368E-002  -8.7074480336636340E-003   5.1846898255559104E-002
  -4.0421663499325914E-004  -2.3522964831198395E-003   6.1706086629271184E-002
   2.0904091680412221E-003  -3.1608849114267701E-003   6.0183045077406030E-002
   4.5850349710756903E-003  -5.2067361518472709E-003   5.5302395644495420E-002
   7.0796607741101907E-003  -8.4898502043809915E-003   4.7064138330539657E-002
   9.5742865771446493E-003  -1.3010227069028268E-002   3.5468273135538755E-002
  -4.0914913124841246E-003  -7.5918918179301853E-004   6.3478908592484229E-002
  -6.0274437990851006E-003  -1.7450222128806980E-003   5.9836181272407585E-002
  -7.9633962856860870E-003  -4.8326027103434005E-003   5.0689905254105022E-002
  -9.8993487722870682E-003  -1.0021930674180651E-002   3.6040080537576749E-002
  -1.1835301258888042E-002  -1.7313006104392903E-002   1.5886707122822807E-002
  -4.6139334212972997E-005   0.0000000000000000        2.8494650448529182E-002
  -6.1130095322730997E-005   2.3368629466308244E-005   3.3472610960632990E-002
  -7.6120856432489647E-005   4.3962224551679155E-005   3.8456902126249297E-002
  -9.1111617542248406E-005   6.1780785256114468E-005   4.3447523945378069E-002
  -1.0610237865200630E-004   7.6824311579611580E-005   4.8444476418019362E-002
  -6.8351606751141823E-003   0.0000000000000000        2.8580129718696529E-002
  -6.8818118862401315E-003   1.6349744624075211E-004   3.3629069522544797E-002
  -6.9284630973660815E-003   3.6158499760718336E-004   3.8608357772848191E-002
  -6.9751143084920307E-003   5.9426265409928854E-004   4.3517994469606698E-002
  -7.0217655196179816E-003   8.6153041571708239E-004   4.8357979612820359E-002
  -1.3531119156114621E-002   0.0000000000000000        2.8787055235885008E-002
  -1.3685413024314128E-002   3.0362626301519511E-004   3.3944339470984353E-002
  -1.3839706892513634E-002   6.7920777066268496E-004   3.8955989945481440E-002
  -1.3994000760713141E-002   1.1267445229424730E-003   4.3822006659376314E-002
  -1.4148294628912646E-002   1.6462365198545502E-003   4.8542389612668935E-002
  -2.0134014777214288E-002   0.0000000000000000        2.9115427000094628E-002
  -2.0471933509544717E-002   4.4375507978963898E-004   3.4418420805951665E-002
  -2.0809852241875149E-002   9.9683054371818786E-004   3.9499798644149091E-002
  -2.1147770974205574E-002   1.6592263917856453E-003   4.4359560514686910E-002
  -2.1485689706536002E-002   2.4309426239920197E-003   4.8997706417565130E-002
  -2.6643847538413184E-002   0.0000000000000000        2.9565245011325375E-002
  -2.7241373341931899E-002   5.8388389656408198E-004   3.5051313527446712E-002
  -2.7838899145450614E-002   1.3144533167736908E-003   4.0239783868851089E-002
  -2.8436424948969329E-002   2.1917082606288281E-003   4.5130656035538480E-002
  -2.9033950752488040E-002   3.2156487281294888E-003   4.9723930027508918E-002
  -1.0610237865200630E-004   7.6824311579611580E-005   4.8444476418019362E-002
  -1.2555907153239277E-004   9.3195200808754083E-005   5.1615174408639053E-002
  -1.4501576441277903E-004   1.1499585023008198E-004   5.4663840048478830E-002
  -1.6447245729316626E-004   1.4222625984364401E-004   5.7590473337538702E-002
  -1.8392915017355176E-004   1.7488642964939155E-004   6.0395074275818673E-002
  -7.0217655196179816E-003   8.6153041571708239E-004   4.8357979612820359E-002
  -7.1357662838535570E-003   1.1269820993930172E-003   5.1328903664127491E-002
  -7.2497670480891306E-003   1.3542115220595418E-003   5.4232771923504140E-002
  -7.3637678123247025E-003   1.5432186837166914E-003   5.7069584390950376E-002
  -7.4777685765602779E-003   1.6940035843644174E-003   5.9839341066466101E-002
  -1.4148294628912646E-002   1.6462365198545502E-003   4.8542389612668935E-002
  -1.4301862905653960E-002   2.1607689979772802E-003   5.1269887703461914E-002
  -1.4455431182395277E-002   2.5934271938890018E-003   5.3985306561173875E-002
  -1.4608999459136586E-002   2.9442111075897249E-003   5.6688646185804804E-002
  -1.4762567735877901E-002   3.2131207390794260E-003   5.9379906577354737E-002
  -2.1485689706536002E-002   2.4309426239920197E-003   4.8997706417565130E-002
  -2.1623848936933608E-002   3.1945558965615468E-003   5.1438126526642321E-002
  -2.1762008167331207E-002   3.8326428657184581E-003   5.3921443961487951E-002
  -2.1900167397728813E-002   4.3452035314627659E-003   5.6447658722102015E-002
  -2.2038326628126423E-002   4.7322378937944293E-003   5.9016770808484491E-002
  -2.9033950752488040E-002   3.2156487281294888E-003   4.9723930027508918E-002
  -2.9101724377692498E-002   4.2283427951458142E-003   5.1833620133668740E-002
  -2.9169498002896938E-002   5.0718585375479110E-003   5.4041184124446424E-002
  -2.9237271628101386E-002   5.7461959553358069E-003   5.6346621999842014E-002
  -2.9305045253305836E-002   6.2513550485094466E-003   5.8749933759855461E-002
  -1.8392915017355176E-004   1.7488642964939155E-004   6.0395074275818673E-002
  -2.7716059645540182E-004   2.2220470520276439E-004   6.1375130225140184E-002
  -3.7039204273725448E-004   2.9340943205918325E-004   6.2444508967788845E-002
  -4.6362348901910627E-004   3.8850061021856877E-004   6.3603210503764634E-002
  -5.5685493530095720E-004   5.0747823968097516E-004   6.4851234833067567E-002
  -7.4777685765602779E-003   1.6940035843644174E-003   5.9839341066466101E-002
  -7.4741995574971014E-003   1.8237133196192870E-003   6.0845894145637978E-002
  -7.4706305384339249E-003   1.9494949850978431E-003   6.1956725362172754E-002
  -7.4670615193707431E-003   2.0713485808000224E-003   6.3171834716070518E-002
  -7.4634925003075666E-003   2.1892741067259108E-003   6.4491222207331153E-002
  -1.4762567735877901E-002   3.2131207390794260E-003   5.9379906577354737E-002
  -1.4647242907433902E-002   3.4252219340358010E-003   6.0385142265297578E-002
  -1.4531918078989891E-002   3.6055805381364882E-003   6.1509611434639164E-002
  -1.4416593250545888E-002   3.7541965513815173E-003   6.2753314085379458E-002
  -1.4301268422101884E-002   3.8710699737708604E-003   6.4116250217518475E-002
  -2.2038326628126423E-002   4.7322378937944293E-003   5.9016770808484491E-002
  -2.1796290646265801E-002   5.0267305484522776E-003   5.9992874584119005E-002
  -2.1554254664405172E-002   5.2616660911751264E-003   6.1103167185188066E-002
  -2.1312218682544553E-002   5.4370445219629922E-003   6.2347648611691571E-002
  -2.1070182700683931E-002   5.5528658408158030E-003   6.3726318863629686E-002
  -2.9305045253305836E-002   6.2513550485094466E-003   5.8749933759855461E-002
  -2.8921342773992803E-002   6.6282391628688514E-003   5.9669091102102292E-002
  -2.8537640294679763E-002   6.9177516442137967E-003   6.0737392613819434E-002
  -2.8153937815366729E-002   7.1198924925444740E-003   6.1954838295006864E-002
  -2.7770235336053686E-002   7.2346617078607456E-003   6.3321428145664632E-002
  -5.5685493530095720E-004   5.0747823968097516E-004   6.4851234833067567E-002
  -7.1219705074730341E-004   5.7586583208382724E-004   6.4681887365962240E-002
  -8.6753916619365483E-004   5.1918689906436943E-004   6.4677571540024334E-002
  -1.0228812816400019E-003   3.3744144062286194E-004   6.4838287355253890E-002
  -1.1782233970863525E-003   3.0629456758995977E-005   6.5164034811650812E-002
  -7.4634925003075666E-003   2.1892741067259108E-003   6.4491222207331153E-002
  -7.4362460723414103E-003   2.2672803769819561E-003   6.4307804802190380E-002
  -7.4089996443752471E-003   2.2693762056745954E-003   6.4324532842707227E-002
  -7.3817532164090907E-003   2.1955615928037813E-003   6.4541406328881681E-002
  -7.3545067884429275E-003   2.0458365383696775E-003   6.4958425260713701E-002
  -1.4301268422101884E-002   3.8710699737708604E-003   6.4116250217518475E-002
  -1.4056319646233044E-002   3.9586949218800987E-003   6.3967918958201170E-002
  -1.3811370870364204E-002   4.0195655122847104E-003   6.4054846949031546E-002
  -1.3566422094495371E-002   4.0536817449847700E-003   6.4377034190009771E-002
  -1.3321473318626530E-002   4.0610436199802619E-003   6.4934480681135776E-002
  -2.1070182700683931E-002   5.5528658408158030E-003   6.3726318863629686E-002
  -2.0572417772422229E-002   5.6501094667782067E-003   6.3662229833994513E-002
  -2.0074652844160521E-002   5.7697548188948809E-003   6.3868513858997319E-002
  -1.9576887915898816E-002   5.9118018971657518E-003   6.4345170938638077E-002
  -1.9079122987637115E-002   6.0762507015909087E-003   6.5092201072916758E-002
  -2.7770235336053686E-002   7.2346617078607456E-003   6.3321428145664632E-002
  -2.6984540450908943E-002   7.3415240116763703E-003   6.3390737429570521E-002
  -2.6198845565764205E-002   7.5199441255050445E-003   6.3765533572604505E-002
  -2.5413150680619469E-002   7.7699220493467457E-003   6.4445816574766640E-002
  -2.4627455795474724E-002   8.0914577832015000E-003   6.5431586436056871E-002
  -1.1782233970863525E-003   3.0629456758995977E-005   6.5164034811650812E-002
  -9.2952535234107694E-004  -2.5496328185538319E-004   6.5135748627037110E-002
  -6.8082730759580490E-004  -3.7305100454864543E-004   6.5362038128675373E-002
  -4.3212926285053025E-004  -3.2363371132101797E-004   6.5842903316565587E-002
  -1.8343121810525734E-004  -1.0671140217227704E-004   6.6578344190707739E-002
  -7.3545067884429275E-003   2.0458365383696775E-003   6.4958425260713701E-002
  -6.8861882037796335E-003   1.9101625351399115E-003   6.5240259570885681E-002
  -6.4178696191163316E-003   1.8785010758822565E-003   6.5706759274641757E-002
  -5.9495510344530385E-003   1.9508521605967975E-003   6.6357924371981986E-002
  -5.4812324497897358E-003   2.1272157892834320E-003   6.7193754862906185E-002
  -1.3321473318626530E-002   4.0610436199802619E-003   6.4934480681135776E-002
  -1.2703444486713062E-002   4.0752883521351299E-003   6.5462943014144487E-002
  -1.2085415654799600E-002   4.1300531563132660E-003   6.6106160448069398E-002
  -1.1467386822886132E-002   4.2253380325146398E-003   6.6864132982910593E-002
  -1.0849357990972669E-002   4.3611429807392799E-003   6.7736860618668002E-002
  -1.9079122987637115E-002   6.0762507015909087E-003   6.5092201072916758E-002
  -1.8381294201141350E-002   6.2404141691304003E-003   6.5803798956813417E-002
  -1.7683465414645591E-002   6.3816052367441940E-003   6.6560241648958449E-002
  -1.6985636628149829E-002   6.4998239044324127E-003   6.7361529149351798E-002
  -1.6287807841654060E-002   6.5950701721950861E-003   6.8207661457993563E-002
  -2.4627455795474724E-002   8.0914577832015000E-003   6.5431586436056871E-002
  -2.3919737347064512E-002   8.4055399861256153E-003   6.6262827398892554E-002
  -2.3212018898654312E-002   8.6331573171751289E-003   6.7069002877308700E-002
  -2.2504300450244107E-002   8.7743097763503131E-003   6.7850112871305324E-002
  -2.1796582001833896E-002   8.8289973636508923E-003   6.8606157380882549E-002
  -1.8343121810525734E-004  -1.0671140217227704E-004   6.6578344190707739E-002
  -6.6747004701426041E-004   1.1313191223463748E-004   6.6039468366505871E-002
  -1.1515088759232583E-003   1.7131222123663303E-004   6.5357672890394181E-002
  -1.6355477048322605E-003   6.7829524834184945E-005   6.4532957762372820E-002
  -2.1195865337412592E-003  -1.9731617697310577E-004   6.3565322982441663E-002
  -5.4812324497897358E-003   2.1272157892834320E-003   6.7193754862906185E-002
  -5.9832842872087656E-003   2.2957910001713128E-003   6.6568835180118344E-002
  -6.4853361246277989E-003   2.3447768314893980E-003   6.6050809132220098E-002
  -6.9873879620468340E-003   2.2741732832377223E-003   6.5639676719211587E-002
  -7.4894397994658621E-003   2.0839803554161263E-003   6.5335437941092700E-002
  -1.0849357990972669E-002   4.3611429807392799E-003   6.7736860618668002E-002
  -1.1119609550102277E-002   4.4784500881081130E-003   6.7067970703129087E-002
  -1.1389861109231883E-002   4.5182414417421005E-003   6.6755787709279285E-002
  -1.1660112668361495E-002   4.4805170416412025E-003   6.6800311637118734E-002
  -1.1930364227491105E-002   4.3652768878053305E-003   6.7201542486647226E-002
  -1.6287807841654060E-002   6.5950701721950861E-003   6.8207661457993563E-002
  -1.6076445835694786E-002   6.6611091760449062E-003   6.7536874935538449E-002
  -1.5865083829735512E-002   6.6917060519948342E-003   6.7472608621571908E-002
  -1.5653721823776234E-002   6.6868608000446002E-003   6.8014862516094024E-002
  -1.5442359817816954E-002   6.6465734201945764E-003   6.9163636619104657E-002
  -2.1796582001833896E-002   8.8289973636508923E-003   6.8606157380882549E-002
  -2.0853793143986287E-002   8.8437682639816440E-003   6.7975547877346110E-002
  -1.9911004286138671E-002   8.8651706622475540E-003   6.8201271869097857E-002
  -1.8968215428291052E-002   8.8932045584480778E-003   6.9283329356137610E-002
  -1.8025426570443447E-002   8.9278699525838223E-003   7.1221720338465466E-002
  -2.1195865337412592E-003  -1.9731617697310577E-004   6.3565322982441663E-002
  -2.6125627284269738E-003  -4.9191614315663434E-004   6.2621805173616762E-002
  -3.1055389231126919E-003  -6.8376163268771273E-004   6.2292896839015621E-002
  -3.5985151177984117E-003  -7.7285264556670868E-004   6.2578597978638156E-002
  -4.0914913124841246E-003  -7.5918918179301853E-004   6.3478908592484229E-002
  -7.4894397994658621E-003   2.0839803554161263E-003   6.5335437941092700E-002
  -7.4510441134377960E-003   1.9099078334296471E-003   6.5364903710403571E-002
  -7.4126484274097335E-003   1.8876655026834610E-003   6.5842503766918248E-002
  -7.3742527413816674E-003   2.0172533631773668E-003   6.6768238110636868E-002
  -7.3358570553536048E-003   2.2986714149113574E-003   6.8142106741559183E-002
  -1.1930364227491105E-002   4.3652768878053305E-003   6.7201542486647226E-002
  -1.1527071847769098E-002   4.3117318100160118E-003   6.8253067548681434E-002
  -1.1123779468047091E-002   4.4590926380546486E-003   6.9586251710899841E-002
  -1.0720487088325091E-002   4.8073593719211681E-003   7.1201094973302043E-002
  -1.0317194708603093E-002   5.3565320116157056E-003   7.3097597335888484E-002
  -1.5442359817816954E-002   6.6465734201945764E-003   6.9163636619104657E-002
  -1.4840645931420862E-002   6.7135557866023349E-003   7.1286296688450324E-002
  -1.4238932045024777E-002   7.0305197734258015E-003   7.3524140670959984E-002
  -1.3637218158628683E-002   7.5974653806649955E-003   7.5877168566633943E-002
  -1.3035504272232597E-002   8.4143926083200676E-003   7.8345380375472007E-002
  -1.8025426570443447E-002   8.9278699525838223E-003   7.1221720338465466E-002
  -1.7391766364393116E-002   9.1153797631886579E-003   7.4464591129710156E-002
  -1.6758106158342775E-002   9.6019469087970377E-003   7.7656170647099065E-002
  -1.6124445952292454E-002   1.0387571389408996E-002   8.0796458890632361E-002
  -1.5490785746242110E-002   1.1472253205024485E-002   8.3885455860309988E-002
  -4.0914913124841246E-003  -7.5918918179301853E-004   6.3478908592484229E-002
  -6.0274437990851006E-003  -1.7450222128806980E-003   5.9836181272407585E-002
  -7.9633962856860870E-003  -4.8326027103434005E-003   5.0689905254105022E-002
  -9.8993487722870682E-003  -1.0021930674180651E-002   3.6040080537576749E-002
  -1.1835301258888042E-002  -1.7313006104392903E-002   1.5886707122822807E-002
  -7.3358570553536048E-003   2.2986714149113574E-003   6.8142106741559183E-002
  -1.3255057682061843E-002   2.1132235065160487E-003   6.4689053280283959E-002
  -1.9174258308770103E-002   8.4221348662177897E-004   5.8773052237020090E-002
  -2.5093458935478336E-002  -1.5143586447708274E-003   5.0394103611767035E-002
  -3.1012659562186587E-002  -4.9564928876622005E-003   3.9552207404525586E-002
  -1.0317194708603093E-002   5.3565320116157056E-003   7.3097597335888484E-002
  -1.7179042359181759E-002   5.9714692259127677E-003   7.0850403088290964E-002
  -2.4040890009760434E-002   6.5170296835872291E-003   6.9180862374941421E-002
  -3.0902737660339127E-002   6.9932133846391051E-003   6.8088975195840049E-002
  -3.7764585310917767E-002   7.4000203290682798E-003   6.7574741550986417E-002
  -1.3035504272232597E-002   8.4143926083200676E-003   7.8345380375472007E-002
  -1.7799397830444832E-002   9.8297149453096117E-003   7.8320230696428295E-002
  -2.2563291388657109E-002   1.2191845880552544E-002   8.1913335667869500E-002
  -2.7327184946869334E-002   1.5500785414049038E-002   8.9124695289795330E-002
  -3.2091078505081611E-002   1.9756533545798816E-002   9.9954309562206356E-002
  -1.5490785746242110E-002   1.1472253205024485E-002   8.3885455860309988E-002
  -1.5116124095851100E-002   1.3687960664706400E-002   8.7098536104696200E-002
  -1.4741462445460096E-002   1.7866662077517900E-002   9.6970472115804091E-002
  -1.4366800795069093E-002   2.4008357443458899E-002  0.11350126389363364     
  -1.3992139144678076E-002   3.2113046762529462E-002  0.13669091143818513     
  -2.6643847538413184E-002   0.0000000000000000        2.9565245011325375E-002
  -2.7241373341931899E-002   5.8388389656408198E-004   3.5051313527446712E-002
  -2.7838899145450614E-002   1.3144533167736908E-003   4.0239783868851089E-002
  -2.8436424948969329E-002   2.1917082606288281E-003   4.5130656035538480E-002
  -2.9033950752488040E-002   3.2156487281294888E-003   4.9723930027508918E-002
  -3.3396347627046769E-002   0.0000000000000000        3.0271969790460825E-002
  -3.4228653034112488E-002   9.5441130583126619E-004   3.5367305007106435E-002
  -3.5060958441178222E-002   2.0118283762659275E-003   4.0290679191374995E-002
  -3.5893263848243949E-002   3.1722512113039839E-003   4.5042092343266497E-002
  -3.6725569255309676E-002   4.4356798109454372E-003   4.9621544462780942E-002
  -4.0727245230450487E-002   0.0000000000000000        3.1371061858384515E-002
  -4.1668693098723321E-002   1.3249387150984491E-003   3.6031984016512274E-002
  -4.2610140966996148E-002   2.7092034357581625E-003   4.0646582284602890E-002
  -4.3551588835268974E-002   4.1527941619791380E-003   4.5214856662656372E-002
  -4.4493036703541794E-002   5.6557108937613787E-003   4.9736807150672704E-002
  -4.8636540348624357E-002   0.0000000000000000        3.2862521215096460E-002
  -4.9561493535764362E-002   1.6954661243656331E-003   3.7045350555664235E-002
  -5.0486446722904373E-002   3.4065784952503984E-003   4.1307493148534775E-002
  -5.1411399910044391E-002   5.1333371126542895E-003   4.5648948993708083E-002
  -5.2336353097184408E-002   6.8757419765773306E-003   5.0069718091184170E-002
  -5.7124232981568365E-002   0.0000000000000000        3.4746347860596646E-002
  -5.7907054345235645E-002   2.0659935336328162E-003   3.8407404624562297E-002
  -5.8689875708902932E-002   4.1039535547426325E-003   4.2273411783170636E-002
  -5.9472697072570219E-002   6.1138800633294497E-003   4.6344369336421672E-002
  -6.0255518436237498E-002   8.0957730593932686E-003   5.0620277284315375E-002
  -2.9033950752488040E-002   3.2156487281294888E-003   4.9723930027508918E-002
  -2.9101724377692498E-002   4.2283427951458142E-003   5.1833620133668740E-002
  -2.9169498002896938E-002   5.0718585375479110E-003   5.4041184124446424E-002
  -2.9237271628101386E-002   5.7461959553358069E-003   5.6346621999842014E-002
  -2.9305045253305836E-002   6.2513550485094466E-003   5.8749933759855461E-002
  -3.6725569255309676E-002   4.4356798109454372E-003   4.9621544462780942E-002
  -3.6732542657782981E-002   5.6618016228585687E-003   5.1444913129306415E-002
  -3.6739516060256286E-002   6.7103040947116719E-003   5.3292008356676294E-002
  -3.6746489462729591E-002   7.5811872265047269E-003   5.5162830144890568E-002
  -3.6753462865202896E-002   8.2744510182377606E-003   5.7057378493949262E-002
  -4.4493036703541794E-002   5.6557108937613787E-003   4.9736807150672704E-002
  -4.4513357207057416E-002   7.0952604505713328E-003   5.1265413362117984E-002
  -4.4533677710573059E-002   8.3487496518754329E-003   5.2743598810634229E-002
  -4.4553998214088696E-002   9.4161784976736843E-003   5.4171363496221418E-002
  -4.4574318717604318E-002   1.0297546987966082E-002   5.5548707418879503E-002
  -5.2336353097184408E-002   6.8757419765773306E-003   5.0069718091184170E-002
  -5.2444168025515839E-002   8.5287192782840821E-003   5.1295120832103497E-002
  -5.2551982953847269E-002   9.9871952090391999E-003   5.2395955486320291E-002
  -5.2659797882178699E-002   1.1251169768842623E-002   5.3372222053834524E-002
  -5.2767612810510123E-002   1.2320642957694399E-002   5.4223920534646260E-002
  -6.0255518436237498E-002   8.0957730593932686E-003   5.0620277284315375E-002
  -6.0524975113158214E-002   9.9621781059968557E-003   5.1534035539262897E-002
  -6.0794431790078901E-002   1.1625640766202969E-002   5.2249078383734417E-002
  -6.1063888466999589E-002   1.3086161040011580E-002   5.2765405817729906E-002
  -6.1333345143920318E-002   1.4343738927422717E-002   5.3083017841249414E-002
  -2.9305045253305836E-002   6.2513550485094466E-003   5.8749933759855461E-002
  -2.8921342773992803E-002   6.6282391628688514E-003   5.9669091102102292E-002
  -2.8537640294679763E-002   6.9177516442137967E-003   6.0737392613819434E-002
  -2.8153937815366729E-002   7.1198924925444740E-003   6.1954838295006864E-002
  -2.7770235336053686E-002   7.2346617078607456E-003   6.3321428145664632E-002
  -3.6753462865202896E-002   8.2744510182377606E-003   5.7057378493949262E-002
  -3.6197015354663416E-002   8.7973805440867588E-003   5.7502488045086661E-002
  -3.5640567844123922E-002   9.1572608782278762E-003   5.8143943489206658E-002
  -3.5084120333584441E-002   9.3540920206609257E-003   5.8981744826309190E-002
  -3.4527672823044947E-002   9.3878739713860182E-003   6.0015892056394293E-002
  -4.4574318717604318E-002   1.0297546987966082E-002   5.5548707418879503E-002
  -4.3797924452326130E-002   1.0966521925304777E-002   5.5444091620213895E-002
  -4.3021530187047970E-002   1.1396770112241857E-002   5.5583023438043104E-002
  -4.2245135921769768E-002   1.1588291548777416E-002   5.5965502872367179E-002
  -4.1468741656491594E-002   1.1541086234911319E-002   5.6591529923186036E-002
  -5.2767612810510123E-002   1.2320642957694399E-002   5.4223920534646260E-002
  -5.1724070066980973E-002   1.3135663306522747E-002   5.3493901827483988E-002
  -5.0680527323451831E-002   1.3636279346255879E-002   5.3054632460328828E-002
  -4.9636984579922695E-002   1.3822491076893833E-002   5.2906112433180719E-002
  -4.8593441836393553E-002   1.3694298498436633E-002   5.3048341746039764E-002
  -6.1333345143920318E-002   1.4343738927422717E-002   5.3083017841249414E-002
  -5.9975452198627932E-002   1.5304804687740710E-002   5.1651918666896918E-002
  -5.8617559253335595E-002   1.5875788580269917E-002   5.0558770556063781E-002
  -5.7259666308043231E-002   1.6056690605010339E-002   4.9803573508749997E-002
  -5.5901773362750859E-002   1.5847510761961892E-002   4.9386327524955531E-002
  -2.7770235336053686E-002   7.2346617078607456E-003   6.3321428145664632E-002
  -2.6984540450908943E-002   7.3415240116763703E-003   6.3390737429570521E-002
  -2.6198845565764205E-002   7.5199441255050445E-003   6.3765533572604505E-002
  -2.5413150680619469E-002   7.7699220493467457E-003   6.4445816574766640E-002
  -2.4627455795474724E-002   8.0914577832015000E-003   6.5431586436056871E-002
  -3.4527672823044947E-002   9.3878739713860182E-003   6.0015892056394293E-002
  -3.3451633045022307E-002   9.3658294610807213E-003   5.9947905067424728E-002
  -3.2375593266999646E-002   9.3951812204225230E-003   6.0155121005082871E-002
  -3.1299553488976985E-002   9.4759292494115219E-003   6.0637539869368720E-002
  -3.0223513710954327E-002   9.6080735480475743E-003   6.1395161660282277E-002
  -4.1468741656491594E-002   1.1541086234911319E-002   5.6591529923186036E-002
  -4.0132640918091413E-002   1.1390134910485072E-002   5.6366085120975080E-002
  -3.8796540179691252E-002   1.1270418315340060E-002   5.6385559312891465E-002
  -3.7460439441291057E-002   1.1181936449476244E-002   5.6649952498935119E-002
  -3.6124338702890911E-002   1.1124689312893607E-002   5.7159264679106113E-002
  -4.8593441836393553E-002   1.3694298498436633E-002   5.3048341746039764E-002
  -4.7027564070116268E-002   1.3414440359889451E-002   5.2645277590221515E-002
  -4.5461686303839004E-002   1.3145655410257527E-002   5.2456848496030190E-002
  -4.3895808537561719E-002   1.2887943649540993E-002   5.2483054463465746E-002
  -4.2329930771284455E-002   1.2641305077739674E-002   5.2723895492528206E-002
  -5.5901773362750859E-002   1.5847510761961892E-002   4.9386327524955531E-002
  -5.4136402501096886E-002   1.5438745809293802E-002   4.8785482475164066E-002
  -5.2371031639442907E-002   1.5020892505175083E-002   4.8368988554499129E-002
  -5.0605660777788941E-002   1.4593950849605701E-002   4.8136845762960657E-002
  -4.8840289916134969E-002   1.4157920842585686E-002   4.8089054100548673E-002
  -2.4627455795474724E-002   8.0914577832015000E-003   6.5431586436056871E-002
  -2.3919737347064512E-002   8.4055399861256153E-003   6.6262827398892554E-002
  -2.3212018898654312E-002   8.6331573171751289E-003   6.7069002877308700E-002
  -2.2504300450244107E-002   8.7743097763503131E-003   6.7850112871305324E-002
  -2.1796582001833896E-002   8.8289973636508923E-003   6.8606157380882549E-002
  -3.0223513710954327E-002   9.6080735480475743E-003   6.1395161660282277E-002
  -2.9495659098712362E-002   9.7215540735037242E-003   6.1879242850971461E-002
  -2.8767804486470414E-002   9.7463107829528980E-003   6.2428661853743600E-002
  -2.8039949874228448E-002   9.6823436763949899E-003   6.3043418668598750E-002
  -2.7312095261986500E-002   9.5296527538300535E-003   6.3723513295536854E-002
  -3.6124338702890911E-002   1.1124689312893607E-002   5.7159264679106113E-002
  -3.5285944630314717E-002   1.1037568160881847E-002   5.7293927153516229E-002
  -3.4447550557738522E-002   1.0859464248730497E-002   5.7584330736511827E-002
  -3.3609156485162342E-002   1.0590377576439665E-002   5.8030475428092892E-002
  -3.2770762412586169E-002   1.0230308144009298E-002   5.8632361228259419E-002
  -4.2329930771284455E-002   1.2641305077739674E-002   5.2723895492528206E-002
  -4.1290593941871553E-002   1.2353582248259977E-002   5.2506880306526789E-002
  -4.0251257112458680E-002   1.1972617714508237E-002   5.2536009525613332E-002
  -3.9211920283045779E-002   1.1498411476484369E-002   5.2811283149787835E-002
  -3.8172583453632870E-002   1.0930963534188418E-002   5.3332701179050215E-002
  -4.8840289916134969E-002   1.4157920842585686E-002   4.8089054100548673E-002
  -4.7509607033382889E-002   1.3669596335638093E-002   4.7518102310003196E-002
  -4.6178924150630830E-002   1.3085771180285845E-002   4.7283698221048123E-002
  -4.4848241267878758E-002   1.2406445376529013E-002   4.7385841833683488E-002
  -4.3517558385126692E-002   1.1631618924367704E-002   4.7824533147909298E-002
  -2.1796582001833896E-002   8.8289973636508923E-003   6.8606157380882549E-002
  -2.0853793143986287E-002   8.8437682639816440E-003   6.7975547877346110E-002
  -1.9911004286138671E-002   8.8651706622475540E-003   6.8201271869097857E-002
  -1.8968215428291052E-002   8.8932045584480778E-003   6.9283329356137610E-002
  -1.8025426570443447E-002   8.9278699525838223E-003   7.1221720338465466E-002
  -2.7312095261986500E-002   9.5296527538300535E-003   6.3723513295536854E-002
  -2.5655763837522483E-002   9.3475790557692034E-003   6.3025253854356825E-002
  -2.3999432413058464E-002   9.1954636227235681E-003   6.2897746051121445E-002
  -2.2343100988594454E-002   9.0733064546927901E-003   6.3340989885830853E-002
  -2.0686769564130458E-002   8.9811075516773586E-003   6.4354985358485051E-002
  -3.2770762412586169E-002   1.0230308144009298E-002   5.8632361228259419E-002
  -3.0686470278849090E-002   9.8513898475566519E-003   5.7889778616515827E-002
  -2.8602178145111963E-002   9.5257565831995336E-003   5.7432365785373633E-002
  -2.6517886011374892E-002   9.2534083509375042E-003   5.7260122734832872E-002
  -2.4433593877637785E-002   9.0343451507708672E-003   5.7373049464893466E-002
  -3.8172583453632870E-002   1.0930963534188418E-002   5.3332701179050215E-002
  -3.5945912467966065E-002   1.0355200639344322E-002   5.2569122163823312E-002
  -3.3719241482299218E-002   9.8560495436755512E-003   5.1805131071854423E-002
  -3.1492570496632358E-002   9.4335102471821072E-003   5.1040727903143630E-002
  -2.9265899510965535E-002   9.0875827498644174E-003   5.0275912657690887E-002
  -4.3517558385126692E-002   1.1631618924367704E-002   4.7824533147909298E-002
  -4.1434090404873419E-002   1.0859011431131632E-002   4.7063284496279140E-002
  -3.9350622424620160E-002   1.0186342504151555E-002   4.6016041910563799E-002
  -3.7267154444366894E-002   9.6136121434268300E-003   4.4682805390763108E-002
  -3.5183686464113628E-002   9.1408203489579121E-003   4.3063574936877291E-002
  -1.8025426570443447E-002   8.9278699525838223E-003   7.1221720338465466E-002
  -1.7391766364393116E-002   9.1153797631886579E-003   7.4464591129710156E-002
  -1.6758106158342775E-002   9.6019469087970377E-003   7.7656170647099065E-002
  -1.6124445952292454E-002   1.0387571389408996E-002   8.0796458890632361E-002
  -1.5490785746242110E-002   1.1472253205024485E-002   8.3885455860309988E-002
  -2.0686769564130458E-002   8.9811075516773586E-003   6.4354985358485051E-002
  -2.0023206088735111E-002   8.9816438110220942E-003   6.6820854070464453E-002
  -1.9359642613339754E-002   9.1376921300722891E-003   6.9397820594989584E-002
  -1.8696079137944417E-002   9.4492525088279919E-003   7.2085884932060446E-002
  -1.8032515662549077E-002   9.9163249472890014E-003   7.4885047081676925E-002
  -2.4433593877637785E-002   9.0343451507708672E-003   5.7373049464893466E-002
  -2.3577738046496072E-002   8.8479078588554749E-003   5.8918370822309635E-002
  -2.2721882215354375E-002   8.6734373513475266E-003   6.0737179078672904E-002
  -2.1866026384212672E-002   8.5109336282469285E-003   6.2829474233983246E-002
  -2.1010170553070966E-002   8.3603966895536008E-003   6.5195256288240508E-002
  -2.9265899510965535E-002   9.0875827498644174E-003   5.0275912657690887E-002
  -2.8055362237676067E-002   8.7141719066888834E-003   5.0757141385245695E-002
  -2.6844824964386602E-002   8.2091825726227710E-003   5.1674246098148982E-002
  -2.5634287691097123E-002   7.5726147476658946E-003   5.3027226796400560E-002
  -2.4423750417807664E-002   6.8044684318181586E-003   5.4816083480000680E-002
  -3.5183686464113628E-002   9.1408203489579121E-003   4.3063574936877291E-002
  -3.3456078662275054E-002   8.5804359545222086E-003   4.2337165759272655E-002
  -3.1728470860436467E-002   7.7449277938980293E-003   4.2209021653417750E-002
  -3.0000863058597893E-002   6.6342958670847531E-003   4.2679142619312729E-002
  -2.8273255256759305E-002   5.2485401740827720E-003   4.3747528656957468E-002
  -1.5490785746242110E-002   1.1472253205024485E-002   8.3885455860309988E-002
  -1.5116124095851100E-002   1.3687960664706400E-002   8.7098536104696200E-002
  -1.4741462445460096E-002   1.7866662077517900E-002   9.6970472115804091E-002
  -1.4366800795069093E-002   2.4008357443458899E-002  0.11350126389363364     
  -1.3992139144678076E-002   3.2113046762529462E-002  0.13669091143818513     
  -1.8032515662549077E-002   9.9163249472890014E-003   7.4885047081676925E-002
  -1.2705765339422928E-002   1.0941271058079627E-002   7.7417049876903232E-002
  -7.3790150162967270E-003   1.2926452453823789E-002   8.3194374250878417E-002
  -2.0522646931705329E-003   1.5871869134521696E-002   9.2217020203601882E-002
   3.2744856299555675E-003   1.9777521100172946E-002  0.10448498773507420     
  -2.1010170553070966E-002   8.3603966895536008E-003   6.5195256288240508E-002
  -1.4144865745182674E-002   8.1945814514527704E-003   6.6043422966130971E-002
  -7.2795609372944131E-003   7.9862428301297403E-003   6.6723377034797221E-002
  -4.1425612940613685E-004   7.7353808255843561E-003   6.7235118494239049E-002
   6.4510486784821706E-003   7.4419954378165398E-003   6.7578647344456177E-002
  -2.4423750417807664E-002   6.8044684318181586E-003   5.4816083480000680E-002
  -1.9433425313130366E-002   5.4478918448260666E-003   5.2977655372379515E-002
  -1.4443100208453012E-002   3.0460332064356603E-003   4.7557480467560968E-002
  -9.4527751037756774E-003  -4.0110748335285985E-004   3.8555558765544624E-002
  -4.4624499990983954E-003  -4.8935302245399770E-003   2.5971890266331302E-002
  -2.8273255256759305E-002   5.2485401740827720E-003   4.3747528656957468E-002
  -2.8571444043265976E-002   2.7012022381991407E-003   3.8219747095648737E-002
  -2.8869632829772701E-002  -1.8941764172585168E-003   2.5696684549169263E-002
  -2.9167821616279350E-002  -8.5375957922901556E-003   6.1783410175193926E-003
  -2.9466010402786069E-002  -1.7229055886896383E-002  -2.0335283499300916E-002
  -5.7124232981568365E-002   0.0000000000000000        3.4746347860596646E-002
  -5.7907054345235645E-002   2.0659935336328162E-003   3.8407404624562297E-002
  -5.8689875708902932E-002   4.1039535547426325E-003   4.2273411783170636E-002
  -5.9472697072570219E-002   6.1138800633294497E-003   4.6344369336421672E-002
  -6.0255518436237498E-002   8.0957730593932686E-003   5.0620277284315375E-002
  -6.5782852849779735E-002   0.0000000000000000        3.7250603636644099E-002
  -6.6587877743399512E-002   2.9002069527708819E-003   4.0878738454558777E-002
  -6.7392902637019303E-002   5.7438252866823551E-003   4.4257515817925787E-002
  -6.8197927530639094E-002   8.5308550017344203E-003   4.7386935726745100E-002
  -6.9002952424258870E-002   1.1261296097927066E-002   5.0266998181016750E-002
  -7.4204929673755693E-002   0.0000000000000000        4.0603350384997815E-002
  -7.5486465946518339E-002   3.7344203719089481E-003   4.4170008150525117E-002
  -7.6768002219280984E-002   7.3836970186220768E-003   4.7033000612314378E-002
  -7.8049538492043630E-002   1.0947829940139382E-002   4.9192327770365571E-002
  -7.9331074764806275E-002   1.4426819136460871E-002   5.0647989624678758E-002
  -8.2390463453496238E-002   0.0000000000000000        4.4804588105657815E-002
  -8.4602818954592110E-002   4.5686337910470151E-003   4.8281213712461316E-002
  -8.6815174455687982E-002   9.0235687505618011E-003   5.0599866166336417E-002
  -8.9027529956783855E-002   1.3364804878544353E-002   5.1760545467283099E-002
  -9.1239885457879727E-002   1.7592342174994668E-002   5.1763251615301382E-002
  -9.0339454189001384E-002   0.0000000000000000        4.9854316798624079E-002
  -9.3936936767620841E-002   5.4028472101850817E-003   5.3212355140367373E-002
  -9.7534419346240298E-002   1.0663440482501521E-002   5.4958112479991904E-002
 -0.10113190192485975        1.5781779816949316E-002   5.5091588817497643E-002
 -0.10472938450347921        2.0757865213528466E-002   5.3612784152884639E-002
  -6.0255518436237498E-002   8.0957730593932686E-003   5.0620277284315375E-002
  -6.0524975113158214E-002   9.9621781059968557E-003   5.1534035539262897E-002
  -6.0794431790078901E-002   1.1625640766202969E-002   5.2249078383734417E-002
  -6.1063888466999589E-002   1.3086161040011580E-002   5.2765405817729906E-002
  -6.1333345143920318E-002   1.4343738927422717E-002   5.3083017841249414E-002
  -6.9002952424258870E-002   1.1261296097927066E-002   5.0266998181016750E-002
  -6.9237932642022132E-002   1.3693708135744520E-002   4.9462054010927438E-002
  -6.9472912859785380E-002   1.5586650675670968E-002   4.8924778169629021E-002
  -6.9707893077548641E-002   1.6940123717706358E-002   4.8655170657121487E-002
  -6.9942873295311903E-002   1.7754127261850799E-002   4.8653231473404883E-002
  -7.9331074764806275E-002   1.4426819136460871E-002   5.0647989624678758E-002
  -7.9065194784145185E-002   1.7425238165492178E-002   4.7787815918059071E-002
  -7.8799314803484094E-002   1.9547660585138953E-002   4.5661694279497185E-002
  -7.8533434822823003E-002   2.0794086395401180E-002   4.4269624708993101E-002
  -7.8267554842161899E-002   2.1164515596278882E-002   4.3611607206546797E-002
  -9.1239885457879727E-002   1.7592342174994668E-002   5.1763251615301382E-002
  -9.0006761539527386E-002   2.1156768195239855E-002   4.6511321260657802E-002
  -8.8773637621175031E-002   2.3508670494606938E-002   4.2459826713338929E-002
  -8.7540513702822689E-002   2.4648049073095996E-002   3.9608767973344748E-002
  -8.6307389784470362E-002   2.4574903930706972E-002   3.7958145040675316E-002
 -0.10472938450347921        2.0757865213528466E-002   5.3612784152884639E-002
 -0.10206263290816872        2.4888298224987501E-002   4.5632570038723647E-002
  -9.9395881312858231E-002   2.7469680404074947E-002   3.9319175471154259E-002
  -9.6729129717547740E-002   2.8502011750790791E-002   3.4672600450176450E-002
  -9.4062378122237250E-002   2.7985292265135048E-002   3.1692844975790266E-002
  -6.1333345143920318E-002   1.4343738927422717E-002   5.3083017841249414E-002
  -5.9975452198627932E-002   1.5304804687740710E-002   5.1651918666896918E-002
  -5.8617559253335595E-002   1.5875788580269917E-002   5.0558770556063781E-002
  -5.7259666308043231E-002   1.6056690605010339E-002   4.9803573508749997E-002
  -5.5901773362750859E-002   1.5847510761961892E-002   4.9386327524955531E-002
  -6.9942873295311903E-002   1.7754127261850799E-002   4.8653231473404883E-002
  -6.8272132121479812E-002   1.8184911317762550E-002   4.7173350395432731E-002
  -6.6601390947647734E-002   1.8388725895099871E-002   4.5981214711020707E-002
  -6.4930649773815630E-002   1.8365570993862934E-002   4.5076824420168790E-002
  -6.3259908599983539E-002   1.8115446614051622E-002   4.4460179522876966E-002
  -7.8267554842161899E-002   2.1164515596278882E-002   4.3611607206546797E-002
  -7.6334171109749369E-002   2.1065017947784346E-002   4.2246056614169476E-002
  -7.4400787377336783E-002   2.0901663209929894E-002   4.1118045745393038E-002
  -7.2467403644924197E-002   2.0674451382715554E-002   4.0227574600217419E-002
  -7.0534019912511653E-002   2.0383382466141270E-002   3.9574643178642684E-002
  -8.6307389784470362E-002   2.4574903930706972E-002   3.7958145040675316E-002
  -8.4161569163436548E-002   2.3945124577806183E-002   3.6870037323107202E-002
  -8.2015748542402761E-002   2.3414600524759889E-002   3.5969263659180725E-002
  -7.9869927921368947E-002   2.2983331771568159E-002   3.5255824048895892E-002
  -7.7724107300335160E-002   2.2651318318230931E-002   3.4729718492252662E-002
  -9.4062378122237250E-002   2.7985292265135048E-002   3.1692844975790266E-002
  -9.1754326282541473E-002   2.6825231207827972E-002   3.1045292522245832E-002
  -8.9446274442845669E-002   2.5927537839589881E-002   3.0534868452383873E-002
  -8.7138222603149879E-002   2.5292212160420793E-002   3.0161572766204212E-002
  -8.4830170763454074E-002   2.4919254170320634E-002   2.9925405463706881E-002
  -5.5901773362750859E-002   1.5847510761961892E-002   4.9386327524955531E-002
  -5.4136402501096886E-002   1.5438745809293802E-002   4.8785482475164066E-002
  -5.2371031639442907E-002   1.5020892505175083E-002   4.8368988554499129E-002
  -5.0605660777788941E-002   1.4593950849605701E-002   4.8136845762960657E-002
  -4.8840289916134969E-002   1.4157920842585686E-002   4.8089054100548673E-002
  -6.3259908599983539E-002   1.8115446614051622E-002   4.4460179522876966E-002
  -6.1306782240238389E-002   1.7731450462098917E-002   4.3921831558175327E-002
  -5.9353655880493281E-002   1.7306680244437982E-002   4.3574643460529486E-002
  -5.7400529520748138E-002   1.6841135961068801E-002   4.3418615229939506E-002
  -5.5447403161003009E-002   1.6334817611991237E-002   4.3453746866405421E-002
  -7.0534019912511653E-002   2.0383382466141270E-002   3.9574643178642684E-002
  -6.8386329316746014E-002   2.0024155114904033E-002   3.9067106584773172E-002
  -6.6238638720980361E-002   1.9592467983700904E-002   3.8757538595888860E-002
  -6.4090948125214708E-002   1.9088321072531785E-002   3.8645939211989701E-002
  -6.1943257529449097E-002   1.8511714381396774E-002   3.8732308433075742E-002
  -7.7724107300335160E-002   2.2651318318230931E-002   3.4729718492252662E-002
  -7.5375043730619637E-002   2.2316859767709175E-002   3.4221307554957607E-002
  -7.3025980160904155E-002   2.1878255722963771E-002   3.3917673960577190E-002
  -7.0676916591188632E-002   2.1335506183994827E-002   3.3818817709111215E-002
  -6.8327853021473151E-002   2.0688611150802304E-002   3.3924738800559760E-002
  -8.4830170763454074E-002   2.4919254170320634E-002   2.9925405463706881E-002
  -8.2272925481859382E-002   2.4609564420514263E-002   2.9384434468728765E-002
  -7.9715680200264677E-002   2.4164043462226687E-002   2.9055049554594446E-002
  -7.7158434918669985E-002   2.3582691295457887E-002   2.8937250721303990E-002
  -7.4601189637075266E-002   2.2865507920207834E-002   2.9031037968857476E-002
  -4.8840289916134969E-002   1.4157920842585686E-002   4.8089054100548673E-002
  -4.7509607033382889E-002   1.3669596335638093E-002   4.7518102310003196E-002
  -4.6178924150630830E-002   1.3085771180285845E-002   4.7283698221048123E-002
  -4.4848241267878758E-002   1.2406445376529013E-002   4.7385841833683488E-002
  -4.3517558385126692E-002   1.1631618924367704E-002   4.7824533147909298E-002
  -5.5447403161003009E-002   1.6334817611991237E-002   4.3453746866405421E-002
  -5.3812046987494290E-002   1.5774959766689980E-002   4.2881276753876249E-002
  -5.2176690813985550E-002   1.5148796994649757E-002   4.2581605521270001E-002
  -5.0541334640476818E-002   1.4456329295870315E-002   4.2554733168586614E-002
  -4.8905978466968127E-002   1.3697556670351996E-002   4.2800659695826165E-002
  -6.1943257529449097E-002   1.8511714381396774E-002   3.8732308433075742E-002
  -6.0066976886851239E-002   1.7880323197742000E-002   3.8187515720228563E-002
  -5.8190696244253395E-002   1.7211822809013611E-002   3.7851773065636640E-002
  -5.6314415601655572E-002   1.6506213215211726E-002   3.7725080469300058E-002
  -5.4438134959057700E-002   1.5763494416336288E-002   3.7807437931218782E-002
  -6.8327853021473151E-002   2.0688611150802304E-002   3.3924738800559760E-002
  -6.6274396731453758E-002   1.9985686628793953E-002   3.3436819209059943E-002
  -6.4220940441434365E-002   1.9274848623377493E-002   3.3094200854147798E-002
  -6.2167484151414966E-002   1.8556097134553085E-002   3.2896883735823668E-002
  -6.0114027861395546E-002   1.7829432162320691E-002   3.2844867854087162E-002
  -7.4601189637075266E-002   2.2865507920207834E-002   2.9031037968857476E-002
  -7.2434306521301853E-002   2.2091050059845921E-002   2.8629187220370528E-002
  -7.0267423405528440E-002   2.1337874437741371E-002   2.8308888886803912E-002
  -6.8100540289755013E-002   2.0605981053894412E-002   2.8070142968157581E-002
  -6.5933657173981614E-002   1.9895369908304927E-002   2.7912949464431291E-002
  -4.3517558385126692E-002   1.1631618924367704E-002   4.7824533147909298E-002
  -4.1434090404873419E-002   1.0859011431131632E-002   4.7063284496279140E-002
  -3.9350622424620160E-002   1.0186342504151555E-002   4.6016041910563799E-002
  -3.7267154444366894E-002   9.6136121434268300E-003   4.4682805390763108E-002
  -3.5183686464113628E-002   9.1408203489579121E-003   4.3063574936877291E-002
  -4.8905978466968127E-002   1.3697556670351996E-002   4.2800659695826165E-002
  -4.7012290715439081E-002   1.2938210818993254E-002   4.2074436859965772E-002
  -4.5118602963910071E-002   1.2244023442692736E-002   4.1254647500742217E-002
  -4.3224915212381095E-002   1.1614994541450742E-002   4.0341291618155382E-002
  -4.1331227460852021E-002   1.1051124115267097E-002   3.9334369212205317E-002
  -5.4438134959057700E-002   1.5763494416336288E-002   3.7807437931218782E-002
  -5.2541800025530966E-002   1.5017410206854695E-002   3.7081460819930967E-002
  -5.0645465092004252E-002   1.4301704381234091E-002   3.6454344596001935E-002
  -4.8749130158477483E-002   1.3616376939474656E-002   3.5926089259431554E-002
  -4.6852795224950797E-002   1.2961427881576337E-002   3.5496694810219956E-002
  -6.0114027861395546E-002   1.7829432162320691E-002   3.2844867854087162E-002
  -5.8022618335149115E-002   1.7096609594716199E-002   3.2084356376174579E-002
  -5.5931208808902635E-002   1.6359385319775332E-002   3.1615133196342841E-002
  -5.3839799282656184E-002   1.5617759337498597E-002   3.1437198314591797E-002
  -5.1748389756409677E-002   1.4871731647885578E-002   3.1550551730921417E-002
  -6.5933657173981614E-002   1.9895369908304927E-002   2.7912949464431291E-002
  -6.3454745644293431E-002   1.9175808982577702E-002   2.7083123528696823E-002
  -6.0975834114605262E-002   1.8417066258316656E-002   2.6737013301764978E-002
  -5.8496922584917128E-002   1.7619141735522488E-002   2.6874618783635895E-002
  -5.6018011055228939E-002   1.6782035414194763E-002   2.7495939974309491E-002
  -3.5183686464113628E-002   9.1408203489579121E-003   4.3063574936877291E-002
  -3.3456078662275054E-002   8.5804359545222086E-003   4.2337165759272655E-002
  -3.1728470860436467E-002   7.7449277938980293E-003   4.2209021653417750E-002
  -3.0000863058597893E-002   6.6342958670847531E-003   4.2679142619312729E-002
  -2.8273255256759305E-002   5.2485401740827720E-003   4.3747528656957468E-002
  -4.1331227460852021E-002   1.1051124115267097E-002   3.9334369212205317E-002
  -3.9131350162724468E-002   1.0421504491039540E-002   3.8872047373111951E-002
  -3.6931472864596887E-002   9.5952279956654923E-003   3.8755999454846771E-002
  -3.4731595566469306E-002   8.5722946291451087E-003   3.8986225457409894E-002
  -3.2531718268341767E-002   7.3527043914784485E-003   3.9562725380801078E-002
  -4.6852795224950797E-002   1.2961427881576337E-002   3.5496694810219956E-002
  -4.4432639581455768E-002   1.2262573027556581E-002   3.5376927204680428E-002
  -4.2012483937960830E-002   1.1445528197433004E-002   3.5351442369047421E-002
  -3.9592328294465823E-002   1.0510293391205296E-002   3.5420240303320999E-002
  -3.7172172650970871E-002   9.4568686088738751E-003   3.5583321007501237E-002
  -5.1748389756409677E-002   1.4871731647885578E-002   3.1550551730921417E-002
  -4.9359946918468969E-002   1.4103641564073656E-002   3.1851805253977919E-002
  -4.6971504080528234E-002   1.3295828399200547E-002   3.1995350396019723E-002
  -4.4583061242587541E-002   1.2448292153265678E-002   3.1981187157046377E-002
  -4.2194618404646785E-002   1.1561032826269316E-002   3.1809315537057736E-002
  -5.6018011055228939E-002   1.6782035414194763E-002   2.7495939974309491E-002
  -5.3913272173764043E-002   1.5944710100590787E-002   2.8296681521004730E-002
  -5.1808533292299133E-002   1.5146128600968020E-002   2.8687723535763515E-002
  -4.9703794410834258E-002   1.4386290915325822E-002   2.8669066018585515E-002
  -4.7599055529369327E-002   1.3665197043664923E-002   2.8240708969470785E-002
  -2.8273255256759305E-002   5.2485401740827720E-003   4.3747528656957468E-002
  -2.8571444043265976E-002   2.7012022381991407E-003   3.8219747095648737E-002
  -2.8869632829772701E-002  -1.8941764172585168E-003   2.5696684549169263E-002
  -2.9167821616279350E-002  -8.5375957922901556E-003   6.1783410175193926E-003
  -2.9466010402786069E-002  -1.7229055886896383E-002  -2.0335283499300916E-002
  -3.2531718268341767E-002   7.3527043914784485E-003   3.9562725380801078E-002
  -3.8257905710904684E-002   5.4446432988624616E-003   3.3606071998397019E-002
  -4.3984093153467643E-002   2.3562973674953608E-003   2.3788702289050973E-002
  -4.9710280596030672E-002  -1.9123334026237178E-003   1.0110616252762772E-002
  -5.5436468038593451E-002  -7.3612490114942641E-003  -7.4281861104672497E-003
  -3.7172172650970871E-002   9.4568686088738751E-003   3.5583321007501237E-002
  -4.5191794091361516E-002   8.1880843595257824E-003   3.0065551684824374E-002
  -5.3211415531752099E-002   6.6067711522488984E-003   2.3821630693433883E-002
  -6.1231036972142702E-002   4.7129289870428016E-003   1.6851558033330407E-002
  -6.9250658412533320E-002   2.5065578639077435E-003   9.1553337045130467E-003
  -4.2194618404646785E-002   1.1561032826269316E-002   3.1809315537057736E-002
  -4.9373109184636527E-002   1.0931525420189103E-002   2.7598186154930777E-002
  -5.6551599964626283E-002   1.0857244937002495E-002   2.5795469762318932E-002
  -6.3730090744616066E-002   1.1338191376709279E-002   2.6401166359221767E-002
  -7.0908581524605843E-002   1.2374364739309696E-002   2.9415275945640765E-002
  -4.7599055529369327E-002   1.3665197043664923E-002   2.8240708969470785E-002
  -5.0801850990729647E-002   1.3674966480852424E-002   2.6203975408716162E-002
  -5.4004646452089994E-002   1.5107718721756216E-002   2.9710219495705265E-002
  -5.7207441913450272E-002   1.7963453766375818E-002   3.8759441230437938E-002
  -6.0410237374810605E-002   2.2242171614711870E-002   5.3351640612914641E-002
  -9.0339454189001384E-002   0.0000000000000000        4.9854316798624079E-002
  -9.3936936767620841E-002   5.4028472101850817E-003   5.3212355140367373E-002
  -9.7534419346240298E-002   1.0663440482501521E-002   5.4958112479991904E-002
 -0.10113190192485975        1.5781779816949316E-002   5.5091588817497643E-002
 -0.10472938450347921        2.0757865213528466E-002   5.3612784152884639E-002
 -0.10328149268732473        0.0000000000000000        5.8681423177759512E-002
 -0.10681251916783430        1.0881027044084002E-002   5.2125221545857831E-002
 -0.11034354564834389        1.9163631018033093E-002   4.7314213112294660E-002
 -0.11387457212885346        2.4847811921847280E-002   4.4248397877070036E-002
 -0.11740559860936306        2.7933569755526549E-002   4.2927775840183938E-002
 -0.12644616975551995        0.0000000000000000        7.4214793956926997E-002
 -0.12655326593746236        1.6359206877982924E-002   5.5288183219114065E-002
 -0.12666036211940476        2.7663821553564671E-002   4.1464239880096954E-002
 -0.12676745830134717        3.3913844026745237E-002   3.2742963939875684E-002
 -0.12687455448328952        3.5109274297524626E-002   2.9124355398450218E-002
 -0.15983348539358702        0.0000000000000000        9.6454429136126549E-002
 -0.15315917707650495        2.1837386711881838E-002   6.2701240160136062E-002
 -0.14648486875942288        3.6164012089096247E-002   3.7408192783398748E-002
 -0.13981056044234078        4.2979876131643190E-002   2.0575287005914558E-002
 -0.13313625212525865        4.2284978839522737E-002   1.2202522827683495E-002
 -0.20344343960152597        0.0000000000000000       0.12540032871535814     
 -0.18663025258496210        2.7315566545780764E-002   7.4364392368923893E-002
 -0.16981706556839823        4.4664202624627822E-002   3.5146071822200059E-002
 -0.15300387855183437        5.2045908236541163E-002   7.7453670751866793E-003
 -0.13619069153527047        4.9460683381520786E-002  -7.8377218721162531E-003
 -0.10472938450347921        2.0757865213528466E-002   5.3612784152884639E-002
 -0.10206263290816872        2.4888298224987501E-002   4.5632570038723647E-002
  -9.9395881312858231E-002   2.7469680404074947E-002   3.9319175471154259E-002
  -9.6729129717547740E-002   2.8502011750790791E-002   3.4672600450176450E-002
  -9.4062378122237250E-002   2.7985292265135048E-002   3.1692844975790266E-002
 -0.11740559860936306        2.7933569755526549E-002   4.2927775840183938E-002
 -0.11345384590517318        2.9400518772836205E-002   3.6678878822780085E-002
 -0.10950209320098331        3.0228273227541496E-002   3.1333164476543399E-002
 -0.10555034049679345        3.0416833119642495E-002   2.6890632801473954E-002
 -0.10159858779260356        2.9966198449139114E-002   2.3351283797571513E-002
 -0.12687455448328952        3.5109274297524626E-002   2.9124355398450218E-002
 -0.12240143754564474        3.3912739320684906E-002   2.5516631747570774E-002
 -0.11792832060799993        3.2986866051008090E-002   2.2048453892434108E-002
 -0.11345520367035512        3.2331654488494149E-002   1.8719821833040086E-002
 -0.10898208673271034        3.1947104633143181E-002   1.5530735569388821E-002
 -0.13313625212525865        4.2284978839522737E-002   1.2202522827683495E-002
 -0.12890540782958340        3.8424959868533601E-002   1.2145828813095796E-002
 -0.12467456353390809        3.5745458874474653E-002   1.1465043718826243E-002
 -0.12044371923823280        3.4246475857345866E-002   1.0160167544875110E-002
 -0.11621287494255747        3.3928010817147233E-002   8.2312002912420905E-003
 -0.13619069153527047        4.9460683381520786E-002  -7.8377218721162531E-003
 -0.13296575675698916        4.2937180416382309E-002  -3.4335299806451357E-003
 -0.12974082197870779        3.8504051697941195E-002  -4.1706604428010628E-004
 -0.12651588720042645        3.6161297226197528E-002   1.2116699369787280E-003
 -0.12329095242214511        3.5908917001151286E-002   1.4526779631313658E-003
  -9.4062378122237250E-002   2.7985292265135048E-002   3.1692844975790266E-002
  -9.1754326282541473E-002   2.6825231207827972E-002   3.1045292522245832E-002
  -8.9446274442845669E-002   2.5927537839589881E-002   3.0534868452383873E-002
  -8.7138222603149879E-002   2.5292212160420793E-002   3.0161572766204212E-002
  -8.4830170763454074E-002   2.4919254170320634E-002   2.9925405463706881E-002
 -0.10159858779260356        2.9966198449139114E-002   2.3351283797571513E-002
  -9.9152806032313606E-002   2.9217395723629171E-002   2.3009656682028576E-002
  -9.6707024272023642E-002   2.8511451450710421E-002   2.2806361023991660E-002
  -9.4261242511733706E-002   2.7848365630382902E-002   2.2741396823460644E-002
  -9.1815460751443700E-002   2.7228138262646556E-002   2.2814764080435590E-002
 -0.10898208673271034        3.1947104633143181E-002   1.5530735569388821E-002
 -0.10639737197800259        3.1609560239430338E-002   1.5275524555369589E-002
 -0.10381265722329486        3.1095365061830964E-002   1.5159848072679909E-002
 -0.10122794246858714        3.0404519100344984E-002   1.5183706121319755E-002
  -9.8643227713879428E-002   2.9537022354972541E-002   1.5347098701289200E-002
 -0.11621287494255747        3.3928010817147233E-002   8.2312002912420905E-003
 -0.11348802411960843        3.4001724755231541E-002   7.8428961422687699E-003
 -0.11076317329665936        3.3679278672951486E-002   7.5953295984486739E-003
 -0.10803832247371029        3.2960672570307194E-002   7.4885006597815622E-003
 -0.10531347165076119        3.1845906447298469E-002   7.5224093262677314E-003
 -0.12329095242214511        3.5908917001151286E-002   1.4526779631313658E-003
 -0.12042476245713110        3.6393889271032764E-002   7.1177144272632775E-004
 -0.11755857249211704        3.6263192284072016E-002   1.1280560129786621E-004
 -0.11469238252710301        3.5516826040269282E-002  -3.4421956115383151E-004
 -0.11182619256208898        3.4154790539624502E-002  -6.5930404462877235E-004
  -8.4830170763454074E-002   2.4919254170320634E-002   2.9925405463706881E-002
  -8.2272925481859382E-002   2.4609564420514263E-002   2.9384434468728765E-002
  -7.9715680200264677E-002   2.4164043462226687E-002   2.9055049554594446E-002
  -7.7158434918669985E-002   2.3582691295457887E-002   2.8937250721303990E-002
  -7.4601189637075266E-002   2.2865507920207834E-002   2.9031037968857476E-002
  -9.1815460751443700E-002   2.7228138262646556E-002   2.2814764080435590E-002
  -8.9062766449287872E-002   2.6612554160475713E-002   2.2330477485757824E-002
  -8.6310072147132100E-002   2.5963398136844534E-002   2.2025502851358465E-002
  -8.3557377844976272E-002   2.5280670191753132E-002   2.1899840177237354E-002
  -8.0804683542820457E-002   2.4564370325201423E-002   2.1953489463394663E-002
  -9.8643227713879428E-002   2.9537022354972541E-002   1.5347098701289200E-002
  -9.5727358511728033E-002   2.8615543900437107E-002   1.5021755793932751E-002
  -9.2811489309576611E-002   2.7762752811462406E-002   1.4843450726289316E-002
  -8.9895620107425245E-002   2.6978649088048322E-002   1.4812183498358618E-002
  -8.6979750905273809E-002   2.6263232730194971E-002   1.4927954110140702E-002
 -0.10531347165076119        3.1845906447298469E-002   7.5224093262677314E-003
 -0.10226670166917967        3.0618533640398529E-002   7.4582693932537247E-003
  -9.9219931687598253E-002   2.9562107486080184E-002   7.5088931793870963E-003
  -9.6173161706016780E-002   2.8676627984343523E-002   7.6742806846676935E-003
  -9.3126391724435306E-002   2.7962095135188457E-002   7.9544319090956560E-003
 -0.11182619256208898        3.4154790539624502E-002  -6.5930404462877235E-004
 -0.10868079592164298        3.2621523380359896E-002  -3.5998171627943387E-004
 -0.10553539928119696        3.1361462160697975E-002   2.1830210651815896E-005
 -0.10239000264075095        3.0374606880638772E-002   4.8613173616459879E-004
  -9.9244606000304936E-002   2.9660957540182165E-002   1.0329228602593554E-003
  -7.4601189637075266E-002   2.2865507920207834E-002   2.9031037968857476E-002
  -7.2434306521301853E-002   2.2091050059845921E-002   2.8629187220370528E-002
  -7.0267423405528440E-002   2.1337874437741371E-002   2.8308888886803912E-002
  -6.8100540289755013E-002   2.0605981053894412E-002   2.8070142968157581E-002
  -6.5933657173981614E-002   1.9895369908304927E-002   2.7912949464431291E-002
  -8.0804683542820457E-002   2.4564370325201423E-002   2.1953489463394663E-002
  -7.8531907778327109E-002   2.3820279888858098E-002   2.1604042002066559E-002
  -7.6259132013833858E-002   2.3054180234391784E-002   2.1384827423257931E-002
  -7.3986356249340551E-002   2.2266071361802482E-002   2.1295845726968955E-002
  -7.1713580484847203E-002   2.1455953271090261E-002   2.1337096913199377E-002
  -8.6979750905273809E-002   2.6263232730194971E-002   1.4927954110140702E-002
  -8.4552402024461321E-002   2.5549509717870296E-002   1.4587618479590947E-002
  -8.2125053143648791E-002   2.4770486031042118E-002   1.4426196199159916E-002
  -7.9697704262836289E-002   2.3926161669710552E-002   1.4443687268847752E-002
  -7.7270355382023787E-002   2.3016536633875623E-002   1.4640091688654419E-002
  -9.3126391724435306E-002   2.7962095135188457E-002   7.9544319090956560E-003
  -9.0495789259704265E-002   2.7278739546882372E-002   7.5799166529437034E-003
  -8.7865186794973280E-002   2.6486791827692466E-002   7.4329952145099866E-003
  -8.5234584330242294E-002   2.5586251977618511E-002   7.5136675937942377E-003
  -8.2603981865511281E-002   2.4577119996660970E-002   7.8219337907967056E-003
  -9.9244606000304936E-002   2.9660957540182165E-002   1.0329228602593554E-003
  -9.6362069484056123E-002   2.9007969375894671E-002   5.8093652212465319E-004
  -9.3479532967807311E-002   2.8203097624343032E-002   4.0522446930769951E-004
  -9.0596996451558498E-002   2.7246342285526692E-002   5.0578670180776233E-004
  -8.7714459935309685E-002   2.6137703359446207E-002   8.8262321962578882E-004
  -6.5933657173981614E-002   1.9895369908304927E-002   2.7912949464431291E-002
  -6.3454745644293431E-002   1.9175808982577702E-002   2.7083123528696823E-002
  -6.0975834114605262E-002   1.8417066258316656E-002   2.6737013301764978E-002
  -5.8496922584917128E-002   1.7619141735522488E-002   2.6874618783635895E-002
  -5.6018011055228939E-002   1.6782035414194763E-002   2.7495939974309491E-002
  -7.1713580484847203E-002   2.1455953271090261E-002   2.1337096913199377E-002
  -6.8811504989283276E-002   2.0646191548607848E-002   2.0661637726251611E-002
  -6.5909429493719363E-002   1.9859151780707927E-002   2.0348790762252669E-002
  -6.3007353998155421E-002   1.9094833967390541E-002   2.0398556021202538E-002
  -6.0105278502591508E-002   1.8353238108655801E-002   2.0810933503101176E-002
  -7.7270355382023787E-002   2.3016536633875623E-002   1.4640091688654419E-002
  -7.4066219406437914E-002   2.2116574114638216E-002   1.4180903003609420E-002
  -7.0862083430852110E-002   2.1301237303099255E-002   1.3963223055659169E-002
  -6.7657947455266321E-002   2.0570526199258869E-002   1.3987051844804182E-002
  -6.4453811479680462E-002   1.9924440803117005E-002   1.4252389371043714E-002
  -8.2603981865511281E-002   2.4577119996660970E-002   7.8219337907967056E-003
  -7.9218888895757372E-002   2.3586956680668639E-002   7.6409193607703037E-003
  -7.5833795926003519E-002   2.2743322825490610E-002   7.5803101819847084E-003
  -7.2448702956249694E-002   2.2046218431127057E-002   7.6401062544404815E-003
  -6.9063609986495758E-002   2.1495643497578210E-002   7.8203075781371617E-003
  -8.7714459935309685E-002   2.6137703359446207E-002   8.8262321962578882E-004
  -8.4269513457241596E-002   2.5057339246698618E-002   1.0416867977339206E-003
  -8.0824566979173618E-002   2.4185408347881771E-002   1.2000521412293824E-003
  -7.7379620501105639E-002   2.3521910662995062E-002   1.3577192501118725E-003
  -7.3934674023037550E-002   2.3066846192039137E-002   1.5146881243817134E-003
  -5.6018011055228939E-002   1.6782035414194763E-002   2.7495939974309491E-002
  -5.3913272173764043E-002   1.5944710100590787E-002   2.8296681521004730E-002
  -5.1808533292299133E-002   1.5146128600968020E-002   2.8687723535763515E-002
  -4.9703794410834258E-002   1.4386290915325822E-002   2.8669066018585515E-002
  -4.7599055529369327E-002   1.3665197043664923E-002   2.8240708969470785E-002
  -6.0105278502591508E-002   1.8353238108655801E-002   2.0810933503101176E-002
  -5.8303701609921238E-002   1.7590311190300412E-002   2.1443626933290522E-002
  -5.6502124717250982E-002   1.6762000198120630E-002   2.1879695917827097E-002
  -5.4700547824580753E-002   1.5868305132116664E-002   2.2119140456711178E-002
  -5.2898970931910455E-002   1.4909225992288444E-002   2.2161960549942683E-002
  -6.4453811479680462E-002   1.9924440803117005E-002   1.4252389371043714E-002
  -6.2742321489520803E-002   1.9235912280009843E-002   1.4612906796921954E-002
  -6.1030831499361185E-002   1.8377871795273081E-002   1.4989874863431486E-002
  -5.9319341509201609E-002   1.7350319348907399E-002   1.5383293570572523E-002
  -5.7607851519041922E-002   1.6153254940911993E-002   1.5793162918344775E-002
  -6.9063609986495758E-002   2.1495643497578210E-002   7.8203075781371617E-003
  -6.7229131812562765E-002   2.0881513369719371E-002   7.8045211118990959E-003
  -6.5394653638629771E-002   1.9993743392425999E-002   8.0182603725765158E-003
  -6.3560175464696736E-002   1.8832333565697964E-002   8.4615253601690102E-003
  -6.1725697290763770E-002   1.7397283889535639E-002   9.1343160746769660E-003
  -7.3934674023037550E-002   2.3066846192039137E-002   1.5146881243817134E-003
  -7.1764132579047124E-002   2.2527114459428954E-002   1.0184698782220725E-003
  -6.9593591135056698E-002   2.1609614989578085E-002   9.6485244526156588E-004
  -6.7423049691066272E-002   2.0314347782489015E-002   1.3538358255013316E-003
  -6.5252508247075847E-002   1.8641312838159063E-002   2.1854200189399542E-003
  -4.7599055529369327E-002   1.3665197043664923E-002   2.8240708969470785E-002
  -5.0801850990729647E-002   1.3674966480852424E-002   2.6203975408716162E-002
  -5.4004646452089994E-002   1.5107718721756216E-002   2.9710219495705265E-002
  -5.7207441913450272E-002   1.7963453766375818E-002   3.8759441230437938E-002
  -6.0410237374810605E-002   2.2242171614711870E-002   5.3351640612914641E-002
  -5.2898970931910455E-002   1.4909225992288444E-002   2.2161960549942683E-002
  -5.1639531679576856E-002   1.4422493130288677E-002   2.0852048587146371E-002
  -5.0380092427243298E-002   1.4945836897769807E-002   2.2923628403994145E-002
  -4.9120653174909795E-002   1.6479257294731948E-002   2.8376700000485797E-002
  -4.7861213922576140E-002   1.9022754321175173E-002   3.7211263376621728E-002
  -5.7607851519041922E-002   1.6153254940911993E-002   1.5793162918344775E-002
  -5.4047663421114125E-002   1.5170019779724986E-002   1.4797166379271628E-002
  -5.0487475323186308E-002   1.4783955073783335E-002   1.5021175751742923E-002
  -4.6927287225258546E-002   1.4995060823088021E-002   1.6465191035758515E-002
  -4.3367099127330735E-002   1.5803337027638142E-002   1.9129212231318748E-002
  -6.1725697290763770E-002   1.7397283889535639E-002   9.1343160746769660E-003
  -5.8026246215341318E-002   1.5917546429160989E-002   8.0393287850918128E-003
  -5.4326795139918990E-002   1.4622073249797172E-002   6.0028615389515986E-003
  -5.0627344064496739E-002   1.3510864351444121E-002   3.0249143362556736E-003
  -4.6927892989074280E-002   1.2583919734101168E-002  -8.9451282299496393E-004
  -6.5252508247075847E-002   1.8641312838159063E-002   2.1854200189399542E-003
  -6.3575280062258543E-002   1.6665073078597548E-002   5.7853580460731635E-004
  -6.1898051877441351E-002   1.4460191425810620E-002  -4.1313142343797349E-003
  -6.0220823692624104E-002   1.2026667879800210E-002  -1.1944130098022171E-002
  -5.8543595507806856E-002   9.3645024405644151E-003  -2.2859911786319298E-002
 </DataArray>
 </PointData>
 </Piece>
 <Piece  NumberOfPoints="          1600 "  NumberOfCells="         1024 ">
 <Points>
 <DataArray  type="Float64" NumberOfComponents="3"  format="ascii" >
  0.50000000000000000        0.0000000000000000        0.0000000000000000     
  0.53125000000000000        0.0000000000000000        0.0000000000000000     
  0.56250000000000000        0.0000000000000000        0.0000000000000000     
  0.59375000000000000        0.0000000000000000        0.0000000000000000     
  0.62500000000000000        0.0000000000000000        0.0000000000000000     
  0.50000000000000000        3.1250000000000000E-002   0.0000000000000000     
  0.53125000000000000        3.1250000000000000E-002   0.0000000000000000     
  0.56250000000000000        3.1250000000000000E-002   0.0000000000000000     
  0.59375000000000000        3.1250000000000000E-002   0.0000000000000000     
  0.62500000000000000        3.1250000000000000E-002   0.0000000000000000     
  0.50000000000000000        6.2500000000000000E-002   0.0000000000000000     
  0.53125000000000000        6.2500000000000000E-002   0.0000000000000000     
  0.56250000000000000        6.2500000000000000E-002   0.0000000000000000     
  0.59375000000000000        6.2500000000000000E-002   0.0000000000000000     
  0.62500000000000000        6.2500000000000000E-002   0.0000000000000000     
  0.50000000000000000        9.3750000000000000E-002   0.0000000000000000     
  0.53125000000000000        9.3750000000000000E-002   0.0000000000000000     
  0.56250000000000000        9.3750000000000000E-002   0.0000000000000000     
  0.59375000000000000        9.3750000000000000E-002   0.0000000000000000     
  0.62500000000000000        9.3750000000000000E-002   0.0000000000000000     
  0.50000000000000000       0.12500000000000000        0.0000000000000000     
  0.53125000000000000       0.12500000000000000        0.0000000000000000     
  0.56250000000000000       0.12500000000000000        0.0000000000000000     
  0.59375000000000000       0.12500000000000000        0.0000000000000000     
  0.62500000000000000       0.12500000000000000        0.0000000000000000     
  0.62500000000000000        0.0000000000000000        0.0000000000000000     
  0.65625000000000000        0.0000000000000000        0.0000000000000000     
  0.68750000000000000        0.0000000000000000        0.0000000000000000     
  0.71875000000000000        0.0000000000000000        0.0000000000000000     
  0.75000000000000000        0.0000000000000000        0.0000000000000000     
  0.62500000000000000        3.1250000000000000E-002   0.0000000000000000     
  0.65625000000000000        3.1250000000000000E-002   0.0000000000000000     
  0.68750000000000000        3.1250000000000000E-002   0.0000000000000000     
  0.71875000000000000        3.1250000000000000E-002   0.0000000000000000     
  0.75000000000000000        3.1250000000000000E-002   0.0000000000000000     
  0.62500000000000000        6.2500000000000000E-002   0.0000000000000000     
  0.65625000000000000        6.2500000000000000E-002   0.0000000000000000     
  0.68750000000000000        6.2500000000000000E-002   0.0000000000000000     
  0.71875000000000000        6.2500000000000000E-002   0.0000000000000000     
  0.75000000000000000        6.2500000000000000E-002   0.0000000000000000     
  0.62500000000000000        9.3750000000000000E-002   0.0000000000000000     
  0.65625000000000000        9.3750000000000000E-002   0.0000000000000000     
  0.68750000000000000        9.3750000000000000E-002   0.0000000000000000     
  0.71875000000000000        9.3750000000000000E-002   0.0000000000000000     
  0.75000000000000000        9.3750000000000000E-002   0.0000000000000000     
  0.62500000000000000       0.12500000000000000        0.0000000000000000     
  0.65625000000000000       0.12500000000000000        0.0000000000000000     
  0.68750000000000000       0.12500000000000000        0.0000000000000000     
  0.71875000000000000       0.12500000000000000        0.0000000000000000     
  0.75000000000000000       0.12500000000000000        0.0000000000000000     
  0.75000000000000000        0.0000000000000000        0.0000000000000000     
  0.78125000000000000        0.0000000000000000        0.0000000000000000     
  0.81250000000000000        0.0000000000000000        0.0000000000000000     
  0.84375000000000000        0.0000000000000000        0.0000000000000000     
  0.87500000000000000        0.0000000000000000        0.0000000000000000     
  0.75000000000000000        3.1250000000000000E-002   0.0000000000000000     
  0.78125000000000000        3.1250000000000000E-002   0.0000000000000000     
  0.81250000000000000        3.1250000000000000E-002   0.0000000000000000     
  0.84375000000000000        3.1250000000000000E-002   0.0000000000000000     
  0.87500000000000000        3.1250000000000000E-002   0.0000000000000000     
  0.75000000000000000        6.2500000000000000E-002   0.0000000000000000     
  0.78125000000000000        6.2500000000000000E-002   0.0000000000000000     
  0.81250000000000000        6.2500000000000000E-002   0.0000000000000000     
  0.84375000000000000        6.2500000000000000E-002   0.0000000000000000     
  0.87500000000000000        6.2500000000000000E-002   0.0000000000000000     
  0.75000000000000000        9.3750000000000000E-002   0.0000000000000000     
  0.78125000000000000        9.3750000000000000E-002   0.0000000000000000     
  0.81250000000000000        9.3750000000000000E-002   0.0000000000000000     
  0.84375000000000000        9.3750000000000000E-002   0.0000000000000000     
  0.87500000000000000        9.3750000000000000E-002   0.0000000000000000     
  0.75000000000000000       0.12500000000000000        0.0000000000000000     
  0.78125000000000000       0.12500000000000000        0.0000000000000000     
  0.81250000000000000       0.12500000000000000        0.0000000000000000     
  0.84375000000000000       0.12500000000000000        0.0000000000000000     
  0.87500000000000000       0.12500000000000000        0.0000000000000000     
  0.87500000000000000        0.0000000000000000        0.0000000000000000     
  0.90625000000000000        0.0000000000000000        0.0000000000000000     
  0.93750000000000000        0.0000000000000000        0.0000000000000000     
  0.96875000000000000        0.0000000000000000        0.0000000000000000     
   1.0000000000000000        0.0000000000000000        0.0000000000000000     
  0.87500000000000000        3.1250000000000000E-002   0.0000000000000000     
  0.90625000000000000        3.1250000000000000E-002   0.0000000000000000     
  0.93750000000000000        3.1250000000000000E-002   0.0000000000000000     
  0.96875000000000000        3.1250000000000000E-002   0.0000000000000000     
   1.0000000000000000        3.1250000000000000E-002   0.0000000000000000     
  0.87500000000000000        6.2500000000000000E-002   0.0000000000000000     
  0.90625000000000000        6.2500000000000000E-002   0.0000000000000000     
  0.93750000000000000        6.2500000000000000E-002   0.0000000000000000     
  0.96875000000000000        6.2500000000000000E-002   0.0000000000000000     
   1.0000000000000000        6.2500000000000000E-002   0.0000000000000000     
  0.87500000000000000        9.3750000000000000E-002   0.0000000000000000     
  0.90625000000000000        9.3750000000000000E-002   0.0000000000000000     
  0.93750000000000000        9.3750000000000000E-002   0.0000000000000000     
  0.96875000000000000        9.3750000000000000E-002   0.0000000000000000     
   1.0000000000000000        9.3750000000000000E-002   0.0000000000000000     
  0.87500000000000000       0.12500000000000000        0.0000000000000000     
  0.90625000000000000       0.12500000000000000        0.0000000000000000     
  0.93750000000000000       0.12500000000000000        0.0000000000000000     
  0.96875000000000000       0.12500000000000000        0.0000000000000000     
   1.0000000000000000       0.12500000000000000        0.0000000000000000     
   1.0000000000000000        0.0000000000000000        0.0000000000000000     
   1.0312500000000000        0.0000000000000000        0.0000000000000000     
   1.0625000000000000        0.0000000000000000        0.0000000000000000     
   1.0937500000000000        0.0000000000000000        0.0000000000000000     
   1.1250000000000000        0.0000000000000000        0.0000000000000000     
   1.0000000000000000        3.1250000000000000E-002   0.0000000000000000     
   1.0312500000000000        3.1250000000000000E-002   0.0000000000000000     
   1.0625000000000000        3.1250000000000000E-002   0.0000000000000000     
   1.0937500000000000        3.1250000000000000E-002   0.0000000000000000     
   1.1250000000000000        3.1250000000000000E-002   0.0000000000000000     
   1.0000000000000000        6.2500000000000000E-002   0.0000000000000000     
   1.0312500000000000        6.2500000000000000E-002   0.0000000000000000     
   1.0625000000000000        6.2500000000000000E-002   0.0000000000000000     
   1.0937500000000000        6.2500000000000000E-002   0.0000000000000000     
   1.1250000000000000        6.2500000000000000E-002   0.0000000000000000     
   1.0000000000000000        9.3750000000000000E-002   0.0000000000000000     
   1.0312500000000000        9.3750000000000000E-002   0.0000000000000000     
   1.0625000000000000        9.3750000000000000E-002   0.0000000000000000     
   1.0937500000000000        9.3750000000000000E-002   0.0000000000000000     
   1.1250000000000000        9.3750000000000000E-002   0.0000000000000000     
   1.0000000000000000       0.12500000000000000        0.0000000000000000     
   1.0312500000000000       0.12500000000000000        0.0000000000000000     
   1.0625000000000000       0.12500000000000000        0.0000000000000000     
   1.0937500000000000       0.12500000000000000        0.0000000000000000     
   1.1250000000000000       0.12500000000000000        0.0000000000000000     
   1.1250000000000000        0.0000000000000000        0.0000000000000000     
   1.1562500000000000        0.0000000000000000        0.0000000000000000     
   1.1875000000000000        0.0000000000000000        0.0000000000000000     
   1.2187500000000000        0.0000000000000000        0.0000000000000000     
   1.2500000000000000        0.0000000000000000        0.0000000000000000     
   1.1250000000000000        3.1250000000000000E-002   0.0000000000000000     
   1.1562500000000000        3.1250000000000000E-002   0.0000000000000000     
   1.1875000000000000        3.1250000000000000E-002   0.0000000000000000     
   1.2187500000000000        3.1250000000000000E-002   0.0000000000000000     
   1.2500000000000000        3.1250000000000000E-002   0.0000000000000000     
   1.1250000000000000        6.2500000000000000E-002   0.0000000000000000     
   1.1562500000000000        6.2500000000000000E-002   0.0000000000000000     
   1.1875000000000000        6.2500000000000000E-002   0.0000000000000000     
   1.2187500000000000        6.2500000000000000E-002   0.0000000000000000     
   1.2500000000000000        6.2500000000000000E-002   0.0000000000000000     
   1.1250000000000000        9.3750000000000000E-002   0.0000000000000000     
   1.1562500000000000        9.3750000000000000E-002   0.0000000000000000     
   1.1875000000000000        9.3750000000000000E-002   0.0000000000000000     
   1.2187500000000000        9.3750000000000000E-002   0.0000000000000000     
   1.2500000000000000        9.3750000000000000E-002   0.0000000000000000     
   1.1250000000000000       0.12500000000000000        0.0000000000000000     
   1.1562500000000000       0.12500000000000000        0.0000000000000000     
   1.1875000000000000       0.12500000000000000        0.0000000000000000     
   1.2187500000000000       0.12500000000000000        0.0000000000000000     
   1.2500000000000000       0.12500000000000000        0.0000000000000000     
   1.2500000000000000        0.0000000000000000        0.0000000000000000     
   1.2812500000000000        0.0000000000000000        0.0000000000000000     
   1.3125000000000000        0.0000000000000000        0.0000000000000000     
   1.3437500000000000        0.0000000000000000        0.0000000000000000     
   1.3750000000000000        0.0000000000000000        0.0000000000000000     
   1.2500000000000000        3.1250000000000000E-002   0.0000000000000000     
   1.2812500000000000        3.1250000000000000E-002   0.0000000000000000     
   1.3125000000000000        3.1250000000000000E-002   0.0000000000000000     
   1.3437500000000000        3.1250000000000000E-002   0.0000000000000000     
   1.3750000000000000        3.1250000000000000E-002   0.0000000000000000     
   1.2500000000000000        6.2500000000000000E-002   0.0000000000000000     
   1.2812500000000000        6.2500000000000000E-002   0.0000000000000000     
   1.3125000000000000        6.2500000000000000E-002   0.0000000000000000     
   1.3437500000000000        6.2500000000000000E-002   0.0000000000000000     
   1.3750000000000000        6.2500000000000000E-002   0.0000000000000000     
   1.2500000000000000        9.3750000000000000E-002   0.0000000000000000     
   1.2812500000000000        9.3750000000000000E-002   0.0000000000000000     
   1.3125000000000000        9.3750000000000000E-002   0.0000000000000000     
   1.3437500000000000        9.3750000000000000E-002   0.0000000000000000     
   1.3750000000000000        9.3750000000000000E-002   0.0000000000000000     
   1.2500000000000000       0.12500000000000000        0.0000000000000000     
   1.2812500000000000       0.12500000000000000        0.0000000000000000     
   1.3125000000000000       0.12500000000000000        0.0000000000000000     
   1.3437500000000000       0.12500000000000000        0.0000000000000000     
   1.3750000000000000       0.12500000000000000        0.0000000000000000     
   1.3750000000000000        0.0000000000000000        0.0000000000000000     
   1.4062500000000000        0.0000000000000000        0.0000000000000000     
   1.4375000000000000        0.0000000000000000        0.0000000000000000     
   1.4687500000000000        0.0000000000000000        0.0000000000000000     
   1.5000000000000000        0.0000000000000000        0.0000000000000000     
   1.3750000000000000        3.1250000000000000E-002   0.0000000000000000     
   1.4062500000000000        3.1250000000000000E-002   0.0000000000000000     
   1.4375000000000000        3.1250000000000000E-002   0.0000000000000000     
   1.4687500000000000        3.1250000000000000E-002   0.0000000000000000     
   1.5000000000000000        3.1250000000000000E-002   0.0000000000000000     
   1.3750000000000000        6.2500000000000000E-002   0.0000000000000000     
   1.4062500000000000        6.2500000000000000E-002   0.0000000000000000     
   1.4375000000000000        6.2500000000000000E-002   0.0000000000000000     
   1.4687500000000000        6.2500000000000000E-002   0.0000000000000000     
   1.5000000000000000        6.2500000000000000E-002   0.0000000000000000     
   1.3750000000000000        9.3750000000000000E-002   0.0000000000000000     
   1.4062500000000000        9.3750000000000000E-002   0.0000000000000000     
   1.4375000000000000        9.3750000000000000E-002   0.0000000000000000     
   1.4687500000000000        9.3750000000000000E-002   0.0000000000000000     
   1.5000000000000000        9.3750000000000000E-002   0.0000000000000000     
   1.3750000000000000       0.12500000000000000        0.0000000000000000     
   1.4062500000000000       0.12500000000000000        0.0000000000000000     
   1.4375000000000000       0.12500000000000000        0.0000000000000000     
   1.4687500000000000       0.12500000000000000        0.0000000000000000     
   1.5000000000000000       0.12500000000000000        0.0000000000000000     
  0.50000000000000000       0.12500000000000000        0.0000000000000000     
  0.53125000000000000       0.12500000000000000        0.0000000000000000     
  0.56250000000000000       0.12500000000000000        0.0000000000000000     
  0.59375000000000000       0.12500000000000000        0.0000000000000000     
  0.62500000000000000       0.12500000000000000        0.0000000000000000     
  0.50000000000000000       0.15625000000000000        0.0000000000000000     
  0.53125000000000000       0.15625000000000000        0.0000000000000000     
  0.56250000000000000       0.15625000000000000        0.0000000000000000     
  0.59375000000000000       0.15625000000000000        0.0000000000000000     
  0.62500000000000000       0.15625000000000000        0.0000000000000000     
  0.50000000000000000       0.18750000000000000        0.0000000000000000     
  0.53125000000000000       0.18750000000000000        0.0000000000000000     
  0.56250000000000000       0.18750000000000000        0.0000000000000000     
  0.59375000000000000       0.18750000000000000        0.0000000000000000     
  0.62500000000000000       0.18750000000000000        0.0000000000000000     
  0.50000000000000000       0.21875000000000000        0.0000000000000000     
  0.53125000000000000       0.21875000000000000        0.0000000000000000     
  0.56250000000000000       0.21875000000000000        0.0000000000000000     
  0.59375000000000000       0.21875000000000000        0.0000000000000000     
  0.62500000000000000       0.21875000000000000        0.0000000000000000     
  0.50000000000000000       0.25000000000000000        0.0000000000000000     
  0.53125000000000000       0.25000000000000000        0.0000000000000000     
  0.56250000000000000       0.25000000000000000        0.0000000000000000     
  0.59375000000000000       0.25000000000000000        0.0000000000000000     
  0.62500000000000000       0.25000000000000000        0.0000000000000000     
  0.62500000000000000       0.12500000000000000        0.0000000000000000     
  0.65625000000000000       0.12500000000000000        0.0000000000000000     
  0.68750000000000000       0.12500000000000000        0.0000000000000000     
  0.71875000000000000       0.12500000000000000        0.0000000000000000     
  0.75000000000000000       0.12500000000000000        0.0000000000000000     
  0.62500000000000000       0.15625000000000000        0.0000000000000000     
  0.65625000000000000       0.15625000000000000        0.0000000000000000     
  0.68750000000000000       0.15625000000000000        0.0000000000000000     
  0.71875000000000000       0.15625000000000000        0.0000000000000000     
  0.75000000000000000       0.15625000000000000        0.0000000000000000     
  0.62500000000000000       0.18750000000000000        0.0000000000000000     
  0.65625000000000000       0.18750000000000000        0.0000000000000000     
  0.68750000000000000       0.18750000000000000        0.0000000000000000     
  0.71875000000000000       0.18750000000000000        0.0000000000000000     
  0.75000000000000000       0.18750000000000000        0.0000000000000000     
  0.62500000000000000       0.21875000000000000        0.0000000000000000     
  0.65625000000000000       0.21875000000000000        0.0000000000000000     
  0.68750000000000000       0.21875000000000000        0.0000000000000000     
  0.71875000000000000       0.21875000000000000        0.0000000000000000     
  0.75000000000000000       0.21875000000000000        0.0000000000000000     
  0.62500000000000000       0.25000000000000000        0.0000000000000000     
  0.65625000000000000       0.25000000000000000        0.0000000000000000     
  0.68750000000000000       0.25000000000000000        0.0000000000000000     
  0.71875000000000000       0.25000000000000000        0.0000000000000000     
  0.75000000000000000       0.25000000000000000        0.0000000000000000     
  0.75000000000000000       0.12500000000000000        0.0000000000000000     
  0.78125000000000000       0.12500000000000000        0.0000000000000000     
  0.81250000000000000       0.12500000000000000        0.0000000000000000     
  0.84375000000000000       0.12500000000000000        0.0000000000000000     
  0.87500000000000000       0.12500000000000000        0.0000000000000000     
  0.75000000000000000       0.15625000000000000        0.0000000000000000     
  0.78125000000000000       0.15625000000000000        0.0000000000000000     
  0.81250000000000000       0.15625000000000000        0.0000000000000000     
  0.84375000000000000       0.15625000000000000        0.0000000000000000     
  0.87500000000000000       0.15625000000000000        0.0000000000000000     
  0.75000000000000000       0.18750000000000000        0.0000000000000000     
  0.78125000000000000       0.18750000000000000        0.0000000000000000     
  0.81250000000000000       0.18750000000000000        0.0000000000000000     
  0.84375000000000000       0.18750000000000000        0.0000000000000000     
  0.87500000000000000       0.18750000000000000        0.0000000000000000     
  0.75000000000000000       0.21875000000000000        0.0000000000000000     
  0.78125000000000000       0.21875000000000000        0.0000000000000000     
  0.81250000000000000       0.21875000000000000        0.0000000000000000     
  0.84375000000000000       0.21875000000000000        0.0000000000000000     
  0.87500000000000000       0.21875000000000000        0.0000000000000000     
  0.75000000000000000       0.25000000000000000        0.0000000000000000     
  0.78125000000000000       0.25000000000000000        0.0000000000000000     
  0.81250000000000000       0.25000000000000000        0.0000000000000000     
  0.84375000000000000       0.25000000000000000        0.0000000000000000     
  0.87500000000000000       0.25000000000000000        0.0000000000000000     
  0.87500000000000000       0.12500000000000000        0.0000000000000000     
  0.90625000000000000       0.12500000000000000        0.0000000000000000     
  0.93750000000000000       0.12500000000000000        0.0000000000000000     
  0.96875000000000000       0.12500000000000000        0.0000000000000000     
   1.0000000000000000       0.12500000000000000        0.0000000000000000     
  0.87500000000000000       0.15625000000000000        0.0000000000000000     
  0.90625000000000000       0.15625000000000000        0.0000000000000000     
  0.93750000000000000       0.15625000000000000        0.0000000000000000     
  0.96875000000000000       0.15625000000000000        0.0000000000000000     
   1.0000000000000000       0.15625000000000000        0.0000000000000000     
  0.87500000000000000       0.18750000000000000        0.0000000000000000     
  0.90625000000000000       0.18750000000000000        0.0000000000000000     
  0.93750000000000000       0.18750000000000000        0.0000000000000000     
  0.96875000000000000       0.18750000000000000        0.0000000000000000     
   1.0000000000000000       0.18750000000000000        0.0000000000000000     
  0.87500000000000000       0.21875000000000000        0.0000000000000000     
  0.90625000000000000       0.21875000000000000        0.0000000000000000     
  0.93750000000000000       0.21875000000000000        0.0000000000000000     
  0.96875000000000000       0.21875000000000000        0.0000000000000000     
   1.0000000000000000       0.21875000000000000        0.0000000000000000     
  0.87500000000000000       0.25000000000000000        0.0000000000000000     
  0.90625000000000000       0.25000000000000000        0.0000000000000000     
  0.93750000000000000       0.25000000000000000        0.0000000000000000     
  0.96875000000000000       0.25000000000000000        0.0000000000000000     
   1.0000000000000000       0.25000000000000000        0.0000000000000000     
   1.0000000000000000       0.12500000000000000        0.0000000000000000     
   1.0312500000000000       0.12500000000000000        0.0000000000000000     
   1.0625000000000000       0.12500000000000000        0.0000000000000000     
   1.0937500000000000       0.12500000000000000        0.0000000000000000     
   1.1250000000000000       0.12500000000000000        0.0000000000000000     
   1.0000000000000000       0.15625000000000000        0.0000000000000000     
   1.0312500000000000       0.15625000000000000        0.0000000000000000     
   1.0625000000000000       0.15625000000000000        0.0000000000000000     
   1.0937500000000000       0.15625000000000000        0.0000000000000000     
   1.1250000000000000       0.15625000000000000        0.0000000000000000     
   1.0000000000000000       0.18750000000000000        0.0000000000000000     
   1.0312500000000000       0.18750000000000000        0.0000000000000000     
   1.0625000000000000       0.18750000000000000        0.0000000000000000     
   1.0937500000000000       0.18750000000000000        0.0000000000000000     
   1.1250000000000000       0.18750000000000000        0.0000000000000000     
   1.0000000000000000       0.21875000000000000        0.0000000000000000     
   1.0312500000000000       0.21875000000000000        0.0000000000000000     
   1.0625000000000000       0.21875000000000000        0.0000000000000000     
   1.0937500000000000       0.21875000000000000        0.0000000000000000     
   1.1250000000000000       0.21875000000000000        0.0000000000000000     
   1.0000000000000000       0.25000000000000000        0.0000000000000000     
   1.0312500000000000       0.25000000000000000        0.0000000000000000     
   1.0625000000000000       0.25000000000000000        0.0000000000000000     
   1.0937500000000000       0.25000000000000000        0.0000000000000000     
   1.1250000000000000       0.25000000000000000        0.0000000000000000     
   1.1250000000000000       0.12500000000000000        0.0000000000000000     
   1.1562500000000000       0.12500000000000000        0.0000000000000000     
   1.1875000000000000       0.12500000000000000        0.0000000000000000     
   1.2187500000000000       0.12500000000000000        0.0000000000000000     
   1.2500000000000000       0.12500000000000000        0.0000000000000000     
   1.1250000000000000       0.15625000000000000        0.0000000000000000     
   1.1562500000000000       0.15625000000000000        0.0000000000000000     
   1.1875000000000000       0.15625000000000000        0.0000000000000000     
   1.2187500000000000       0.15625000000000000        0.0000000000000000     
   1.2500000000000000       0.15625000000000000        0.0000000000000000     
   1.1250000000000000       0.18750000000000000        0.0000000000000000     
   1.1562500000000000       0.18750000000000000        0.0000000000000000     
   1.1875000000000000       0.18750000000000000        0.0000000000000000     
   1.2187500000000000       0.18750000000000000        0.0000000000000000     
   1.2500000000000000       0.18750000000000000        0.0000000000000000     
   1.1250000000000000       0.21875000000000000        0.0000000000000000     
   1.1562500000000000       0.21875000000000000        0.0000000000000000     
   1.1875000000000000       0.21875000000000000        0.0000000000000000     
   1.2187500000000000       0.21875000000000000        0.0000000000000000     
   1.2500000000000000       0.21875000000000000        0.0000000000000000     
   1.1250000000000000       0.25000000000000000        0.0000000000000000     
   1.1562500000000000       0.25000000000000000        0.0000000000000000     
   1.1875000000000000       0.25000000000000000        0.0000000000000000     
   1.2187500000000000       0.25000000000000000        0.0000000000000000     
   1.2500000000000000       0.25000000000000000        0.0000000000000000     
   1.2500000000000000       0.12500000000000000        0.0000000000000000     
   1.2812500000000000       0.12500000000000000        0.0000000000000000     
   1.3125000000000000       0.12500000000000000        0.0000000000000000     
   1.3437500000000000       0.12500000000000000        0.0000000000000000     
   1.3750000000000000       0.12500000000000000        0.0000000000000000     
   1.2500000000000000       0.15625000000000000        0.0000000000000000     
   1.2812500000000000       0.15625000000000000        0.0000000000000000     
   1.3125000000000000       0.15625000000000000        0.0000000000000000     
   1.3437500000000000       0.15625000000000000        0.0000000000000000     
   1.3750000000000000       0.15625000000000000        0.0000000000000000     
   1.2500000000000000       0.18750000000000000        0.0000000000000000     
   1.2812500000000000       0.18750000000000000        0.0000000000000000     
   1.3125000000000000       0.18750000000000000        0.0000000000000000     
   1.3437500000000000       0.18750000000000000        0.0000000000000000     
   1.3750000000000000       0.18750000000000000        0.0000000000000000     
   1.2500000000000000       0.21875000000000000        0.0000000000000000     
   1.2812500000000000       0.21875000000000000        0.0000000000000000     
   1.3125000000000000       0.21875000000000000        0.0000000000000000     
   1.3437500000000000       0.21875000000000000        0.0000000000000000     
   1.3750000000000000       0.21875000000000000        0.0000000000000000     
   1.2500000000000000       0.25000000000000000        0.0000000000000000     
   1.2812500000000000       0.25000000000000000        0.0000000000000000     
   1.3125000000000000       0.25000000000000000        0.0000000000000000     
   1.3437500000000000       0.25000000000000000        0.0000000000000000     
   1.3750000000000000       0.25000000000000000        0.0000000000000000     
   1.3750000000000000       0.12500000000000000        0.0000000000000000     
   1.4062500000000000       0.12500000000000000        0.0000000000000000     
   1.4375000000000000       0.12500000000000000        0.0000000000000000     
   1.4687500000000000       0.12500000000000000        0.0000000000000000     
   1.5000000000000000       0.12500000000000000        0.0000000000000000     
   1.3750000000000000       0.15625000000000000        0.0000000000000000     
   1.4062500000000000       0.15625000000000000        0.0000000000000000     
   1.4375000000000000       0.15625000000000000        0.0000000000000000     
   1.4687500000000000       0.15625000000000000        0.0000000000000000     
   1.5000000000000000       0.15625000000000000        0.0000000000000000     
   1.3750000000000000       0.18750000000000000        0.0000000000000000     
   1.4062500000000000       0.18750000000000000        0.0000000000000000     
   1.4375000000000000       0.18750000000000000        0.0000000000000000     
   1.4687500000000000       0.18750000000000000        0.0000000000000000     
   1.5000000000000000       0.18750000000000000        0.0000000000000000     
   1.3750000000000000       0.21875000000000000        0.0000000000000000     
   1.4062500000000000       0.21875000000000000        0.0000000000000000     
   1.4375000000000000       0.21875000000000000        0.0000000000000000     
   1.4687500000000000       0.21875000000000000        0.0000000000000000     
   1.5000000000000000       0.21875000000000000        0.0000000000000000     
   1.3750000000000000       0.25000000000000000        0.0000000000000000     
   1.4062500000000000       0.25000000000000000        0.0000000000000000     
   1.4375000000000000       0.25000000000000000        0.0000000000000000     
   1.4687500000000000       0.25000000000000000        0.0000000000000000     
   1.5000000000000000       0.25000000000000000        0.0000000000000000     
  0.50000000000000000       0.25000000000000000        0.0000000000000000     
  0.53125000000000000       0.25000000000000000        0.0000000000000000     
  0.56250000000000000       0.25000000000000000        0.0000000000000000     
  0.59375000000000000       0.25000000000000000        0.0000000000000000     
  0.62500000000000000       0.25000000000000000        0.0000000000000000     
  0.50000000000000000       0.28125000000000000        0.0000000000000000     
  0.53125000000000000       0.28125000000000000        0.0000000000000000     
  0.56250000000000000       0.28125000000000000        0.0000000000000000     
  0.59375000000000000       0.28125000000000000        0.0000000000000000     
  0.62500000000000000       0.28125000000000000        0.0000000000000000     
  0.50000000000000000       0.31250000000000000        0.0000000000000000     
  0.53125000000000000       0.31250000000000000        0.0000000000000000     
  0.56250000000000000       0.31250000000000000        0.0000000000000000     
  0.59375000000000000       0.31250000000000000        0.0000000000000000     
  0.62500000000000000       0.31250000000000000        0.0000000000000000     
  0.50000000000000000       0.34375000000000000        0.0000000000000000     
  0.53125000000000000       0.34375000000000000        0.0000000000000000     
  0.56250000000000000       0.34375000000000000        0.0000000000000000     
  0.59375000000000000       0.34375000000000000        0.0000000000000000     
  0.62500000000000000       0.34375000000000000        0.0000000000000000     
  0.50000000000000000       0.37500000000000000        0.0000000000000000     
  0.53125000000000000       0.37500000000000000        0.0000000000000000     
  0.56250000000000000       0.37500000000000000        0.0000000000000000     
  0.59375000000000000       0.37500000000000000        0.0000000000000000     
  0.62500000000000000       0.37500000000000000        0.0000000000000000     
  0.62500000000000000       0.25000000000000000        0.0000000000000000     
  0.65625000000000000       0.25000000000000000        0.0000000000000000     
  0.68750000000000000       0.25000000000000000        0.0000000000000000     
  0.71875000000000000       0.25000000000000000        0.0000000000000000     
  0.75000000000000000       0.25000000000000000        0.0000000000000000     
  0.62500000000000000       0.28125000000000000        0.0000000000000000     
  0.65625000000000000       0.28125000000000000        0.0000000000000000     
  0.68750000000000000       0.28125000000000000        0.0000000000000000     
  0.71875000000000000       0.28125000000000000        0.0000000000000000     
  0.75000000000000000       0.28125000000000000        0.0000000000000000     
  0.62500000000000000       0.31250000000000000        0.0000000000000000     
  0.65625000000000000       0.31250000000000000        0.0000000000000000     
  0.68750000000000000       0.31250000000000000        0.0000000000000000     
  0.71875000000000000       0.31250000000000000        0.0000000000000000     
  0.75000000000000000       0.31250000000000000        0.0000000000000000     
  0.62500000000000000       0.34375000000000000        0.0000000000000000     
  0.65625000000000000       0.34375000000000000        0.0000000000000000     
  0.68750000000000000       0.34375000000000000        0.0000000000000000     
  0.71875000000000000       0.34375000000000000        0.0000000000000000     
  0.75000000000000000       0.34375000000000000        0.0000000000000000     
  0.62500000000000000       0.37500000000000000        0.0000000000000000     
  0.65625000000000000       0.37500000000000000        0.0000000000000000     
  0.68750000000000000       0.37500000000000000        0.0000000000000000     
  0.71875000000000000       0.37500000000000000        0.0000000000000000     
  0.75000000000000000       0.37500000000000000        0.0000000000000000     
  0.75000000000000000       0.25000000000000000        0.0000000000000000     
  0.78125000000000000       0.25000000000000000        0.0000000000000000     
  0.81250000000000000       0.25000000000000000        0.0000000000000000     
  0.84375000000000000       0.25000000000000000        0.0000000000000000     
  0.87500000000000000       0.25000000000000000        0.0000000000000000     
  0.75000000000000000       0.28125000000000000        0.0000000000000000     
  0.78125000000000000       0.28125000000000000        0.0000000000000000     
  0.81250000000000000       0.28125000000000000        0.0000000000000000     
  0.84375000000000000       0.28125000000000000        0.0000000000000000     
  0.87500000000000000       0.28125000000000000        0.0000000000000000     
  0.75000000000000000       0.31250000000000000        0.0000000000000000     
  0.78125000000000000       0.31250000000000000        0.0000000000000000     
  0.81250000000000000       0.31250000000000000        0.0000000000000000     
  0.84375000000000000       0.31250000000000000        0.0000000000000000     
  0.87500000000000000       0.31250000000000000        0.0000000000000000     
  0.75000000000000000       0.34375000000000000        0.0000000000000000     
  0.78125000000000000       0.34375000000000000        0.0000000000000000     
  0.81250000000000000       0.34375000000000000        0.0000000000000000     
  0.84375000000000000       0.34375000000000000        0.0000000000000000     
  0.87500000000000000       0.34375000000000000        0.0000000000000000     
  0.75000000000000000       0.37500000000000000        0.0000000000000000     
  0.78125000000000000       0.37500000000000000        0.0000000000000000     
  0.81250000000000000       0.37500000000000000        0.0000000000000000     
  0.84375000000000000       0.37500000000000000        0.0000000000000000     
  0.87500000000000000       0.37500000000000000        0.0000000000000000     
  0.87500000000000000       0.25000000000000000        0.0000000000000000     
  0.90625000000000000       0.25000000000000000        0.0000000000000000     
  0.93750000000000000       0.25000000000000000        0.0000000000000000     
  0.96875000000000000       0.25000000000000000        0.0000000000000000     
   1.0000000000000000       0.25000000000000000        0.0000000000000000     
  0.87500000000000000       0.28125000000000000        0.0000000000000000     
  0.90625000000000000       0.28125000000000000        0.0000000000000000     
  0.93750000000000000       0.28125000000000000        0.0000000000000000     
  0.96875000000000000       0.28125000000000000        0.0000000000000000     
   1.0000000000000000       0.28125000000000000        0.0000000000000000     
  0.87500000000000000       0.31250000000000000        0.0000000000000000     
  0.90625000000000000       0.31250000000000000        0.0000000000000000     
  0.93750000000000000       0.31250000000000000        0.0000000000000000     
  0.96875000000000000       0.31250000000000000        0.0000000000000000     
   1.0000000000000000       0.31250000000000000        0.0000000000000000     
  0.87500000000000000       0.34375000000000000        0.0000000000000000     
  0.90625000000000000       0.34375000000000000        0.0000000000000000     
  0.93750000000000000       0.34375000000000000        0.0000000000000000     
  0.96875000000000000       0.34375000000000000        0.0000000000000000     
   1.0000000000000000       0.34375000000000000        0.0000000000000000     
  0.87500000000000000       0.37500000000000000        0.0000000000000000     
  0.90625000000000000       0.37500000000000000        0.0000000000000000     
  0.93750000000000000       0.37500000000000000        0.0000000000000000     
  0.96875000000000000       0.37500000000000000        0.0000000000000000     
   1.0000000000000000       0.37500000000000000        0.0000000000000000     
   1.0000000000000000       0.25000000000000000        0.0000000000000000     
   1.0312500000000000       0.25000000000000000        0.0000000000000000     
   1.0625000000000000       0.25000000000000000        0.0000000000000000     
   1.0937500000000000       0.25000000000000000        0.0000000000000000     
   1.1250000000000000       0.25000000000000000        0.0000000000000000     
   1.0000000000000000       0.28125000000000000        0.0000000000000000     
   1.0312500000000000       0.28125000000000000        0.0000000000000000     
   1.0625000000000000       0.28125000000000000        0.0000000000000000     
   1.0937500000000000       0.28125000000000000        0.0000000000000000     
   1.1250000000000000       0.28125000000000000        0.0000000000000000     
   1.0000000000000000       0.31250000000000000        0.0000000000000000     
   1.0312500000000000       0.31250000000000000        0.0000000000000000     
   1.0625000000000000       0.31250000000000000        0.0000000000000000     
   1.0937500000000000       0.31250000000000000        0.0000000000000000     
   1.1250000000000000       0.31250000000000000        0.0000000000000000     
   1.0000000000000000       0.34375000000000000        0.0000000000000000     
   1.0312500000000000       0.34375000000000000        0.0000000000000000     
   1.0625000000000000       0.34375000000000000        0.0000000000000000     
   1.0937500000000000       0.34375000000000000        0.0000000000000000     
   1.1250000000000000       0.34375000000000000        0.0000000000000000     
   1.0000000000000000       0.37500000000000000        0.0000000000000000     
   1.0312500000000000       0.37500000000000000        0.0000000000000000     
   1.0625000000000000       0.37500000000000000        0.0000000000000000     
   1.0937500000000000       0.37500000000000000        0.0000000000000000     
   1.1250000000000000       0.37500000000000000        0.0000000000000000     
   1.1250000000000000       0.25000000000000000        0.0000000000000000     
   1.1562500000000000       0.25000000000000000        0.0000000000000000     
   1.1875000000000000       0.25000000000000000        0.0000000000000000     
   1.2187500000000000       0.25000000000000000        0.0000000000000000     
   1.2500000000000000       0.25000000000000000        0.0000000000000000     
   1.1250000000000000       0.28125000000000000        0.0000000000000000     
   1.1562500000000000       0.28125000000000000        0.0000000000000000     
   1.1875000000000000       0.28125000000000000        0.0000000000000000     
   1.2187500000000000       0.28125000000000000        0.0000000000000000     
   1.2500000000000000       0.28125000000000000        0.0000000000000000     
   1.1250000000000000       0.31250000000000000        0.0000000000000000     
   1.1562500000000000       0.31250000000000000        0.0000000000000000     
   1.1875000000000000       0.31250000000000000        0.0000000000000000     
   1.2187500000000000       0.31250000000000000        0.0000000000000000     
   1.2500000000000000       0.31250000000000000        0.0000000000000000     
   1.1250000000000000       0.34375000000000000        0.0000000000000000     
   1.1562500000000000       0.34375000000000000        0.0000000000000000     
   1.1875000000000000       0.34375000000000000        0.0000000000000000     
   1.2187500000000000       0.34375000000000000        0.0000000000000000     
   1.2500000000000000       0.34375000000000000        0.0000000000000000     
   1.1250000000000000       0.37500000000000000        0.0000000000000000     
   1.1562500000000000       0.37500000000000000        0.0000000000000000     
   1.1875000000000000       0.37500000000000000        0.0000000000000000     
   1.2187500000000000       0.37500000000000000        0.0000000000000000     
   1.2500000000000000       0.37500000000000000        0.0000000000000000     
   1.2500000000000000       0.25000000000000000        0.0000000000000000     
   1.2812500000000000       0.25000000000000000        0.0000000000000000     
   1.3125000000000000       0.25000000000000000        0.0000000000000000     
   1.3437500000000000       0.25000000000000000        0.0000000000000000     
   1.3750000000000000       0.25000000000000000        0.0000000000000000     
   1.2500000000000000       0.28125000000000000        0.0000000000000000     
   1.2812500000000000       0.28125000000000000        0.0000000000000000     
   1.3125000000000000       0.28125000000000000        0.0000000000000000     
   1.3437500000000000       0.28125000000000000        0.0000000000000000     
   1.3750000000000000       0.28125000000000000        0.0000000000000000     
   1.2500000000000000       0.31250000000000000        0.0000000000000000     
   1.2812500000000000       0.31250000000000000        0.0000000000000000     
   1.3125000000000000       0.31250000000000000        0.0000000000000000     
   1.3437500000000000       0.31250000000000000        0.0000000000000000     
   1.3750000000000000       0.31250000000000000        0.0000000000000000     
   1.2500000000000000       0.34375000000000000        0.0000000000000000     
   1.2812500000000000       0.34375000000000000        0.0000000000000000     
   1.3125000000000000       0.34375000000000000        0.0000000000000000     
   1.3437500000000000       0.34375000000000000        0.0000000000000000     
   1.3750000000000000       0.34375000000000000        0.0000000000000000     
   1.2500000000000000       0.37500000000000000        0.0000000000000000     
   1.2812500000000000       0.37500000000000000        0.0000000000000000     
   1.3125000000000000       0.37500000000000000        0.0000000000000000     
   1.3437500000000000       0.37500000000000000        0.0000000000000000     
   1.3750000000000000       0.37500000000000000        0.0000000000000000     
   1.3750000000000000       0.25000000000000000        0.0000000000000000     
   1.4062500000000000       0.25000000000000000        0.0000000000000000     
   1.4375000000000000       0.25000000000000000        0.0000000000000000     
   1.4687500000000000       0.25000000000000000        0.0000000000000000     
   1.5000000000000000       0.25000000000000000        0.0000000000000000     
   1.3750000000000000       0.28125000000000000        0.0000000000000000     
   1.4062500000000000       0.28125000000000000        0.0000000000000000     
   1.4375000000000000       0.28125000000000000        0.0000000000000000     
   1.4687500000000000       0.28125000000000000        0.0000000000000000     
   1.5000000000000000       0.28125000000000000        0.0000000000000000     
   1.3750000000000000       0.31250000000000000        0.0000000000000000     
   1.4062500000000000       0.31250000000000000        0.0000000000000000     
   1.4375000000000000       0.31250000000000000        0.0000000000000000     
   1.4687500000000000       0.31250000000000000        0.0000000000000000     
   1.5000000000000000       0.31250000000000000        0.0000000000000000     
   1.3750000000000000       0.34375000000000000        0.0000000000000000     
   1.4062500000000000       0.34375000000000000        0.0000000000000000     
   1.4375000000000000       0.34375000000000000        0.0000000000000000     
   1.4687500000000000       0.34375000000000000        0.0000000000000000     
   1.5000000000000000       0.34375000000000000        0.0000000000000000     
   1.3750000000000000       0.37500000000000000        0.0000000000000000     
   1.4062500000000000       0.37500000000000000        0.0000000000000000     
   1.4375000000000000       0.37500000000000000        0.0000000000000000     
   1.4687500000000000       0.37500000000000000        0.0000000000000000     
   1.5000000000000000       0.37500000000000000        0.0000000000000000     
  0.50000000000000000       0.37500000000000000        0.0000000000000000     
  0.53125000000000000       0.37500000000000000        0.0000000000000000     
  0.56250000000000000       0.37500000000000000        0.0000000000000000     
  0.59375000000000000       0.37500000000000000        0.0000000000000000     
  0.62500000000000000       0.37500000000000000        0.0000000000000000     
  0.50000000000000000       0.40625000000000000        0.0000000000000000     
  0.53125000000000000       0.40625000000000000        0.0000000000000000     
  0.56250000000000000       0.40625000000000000        0.0000000000000000     
  0.59375000000000000       0.40625000000000000        0.0000000000000000     
  0.62500000000000000       0.40625000000000000        0.0000000000000000     
  0.50000000000000000       0.43750000000000000        0.0000000000000000     
  0.53125000000000000       0.43750000000000000        0.0000000000000000     
  0.56250000000000000       0.43750000000000000        0.0000000000000000     
  0.59375000000000000       0.43750000000000000        0.0000000000000000     
  0.62500000000000000       0.43750000000000000        0.0000000000000000     
  0.50000000000000000       0.46875000000000000        0.0000000000000000     
  0.53125000000000000       0.46875000000000000        0.0000000000000000     
  0.56250000000000000       0.46875000000000000        0.0000000000000000     
  0.59375000000000000       0.46875000000000000        0.0000000000000000     
  0.62500000000000000       0.46875000000000000        0.0000000000000000     
  0.50000000000000000       0.50000000000000000        0.0000000000000000     
  0.53125000000000000       0.50000000000000000        0.0000000000000000     
  0.56250000000000000       0.50000000000000000        0.0000000000000000     
  0.59375000000000000       0.50000000000000000        0.0000000000000000     
  0.62500000000000000       0.50000000000000000        0.0000000000000000     
  0.62500000000000000       0.37500000000000000        0.0000000000000000     
  0.65625000000000000       0.37500000000000000        0.0000000000000000     
  0.68750000000000000       0.37500000000000000        0.0000000000000000     
  0.71875000000000000       0.37500000000000000        0.0000000000000000     
  0.75000000000000000       0.37500000000000000        0.0000000000000000     
  0.62500000000000000       0.40625000000000000        0.0000000000000000     
  0.65625000000000000       0.40625000000000000        0.0000000000000000     
  0.68750000000000000       0.40625000000000000        0.0000000000000000     
  0.71875000000000000       0.40625000000000000        0.0000000000000000     
  0.75000000000000000       0.40625000000000000        0.0000000000000000     
  0.62500000000000000       0.43750000000000000        0.0000000000000000     
  0.65625000000000000       0.43750000000000000        0.0000000000000000     
  0.68750000000000000       0.43750000000000000        0.0000000000000000     
  0.71875000000000000       0.43750000000000000        0.0000000000000000     
  0.75000000000000000       0.43750000000000000        0.0000000000000000     
  0.62500000000000000       0.46875000000000000        0.0000000000000000     
  0.65625000000000000       0.46875000000000000        0.0000000000000000     
  0.68750000000000000       0.46875000000000000        0.0000000000000000     
  0.71875000000000000       0.46875000000000000        0.0000000000000000     
  0.75000000000000000       0.46875000000000000        0.0000000000000000     
  0.62500000000000000       0.50000000000000000        0.0000000000000000     
  0.65625000000000000       0.50000000000000000        0.0000000000000000     
  0.68750000000000000       0.50000000000000000        0.0000000000000000     
  0.71875000000000000       0.50000000000000000        0.0000000000000000     
  0.75000000000000000       0.50000000000000000        0.0000000000000000     
  0.75000000000000000       0.37500000000000000        0.0000000000000000     
  0.78125000000000000       0.37500000000000000        0.0000000000000000     
  0.81250000000000000       0.37500000000000000        0.0000000000000000     
  0.84375000000000000       0.37500000000000000        0.0000000000000000     
  0.87500000000000000       0.37500000000000000        0.0000000000000000     
  0.75000000000000000       0.40625000000000000        0.0000000000000000     
  0.78125000000000000       0.40625000000000000        0.0000000000000000     
  0.81250000000000000       0.40625000000000000        0.0000000000000000     
  0.84375000000000000       0.40625000000000000        0.0000000000000000     
  0.87500000000000000       0.40625000000000000        0.0000000000000000     
  0.75000000000000000       0.43750000000000000        0.0000000000000000     
  0.78125000000000000       0.43750000000000000        0.0000000000000000     
  0.81250000000000000       0.43750000000000000        0.0000000000000000     
  0.84375000000000000       0.43750000000000000        0.0000000000000000     
  0.87500000000000000       0.43750000000000000        0.0000000000000000     
  0.75000000000000000       0.46875000000000000        0.0000000000000000     
  0.78125000000000000       0.46875000000000000        0.0000000000000000     
  0.81250000000000000       0.46875000000000000        0.0000000000000000     
  0.84375000000000000       0.46875000000000000        0.0000000000000000     
  0.87500000000000000       0.46875000000000000        0.0000000000000000     
  0.75000000000000000       0.50000000000000000        0.0000000000000000     
  0.78125000000000000       0.50000000000000000        0.0000000000000000     
  0.81250000000000000       0.50000000000000000        0.0000000000000000     
  0.84375000000000000       0.50000000000000000        0.0000000000000000     
  0.87500000000000000       0.50000000000000000        0.0000000000000000     
  0.87500000000000000       0.37500000000000000        0.0000000000000000     
  0.90625000000000000       0.37500000000000000        0.0000000000000000     
  0.93750000000000000       0.37500000000000000        0.0000000000000000     
  0.96875000000000000       0.37500000000000000        0.0000000000000000     
   1.0000000000000000       0.37500000000000000        0.0000000000000000     
  0.87500000000000000       0.40625000000000000        0.0000000000000000     
  0.90625000000000000       0.40625000000000000        0.0000000000000000     
  0.93750000000000000       0.40625000000000000        0.0000000000000000     
  0.96875000000000000       0.40625000000000000        0.0000000000000000     
   1.0000000000000000       0.40625000000000000        0.0000000000000000     
  0.87500000000000000       0.43750000000000000        0.0000000000000000     
  0.90625000000000000       0.43750000000000000        0.0000000000000000     
  0.93750000000000000       0.43750000000000000        0.0000000000000000     
  0.96875000000000000       0.43750000000000000        0.0000000000000000     
   1.0000000000000000       0.43750000000000000        0.0000000000000000     
  0.87500000000000000       0.46875000000000000        0.0000000000000000     
  0.90625000000000000       0.46875000000000000        0.0000000000000000     
  0.93750000000000000       0.46875000000000000        0.0000000000000000     
  0.96875000000000000       0.46875000000000000        0.0000000000000000     
   1.0000000000000000       0.46875000000000000        0.0000000000000000     
  0.87500000000000000       0.50000000000000000        0.0000000000000000     
  0.90625000000000000       0.50000000000000000        0.0000000000000000     
  0.93750000000000000       0.50000000000000000        0.0000000000000000     
  0.96875000000000000       0.50000000000000000        0.0000000000000000     
   1.0000000000000000       0.50000000000000000        0.0000000000000000     
   1.0000000000000000       0.37500000000000000        0.0000000000000000     
   1.0312500000000000       0.37500000000000000        0.0000000000000000     
   1.0625000000000000       0.37500000000000000        0.0000000000000000     
   1.0937500000000000       0.37500000000000000        0.0000000000000000     
   1.1250000000000000       0.37500000000000000        0.0000000000000000     
   1.0000000000000000       0.40625000000000000        0.0000000000000000     
   1.0312500000000000       0.40625000000000000        0.0000000000000000     
   1.0625000000000000       0.40625000000000000        0.0000000000000000     
   1.0937500000000000       0.40625000000000000        0.0000000000000000     
   1.1250000000000000       0.40625000000000000        0.0000000000000000     
   1.0000000000000000       0.43750000000000000        0.0000000000000000     
   1.0312500000000000       0.43750000000000000        0.0000000000000000     
   1.0625000000000000       0.43750000000000000        0.0000000000000000     
   1.0937500000000000       0.43750000000000000        0.0000000000000000     
   1.1250000000000000       0.43750000000000000        0.0000000000000000     
   1.0000000000000000       0.46875000000000000        0.0000000000000000     
   1.0312500000000000       0.46875000000000000        0.0000000000000000     
   1.0625000000000000       0.46875000000000000        0.0000000000000000     
   1.0937500000000000       0.46875000000000000        0.0000000000000000     
   1.1250000000000000       0.46875000000000000        0.0000000000000000     
   1.0000000000000000       0.50000000000000000        0.0000000000000000     
   1.0312500000000000       0.50000000000000000        0.0000000000000000     
   1.0625000000000000       0.50000000000000000        0.0000000000000000     
   1.0937500000000000       0.50000000000000000        0.0000000000000000     
   1.1250000000000000       0.50000000000000000        0.0000000000000000     
   1.1250000000000000       0.37500000000000000        0.0000000000000000     
   1.1562500000000000       0.37500000000000000        0.0000000000000000     
   1.1875000000000000       0.37500000000000000        0.0000000000000000     
   1.2187500000000000       0.37500000000000000        0.0000000000000000     
   1.2500000000000000       0.37500000000000000        0.0000000000000000     
   1.1250000000000000       0.40625000000000000        0.0000000000000000     
   1.1562500000000000       0.40625000000000000        0.0000000000000000     
   1.1875000000000000       0.40625000000000000        0.0000000000000000     
   1.2187500000000000       0.40625000000000000        0.0000000000000000     
   1.2500000000000000       0.40625000000000000        0.0000000000000000     
   1.1250000000000000       0.43750000000000000        0.0000000000000000     
   1.1562500000000000       0.43750000000000000        0.0000000000000000     
   1.1875000000000000       0.43750000000000000        0.0000000000000000     
   1.2187500000000000       0.43750000000000000        0.0000000000000000     
   1.2500000000000000       0.43750000000000000        0.0000000000000000     
   1.1250000000000000       0.46875000000000000        0.0000000000000000     
   1.1562500000000000       0.46875000000000000        0.0000000000000000     
   1.1875000000000000       0.46875000000000000        0.0000000000000000     
   1.2187500000000000       0.46875000000000000        0.0000000000000000     
   1.2500000000000000       0.46875000000000000        0.0000000000000000     
   1.1250000000000000       0.50000000000000000        0.0000000000000000     
   1.1562500000000000       0.50000000000000000        0.0000000000000000     
   1.1875000000000000       0.50000000000000000        0.0000000000000000     
   1.2187500000000000       0.50000000000000000        0.0000000000000000     
   1.2500000000000000       0.50000000000000000        0.0000000000000000     
   1.2500000000000000       0.37500000000000000        0.0000000000000000     
   1.2812500000000000       0.37500000000000000        0.0000000000000000     
   1.3125000000000000       0.37500000000000000        0.0000000000000000     
   1.3437500000000000       0.37500000000000000        0.0000000000000000     
   1.3750000000000000       0.37500000000000000        0.0000000000000000     
   1.2500000000000000       0.40625000000000000        0.0000000000000000     
   1.2812500000000000       0.40625000000000000        0.0000000000000000     
   1.3125000000000000       0.40625000000000000        0.0000000000000000     
   1.3437500000000000       0.40625000000000000        0.0000000000000000     
   1.3750000000000000       0.40625000000000000        0.0000000000000000     
   1.2500000000000000       0.43750000000000000        0.0000000000000000     
   1.2812500000000000       0.43750000000000000        0.0000000000000000     
   1.3125000000000000       0.43750000000000000        0.0000000000000000     
   1.3437500000000000       0.43750000000000000        0.0000000000000000     
   1.3750000000000000       0.43750000000000000        0.0000000000000000     
   1.2500000000000000       0.46875000000000000        0.0000000000000000     
   1.2812500000000000       0.46875000000000000        0.0000000000000000     
   1.3125000000000000       0.46875000000000000        0.0000000000000000     
   1.3437500000000000       0.46875000000000000        0.0000000000000000     
   1.3750000000000000       0.46875000000000000        0.0000000000000000     
   1.2500000000000000       0.50000000000000000        0.0000000000000000     
   1.2812500000000000       0.50000000000000000        0.0000000000000000     
   1.3125000000000000       0.50000000000000000        0.0000000000000000     
   1.3437500000000000       0.50000000000000000        0.0000000000000000     
   1.3750000000000000       0.50000000000000000        0.0000000000000000     
   1.3750000000000000       0.37500000000000000        0.0000000000000000     
   1.4062500000000000       0.37500000000000000        0.0000000000000000     
   1.4375000000000000       0.37500000000000000        0.0000000000000000     
   1.4687500000000000       0.37500000000000000        0.0000000000000000     
   1.5000000000000000       0.37500000000000000        0.0000000000000000     
   1.3750000000000000       0.40625000000000000        0.0000000000000000     
   1.4062500000000000       0.40625000000000000        0.0000000000000000     
   1.4375000000000000       0.40625000000000000        0.0000000000000000     
   1.4687500000000000       0.40625000000000000        0.0000000000000000     
   1.5000000000000000       0.40625000000000000        0.0000000000000000     
   1.3750000000000000       0.43750000000000000        0.0000000000000000     
   1.4062500000000000       0.43750000000000000        0.0000000000000000     
   1.4375000000000000       0.43750000000000000        0.0000000000000000     
   1.4687500000000000       0.43750000000000000        0.0000000000000000     
   1.5000000000000000       0.43750000000000000        0.0000000000000000     
   1.3750000000000000       0.46875000000000000        0.0000000000000000     
   1.4062500000000000       0.46875000000000000        0.0000000000000000     
   1.4375000000000000       0.46875000000000000        0.0000000000000000     
   1.4687500000000000       0.46875000000000000        0.0000000000000000     
   1.5000000000000000       0.46875000000000000        0.0000000000000000     
   1.3750000000000000       0.50000000000000000        0.0000000000000000     
   1.4062500000000000       0.50000000000000000        0.0000000000000000     
   1.4375000000000000       0.50000000000000000        0.0000000000000000     
   1.4687500000000000       0.50000000000000000        0.0000000000000000     
   1.5000000000000000       0.50000000000000000        0.0000000000000000     
  0.50000000000000000       0.50000000000000000        0.0000000000000000     
  0.53125000000000000       0.50000000000000000        0.0000000000000000     
  0.56250000000000000       0.50000000000000000        0.0000000000000000     
  0.59375000000000000       0.50000000000000000        0.0000000000000000     
  0.62500000000000000       0.50000000000000000        0.0000000000000000     
  0.50000000000000000       0.53125000000000000        0.0000000000000000     
  0.53125000000000000       0.53125000000000000        0.0000000000000000     
  0.56250000000000000       0.53125000000000000        0.0000000000000000     
  0.59375000000000000       0.53125000000000000        0.0000000000000000     
  0.62500000000000000       0.53125000000000000        0.0000000000000000     
  0.50000000000000000       0.56250000000000000        0.0000000000000000     
  0.53125000000000000       0.56250000000000000        0.0000000000000000     
  0.56250000000000000       0.56250000000000000        0.0000000000000000     
  0.59375000000000000       0.56250000000000000        0.0000000000000000     
  0.62500000000000000       0.56250000000000000        0.0000000000000000     
  0.50000000000000000       0.59375000000000000        0.0000000000000000     
  0.53125000000000000       0.59375000000000000        0.0000000000000000     
  0.56250000000000000       0.59375000000000000        0.0000000000000000     
  0.59375000000000000       0.59375000000000000        0.0000000000000000     
  0.62500000000000000       0.59375000000000000        0.0000000000000000     
  0.50000000000000000       0.62500000000000000        0.0000000000000000     
  0.53125000000000000       0.62500000000000000        0.0000000000000000     
  0.56250000000000000       0.62500000000000000        0.0000000000000000     
  0.59375000000000000       0.62500000000000000        0.0000000000000000     
  0.62500000000000000       0.62500000000000000        0.0000000000000000     
  0.62500000000000000       0.50000000000000000        0.0000000000000000     
  0.65625000000000000       0.50000000000000000        0.0000000000000000     
  0.68750000000000000       0.50000000000000000        0.0000000000000000     
  0.71875000000000000       0.50000000000000000        0.0000000000000000     
  0.75000000000000000       0.50000000000000000        0.0000000000000000     
  0.62500000000000000       0.53125000000000000        0.0000000000000000     
  0.65625000000000000       0.53125000000000000        0.0000000000000000     
  0.68750000000000000       0.53125000000000000        0.0000000000000000     
  0.71875000000000000       0.53125000000000000        0.0000000000000000     
  0.75000000000000000       0.53125000000000000        0.0000000000000000     
  0.62500000000000000       0.56250000000000000        0.0000000000000000     
  0.65625000000000000       0.56250000000000000        0.0000000000000000     
  0.68750000000000000       0.56250000000000000        0.0000000000000000     
  0.71875000000000000       0.56250000000000000        0.0000000000000000     
  0.75000000000000000       0.56250000000000000        0.0000000000000000     
  0.62500000000000000       0.59375000000000000        0.0000000000000000     
  0.65625000000000000       0.59375000000000000        0.0000000000000000     
  0.68750000000000000       0.59375000000000000        0.0000000000000000     
  0.71875000000000000       0.59375000000000000        0.0000000000000000     
  0.75000000000000000       0.59375000000000000        0.0000000000000000     
  0.62500000000000000       0.62500000000000000        0.0000000000000000     
  0.65625000000000000       0.62500000000000000        0.0000000000000000     
  0.68750000000000000       0.62500000000000000        0.0000000000000000     
  0.71875000000000000       0.62500000000000000        0.0000000000000000     
  0.75000000000000000       0.62500000000000000        0.0000000000000000     
  0.75000000000000000       0.50000000000000000        0.0000000000000000     
  0.78125000000000000       0.50000000000000000        0.0000000000000000     
  0.81250000000000000       0.50000000000000000        0.0000000000000000     
  0.84375000000000000       0.50000000000000000        0.0000000000000000     
  0.87500000000000000       0.50000000000000000        0.0000000000000000     
  0.75000000000000000       0.53125000000000000        0.0000000000000000     
  0.78125000000000000       0.53125000000000000        0.0000000000000000     
  0.81250000000000000       0.53125000000000000        0.0000000000000000     
  0.84375000000000000       0.53125000000000000        0.0000000000000000     
  0.87500000000000000       0.53125000000000000        0.0000000000000000     
  0.75000000000000000       0.56250000000000000        0.0000000000000000     
  0.78125000000000000       0.56250000000000000        0.0000000000000000     
  0.81250000000000000       0.56250000000000000        0.0000000000000000     
  0.84375000000000000       0.56250000000000000        0.0000000000000000     
  0.87500000000000000       0.56250000000000000        0.0000000000000000     
  0.75000000000000000       0.59375000000000000        0.0000000000000000     
  0.78125000000000000       0.59375000000000000        0.0000000000000000     
  0.81250000000000000       0.59375000000000000        0.0000000000000000     
  0.84375000000000000       0.59375000000000000        0.0000000000000000     
  0.87500000000000000       0.59375000000000000        0.0000000000000000     
  0.75000000000000000       0.62500000000000000        0.0000000000000000     
  0.78125000000000000       0.62500000000000000        0.0000000000000000     
  0.81250000000000000       0.62500000000000000        0.0000000000000000     
  0.84375000000000000       0.62500000000000000        0.0000000000000000     
  0.87500000000000000       0.62500000000000000        0.0000000000000000     
  0.87500000000000000       0.50000000000000000        0.0000000000000000     
  0.90625000000000000       0.50000000000000000        0.0000000000000000     
  0.93750000000000000       0.50000000000000000        0.0000000000000000     
  0.96875000000000000       0.50000000000000000        0.0000000000000000     
   1.0000000000000000       0.50000000000000000        0.0000000000000000     
  0.87500000000000000       0.53125000000000000        0.0000000000000000     
  0.90625000000000000       0.53125000000000000        0.0000000000000000     
  0.93750000000000000       0.53125000000000000        0.0000000000000000     
  0.96875000000000000       0.53125000000000000        0.0000000000000000     
   1.0000000000000000       0.53125000000000000        0.0000000000000000     
  0.87500000000000000       0.56250000000000000        0.0000000000000000     
  0.90625000000000000       0.56250000000000000        0.0000000000000000     
  0.93750000000000000       0.56250000000000000        0.0000000000000000     
  0.96875000000000000       0.56250000000000000        0.0000000000000000     
   1.0000000000000000       0.56250000000000000        0.0000000000000000     
  0.87500000000000000       0.59375000000000000        0.0000000000000000     
  0.90625000000000000       0.59375000000000000        0.0000000000000000     
  0.93750000000000000       0.59375000000000000        0.0000000000000000     
  0.96875000000000000       0.59375000000000000        0.0000000000000000     
   1.0000000000000000       0.59375000000000000        0.0000000000000000     
  0.87500000000000000       0.62500000000000000        0.0000000000000000     
  0.90625000000000000       0.62500000000000000        0.0000000000000000     
  0.93750000000000000       0.62500000000000000        0.0000000000000000     
  0.96875000000000000       0.62500000000000000        0.0000000000000000     
   1.0000000000000000       0.62500000000000000        0.0000000000000000     
   1.0000000000000000       0.50000000000000000        0.0000000000000000     
   1.0312500000000000       0.50000000000000000        0.0000000000000000     
   1.0625000000000000       0.50000000000000000        0.0000000000000000     
   1.0937500000000000       0.50000000000000000        0.0000000000000000     
   1.1250000000000000       0.50000000000000000        0.0000000000000000     
   1.0000000000000000       0.53125000000000000        0.0000000000000000     
   1.0312500000000000       0.53125000000000000        0.0000000000000000     
   1.0625000000000000       0.53125000000000000        0.0000000000000000     
   1.0937500000000000       0.53125000000000000        0.0000000000000000     
   1.1250000000000000       0.53125000000000000        0.0000000000000000     
   1.0000000000000000       0.56250000000000000        0.0000000000000000     
   1.0312500000000000       0.56250000000000000        0.0000000000000000     
   1.0625000000000000       0.56250000000000000        0.0000000000000000     
   1.0937500000000000       0.56250000000000000        0.0000000000000000     
   1.1250000000000000       0.56250000000000000        0.0000000000000000     
   1.0000000000000000       0.59375000000000000        0.0000000000000000     
   1.0312500000000000       0.59375000000000000        0.0000000000000000     
   1.0625000000000000       0.59375000000000000        0.0000000000000000     
   1.0937500000000000       0.59375000000000000        0.0000000000000000     
   1.1250000000000000       0.59375000000000000        0.0000000000000000     
   1.0000000000000000       0.62500000000000000        0.0000000000000000     
   1.0312500000000000       0.62500000000000000        0.0000000000000000     
   1.0625000000000000       0.62500000000000000        0.0000000000000000     
   1.0937500000000000       0.62500000000000000        0.0000000000000000     
   1.1250000000000000       0.62500000000000000        0.0000000000000000     
   1.1250000000000000       0.50000000000000000        0.0000000000000000     
   1.1562500000000000       0.50000000000000000        0.0000000000000000     
   1.1875000000000000       0.50000000000000000        0.0000000000000000     
   1.2187500000000000       0.50000000000000000        0.0000000000000000     
   1.2500000000000000       0.50000000000000000        0.0000000000000000     
   1.1250000000000000       0.53125000000000000        0.0000000000000000     
   1.1562500000000000       0.53125000000000000        0.0000000000000000     
   1.1875000000000000       0.53125000000000000        0.0000000000000000     
   1.2187500000000000       0.53125000000000000        0.0000000000000000     
   1.2500000000000000       0.53125000000000000        0.0000000000000000     
   1.1250000000000000       0.56250000000000000        0.0000000000000000     
   1.1562500000000000       0.56250000000000000        0.0000000000000000     
   1.1875000000000000       0.56250000000000000        0.0000000000000000     
   1.2187500000000000       0.56250000000000000        0.0000000000000000     
   1.2500000000000000       0.56250000000000000        0.0000000000000000     
   1.1250000000000000       0.59375000000000000        0.0000000000000000     
   1.1562500000000000       0.59375000000000000        0.0000000000000000     
   1.1875000000000000       0.59375000000000000        0.0000000000000000     
   1.2187500000000000       0.59375000000000000        0.0000000000000000     
   1.2500000000000000       0.59375000000000000        0.0000000000000000     
   1.1250000000000000       0.62500000000000000        0.0000000000000000     
   1.1562500000000000       0.62500000000000000        0.0000000000000000     
   1.1875000000000000       0.62500000000000000        0.0000000000000000     
   1.2187500000000000       0.62500000000000000        0.0000000000000000     
   1.2500000000000000       0.62500000000000000        0.0000000000000000     
   1.2500000000000000       0.50000000000000000        0.0000000000000000     
   1.2812500000000000       0.50000000000000000        0.0000000000000000     
   1.3125000000000000       0.50000000000000000        0.0000000000000000     
   1.3437500000000000       0.50000000000000000        0.0000000000000000     
   1.3750000000000000       0.50000000000000000        0.0000000000000000     
   1.2500000000000000       0.53125000000000000        0.0000000000000000     
   1.2812500000000000       0.53125000000000000        0.0000000000000000     
   1.3125000000000000       0.53125000000000000        0.0000000000000000     
   1.3437500000000000       0.53125000000000000        0.0000000000000000     
   1.3750000000000000       0.53125000000000000        0.0000000000000000     
   1.2500000000000000       0.56250000000000000        0.0000000000000000     
   1.2812500000000000       0.56250000000000000        0.0000000000000000     
   1.3125000000000000       0.56250000000000000        0.0000000000000000     
   1.3437500000000000       0.56250000000000000        0.0000000000000000     
   1.3750000000000000       0.56250000000000000        0.0000000000000000     
   1.2500000000000000       0.59375000000000000        0.0000000000000000     
   1.2812500000000000       0.59375000000000000        0.0000000000000000     
   1.3125000000000000       0.59375000000000000        0.0000000000000000     
   1.3437500000000000       0.59375000000000000        0.0000000000000000     
   1.3750000000000000       0.59375000000000000        0.0000000000000000     
   1.2500000000000000       0.62500000000000000        0.0000000000000000     
   1.2812500000000000       0.62500000000000000        0.0000000000000000     
   1.3125000000000000       0.62500000000000000        0.0000000000000000     
   1.3437500000000000       0.62500000000000000        0.0000000000000000     
   1.3750000000000000       0.62500000000000000        0.0000000000000000     
   1.3750000000000000       0.50000000000000000        0.0000000000000000     
   1.4062500000000000       0.50000000000000000        0.0000000000000000     
   1.4375000000000000       0.50000000000000000        0.0000000000000000     
   1.4687500000000000       0.50000000000000000        0.0000000000000000     
   1.5000000000000000       0.50000000000000000        0.0000000000000000     
   1.3750000000000000       0.53125000000000000        0.0000000000000000     
   1.4062500000000000       0.53125000000000000        0.0000000000000000     
   1.4375000000000000       0.53125000000000000        0.0000000000000000     
   1.4687500000000000       0.53125000000000000        0.0000000000000000     
   1.5000000000000000       0.53125000000000000        0.0000000000000000     
   1.3750000000000000       0.56250000000000000        0.0000000000000000     
   1.4062500000000000       0.56250000000000000        0.0000000000000000     
   1.4375000000000000       0.56250000000000000        0.0000000000000000     
   1.4687500000000000       0.56250000000000000        0.0000000000000000     
   1.5000000000000000       0.56250000000000000        0.0000000000000000     
   1.3750000000000000       0.59375000000000000        0.0000000000000000     
   1.4062500000000000       0.59375000000000000        0.0000000000000000     
   1.4375000000000000       0.59375000000000000        0.0000000000000000     
   1.4687500000000000       0.59375000000000000        0.0000000000000000     
   1.5000000000000000       0.59375000000000000        0.0000000000000000     
   1.3750000000000000       0.62500000000000000        0.0000000000000000     
   1.4062500000000000       0.62500000000000000        0.0000000000000000     
   1.4375000000000000       0.62500000000000000        0.0000000000000000     
   1.4687500000000000       0.62500000000000000        0.0000000000000000     
   1.5000000000000000       0.62500000000000000        0.0000000000000000     
  0.50000000000000000       0.62500000000000000        0.0000000000000000     
  0.53125000000000000       0.62500000000000000        0.0000000000000000     
  0.56250000000000000       0.62500000000000000        0.0000000000000000     
  0.59375000000000000       0.62500000000000000        0.0000000000000000     
  0.62500000000000000       0.62500000000000000        0.0000000000000000     
  0.50000000000000000       0.65625000000000000        0.0000000000000000     
  0.53125000000000000       0.65625000000000000        0.0000000000000000     
  0.56250000000000000       0.65625000000000000        0.0000000000000000     
  0.59375000000000000       0.65625000000000000        0.0000000000000000     
  0.62500000000000000       0.65625000000000000        0.0000000000000000     
  0.50000000000000000       0.68750000000000000        0.0000000000000000     
  0.53125000000000000       0.68750000000000000        0.0000000000000000     
  0.56250000000000000       0.68750000000000000        0.0000000000000000     
  0.59375000000000000       0.68750000000000000        0.0000000000000000     
  0.62500000000000000       0.68750000000000000        0.0000000000000000     
  0.50000000000000000       0.71875000000000000        0.0000000000000000     
  0.53125000000000000       0.71875000000000000        0.0000000000000000     
  0.56250000000000000       0.71875000000000000        0.0000000000000000     
  0.59375000000000000       0.71875000000000000        0.0000000000000000     
  0.62500000000000000       0.71875000000000000        0.0000000000000000     
  0.50000000000000000       0.75000000000000000        0.0000000000000000     
  0.53125000000000000       0.75000000000000000        0.0000000000000000     
  0.56250000000000000       0.75000000000000000        0.0000000000000000     
  0.59375000000000000       0.75000000000000000        0.0000000000000000     
  0.62500000000000000       0.75000000000000000        0.0000000000000000     
  0.62500000000000000       0.62500000000000000        0.0000000000000000     
  0.65625000000000000       0.62500000000000000        0.0000000000000000     
  0.68750000000000000       0.62500000000000000        0.0000000000000000     
  0.71875000000000000       0.62500000000000000        0.0000000000000000     
  0.75000000000000000       0.62500000000000000        0.0000000000000000     
  0.62500000000000000       0.65625000000000000        0.0000000000000000     
  0.65625000000000000       0.65625000000000000        0.0000000000000000     
  0.68750000000000000       0.65625000000000000        0.0000000000000000     
  0.71875000000000000       0.65625000000000000        0.0000000000000000     
  0.75000000000000000       0.65625000000000000        0.0000000000000000     
  0.62500000000000000       0.68750000000000000        0.0000000000000000     
  0.65625000000000000       0.68750000000000000        0.0000000000000000     
  0.68750000000000000       0.68750000000000000        0.0000000000000000     
  0.71875000000000000       0.68750000000000000        0.0000000000000000     
  0.75000000000000000       0.68750000000000000        0.0000000000000000     
  0.62500000000000000       0.71875000000000000        0.0000000000000000     
  0.65625000000000000       0.71875000000000000        0.0000000000000000     
  0.68750000000000000       0.71875000000000000        0.0000000000000000     
  0.71875000000000000       0.71875000000000000        0.0000000000000000     
  0.75000000000000000       0.71875000000000000        0.0000000000000000     
  0.62500000000000000       0.75000000000000000        0.0000000000000000     
  0.65625000000000000       0.75000000000000000        0.0000000000000000     
  0.68750000000000000       0.75000000000000000        0.0000000000000000     
  0.71875000000000000       0.75000000000000000        0.0000000000000000     
  0.75000000000000000       0.75000000000000000        0.0000000000000000     
  0.75000000000000000       0.62500000000000000        0.0000000000000000     
  0.78125000000000000       0.62500000000000000        0.0000000000000000     
  0.81250000000000000       0.62500000000000000        0.0000000000000000     
  0.84375000000000000       0.62500000000000000        0.0000000000000000     
  0.87500000000000000       0.62500000000000000        0.0000000000000000     
  0.75000000000000000       0.65625000000000000        0.0000000000000000     
  0.78125000000000000       0.65625000000000000        0.0000000000000000     
  0.81250000000000000       0.65625000000000000        0.0000000000000000     
  0.84375000000000000       0.65625000000000000        0.0000000000000000     
  0.87500000000000000       0.65625000000000000        0.0000000000000000     
  0.75000000000000000       0.68750000000000000        0.0000000000000000     
  0.78125000000000000       0.68750000000000000        0.0000000000000000     
  0.81250000000000000       0.68750000000000000        0.0000000000000000     
  0.84375000000000000       0.68750000000000000        0.0000000000000000     
  0.87500000000000000       0.68750000000000000        0.0000000000000000     
  0.75000000000000000       0.71875000000000000        0.0000000000000000     
  0.78125000000000000       0.71875000000000000        0.0000000000000000     
  0.81250000000000000       0.71875000000000000        0.0000000000000000     
  0.84375000000000000       0.71875000000000000        0.0000000000000000     
  0.87500000000000000       0.71875000000000000        0.0000000000000000     
  0.75000000000000000       0.75000000000000000        0.0000000000000000     
  0.78125000000000000       0.75000000000000000        0.0000000000000000     
  0.81250000000000000       0.75000000000000000        0.0000000000000000     
  0.84375000000000000       0.75000000000000000        0.0000000000000000     
  0.87500000000000000       0.75000000000000000        0.0000000000000000     
  0.87500000000000000       0.62500000000000000        0.0000000000000000     
  0.90625000000000000       0.62500000000000000        0.0000000000000000     
  0.93750000000000000       0.62500000000000000        0.0000000000000000     
  0.96875000000000000       0.62500000000000000        0.0000000000000000     
   1.0000000000000000       0.62500000000000000        0.0000000000000000     
  0.87500000000000000       0.65625000000000000        0.0000000000000000     
  0.90625000000000000       0.65625000000000000        0.0000000000000000     
  0.93750000000000000       0.65625000000000000        0.0000000000000000     
  0.96875000000000000       0.65625000000000000        0.0000000000000000     
   1.0000000000000000       0.65625000000000000        0.0000000000000000     
  0.87500000000000000       0.68750000000000000        0.0000000000000000     
  0.90625000000000000       0.68750000000000000        0.0000000000000000     
  0.93750000000000000       0.68750000000000000        0.0000000000000000     
  0.96875000000000000       0.68750000000000000        0.0000000000000000     
   1.0000000000000000       0.68750000000000000        0.0000000000000000     
  0.87500000000000000       0.71875000000000000        0.0000000000000000     
  0.90625000000000000       0.71875000000000000        0.0000000000000000     
  0.93750000000000000       0.71875000000000000        0.0000000000000000     
  0.96875000000000000       0.71875000000000000        0.0000000000000000     
   1.0000000000000000       0.71875000000000000        0.0000000000000000     
  0.87500000000000000       0.75000000000000000        0.0000000000000000     
  0.90625000000000000       0.75000000000000000        0.0000000000000000     
  0.93750000000000000       0.75000000000000000        0.0000000000000000     
  0.96875000000000000       0.75000000000000000        0.0000000000000000     
   1.0000000000000000       0.75000000000000000        0.0000000000000000     
   1.0000000000000000       0.62500000000000000        0.0000000000000000     
   1.0312500000000000       0.62500000000000000        0.0000000000000000     
   1.0625000000000000       0.62500000000000000        0.0000000000000000     
   1.0937500000000000       0.62500000000000000        0.0000000000000000     
   1.1250000000000000       0.62500000000000000        0.0000000000000000     
   1.0000000000000000       0.65625000000000000        0.0000000000000000     
   1.0312500000000000       0.65625000000000000        0.0000000000000000     
   1.0625000000000000       0.65625000000000000        0.0000000000000000     
   1.0937500000000000       0.65625000000000000        0.0000000000000000     
   1.1250000000000000       0.65625000000000000        0.0000000000000000     
   1.0000000000000000       0.68750000000000000        0.0000000000000000     
   1.0312500000000000       0.68750000000000000        0.0000000000000000     
   1.0625000000000000       0.68750000000000000        0.0000000000000000     
   1.0937500000000000       0.68750000000000000        0.0000000000000000     
   1.1250000000000000       0.68750000000000000        0.0000000000000000     
   1.0000000000000000       0.71875000000000000        0.0000000000000000     
   1.0312500000000000       0.71875000000000000        0.0000000000000000     
   1.0625000000000000       0.71875000000000000        0.0000000000000000     
   1.0937500000000000       0.71875000000000000        0.0000000000000000     
   1.1250000000000000       0.71875000000000000        0.0000000000000000     
   1.0000000000000000       0.75000000000000000        0.0000000000000000     
   1.0312500000000000       0.75000000000000000        0.0000000000000000     
   1.0625000000000000       0.75000000000000000        0.0000000000000000     
   1.0937500000000000       0.75000000000000000        0.0000000000000000     
   1.1250000000000000       0.75000000000000000        0.0000000000000000     
   1.1250000000000000       0.62500000000000000        0.0000000000000000     
   1.1562500000000000       0.62500000000000000        0.0000000000000000     
   1.1875000000000000       0.62500000000000000        0.0000000000000000     
   1.2187500000000000       0.62500000000000000        0.0000000000000000     
   1.2500000000000000       0.62500000000000000        0.0000000000000000     
   1.1250000000000000       0.65625000000000000        0.0000000000000000     
   1.1562500000000000       0.65625000000000000        0.0000000000000000     
   1.1875000000000000       0.65625000000000000        0.0000000000000000     
   1.2187500000000000       0.65625000000000000        0.0000000000000000     
   1.2500000000000000       0.65625000000000000        0.0000000000000000     
   1.1250000000000000       0.68750000000000000        0.0000000000000000     
   1.1562500000000000       0.68750000000000000        0.0000000000000000     
   1.1875000000000000       0.68750000000000000        0.0000000000000000     
   1.2187500000000000       0.68750000000000000        0.0000000000000000     
   1.2500000000000000       0.68750000000000000        0.0000000000000000     
   1.1250000000000000       0.71875000000000000        0.0000000000000000     
   1.1562500000000000       0.71875000000000000        0.0000000000000000     
   1.1875000000000000       0.71875000000000000        0.0000000000000000     
   1.2187500000000000       0.71875000000000000        0.0000000000000000     
   1.2500000000000000       0.71875000000000000        0.0000000000000000     
   1.1250000000000000       0.75000000000000000        0.0000000000000000     
   1.1562500000000000       0.75000000000000000        0.0000000000000000     
   1.1875000000000000       0.75000000000000000        0.0000000000000000     
   1.2187500000000000       0.75000000000000000        0.0000000000000000     
   1.2500000000000000       0.75000000000000000        0.0000000000000000     
   1.2500000000000000       0.62500000000000000        0.0000000000000000     
   1.2812500000000000       0.62500000000000000        0.0000000000000000     
   1.3125000000000000       0.62500000000000000        0.0000000000000000     
   1.3437500000000000       0.62500000000000000        0.0000000000000000     
   1.3750000000000000       0.62500000000000000        0.0000000000000000     
   1.2500000000000000       0.65625000000000000        0.0000000000000000     
   1.2812500000000000       0.65625000000000000        0.0000000000000000     
   1.3125000000000000       0.65625000000000000        0.0000000000000000     
   1.3437500000000000       0.65625000000000000        0.0000000000000000     
   1.3750000000000000       0.65625000000000000        0.0000000000000000     
   1.2500000000000000       0.68750000000000000        0.0000000000000000     
   1.2812500000000000       0.68750000000000000        0.0000000000000000     
   1.3125000000000000       0.68750000000000000        0.0000000000000000     
   1.3437500000000000       0.68750000000000000        0.0000000000000000     
   1.3750000000000000       0.68750000000000000        0.0000000000000000     
   1.2500000000000000       0.71875000000000000        0.0000000000000000     
   1.2812500000000000       0.71875000000000000        0.0000000000000000     
   1.3125000000000000       0.71875000000000000        0.0000000000000000     
   1.3437500000000000       0.71875000000000000        0.0000000000000000     
   1.3750000000000000       0.71875000000000000        0.0000000000000000     
   1.2500000000000000       0.75000000000000000        0.0000000000000000     
   1.2812500000000000       0.75000000000000000        0.0000000000000000     
   1.3125000000000000       0.75000000000000000        0.0000000000000000     
   1.3437500000000000       0.75000000000000000        0.0000000000000000     
   1.3750000000000000       0.75000000000000000        0.0000000000000000     
   1.3750000000000000       0.62500000000000000        0.0000000000000000     
   1.4062500000000000       0.62500000000000000        0.0000000000000000     
   1.4375000000000000       0.62500000000000000        0.0000000000000000     
   1.4687500000000000       0.62500000000000000        0.0000000000000000     
   1.5000000000000000       0.62500000000000000        0.0000000000000000     
   1.3750000000000000       0.65625000000000000        0.0000000000000000     
   1.4062500000000000       0.65625000000000000        0.0000000000000000     
   1.4375000000000000       0.65625000000000000        0.0000000000000000     
   1.4687500000000000       0.65625000000000000        0.0000000000000000     
   1.5000000000000000       0.65625000000000000        0.0000000000000000     
   1.3750000000000000       0.68750000000000000        0.0000000000000000     
   1.4062500000000000       0.68750000000000000        0.0000000000000000     
   1.4375000000000000       0.68750000000000000        0.0000000000000000     
   1.4687500000000000       0.68750000000000000        0.0000000000000000     
   1.5000000000000000       0.68750000000000000        0.0000000000000000     
   1.3750000000000000       0.71875000000000000        0.0000000000000000     
   1.4062500000000000       0.71875000000000000        0.0000000000000000     
   1.4375000000000000       0.71875000000000000        0.0000000000000000     
   1.4687500000000000       0.71875000000000000        0.0000000000000000     
   1.5000000000000000       0.71875000000000000        0.0000000000000000     
   1.3750000000000000       0.75000000000000000        0.0000000000000000     
   1.4062500000000000       0.75000000000000000        0.0000000000000000     
   1.4375000000000000       0.75000000000000000        0.0000000000000000     
   1.4687500000000000       0.75000000000000000        0.0000000000000000     
   1.5000000000000000       0.75000000000000000        0.0000000000000000     
  0.50000000000000000       0.75000000000000000        0.0000000000000000     
  0.53125000000000000       0.75000000000000000        0.0000000000000000     
  0.56250000000000000       0.75000000000000000        0.0000000000000000     
  0.59375000000000000       0.75000000000000000        0.0000000000000000     
  0.62500000000000000       0.75000000000000000        0.0000000000000000     
  0.50000000000000000       0.78125000000000000        0.0000000000000000     
  0.53125000000000000       0.78125000000000000        0.0000000000000000     
  0.56250000000000000       0.78125000000000000        0.0000000000000000     
  0.59375000000000000       0.78125000000000000        0.0000000000000000     
  0.62500000000000000       0.78125000000000000        0.0000000000000000     
  0.50000000000000000       0.81250000000000000        0.0000000000000000     
  0.53125000000000000       0.81250000000000000        0.0000000000000000     
  0.56250000000000000       0.81250000000000000        0.0000000000000000     
  0.59375000000000000       0.81250000000000000        0.0000000000000000     
  0.62500000000000000       0.81250000000000000        0.0000000000000000     
  0.50000000000000000       0.84375000000000000        0.0000000000000000     
  0.53125000000000000       0.84375000000000000        0.0000000000000000     
  0.56250000000000000       0.84375000000000000        0.0000000000000000     
  0.59375000000000000       0.84375000000000000        0.0000000000000000     
  0.62500000000000000       0.84375000000000000        0.0000000000000000     
  0.50000000000000000       0.87500000000000000        0.0000000000000000     
  0.53125000000000000       0.87500000000000000        0.0000000000000000     
  0.56250000000000000       0.87500000000000000        0.0000000000000000     
  0.59375000000000000       0.87500000000000000        0.0000000000000000     
  0.62500000000000000       0.87500000000000000        0.0000000000000000     
  0.62500000000000000       0.75000000000000000        0.0000000000000000     
  0.65625000000000000       0.75000000000000000        0.0000000000000000     
  0.68750000000000000       0.75000000000000000        0.0000000000000000     
  0.71875000000000000       0.75000000000000000        0.0000000000000000     
  0.75000000000000000       0.75000000000000000        0.0000000000000000     
  0.62500000000000000       0.78125000000000000        0.0000000000000000     
  0.65625000000000000       0.78125000000000000        0.0000000000000000     
  0.68750000000000000       0.78125000000000000        0.0000000000000000     
  0.71875000000000000       0.78125000000000000        0.0000000000000000     
  0.75000000000000000       0.78125000000000000        0.0000000000000000     
  0.62500000000000000       0.81250000000000000        0.0000000000000000     
  0.65625000000000000       0.81250000000000000        0.0000000000000000     
  0.68750000000000000       0.81250000000000000        0.0000000000000000     
  0.71875000000000000       0.81250000000000000        0.0000000000000000     
  0.75000000000000000       0.81250000000000000        0.0000000000000000     
  0.62500000000000000       0.84375000000000000        0.0000000000000000     
  0.65625000000000000       0.84375000000000000        0.0000000000000000     
  0.68750000000000000       0.84375000000000000        0.0000000000000000     
  0.71875000000000000       0.84375000000000000        0.0000000000000000     
  0.75000000000000000       0.84375000000000000        0.0000000000000000     
  0.62500000000000000       0.87500000000000000        0.0000000000000000     
  0.65625000000000000       0.87500000000000000        0.0000000000000000     
  0.68750000000000000       0.87500000000000000        0.0000000000000000     
  0.71875000000000000       0.87500000000000000        0.0000000000000000     
  0.75000000000000000       0.87500000000000000        0.0000000000000000     
  0.75000000000000000       0.75000000000000000        0.0000000000000000     
  0.78125000000000000       0.75000000000000000        0.0000000000000000     
  0.81250000000000000       0.75000000000000000        0.0000000000000000     
  0.84375000000000000       0.75000000000000000        0.0000000000000000     
  0.87500000000000000       0.75000000000000000        0.0000000000000000     
  0.75000000000000000       0.78125000000000000        0.0000000000000000     
  0.78125000000000000       0.78125000000000000        0.0000000000000000     
  0.81250000000000000       0.78125000000000000        0.0000000000000000     
  0.84375000000000000       0.78125000000000000        0.0000000000000000     
  0.87500000000000000       0.78125000000000000        0.0000000000000000     
  0.75000000000000000       0.81250000000000000        0.0000000000000000     
  0.78125000000000000       0.81250000000000000        0.0000000000000000     
  0.81250000000000000       0.81250000000000000        0.0000000000000000     
  0.84375000000000000       0.81250000000000000        0.0000000000000000     
  0.87500000000000000       0.81250000000000000        0.0000000000000000     
  0.75000000000000000       0.84375000000000000        0.0000000000000000     
  0.78125000000000000       0.84375000000000000        0.0000000000000000     
  0.81250000000000000       0.84375000000000000        0.0000000000000000     
  0.84375000000000000       0.84375000000000000        0.0000000000000000     
  0.87500000000000000       0.84375000000000000        0.0000000000000000     
  0.75000000000000000       0.87500000000000000        0.0000000000000000     
  0.78125000000000000       0.87500000000000000        0.0000000000000000     
  0.81250000000000000       0.87500000000000000        0.0000000000000000     
  0.84375000000000000       0.87500000000000000        0.0000000000000000     
  0.87500000000000000       0.87500000000000000        0.0000000000000000     
  0.87500000000000000       0.75000000000000000        0.0000000000000000     
  0.90625000000000000       0.75000000000000000        0.0000000000000000     
  0.93750000000000000       0.75000000000000000        0.0000000000000000     
  0.96875000000000000       0.75000000000000000        0.0000000000000000     
   1.0000000000000000       0.75000000000000000        0.0000000000000000     
  0.87500000000000000       0.78125000000000000        0.0000000000000000     
  0.90625000000000000       0.78125000000000000        0.0000000000000000     
  0.93750000000000000       0.78125000000000000        0.0000000000000000     
  0.96875000000000000       0.78125000000000000        0.0000000000000000     
   1.0000000000000000       0.78125000000000000        0.0000000000000000     
  0.87500000000000000       0.81250000000000000        0.0000000000000000     
  0.90625000000000000       0.81250000000000000        0.0000000000000000     
  0.93750000000000000       0.81250000000000000        0.0000000000000000     
  0.96875000000000000       0.81250000000000000        0.0000000000000000     
   1.0000000000000000       0.81250000000000000        0.0000000000000000     
  0.87500000000000000       0.84375000000000000        0.0000000000000000     
  0.90625000000000000       0.84375000000000000        0.0000000000000000     
  0.93750000000000000       0.84375000000000000        0.0000000000000000     
  0.96875000000000000       0.84375000000000000        0.0000000000000000     
   1.0000000000000000       0.84375000000000000        0.0000000000000000     
  0.87500000000000000       0.87500000000000000        0.0000000000000000     
  0.90625000000000000       0.87500000000000000        0.0000000000000000     
  0.93750000000000000       0.87500000000000000        0.0000000000000000     
  0.96875000000000000       0.87500000000000000        0.0000000000000000     
   1.0000000000000000       0.87500000000000000        0.0000000000000000     
   1.0000000000000000       0.75000000000000000        0.0000000000000000     
   1.0312500000000000       0.75000000000000000        0.0000000000000000     
   1.0625000000000000       0.75000000000000000        0.0000000000000000     
   1.0937500000000000       0.75000000000000000        0.0000000000000000     
   1.1250000000000000       0.75000000000000000        0.0000000000000000     
   1.0000000000000000       0.78125000000000000        0.0000000000000000     
   1.0312500000000000       0.78125000000000000        0.0000000000000000     
   1.0625000000000000       0.78125000000000000        0.0000000000000000     
   1.0937500000000000       0.78125000000000000        0.0000000000000000     
   1.1250000000000000       0.78125000000000000        0.0000000000000000     
   1.0000000000000000       0.81250000000000000        0.0000000000000000     
   1.0312500000000000       0.81250000000000000        0.0000000000000000     
   1.0625000000000000       0.81250000000000000        0.0000000000000000     
   1.0937500000000000       0.81250000000000000        0.0000000000000000     
   1.1250000000000000       0.81250000000000000        0.0000000000000000     
   1.0000000000000000       0.84375000000000000        0.0000000000000000     
   1.0312500000000000       0.84375000000000000        0.0000000000000000     
   1.0625000000000000       0.84375000000000000        0.0000000000000000     
   1.0937500000000000       0.84375000000000000        0.0000000000000000     
   1.1250000000000000       0.84375000000000000        0.0000000000000000     
   1.0000000000000000       0.87500000000000000        0.0000000000000000     
   1.0312500000000000       0.87500000000000000        0.0000000000000000     
   1.0625000000000000       0.87500000000000000        0.0000000000000000     
   1.0937500000000000       0.87500000000000000        0.0000000000000000     
   1.1250000000000000       0.87500000000000000        0.0000000000000000     
   1.1250000000000000       0.75000000000000000        0.0000000000000000     
   1.1562500000000000       0.75000000000000000        0.0000000000000000     
   1.1875000000000000       0.75000000000000000        0.0000000000000000     
   1.2187500000000000       0.75000000000000000        0.0000000000000000     
   1.2500000000000000       0.75000000000000000        0.0000000000000000     
   1.1250000000000000       0.78125000000000000        0.0000000000000000     
   1.1562500000000000       0.78125000000000000        0.0000000000000000     
   1.1875000000000000       0.78125000000000000        0.0000000000000000     
   1.2187500000000000       0.78125000000000000        0.0000000000000000     
   1.2500000000000000       0.78125000000000000        0.0000000000000000     
   1.1250000000000000       0.81250000000000000        0.0000000000000000     
   1.1562500000000000       0.81250000000000000        0.0000000000000000     
   1.1875000000000000       0.81250000000000000        0.0000000000000000     
   1.2187500000000000       0.81250000000000000        0.0000000000000000     
   1.2500000000000000       0.81250000000000000        0.0000000000000000     
   1.1250000000000000       0.84375000000000000        0.0000000000000000     
   1.1562500000000000       0.84375000000000000        0.0000000000000000     
   1.1875000000000000       0.84375000000000000        0.0000000000000000     
   1.2187500000000000       0.84375000000000000        0.0000000000000000     
   1.2500000000000000       0.84375000000000000        0.0000000000000000     
   1.1250000000000000       0.87500000000000000        0.0000000000000000     
   1.1562500000000000       0.87500000000000000        0.0000000000000000     
   1.1875000000000000       0.87500000000000000        0.0000000000000000     
   1.2187500000000000       0.87500000000000000        0.0000000000000000     
   1.2500000000000000       0.87500000000000000        0.0000000000000000     
   1.2500000000000000       0.75000000000000000        0.0000000000000000     
   1.2812500000000000       0.75000000000000000        0.0000000000000000     
   1.3125000000000000       0.75000000000000000        0.0000000000000000     
   1.3437500000000000       0.75000000000000000        0.0000000000000000     
   1.3750000000000000       0.75000000000000000        0.0000000000000000     
   1.2500000000000000       0.78125000000000000        0.0000000000000000     
   1.2812500000000000       0.78125000000000000        0.0000000000000000     
   1.3125000000000000       0.78125000000000000        0.0000000000000000     
   1.3437500000000000       0.78125000000000000        0.0000000000000000     
   1.3750000000000000       0.78125000000000000        0.0000000000000000     
   1.2500000000000000       0.81250000000000000        0.0000000000000000     
   1.2812500000000000       0.81250000000000000        0.0000000000000000     
   1.3125000000000000       0.81250000000000000        0.0000000000000000     
   1.3437500000000000       0.81250000000000000        0.0000000000000000     
   1.3750000000000000       0.81250000000000000        0.0000000000000000     
   1.2500000000000000       0.84375000000000000        0.0000000000000000     
   1.2812500000000000       0.84375000000000000        0.0000000000000000     
   1.3125000000000000       0.84375000000000000        0.0000000000000000     
   1.3437500000000000       0.84375000000000000        0.0000000000000000     
   1.3750000000000000       0.84375000000000000        0.0000000000000000     
   1.2500000000000000       0.87500000000000000        0.0000000000000000     
   1.2812500000000000       0.87500000000000000        0.0000000000000000     
   1.3125000000000000       0.87500000000000000        0.0000000000000000     
   1.3437500000000000       0.87500000000000000        0.0000000000000000     
   1.3750000000000000       0.87500000000000000        0.0000000000000000     
   1.3750000000000000       0.75000000000000000        0.0000000000000000     
   1.4062500000000000       0.75000000000000000        0.0000000000000000     
   1.4375000000000000       0.75000000000000000        0.0000000000000000     
   1.4687500000000000       0.75000000000000000        0.0000000000000000     
   1.5000000000000000       0.75000000000000000        0.0000000000000000     
   1.3750000000000000       0.78125000000000000        0.0000000000000000     
   1.4062500000000000       0.78125000000000000        0.0000000000000000     
   1.4375000000000000       0.78125000000000000        0.0000000000000000     
   1.4687500000000000       0.78125000000000000        0.0000000000000000     
   1.5000000000000000       0.78125000000000000        0.0000000000000000     
   1.3750000000000000       0.81250000000000000        0.0000000000000000     
   1.4062500000000000       0.81250000000000000        0.0000000000000000     
   1.4375000000000000       0.81250000000000000        0.0000000000000000     
   1.4687500000000000       0.81250000000000000        0.0000000000000000     
   1.5000000000000000       0.81250000000000000        0.0000000000000000     
   1.3750000000000000       0.84375000000000000        0.0000000000000000     
   1.4062500000000000       0.84375000000000000        0.0000000000000000     
   1.4375000000000000       0.84375000000000000        0.0000000000000000     
   1.4687500000000000       0.84375000000000000        0.0000000000000000     
   1.5000000000000000       0.84375000000000000        0.0000000000000000     
   1.3750000000000000       0.87500000000000000        0.0000000000000000     
   1.4062500000000000       0.87500000000000000        0.0000000000000000     
   1.4375000000000000       0.87500000000000000        0.0000000000000000     
   1.4687500000000000       0.87500000000000000        0.0000000000000000     
   1.5000000000000000       0.87500000000000000        0.0000000000000000     
  0.50000000000000000       0.87500000000000000        0.0000000000000000     
  0.53125000000000000       0.87500000000000000        0.0000000000000000     
  0.56250000000000000       0.87500000000000000        0.0000000000000000     
  0.59375000000000000       0.87500000000000000        0.0000000000000000     
  0.62500000000000000       0.87500000000000000        0.0000000000000000     
  0.50000000000000000       0.90625000000000000        0.0000000000000000     
  0.53125000000000000       0.90625000000000000        0.0000000000000000     
  0.56250000000000000       0.90625000000000000        0.0000000000000000     
  0.59375000000000000       0.90625000000000000        0.0000000000000000     
  0.62500000000000000       0.90625000000000000        0.0000000000000000     
  0.50000000000000000       0.93750000000000000        0.0000000000000000     
  0.53125000000000000       0.93750000000000000        0.0000000000000000     
  0.56250000000000000       0.93750000000000000        0.0000000000000000     
  0.59375000000000000       0.93750000000000000        0.0000000000000000     
  0.62500000000000000       0.93750000000000000        0.0000000000000000     
  0.50000000000000000       0.96875000000000000        0.0000000000000000     
  0.53125000000000000       0.96875000000000000        0.0000000000000000     
  0.56250000000000000       0.96875000000000000        0.0000000000000000     
  0.59375000000000000       0.96875000000000000        0.0000000000000000     
  0.62500000000000000       0.96875000000000000        0.0000000000000000     
  0.50000000000000000        1.0000000000000000        0.0000000000000000     
  0.53125000000000000        1.0000000000000000        0.0000000000000000     
  0.56250000000000000        1.0000000000000000        0.0000000000000000     
  0.59375000000000000        1.0000000000000000        0.0000000000000000     
  0.62500000000000000        1.0000000000000000        0.0000000000000000     
  0.62500000000000000       0.87500000000000000        0.0000000000000000     
  0.65625000000000000       0.87500000000000000        0.0000000000000000     
  0.68750000000000000       0.87500000000000000        0.0000000000000000     
  0.71875000000000000       0.87500000000000000        0.0000000000000000     
  0.75000000000000000       0.87500000000000000        0.0000000000000000     
  0.62500000000000000       0.90625000000000000        0.0000000000000000     
  0.65625000000000000       0.90625000000000000        0.0000000000000000     
  0.68750000000000000       0.90625000000000000        0.0000000000000000     
  0.71875000000000000       0.90625000000000000        0.0000000000000000     
  0.75000000000000000       0.90625000000000000        0.0000000000000000     
  0.62500000000000000       0.93750000000000000        0.0000000000000000     
  0.65625000000000000       0.93750000000000000        0.0000000000000000     
  0.68750000000000000       0.93750000000000000        0.0000000000000000     
  0.71875000000000000       0.93750000000000000        0.0000000000000000     
  0.75000000000000000       0.93750000000000000        0.0000000000000000     
  0.62500000000000000       0.96875000000000000        0.0000000000000000     
  0.65625000000000000       0.96875000000000000        0.0000000000000000     
  0.68750000000000000       0.96875000000000000        0.0000000000000000     
  0.71875000000000000       0.96875000000000000        0.0000000000000000     
  0.75000000000000000       0.96875000000000000        0.0000000000000000     
  0.62500000000000000        1.0000000000000000        0.0000000000000000     
  0.65625000000000000        1.0000000000000000        0.0000000000000000     
  0.68750000000000000        1.0000000000000000        0.0000000000000000     
  0.71875000000000000        1.0000000000000000        0.0000000000000000     
  0.75000000000000000        1.0000000000000000        0.0000000000000000     
  0.75000000000000000       0.87500000000000000        0.0000000000000000     
  0.78125000000000000       0.87500000000000000        0.0000000000000000     
  0.81250000000000000       0.87500000000000000        0.0000000000000000     
  0.84375000000000000       0.87500000000000000        0.0000000000000000     
  0.87500000000000000       0.87500000000000000        0.0000000000000000     
  0.75000000000000000       0.90625000000000000        0.0000000000000000     
  0.78125000000000000       0.90625000000000000        0.0000000000000000     
  0.81250000000000000       0.90625000000000000        0.0000000000000000     
  0.84375000000000000       0.90625000000000000        0.0000000000000000     
  0.87500000000000000       0.90625000000000000        0.0000000000000000     
  0.75000000000000000       0.93750000000000000        0.0000000000000000     
  0.78125000000000000       0.93750000000000000        0.0000000000000000     
  0.81250000000000000       0.93750000000000000        0.0000000000000000     
  0.84375000000000000       0.93750000000000000        0.0000000000000000     
  0.87500000000000000       0.93750000000000000        0.0000000000000000     
  0.75000000000000000       0.96875000000000000        0.0000000000000000     
  0.78125000000000000       0.96875000000000000        0.0000000000000000     
  0.81250000000000000       0.96875000000000000        0.0000000000000000     
  0.84375000000000000       0.96875000000000000        0.0000000000000000     
  0.87500000000000000       0.96875000000000000        0.0000000000000000     
  0.75000000000000000        1.0000000000000000        0.0000000000000000     
  0.78125000000000000        1.0000000000000000        0.0000000000000000     
  0.81250000000000000        1.0000000000000000        0.0000000000000000     
  0.84375000000000000        1.0000000000000000        0.0000000000000000     
  0.87500000000000000        1.0000000000000000        0.0000000000000000     
  0.87500000000000000       0.87500000000000000        0.0000000000000000     
  0.90625000000000000       0.87500000000000000        0.0000000000000000     
  0.93750000000000000       0.87500000000000000        0.0000000000000000     
  0.96875000000000000       0.87500000000000000        0.0000000000000000     
   1.0000000000000000       0.87500000000000000        0.0000000000000000     
  0.87500000000000000       0.90625000000000000        0.0000000000000000     
  0.90625000000000000       0.90625000000000000        0.0000000000000000     
  0.93750000000000000       0.90625000000000000        0.0000000000000000     
  0.96875000000000000       0.90625000000000000        0.0000000000000000     
   1.0000000000000000       0.90625000000000000        0.0000000000000000     
  0.87500000000000000       0.93750000000000000        0.0000000000000000     
  0.90625000000000000       0.93750000000000000        0.0000000000000000     
  0.93750000000000000       0.93750000000000000        0.0000000000000000     
  0.96875000000000000       0.93750000000000000        0.0000000000000000     
   1.0000000000000000       0.93750000000000000        0.0000000000000000     
  0.87500000000000000       0.96875000000000000        0.0000000000000000     
  0.90625000000000000       0.96875000000000000        0.0000000000000000     
  0.93750000000000000       0.96875000000000000        0.0000000000000000     
  0.96875000000000000       0.96875000000000000        0.0000000000000000     
   1.0000000000000000       0.96875000000000000        0.0000000000000000     
  0.87500000000000000        1.0000000000000000        0.0000000000000000     
  0.90625000000000000        1.0000000000000000        0.0000000000000000     
  0.93750000000000000        1.0000000000000000        0.0000000000000000     
  0.96875000000000000        1.0000000000000000        0.0000000000000000     
   1.0000000000000000        1.0000000000000000        0.0000000000000000     
   1.0000000000000000       0.87500000000000000        0.0000000000000000     
   1.0312500000000000       0.87500000000000000        0.0000000000000000     
   1.0625000000000000       0.87500000000000000        0.0000000000000000     
   1.0937500000000000       0.87500000000000000        0.0000000000000000     
   1.1250000000000000       0.87500000000000000        0.0000000000000000     
   1.0000000000000000       0.90625000000000000        0.0000000000000000     
   1.0312500000000000       0.90625000000000000        0.0000000000000000     
   1.0625000000000000       0.90625000000000000        0.0000000000000000     
   1.0937500000000000       0.90625000000000000        0.0000000000000000     
   1.1250000000000000       0.90625000000000000        0.0000000000000000     
   1.0000000000000000       0.93750000000000000        0.0000000000000000     
   1.0312500000000000       0.93750000000000000        0.0000000000000000     
   1.0625000000000000       0.93750000000000000        0.0000000000000000     
   1.0937500000000000       0.93750000000000000        0.0000000000000000     
   1.1250000000000000       0.93750000000000000        0.0000000000000000     
   1.0000000000000000       0.96875000000000000        0.0000000000000000     
   1.0312500000000000       0.96875000000000000        0.0000000000000000     
   1.0625000000000000       0.96875000000000000        0.0000000000000000     
   1.0937500000000000       0.96875000000000000        0.0000000000000000     
   1.1250000000000000       0.96875000000000000        0.0000000000000000     
   1.0000000000000000        1.0000000000000000        0.0000000000000000     
   1.0312500000000000        1.0000000000000000        0.0000000000000000     
   1.0625000000000000        1.0000000000000000        0.0000000000000000     
   1.0937500000000000        1.0000000000000000        0.0000000000000000     
   1.1250000000000000        1.0000000000000000        0.0000000000000000     
   1.1250000000000000       0.87500000000000000        0.0000000000000000     
   1.1562500000000000       0.87500000000000000        0.0000000000000000     
   1.1875000000000000       0.87500000000000000        0.0000000000000000     
   1.2187500000000000       0.87500000000000000        0.0000000000000000     
   1.2500000000000000       0.87500000000000000        0.0000000000000000     
   1.1250000000000000       0.90625000000000000        0.0000000000000000     
   1.1562500000000000       0.90625000000000000        0.0000000000000000     
   1.1875000000000000       0.90625000000000000        0.0000000000000000     
   1.2187500000000000       0.90625000000000000        0.0000000000000000     
   1.2500000000000000       0.90625000000000000        0.0000000000000000     
   1.1250000000000000       0.93750000000000000        0.0000000000000000     
   1.1562500000000000       0.93750000000000000        0.0000000000000000     
   1.1875000000000000       0.93750000000000000        0.0000000000000000     
   1.2187500000000000       0.93750000000000000        0.0000000000000000     
   1.2500000000000000       0.93750000000000000        0.0000000000000000     
   1.1250000000000000       0.96875000000000000        0.0000000000000000     
   1.1562500000000000       0.96875000000000000        0.0000000000000000     
   1.1875000000000000       0.96875000000000000        0.0000000000000000     
   1.2187500000000000       0.96875000000000000        0.0000000000000000     
   1.2500000000000000       0.96875000000000000        0.0000000000000000     
   1.1250000000000000        1.0000000000000000        0.0000000000000000     
   1.1562500000000000        1.0000000000000000        0.0000000000000000     
   1.1875000000000000        1.0000000000000000        0.0000000000000000     
   1.2187500000000000        1.0000000000000000        0.0000000000000000     
   1.2500000000000000        1.0000000000000000        0.0000000000000000     
   1.2500000000000000       0.87500000000000000        0.0000000000000000     
   1.2812500000000000       0.87500000000000000        0.0000000000000000     
   1.3125000000000000       0.87500000000000000        0.0000000000000000     
   1.3437500000000000       0.87500000000000000        0.0000000000000000     
   1.3750000000000000       0.87500000000000000        0.0000000000000000     
   1.2500000000000000       0.90625000000000000        0.0000000000000000     
   1.2812500000000000       0.90625000000000000        0.0000000000000000     
   1.3125000000000000       0.90625000000000000        0.0000000000000000     
   1.3437500000000000       0.90625000000000000        0.0000000000000000     
   1.3750000000000000       0.90625000000000000        0.0000000000000000     
   1.2500000000000000       0.93750000000000000        0.0000000000000000     
   1.2812500000000000       0.93750000000000000        0.0000000000000000     
   1.3125000000000000       0.93750000000000000        0.0000000000000000     
   1.3437500000000000       0.93750000000000000        0.0000000000000000     
   1.3750000000000000       0.93750000000000000        0.0000000000000000     
   1.2500000000000000       0.96875000000000000        0.0000000000000000     
   1.2812500000000000       0.96875000000000000        0.0000000000000000     
   1.3125000000000000       0.96875000000000000        0.0000000000000000     
   1.3437500000000000       0.96875000000000000        0.0000000000000000     
   1.3750000000000000       0.96875000000000000        0.0000000000000000     
   1.2500000000000000        1.0000000000000000        0.0000000000000000     
   1.2812500000000000        1.0000000000000000        0.0000000000000000     
   1.3125000000000000        1.0000000000000000        0.0000000000000000     
   1.3437500000000000        1.0000000000000000        0.0000000000000000     
   1.3750000000000000        1.0000000000000000        0.0000000000000000     
   1.3750000000000000       0.87500000000000000        0.0000000000000000     
   1.4062500000000000       0.87500000000000000        0.0000000000000000     
   1.4375000000000000       0.87500000000000000        0.0000000000000000     
   1.4687500000000000       0.87500000000000000        0.0000000000000000     
   1.5000000000000000       0.87500000000000000        0.0000000000000000     
   1.3750000000000000       0.90625000000000000        0.0000000000000000     
   1.4062500000000000       0.90625000000000000        0.0000000000000000     
   1.4375000000000000       0.90625000000000000        0.0000000000000000     
   1.4687500000000000       0.90625000000000000        0.0000000000000000     
   1.5000000000000000       0.90625000000000000        0.0000000000000000     
   1.3750000000000000       0.93750000000000000        0.0000000000000000     
   1.4062500000000000       0.93750000000000000        0.0000000000000000     
   1.4375000000000000       0.93750000000000000        0.0000000000000000     
   1.4687500000000000       0.93750000000000000        0.0000000000000000     
   1.5000000000000000       0.93750000000000000        0.0000000000000000     
   1.3750000000000000       0.96875000000000000        0.0000000000000000     
   1.4062500000000000       0.96875000000000000        0.0000000000000000     
   1.4375000000000000       0.96875000000000000        0.0000000000000000     
   1.4687500000000000       0.96875000000000000        0.0000000000000000     
   1.5000000000000000       0.96875000000000000        0.0000000000000000     
   1.3750000000000000        1.0000000000000000        0.0000000000000000     
   1.4062500000000000        1.0000000000000000        0.0000000000000000     
   1.4375000000000000        1.0000000000000000        0.0000000000000000     
   1.4687500000000000        1.0000000000000000        0.0000000000000000     
   1.5000000000000000        1.0000000000000000        0.0000000000000000     
 </DataArray>
 </Points>
 <Cells>
 <DataArray  type="Int32"  Name="connectivity"  format="ascii">
           0           1           6           5
           1           2           7           6
           2           3           8           7
           3           4           9           8
           5           6          11          10
           6           7          12          11
           7           8          13          12
           8           9          14          13
          10          11          16          15
          11          12          17          16
          12          13          18          17
          13          14          19          18
          15          16          21          20
          16          17          22          21
          17          18          23          22
          18          19          24          23
          25          26          31          30
          26          27          32          31
          27          28          33          32
          28          29          34          33
          30          31          36          35
          31          32          37          36
          32          33          38          37
          33          34          39          38
          35          36          41          40
          36          37          42          41
          37          38          43          42
          38          39          44          43
          40          41          46          45
          41          42          47          46
          42          43          48          47
          43          44          49          48
          50          51          56          55
          51          52          57          56
          52          53          58          57
          53          54          59          58
          55          56          61          60
          56          57          62          61
          57          58          63          62
          58          59          64          63
          60          61          66          65
          61          62          67          66
          62          63          68          67
          63          64          69          68
          65          66          71          70
          66          67          72          71
          67          68          73          72
          68          69          74          73
          75          76          81          80
          76          77          82          81
          77          78          83          82
          78          79          84          83
          80          81          86          85
          81          82          87          86
          82          83          88          87
          83          84          89          88
          85          86          91          90
          86          87          92          91
          87          88          93          92
          88          89          94          93
          90          91          96          95
          91          92          97          96
          92          93          98          97
          93          94          99          98
         100         101         106         105
         101         102         107         106
         102         103         108         107
         103         104         109         108
         105         106         111         110
         106         107         112         111
         107         108         113         112
         108         109         114         113
         110         111         116         115
         111         112         117         116
         112         113         118         117
         113         114         119         118
         115         116         121         120
         116         117         122         121
         117         118         123         122
         118         119         124         123
         125         126         131         130
         126         127         132         131
         127         128         133         132
         128         129         134         133
         130         131         136         135
         131         132         137         136
         132         133         138         137
         133         134         139         138
         135         136         141         140
         136         137         142         141
         137         138         143         142
         138         139         144         143
         140         141         146         145
         141         142         147         146
         142         143         148         147
         143         144         149         148
         150         151         156         155
         151         152         157         156
         152         153         158         157
         153         154         159         158
         155         156         161         160
         156         157         162         161
         157         158         163         162
         158         159         164         163
         160         161         166         165
         161         162         167         166
         162         163         168         167
         163         164         169         168
         165         166         171         170
         166         167         172         171
         167         168         173         172
         168         169         174         173
         175         176         181         180
         176         177         182         181
         177         178         183         182
         178         179         184         183
         180         181         186         185
         181         182         187         186
         182         183         188         187
         183         184         189         188
         185         186         191         190
         186         187         192         191
         187         188         193         192
         188         189         194         193
         190         191         196         195
         191         192         197         196
         192         193         198         197
         193         194         199         198
         200         201         206         205
         201         202         207         206
         202         203         208         207
         203         204         209         208
         205         206         211         210
         206         207         212         211
         207         208         213         212
         208         209         214         213
         210         211         216         215
         211         212         217         216
         212         213         218         217
         213         214         219         218
         215         216         221         220
         216         217         222         221
         217         218         223         222
         218         219         224         223
         225         226         231         230
         226         227         232         231
         227         228         233         232
         228         229         234         233
         230         231         236         235
         231         232         237         236
         232         233         238         237
         233         234         239         238
         235         236         241         240
         236         237         242         241
         237         238         243         242
         238         239         244         243
         240         241         246         245
         241         242         247         246
         242         243         248         247
         243         244         249         248
         250         251         256         255
         251         252         257         256
         252         253         258         257
         253         254         259         258
         255         256         261         260
         256         257         262         261
         257         258         263         262
         258         259         264         263
         260         261         266         265
         261         262         267         266
         262         263         268         267
         263         264         269         268
         265         266         271         270
         266         267         272         271
         267         268         273         272
         268         269         274         273
         275         276         281         280
         276         277         282         281
         277         278         283         282
         278         279         284         283
         280         281         286         285
         281         282         287         286
         282         283         288         287
         283         284         289         288
         285         286         291         290
         286         287         292         291
         287         288         293         292
         288         289         294         293
         290         291         296         295
         291         292         297         296
         292         293         298         297
         293         294         299         298
         300         301         306         305
         301         302         307         306
         302         303         308         307
         303         304         309         308
         305         306         311         310
         306         307         312         311
         307         308         313         312
         308         309         314         313
         310         311         316         315
         311         312         317         316
         312         313         318         317
         313         314         319         318
         315         316         321         320
         316         317         322         321
         317         318         323         322
         318         319         324         323
         325         326         331         330
         326         327         332         331
         327         328         333         332
         328         329         334         333
         330         331         336         335
         331         332         337         336
         332         333         338         337
         333         334         339         338
         335         336         341         340
         336         337         342         341
         337         338         343         342
         338         339         344         343
         340         341         346         345
         341         342         347         346
         342         343         348         347
         343         344         349         348
         350         351         356         355
         351         352         357         356
         352         353         358         357
         353         354         359         358
         355         356         361         360
         356         357         362         361
         357         358         363         362
         358         359         364         363
         360         361         366         365
         361         362         367         366
         362         363         368         367
         363         364         369         368
         365         366         371         370
         366         367         372         371
         367         368         373         372
         368         369         374         373
         375         376         381         380
         376         377         382         381
         377         378         383         382
         378         379         384         383
         380         381         386         385
         381         382         387         386
         382         383         388         387
         383         384         389         388
         385         386         391         390
         386         387         392         391
         387         388         393         392
         388         389         394         393
         390         391         396         395
         391         392         397         396
         392         393         398         397
         393         394         399         398
         400         401         406         405
         401         402         407         406
         402         403         408         407
         403         404         409         408
         405         406         411         410
         406         407         412         411
         407         408         413         412
         408         409         414         413
         410         411         416         415
         411         412         417         416
         412         413         418         417
         413         414         419         418
         415         416         421         420
         416         417         422         421
         417         418         423         422
         418         419         424         423
         425         426         431         430
         426         427         432         431
         427         428         433         432
         428         429         434         433
         430         431         436         435
         431         432         437         436
         432         433         438         437
         433         434         439         438
         435         436         441         440
         436         437         442         441
         437         438         443         442
         438         439         444         443
         440         441         446         445
         441         442         447         446
         442         443         448         447
         443         444         449         448
         450         451         456         455
         451         452         457         456
         452         453         458         457
         453         454         459         458
         455         456         461         460
         456         457         462         461
         457         458         463         462
         458         459         464         463
         460         461         466         465
         461         462         467         466
         462         463         468         467
         463         464         469         468
         465         466         471         470
         466         467         472         471
         467         468         473         472
         468         469         474         473
         475         476         481         480
         476         477         482         481
         477         478         483         482
         478         479         484         483
         480         481         486         485
         481         482         487         486
         482         483         488         487
         483         484         489         488
         485         486         491         490
         486         487         492         491
         487         488         493         492
         488         489         494         493
         490         491         496         495
         491         492         497         496
         492         493         498         497
         493         494         499         498
         500         501         506         505
         501         502         507         506
         502         503         508         507
         503         504         509         508
         505         506         511         510
         506         507         512         511
         507         508         513         512
         508         509         514         513
         510         511         516         515
         511         512         517         516
         512         513         518         517
         513         514         519         518
         515         516         521         520
         516         517         522         521
         517         518         523         522
         518         519         524         523
         525         526         531         530
         526         527         532         531
         527         528         533         532
         528         529         534         533
         530         531         536         535
         531         532         537         536
         532         533         538         537
         533         534         539         538
         535         536         541         540
         536         537         542         541
         537         538         543         542
         538         539         544         543
         540         541         546         545
         541         542         547         546
         542         543         548         547
         543         544         549         548
         550         551         556         555
         551         552         557         556
         552         553         558         557
         553         554         559         558
         555         556         561         560
         556         557         562         561
         557         558         563         562
         558         559         564         563
         560         561         566         565
         561         562         567         566
         562         563         568         567
         563         564         569         568
         565         566         571         570
         566         567         572         571
         567         568         573         572
         568         569         574         573
         575         576         581         580
         576         577         582         581
         577         578         583         582
         578         579         584         583
         580         581         586         585
         581         582         587         586
         582         583         588         587
         583         584         589         588
         585         586         591         590
         586         587         592         591
         587         588         593         592
         588         589         594         593
         590         591         596         595
         591         592         597         596
         592         593         598         597
         593         594         599         598
         600         601         606         605
         601         602         607         606
         602         603         608         607
         603         604         609         608
         605         606         611         610
         606         607         612         611
         607         608         613         612
         608         609         614         613
         610         611         616         615
         611         612         617         616
         612         613         618         617
         613         614         619         618
         615         616         621         620
         616         617         622         621
         617         618         623         622
         618         619         624         623
         625         626         631         630
         626         627         632         631
         627         628         633         632
         628         629         634         633
         630         631         636         635
         631         632         637         636
         632         633         638         637
         633         634         639         638
         635         636         641         640
         636         637         642         641
         637         638         643         642
         638         639         644         643
         640         641         646         645
         641         642         647         646
         642         643         648         647
         643         644         649         648
         650         651         656         655
         651         652         657         656
         652         653         658         657
         653         654         659         658
         655         656         661         660
         656         657         662         661
         657         658         663         662
         658         659         664         663
         660         661         666         665
         661         662         667         666
         662         663         668         667
         663         664         669         668
         665         666         671         670
         666         667         672         671
         667         668         673         672
         668         669         674         673
         675         676         681         680
         676         677         682         681
         677         678         683         682
         678         679         684         683
         680         681         686         685
         681         682         687         686
         682         683         688         687
         683         684         689         688
         685         686         691         690
         686         687         692         691
         687         688         693         692
         688         689         694         693
         690         691         696         695
         691         692         697         696
         692         693         698         697
         693         694         699         698
         700         701         706         705
         701         702         707         706
         702         703         708         707
         703         704         709         708
         705         706         711         710
         706         707         712         711
         707         708         713         712
         708         709         714         713
         710         711         716         715
         711         712         717         716
         712         713         718         717
         713         714         719         718
         715         716         721         720
         716         717         722         721
         717         718         723         722
         718         719         724         723
         725         726         731         730
         726         727         732         731
         727         728         733         732
         728         729         734         733
         730         731         736         735
         731         732         737         736
         732         733         738         737
         733         734         739         738
         735         736         741         740
         736         737         742         741
         737         738         743         742
         738         739         744         743
         740         741         746         745
         741         742         747         746
         742         743         748         747
         743         744         749         748
         750         751         756         755
         751         752         757         756
         752         753         758         757
         753         754         759         758
         755         756         761         760
         756         757         762         761
         757         758         763         762
         758         759         764         763
         760         761         766         765
         761         762         767         766
         762         763         768         767
         763         764         769         768
         765         766         771         770
         766         767         772         771
         767         768         773         772
         768         769         774         773
         775         776         781         780
         776         777         782         781
         777         778         783         782
         778         779         784         783
         780         781         786         785
         781         782         787         786
         782         783         788         787
         783         784         789         788
         785         786         791         790
         786         787         792         791
         787         788         793         792
         788         789         794         793
         790         791         796         795
         791         792         797         796
         792         793         798         797
         793         794         799         798
         800         801         806         805
         801         802         807         806
         802         803         808         807
         803         804         809         808
         805         806         811         810
         806         807         812         811
         807         808         813         812
         808         809         814         813
         810         811         816         815
         811         812         817         816
         812         813         818         817
         813         814         819         818
         815         816         821         820
         816         817         822         821
         817         818         823         822
         818         819         824         823
         825         826         831         830
         826         827         832         831
         827         828         833         832
         828         829         834         833
         830         831         836         835
         831         832         837         836
         832         833         838         837
         833         834         839         838
         835         836         841         840
         836         837         842         841
         837         838         843         842
         838         839         844         843
         840         841         846         845
         841         842         847         846
         842         843         848         847
         843         844         849         848
         850         851         856         855
         851         852         857         856
         852         853         858         857
         853         854         859         858
         855         856         861         860
         856         857         862         861
         857         858         863         862
         858         859         864         863
         860         861         866         865
         861         862         867         866
         862         863         868         867
         863         864         869         868
         865         866         871         870
         866         867         872         871
         867         868         873         872
         868         869         874         873
         875         876         881         880
         876         877         882         881
         877         878         883         882
         878         879         884         883
         880         881         886         885
         881         882         887         886
         882         883         888         887
         883         884         889         888
         885         886         891         890
         886         887         892         891
         887         888         893         892
         888         889         894         893
         890         891         896         895
         891         892         897         896
         892         893         898         897
         893         894         899         898
         900         901         906         905
         901         902         907         906
         902         903         908         907
         903         904         909         908
         905         906         911         910
         906         907         912         911
         907         908         913         912
         908         909         914         913
         910         911         916         915
         911         912         917         916
         912         913         918         917
         913         914         919         918
         915         916         921         920
         916         917         922         921
         917         918         923         922
         918         919         924         923
         925         926         931         930
         926         927         932         931
         927         928         933         932
         928         929         934         933
         930         931         936         935
         931         932         937         936
         932         933         938         937
         933         934         939         938
         935         936         941         940
         936         937         942         941
         937         938         943         942
         938         939         944         943
         940         941         946         945
         941         942         947         946
         942         943         948         947
         943         944         949         948
         950         951         956         955
         951         952         957         956
         952         953         958         957
         953         954         959         958
         955         956         961         960
         956         957         962         961
         957         958         963         962
         958         959         964         963
         960         961         966         965
         961         962         967         966
         962         963         968         967
         963         964         969         968
         965         966         971         970
         966         967         972         971
         967         968         973         972
         968         969         974         973
         975         976         981         980
         976         977         982         981
         977         978         983         982
         978         979         984         983
         980         981         986         985
         981         982         987         986
         982         983         988         987
         983         984         989         988
         985         986         991         990
         986         987         992         991
         987         988         993         992
         988         989         994         993
         990         991         996         995
         991         992         997         996
         992         993         998         997
         993         994         999         998
        1000        1001        1006        1005
        1001        1002        1007        1006
        1002        1003        1008        1007
        1003        1004        1009        1008
        1005        1006        1011        1010
        1006        1007        1012        1011
        1007        1008        1013        1012
        1008        1009        1014        1013
        1010        1011        1016        1015
        1011        1012        1017        1016
        1012        1013        1018        1017
        1013        1014        1019        1018
        1015        1016        1021        1020
        1016        1017        1022        1021
        1017        1018        1023        1022
        1018        1019        1024        1023
        1025        1026        1031        1030
        1026        1027        1032        1031
        1027        1028        1033        1032
        1028        1029        1034        1033
        1030        1031        1036        1035
        1031        1032        1037        1036
        1032        1033        1038        1037
        1033        1034        1039        1038
        1035        1036        1041        1040
        1036        1037        1042        1041
        1037        1038        1043        1042
        1038        1039        1044        1043
        1040        1041        1046        1045
        1041        1042        1047        1046
        1042        1043        1048        1047
        1043        1044        1049        1048
        1050        1051        1056        1055
        1051        1052        1057        1056
        1052        1053        1058        1057
        1053        1054        1059        1058
        1055        1056        1061        1060
        1056        1057        1062        1061
        1057        1058        1063        1062
        1058        1059        1064        1063
        1060        1061        1066        1065
        1061        1062        1067        1066
        1062        1063        1068        1067
        1063        1064        1069        1068
        1065        1066        1071        1070
        1066        1067        1072        1071
        1067        1068        1073        1072
        1068        1069        1074        1073
        1075        1076        1081        1080
        1076        1077        1082        1081
        1077        1078        1083        1082
        1078        1079        1084        1083
        1080        1081        1086        1085
        1081        1082        1087        1086
        1082        1083        1088        1087
        1083        1084        1089        1088
        1085        1086        1091        1090
        1086        1087        1092        1091
        1087        1088        1093        1092
        1088        1089        1094        1093
        1090        1091        1096        1095
        1091        1092        1097        1096
        1092        1093        1098        1097
        1093        1094        1099        1098
        1100        1101        1106        1105
        1101        1102        1107        1106
        1102        1103        1108        1107
        1103        1104        1109        1108
        1105        1106        1111        1110
        1106        1107        1112        1111
        1107        1108        1113        1112
        1108        1109        1114        1113
        1110        1111        1116        1115
        1111        1112        1117        1116
        1112        1113        1118        1117
        1113        1114        1119        1118
        1115        1116        1121        1120
        1116        1117        1122        1121
        1117        1118        1123        1122
        1118        1119        1124        1123
        1125        1126        1131        1130
        1126        1127        1132        1131
        1127        1128        1133        1132
        1128        1129        1134        1133
        1130        1131        1136        1135
        1131        1132        1137        1136
        1132        1133        1138        1137
        1133        1134        1139        1138
        1135        1136        1141        1140
        1136        1137        1142        1141
        1137        1138        1143        1142
        1138        1139        1144        1143
        1140        1141        1146        1145
        1141        1142        1147        1146
        1142        1143        1148        1147
        1143        1144        1149        1148
        1150        1151        1156        1155
        1151        1152        1157        1156
        1152        1153        1158        1157
        1153        1154        1159        1158
        1155        1156        1161        1160
        1156        1157        1162        1161
        1157        1158        1163        1162
        1158        1159        1164        1163
        1160        1161        1166        1165
        1161        1162        1167        1166
        1162        1163        1168        1167
        1163        1164        1169        1168
        1165        1166        1171        1170
        1166        1167        1172        1171
        1167        1168        1173        1172
        1168        1169        1174        1173
        1175        1176        1181        1180
        1176        1177        1182        1181
        1177        1178        1183        1182
        1178        1179        1184        1183
        1180        1181        1186        1185
        1181        1182        1187        1186
        1182        1183        1188        1187
        1183        1184        1189        1188
        1185        1186        1191        1190
        1186        1187        1192        1191
        1187        1188        1193        1192
        1188        1189        1194        1193
        1190        1191        1196        1195
        1191        1192        1197        1196
        1192        1193        1198        1197
        1193        1194        1199        1198
        1200        1201        1206        1205
        1201        1202        1207        1206
        1202        1203        1208        1207
        1203        1204        1209        1208
        1205        1206        1211        1210
        1206        1207        1212        1211
        1207        1208        1213        1212
        1208        1209        1214        1213
        1210        1211        1216        1215
        1211        1212        1217        1216
        1212        1213        1218        1217
        1213        1214        1219        1218
        1215        1216        1221        1220
        1216        1217        1222        1221
        1217        1218        1223        1222
        1218        1219        1224        1223
        1225        1226        1231        1230
        1226        1227        1232        1231
        1227        1228        1233        1232
        1228        1229        1234        1233
        1230        1231        1236        1235
        1231        1232        1237        1236
        1232        1233        1238        1237
        1233        1234        1239        1238
        1235        1236        1241        1240
        1236        1237        1242        1241
        1237        1238        1243        1242
        1238        1239        1244        1243
        1240        1241        1246        1245
        1241        1242        1247        1246
        1242        1243        1248        1247
        1243        1244        1249        1248
        1250        1251        1256        1255
        1251        1252        1257        1256
        1252        1253        1258        1257
        1253        1254        1259        1258
        1255        1256        1261        1260
        1256        1257        1262        1261
        1257        1258        1263        1262
        1258        1259        1264        1263
        1260        1261        1266        1265
        1261        1262        1267        1266
        1262        1263        1268        1267
        1263        1264        1269        1268
        1265        1266        1271        1270
        1266        1267        1272        1271
        1267        1268        1273        1272
        1268        1269        1274        1273
        1275        1276        1281        1280
        1276        1277        1282        1281
        1277        1278        1283        1282
        1278        1279        1284        1283
        1280        1281        1286        1285
        1281        1282        1287        1286
        1282        1283        1288        1287
        1283        1284        1289        1288
        1285        1286        1291        1290
        1286        1287        1292        1291
        1287        1288        1293        1292
        1288        1289        1294        1293
        1290        1291        1296        1295
        1291        1292        1297        1296
        1292        1293        1298        1297
        1293        1294        1299        1298
        1300        1301        1306        1305
        1301        1302        1307        1306
        1302        1303        1308        1307
        1303        1304        1309        1308
        1305        1306        1311        1310
        1306        1307        1312        1311
        1307        1308        1313        1312
        1308        1309        1314        1313
        1310        1311        1316        1315
        1311        1312        1317        1316
        1312        1313        1318        1317
        1313        1314        1319        1318
        1315        1316        1321        1320
        1316        1317        1322        1321
        1317        1318        1323        1322
        1318        1319        1324        1323
        1325        1326        1331        1330
        1326        1327        1332        1331
        1327        1328        1333        1332
        1328        1329        1334        1333
        1330        1331        1336        1335
        1331        1332        1337        1336
        1332        1333        1338        1337
        1333        1334        1339        1338
        1335        1336        1341        1340
        1336        1337        1342        1341
        1337        1338        1343        1342
        1338        1339        1344        1343
        1340        1341        1346        1345
        1341        1342        1347        1346
        1342        1343        1348        1347
        1343        1344        1349        1348
        1350        1351        1356        1355
        1351        1352        1357        1356
        1352        1353        1358        1357
        1353        1354        1359        1358
        1355        1356        1361        1360
        1356        1357        1362        1361
        1357        1358        1363        1362
        1358        1359        1364        1363
        1360        1361        1366        1365
        1361        1362        1367        1366
        1362        1363        1368        1367
        1363        1364        1369        1368
        1365        1366        1371        1370
        1366        1367        1372        1371
        1367        1368        1373        1372
        1368        1369        1374        1373
        1375        1376        1381        1380
        1376        1377        1382        1381
        1377        1378        1383        1382
        1378        1379        1384        1383
        1380        1381        1386        1385
        1381        1382        1387        1386
        1382        1383        1388        1387
        1383        1384        1389        1388
        1385        1386        1391        1390
        1386        1387        1392        1391
        1387        1388        1393        1392
        1388        1389        1394        1393
        1390        1391        1396        1395
        1391        1392        1397        1396
        1392        1393        1398        1397
        1393        1394        1399        1398
        1400        1401        1406        1405
        1401        1402        1407        1406
        1402        1403        1408        1407
        1403        1404        1409        1408
        1405        1406        1411        1410
        1406        1407        1412        1411
        1407        1408        1413        1412
        1408        1409        1414        1413
        1410        1411        1416        1415
        1411        1412        1417        1416
        1412        1413        1418        1417
        1413        1414        1419        1418
        1415        1416        1421        1420
        1416        1417        1422        1421
        1417        1418        1423        1422
        1418        1419        1424        1423
        1425        1426        1431        1430
        1426        1427        1432        1431
        1427        1428        1433        1432
        1428        1429        1434        1433
        1430        1431        1436        1435
        1431        1432        1437        1436
        1432        1433        1438        1437
        1433        1434        1439        1438
        1435        1436        1441        1440
        1436        1437        1442        1441
        1437        1438        1443        1442
        1438        1439        1444        1443
        1440        1441        1446        1445
        1441        1442        1447        1446
        1442        1443        1448        1447
        1443        1444        1449        1448
        1450        1451        1456        1455
        1451        1452        1457        1456
        1452        1453        1458        1457
        1453        1454        1459        1458
        1455        1456        1461        1460
        1456        1457        1462        1461
        1457        1458        1463        1462
        1458        1459        1464        1463
        1460        1461        1466        1465
        1461        1462        1467        1466
        1462        1463        1468        1467
        1463        1464        1469        1468
        1465        1466        1471        1470
        1466        1467        1472        1471
        1467        1468        1473        1472
        1468        1469        1474        1473
        1475        1476        1481        1480
        1476        1477        1482        1481
        1477        1478        1483        1482
        1478        1479        1484        1483
        1480        1481        1486        1485
        1481        1482        1487        1486
        1482        1483        1488        1487
        1483        1484        1489        1488
        1485        1486        1491        1490
        1486        1487        1492        1491
        1487        1488        1493        1492
        1488        1489        1494        1493
        1490        1491        1496        1495
        1491        1492        1497        1496
        1492        1493        1498        1497
        1493        1494        1499        1498
        1500        1501        1506        1505
        1501        1502        1507        1506
        1502        1503        1508        1507
        1503        1504        1509        1508
        1505        1506        1511        1510
        1506        1507        1512        1511
        1507        1508        1513        1512
        1508        1509        1514        1513
        1510        1511        1516        1515
        1511        1512        1517        1516
        1512        1513        1518        1517
        1513        1514        1519        1518
        1515        1516        1521        1520
        1516        1517        1522        1521
        1517        1518        1523        1522
        1518        1519        1524        1523
        1525        1526        1531        1530
        1526        1527        1532        1531
        1527        1528        1533        1532
        1528        1529        1534        1533
        1530        1531        1536        1535
        1531        1532        1537        1536
        1532        1533        1538        1537
        1533        1534        1539        1538
        1535        1536        1541        1540
        1536        1537        1542        1541
        1537        1538        1543        1542
        1538        1539        1544        1543
        1540        1541        1546        1545
        1541        1542        1547        1546
        1542        1543        1548        1547
        1543        1544        1549        1548
        1550        1551        1556        1555
        1551        1552        1557        1556
        1552        1553        1558        1557
        1553        1554        1559        1558
        1555        1556        1561        1560
        1556        1557        1562        1561
        1557        1558        1563        1562
        1558        1559        1564        1563
        1560        1561        1566        1565
        1561        1562        1567        1566
        1562        1563        1568        1567
        1563        1564        1569        1568
        1565        1566        1571        1570
        1566        1567        1572        1571
        1567        1568        1573        1572
        1568        1569        1574        1573
        1575        1576        1581        1580
        1576        1577        1582        1581
        1577        1578        1583        1582
        1578        1579        1584        1583
        1580        1581        1586        1585
        1581        1582        1587        1586
        1582        1583        1588        1587
        1583        1584        1589        1588
        1585        1586        1591        1590
        1586        1587        1592        1591
        1587        1588        1593        1592
        1588        1589        1594        1593
        1590        1591        1596        1595
        1591        1592        1597        1596
        1592        1593        1598        1597
        1593        1594        1599        1598
 </DataArray>
 <DataArray  type="Int32"  Name="offsets"  format="ascii"> 
           4
           8
          12
          16
          20
          24
          28
          32
          36
          40
          44
          48
          52
          56
          60
          64
          68
          72
          76
          80
          84
          88
          92
          96
         100
         104
         108
         112
         116
         120
         124
         128
         132
         136
         140
         144
         148
         152
         156
         160
         164
         168
         172
         176
         180
         184
         188
         192
         196
         200
         204
         208
         212
         216
         220
         224
         228
         232
         236
         240
         244
         248
         252
         256
         260
         264
         268
         272
         276
         280
         284
         288
         292
         296
         300
         304
         308
         312
         316
         320
         324
         328
         332
         336
         340
         344
         348
         352
         356
         360
         364
         368
         372
         376
         380
         384
         388
         392
         396
         400
         404
         408
         412
         416
         420
         424
         428
         432
         436
         440
         444
         448
         452
         456
         460
         464
         468
         472
         476
         480
         484
         488
         492
         496
         500
         504
         508
         512
         516
         520
         524
         528
         532
         536
         540
         544
         548
         552
         556
         560
         564
         568
         572
         576
         580
         584
         588
         592
         596
         600
         604
         608
         612
         616
         620
         624
         628
         632
         636
         640
         644
         648
         652
         656
         660
         664
         668
         672
         676
         680
         684
         688
         692
         696
         700
         704
         708
         712
         716
         720
         724
         728
         732
         736
         740
         744
         748
         752
         756
         760
         764
         768
         772
         776
         780
         784
         788
         792
         796
         800
         804
         808
         812
         816
         820
         824
         828
         832
         836
         840
         844
         848
         852
         856
         860
         864
         868
         872
         876
         880
         884
         888
         892
         896
         900
         904
         908
         912
         916
         920
         924
         928
         932
         936
         940
         944
         948
         952
         956
         960
         964
         968
         972
         976
         980
         984
         988
         992
         996
        1000
        1004
        1008
        1012
        1016
        1020
        1024
        1028
        1032
        1036
        1040
        1044
        1048
        1052
        1056
        1060
        1064
        1068
        1072
        1076
        1080
        1084
        1088
        1092
        1096
        1100
        1104
        1108
        1112
        1116
        1120
        1124
        1128
        1132
        1136
        1140
        1144
        1148
        1152
        1156
        1160
        1164
        1168
        1172
        1176
        1180
        1184
        1188
        1192
        1196
        1200
        1204
        1208
        1212
        1216
        1220
        1224
        1228
        1232
        1236
        1240
        1244
        1248
        1252
        1256
        1260
        1264
        1268
        1272
        1276
        1280
        1284
        1288
        1292
        1296
        1300
        1304
        1308
        1312
        1316
        1320
        1324
        1328
        1332
        1336
        1340
        1344
        1348
        1352
        1356
        1360
        1364
        1368
        1372
        1376
        1380
        1384
        1388
        1392
        1396
        1400
        1404
        1408
        1412
        1416
        1420
        1424
        1428
        1432
        1436
        1440
        1444
        1448
        1452
        1456
        1460
        1464
        1468
        1472
        1476
        1480
        1484
        1488
        1492
        1496
        1500
        1504
        1508
        1512
        1516
        1520
        1524
        1528
        1532
        1536
        1540
        1544
        1548
        1552
        1556
        1560
        1564
        1568
        1572
        1576
        1580
        1584
        1588
        1592
        1596
        1600
        1604
        1608
        1612
        1616
        1620
        1624
        1628
        1632
        1636
        1640
        1644
        1648
        1652
        1656
        1660
        1664
        1668
        1672
        1676
        1680
        1684
        1688
        1692
        1696
        1700
        1704
        1708
        1712
        1716
        1720
        1724
        1728
        1732
        1736
        1740
        1744
        1748
        1752
        1756
        1760
        1764
        1768
        1772
        1776
        1780
        1784
        1788
        1792
        1796
        1800
        1804
        1808
        1812
        1816
        1820
        1824
        1828
        1832
        1836
        1840
        1844
        1848
        1852
        1856
        1860
        1864
        1868
        1872
        1876
        1880
        1884
        1888
        1892
        1896
        1900
        1904
        1908
        1912
        1916
        1920
        1924
        1928
        1932
        1936
        1940
        1944
        1948
        1952
        1956
        1960
        1964
        1968
        1972
        1976
        1980
        1984
        1988
        1992
        1996
        2000
        2004
        2008
        2012
        2016
        2020
        2024
        2028
        2032
        2036
        2040
        2044
        2048
        2052
        2056
        2060
        2064
        2068
        2072
        2076
        2080
        2084
        2088
        2092
        2096
        2100
        2104
        2108
        2112
        2116
        2120
        2124
        2128
        2132
        2136
        2140
        2144
        2148
        2152
        2156
        2160
        2164
        2168
        2172
        2176
        2180
        2184
        2188
        2192
        2196
        2200
        2204
        2208
        2212
        2216
        2220
        2224
        2228
        2232
        2236
        2240
        2244
        2248
        2252
        2256
        2260
        2264
        2268
        2272
        2276
        2280
        2284
        2288
        2292
        2296
        2300
        2304
        2308
        2312
        2316
        2320
        2324
        2328
        2332
        2336
        2340
        2344
        2348
        2352
        2356
        2360
        2364
        2368
        2372
        2376
        2380
        2384
        2388
        2392
        2396
        2400
        2404
        2408
        2412
        2416
        2420
        2424
        2428
        2432
        2436
        2440
        2444
        2448
        2452
        2456
        2460
        2464
        2468
        2472
        2476
        2480
        2484
        2488
        2492
        2496
        2500
        2504
        2508
        2512
        2516
        2520
        2524
        2528
        2532
        2536
        2540
        2544
        2548
        2552
        2556
        2560
        2564
        2568
        2572
        2576
        2580
        2584
        2588
        2592
        2596
        2600
        2604
        2608
        2612
        2616
        2620
        2624
        2628
        2632
        2636
        2640
        2644
        2648
        2652
        2656
        2660
        2664
        2668
        2672
        2676
        2680
        2684
        2688
        2692
        2696
        2700
        2704
        2708
        2712
        2716
        2720
        2724
        2728
        2732
        2736
        2740
        2744
        2748
        2752
        2756
        2760
        2764
        2768
        2772
        2776
        2780
        2784
        2788
        2792
        2796
        2800
        2804
        2808
        2812
        2816
        2820
        2824
        2828
        2832
        2836
        2840
        2844
        2848
        2852
        2856
        2860
        2864
        2868
        2872
        2876
        2880
        2884
        2888
        2892
        2896
        2900
        2904
        2908
        2912
        2916
        2920
        2924
        2928
        2932
        2936
        2940
        2944
        2948
        2952
        2956
        2960
        2964
        2968
        2972
        2976
        2980
        2984
        2988
        2992
        2996
        3000
        3004
        3008
        3012
        3016
        3020
        3024
        3028
        3032
        3036
        3040
        3044
        3048
        3052
        3056
        3060
        3064
        3068
        3072
        3076
        3080
        3084
        3088
        3092
        3096
        3100
        3104
        3108
        3112
        3116
        3120
        3124
        3128
        3132
        3136
        3140
        3144
        3148
        3152
        3156
        3160
        3164
        3168
        3172
        3176
        3180
        3184
        3188
        3192
        3196
        3200
        3204
        3208
        3212
        3216
        3220
        3224
        3228
        3232
        3236
        3240
        3244
        3248
        3252
        3256
        3260
        3264
        3268
        3272
        3276
        3280
        3284
        3288
        3292
        3296
        3300
        3304
        3308
        3312
        3316
        3320
        3324
        3328
        3332
        3336
        3340
        3344
        3348
        3352
        3356
        3360
        3364
        3368
        3372
        3376
        3380
        3384
        3388
        3392
        3396
        3400
        3404
        3408
        3412
        3416
        3420
        3424
        3428
        3432
        3436
        3440
        3444
        3448
        3452
        3456
        3460
        3464
        3468
        3472
        3476
        3480
        3484
        3488
        3492
        3496
        3500
        3504
        3508
        3512
        3516
        3520
        3524
        3528
        3532
        3536
        3540
        3544
        3548
        3552
        3556
        3560
        3564
        3568
        3572
        3576
        3580
        3584
        3588
        3592
        3596
        3600
        3604
        3608
        3612
        3616
        3620
        3624
        3628
        3632
        3636
        3640
        3644
        3648
        3652
        3656
        3660
        3664
        3668
        3672
        3676
        3680
        3684
        3688
        3692
        3696
        3700
        3704
        3708
        3712
        3716
        3720
        3724
        3728
        3732
        3736
        3740
        3744
        3748
        3752
        3756
        3760
        3764
        3768
        3772
        3776
        3780
        3784
        3788
        3792
        3796
        3800
        3804
        3808
        3812
        3816
        3820
        3824
        3828
        3832
        3836
        3840
        3844
        3848
        3852
        3856
        3860
        3864
        3868
        3872
        3876
        3880
        3884
        3888
        3892
        3896
        3900
        3904
        3908
        3912
        3916
        3920
        3924
        3928
        3932
        3936
        3940
        3944
        3948
        3952
        3956
        3960
        3964
        3968
        3972
        3976
        3980
        3984
        3988
        3992
        3996
        4000
        4004
        4008
        4012
        4016
        4020
        4024
        4028
        4032
        4036
        4040
        4044
        4048
        4052
        4056
        4060
        4064
        4068
        4072
        4076
        4080
        4084
        4088
        4092
        4096
 </DataArray>
 <DataArray  type="UInt8"  Name="types"  format="ascii">
 9
 9
 9
 9
 9
 9
 9
 9
 9
 9
 9
 9
 9
 9
 9
 9
 9
 9
 9
 9
 9
 9
 9
 9
 9
 9
 9
 9
 9
 9
 9
 9
 9
 9
 9
 9
 9
 9
 9
 9
 9
 9
 9
 9
 9
 9
 9
 9
 9
 9
 9
 9
 9
 9
 9
 9
 9
 9
 9
 9
 9
 9
 9
 9
 9
 9
 9
 9
 9
 9
 9
 9
 9
 9
 9
 9
 9
 9
 9
 9
 9
 9
 9
 9
 9
 9
 9
 9
 9
 9
 9
 9
 9
 9
 9
 9
 9
 9
 9
 9
 9
 9
 9
 9
 9
 9
 9
 9
 9
 9
 9
 9
 9
 9
 9
 9
 9
 9
 9
 9
 9
 9
 9
 9
 9
 9
 9
 9
 9
 9
 9
 9
 9
 9
 9
 9
 9
 9
 9
 9
 9
 9
 9
 9
 9
 9
 9
 9
 9
 9
 9
 9
 9
 9
 9
 9
 9
 9
 9
 9
 9
 9
 9
 9
 9
 9
 9
 9
 9
 9
 9
 9
 9
 9
 9
 9
 9
 9
 9
 9
 9
 9
 9
 9
 9
 9
 9
 9
 9
 9
 9
 9
 9
 9
 9
 9
 9
 9
 9
 9
 9
 9
 9
 9
 9
 9
 9
 9
 9
 9
 9
 9
 9
 9
 9
 9
 9
 9
 9
 9
 9
 9
 9
 9
 9
 9
 9
 9
 9
 9
 9
 9
 9
 9
 9
 9
 9
 9
 9
 9
 9
 9
 9
 9
 9
 9
 9
 9
 9
 9
 9
 9
 9
 9
 9
 9
 9
 9
 9
 9
 9
 9
 9
 9
 9
 9
 9
 9
 9
 9
 9
 9
 9
 9
 9
 9
 9
 9
 9
 9
 9
 9
 9
 9
 9
 9
 9
 9
 9
 9
 9
 9
 9
 9
 9
 9
 9
 9
 9
 9
 9
 9
 9
 9
 9
 9
 9
 9
 9
 9
 9
 9
 9
 9
 9
 9
 9
 9
 9
 9
 9
 9
 9
 9
 9
 9
 9
 9
 9
 9
 9
 9
 9
 9
 9
 9
 9
 9
 9
 9
 9
 9
 9
 9
 9
 9
 9
 9
 9
 9
 9
 9
 9
 9
 9
 9
 9
 9
 9
 9
 9
 9
 9
 9
 9
 9
 9
 9
 9
 9
 9
 9
 9
 9
 9
 9
 9
 9
 9
 9
 9
 9
 9
 9
 9
 9
 9
 9
 9
 9
 9
 9
 9
 9
 9
 9
 9
 9
 9
 9
 9
 9
 9
 9
 9
 9
 9
 9
 9
 9
 9
 9
 9
 9
 9
 9
 9
 9
 9
 9
 9
 9
 9
 9
 9
 9
 9
 9
 9
 9
 9
 9
 9
 9
 9
 9
 9
 9
 9
 9
 9
 9
 9
 9
 9
 9
 9
 9
 9
 9
 9
 9
 9
 9
 9
 9
 9
 9
 9
 9
 9
 9
 9
 9
 9
 9
 9
 9
 9
 9
 9
 9
 9
 9
 9
 9
 9
 9
 9
 9
 9
 9
 9
 9
 9
 9
 9
 9
 9
 9
 9
 9
 9
 9
 9
 9
 9
 9
 9
 9
 9
 9
 9
 9
 9
 9
 9
 9
 9
 9
 9
 9
 9
 9
 9
 9
 9
 9
 9
 9
 9
 9
 9
 9
 9
 9
 9
 9
 9
 9
 9
 9
 9
 9
 9
 9
 9
 9
 9
 9
 9
 9
 9
 9
 9
 9
 9
 9
 9
 9
 9
 9
 9
 9
 9
 9
 9
 9
 9
 9
 9
 9
 9
 9
 9
 9
 9
 9
 9
 9
 9
 9
 9
 9
 9
 9
 9
 9
 9
 9
 9
 9
 9
 9
 9
 9
 9
 9
 9
 9
 9
 9
 9
 9
 9
 9
 9
 9
 9
 9
 9
 9
 9
 9
 9
 9
 9
 9
 9
 9
 9
 9
 9
 9
 9
 9
 9
 9
 9
 9
 9
 9
 9
 9
 9
 9
 9
 9
 9
 9
 9
 9
 9
 9
 9
 9
 9
 9
 9
 9
 9
 9
 9
 9
 9
 9
 9
 9
 9
 9
 9
 9
 9
 9
 9
 9
 9
 9
 9
 9
 9
 9
 9
 9
 9
 9
 9
 9
 9
 9
 9
 9
 9
 9
 9
 9
 9
 9
 9
 9
 9
 9
 9
 9
 9
 9
 9
 9
 9
 9
 9
 9
 9
 9
 9
 9
 9
 9
 9
 9
 9
 9
 9
 9
 9
 9
 9
 9
 9
 9
 9
 9
 9
 9
 9
 9
 9
 9
 9
 9
 9
 9
 9
 9
 9
 9
 9
 9
 9
 9
 9
 9
 9
 9
 9
 9
 9
 9
 9
 9
 9
 9
 9
 9
 9
 9
 9
 9
 9
 9
 9
 9
 9
 9
 9
 9
 9
 9
 9
 9
 9
 9
 9
 9
 9
 9
 9
 9
 9
 9
 9
 9
 9
 9
 9
 9
 9
 9
 9
 9
 9
 9
 9
 9
 9
 9
 9
 9
 9
 9
 9
 9
 9
 9
 9
 9
 9
 9
 9
 9
 9
 9
 9
 9
 9
 9
 9
 9
 9
 9
 9
 9
 9
 9
 9
 9
 9
 9
 9
 9
 9
 9
 9
 9
 9
 9
 9
 9
 9
 9
 9
 9
 9
 9
 9
 9
 9
 9
 9
 9
 9
 9
 9
 9
 9
 9
 9
 9
 9
 9
 9
 9
 9
 9
 9
 9
 9
 9
 9
 9
 9
 9
 9
 9
 9
 9
 9
 9
 9
 9
 9
 9
 9
 9
 9
 9
 9
 9
 9
 9
 9
 9
 9
 9
 9
 9
 9
 9
 9
 9
 9
 9
 9
 9
 9
 9
 9
 9
 9
 9
 9
 9
 9
 9
 9
 9
 9
 9
 9
 9
 9
 9
 9
 9
 9
 9
 9
 9
 9
 9
 9
 9
 9
 9
 9
 9
 9
 9
 9
 9
 9
 9
 9
 9
 9
 9
 9
 9
 9
 9
 9
 9
 9
 9
 9
 9
 9
 9
 9
 9
 9
 9
 9
 9
 9
 9
 9
 9
 9
 9
 9
 9
 9
 9
 9
 9
 9
 9
 9
 9
 9
 9
 9
 9
 9
 9
 9
 9
 9
 9
 9
 9
 9
 9
 9
 9
 9
 9
 9
 9
 9
 9
 9
 9
 9
 9
 9
 9
 9
 9
 9
 9
 9
 9
 9
 9
 9
 9
 9
 9
 9
 9
 9
 9
 9
 9
 9
 9
 9
 9
 9
 9
 9
 9
 </DataArray>
 </Cells> 
 <PointData>
 <DataArray  type="Float64" Name="disp" NumberOfComponents="3" format="ascii">
   6.5350186885674733E-002   6.2817783877146122E-002   0.0000000000000000     
   6.8458213263645262E-002   6.8207897449735377E-002   0.0000000000000000     
   7.1451110976165619E-002   7.3777282880196166E-002   0.0000000000000000     
   7.4328880023235816E-002   7.9525940168528458E-002   0.0000000000000000     
   7.7091520404855840E-002   8.5453869314732256E-002   0.0000000000000000     
   6.0200470553134204E-002   6.1909519054981259E-002   0.0000000000000000     
   6.3087195747351860E-002   6.7330388599561697E-002   0.0000000000000000     
   6.5876741711306641E-002   7.2928834944780446E-002   0.0000000000000000     
   6.8569108444998583E-002   7.8704858090637542E-002   0.0000000000000000     
   7.1164295948427644E-002   8.4658458037132928E-002   0.0000000000000000     
   5.5216495854408638E-002   6.1060343262076142E-002   0.0000000000000000     
   5.7908613502894807E-002   6.6507232186478249E-002   0.0000000000000000     
   6.0511883417280574E-002   7.2131801476517057E-002   0.0000000000000000     
   6.3026305597565946E-002   7.7934051132192581E-002   0.0000000000000000     
   6.5451880043750910E-002   8.3913981153504819E-002   0.0000000000000000     
   5.0398262789498036E-002   6.0270256498430784E-002   0.0000000000000000     
   5.2922466530274111E-002   6.5738428210485034E-002   0.0000000000000000     
   5.5356536094087416E-002   7.1386182475405957E-002   0.0000000000000000     
   5.7700471480937911E-002   7.7213519293193603E-002   0.0000000000000000     
   5.9954272690825622E-002   8.3220438663847901E-002   0.0000000000000000     
   4.5745771358402389E-002   5.9539258764045172E-002   0.0000000000000000     
   4.8128754829489778E-002   6.5023976671582023E-002   0.0000000000000000     
   5.0410699741727141E-002   7.0691977941447159E-002   0.0000000000000000     
   5.2591606095114471E-002   7.6543262573640539E-002   0.0000000000000000     
   5.4671473889651788E-002   8.2577830568162203E-002   0.0000000000000000     
   7.7091520404855840E-002   8.5453869314732256E-002   0.0000000000000000     
   7.9757946955704886E-002   9.1554542978950493E-002   0.0000000000000000     
   8.2347074510462137E-002   9.7821433821326076E-002   0.0000000000000000     
   8.4858903069127606E-002  0.10425454184185898        0.0000000000000000     
   8.7293432631701265E-002  0.11085386704054925        0.0000000000000000     
   7.1164295948427644E-002   8.4658458037132928E-002   0.0000000000000000     
   7.3673482563712089E-002   9.0784308808166514E-002   0.0000000000000000     
   7.6107846632970128E-002   9.7077084427638141E-002   0.0000000000000000     
   7.8467388156201801E-002  0.10353678489554781        0.0000000000000000     
   8.0752107133407067E-002  0.11016341021189553        0.0000000000000000     
   6.5451880043750910E-002   8.3913981153504819E-002   0.0000000000000000     
   6.7797730466909734E-002   9.0066126565661292E-002   0.0000000000000000     
   7.0072980578116714E-002   9.6385022393869549E-002   0.0000000000000000     
   7.2277630377371810E-002  0.10287066863812959        0.0000000000000000     
   7.4411679864675034E-002  0.10952306529844144        0.0000000000000000     
   5.9954272690825622E-002   8.3220438663847901E-002   0.0000000000000000     
   6.2130690665297826E-002   8.9399996251434855E-002   0.0000000000000000     
   6.4242476345901828E-002   9.5745247720020341E-002   0.0000000000000000     
   6.6289629732637606E-002  0.10225619306960435        0.0000000000000000     
   6.8272150825505168E-002  0.10893283230018692        0.0000000000000000     
   5.4671473889651788E-002   8.2577830568162203E-002   0.0000000000000000     
   5.6672363158876367E-002   8.8785917865487174E-002   0.0000000000000000     
   5.8616333936325503E-002   9.5157760406090447E-002   0.0000000000000000     
   6.0503386221999210E-002  0.10169335818997208        0.0000000000000000     
   6.2333520015897481E-002  0.10839271121713204        0.0000000000000000     
   8.7293432631701265E-002  0.11085386704054925        0.0000000000000000     
   8.9631637911020759E-002  0.11759777803149947        0.0000000000000000     
   9.1854493619923705E-002  0.12446464342881219        0.0000000000000000     
   9.3961999758410089E-002  0.13145446323248750        0.0000000000000000     
   9.5954156326479939E-002  0.13856723744252530        0.0000000000000000     
   8.0752107133407067E-002  0.11016341021189553        0.0000000000000000     
   8.2945570737924204E-002  0.11693529848713911        0.0000000000000000     
   8.5031346143091477E-002  0.12383078783173632        0.0000000000000000     
   8.7009433348908871E-002  0.13084987824568717        0.0000000000000000     
   8.8879832355376401E-002  0.13799256972899163        0.0000000000000000     
   7.4411679864675034E-002  0.10952306529844144        0.0000000000000000     
   7.6460112964584631E-002  0.11632085165180439        0.0000000000000000     
   7.8407913601658732E-002  0.12324266697521785        0.0000000000000000     
   8.0255081775897408E-002  0.13028851126868179        0.0000000000000000     
   8.2001617487300602E-002  0.13745838453219622        0.0000000000000000     
   6.8272150825505168E-002  0.10893283230018692        0.0000000000000000     
   7.0175264591001985E-002  0.11575443752549533        0.0000000000000000     
   7.1984195995625486E-002  0.12270028085925680        0.0000000000000000     
   7.3698945039375685E-002  0.12977036230147143        0.0000000000000000     
   7.5319511722252541E-002  0.13696468185213911        0.0000000000000000     
   6.2333520015897481E-002  0.10839271121713204        0.0000000000000000     
   6.4091025617176306E-002  0.11523605610821190        0.0000000000000000     
   6.5760193324991723E-002  0.12220362948385320        0.0000000000000000     
   6.7341023139343703E-002  0.12929543134405602        0.0000000000000000     
   6.8833515060232248E-002  0.13651146168882028        0.0000000000000000     
   9.5954156326479939E-002  0.13856723744252530        0.0000000000000000     
   9.7846784100608791E-002  0.14579854494919339        0.0000000000000000     
   9.9655703857272224E-002  0.15314396464275942        0.0000000000000000     
  0.10138091559647022       0.16060349652322339        0.0000000000000000     
  0.10302241931820282       0.16817714059058531        0.0000000000000000     
   8.8879832355376401E-002  0.13799256972899163        0.0000000000000000     
   9.0656678549856443E-002  0.14525340132622067        0.0000000000000000     
   9.2354107319711373E-002  0.15262691208194518        0.0000000000000000     
   9.3972118664941179E-002  0.16011310199616516        0.0000000000000000     
   9.5510712585545859E-002  0.16771197106888061        0.0000000000000000     
   8.2001617487300602E-002  0.13745838453219622        0.0000000000000000     
   8.3660269766667419E-002  0.14474624120923063        0.0000000000000000     
   8.5243787644796898E-002  0.15214603574325461        0.0000000000000000     
   8.6752171121689078E-002  0.15965776813426805        0.0000000000000000     
   8.8185420197343906E-002  0.16728143838227100        0.0000000000000000     
   7.5319511722252541E-002  0.13696468185213911        0.0000000000000000     
   7.6857557751041736E-002  0.14427706459822337        0.0000000000000000     
   7.8324744832528881E-002  0.15170133562668764        0.0000000000000000     
   7.9721072966713921E-002  0.15923749493753200        0.0000000000000000     
   8.1046542153596898E-002  0.16688554253075638        0.0000000000000000     
   6.8833515060232248E-002  0.13651146168882028        0.0000000000000000     
   7.0248542502979405E-002  0.14384587149319880        0.0000000000000000     
   7.1596978882907225E-002  0.15129281173224443        0.0000000000000000     
   7.2878824200015721E-002  0.15885228240595708        0.0000000000000000     
   7.4094078454304865E-002  0.16652428351433679        0.0000000000000000     
  0.10302241931820282       0.16817714059058531        0.0000000000000000     
  0.10457816743028783       0.17585228553167559        0.0000000000000000     
  0.10604611234054311       0.18361632003332470        0.0000000000000000     
  0.10742625404896868       0.19146924409553254        0.0000000000000000     
  0.10871859255556451       0.19941105771829915        0.0000000000000000     
   9.5510712585545859E-002  0.16771197106888061        0.0000000000000000     
   9.6966823635781699E-002  0.17541207594524433        0.0000000000000000     
   9.8337386369904883E-002  0.18320197327040905        0.0000000000000000     
   9.9622400787915441E-002  0.19108166304437479        0.0000000000000000     
  0.10082186688981333       0.19905114526714157        0.0000000000000000     
   8.8185420197343906E-002  0.16728143838227100        0.0000000000000000     
   8.9539727366429095E-002  0.17500620125518890        0.0000000000000000     
   9.0811285123612293E-002  0.18282121152094724        0.0000000000000000     
   9.2000093468893540E-002  0.19072646917954605        0.0000000000000000     
   9.3106152402272768E-002  0.19872197423098531        0.0000000000000000     
   8.1046542153596898E-002  0.16688554253075638        0.0000000000000000     
   8.2296878622230007E-002  0.17463466146150927        0.0000000000000000     
   8.3467808601665347E-002  0.18247403478493923        0.0000000000000000     
   8.4559332091902958E-002  0.19040366250104626        0.0000000000000000     
   8.5571449092942856E-002  0.19842354460983036        0.0000000000000000     
   7.4094078454304865E-002  0.16652428351433679        0.0000000000000000     
   7.5238277403184395E-002  0.17429745656420553        0.0000000000000000     
   7.6306956804064033E-002  0.18216044306238507        0.0000000000000000     
   7.7300116656943751E-002  0.19011324300887550        0.0000000000000000     
   7.8217756961823565E-002  0.19815585640367675        0.0000000000000000     
  0.10871859255556451       0.19941105771829915        0.0000000000000000     
  0.10992932770853514       0.20743837124540174        0.0000000000000000     
  0.11106465935608506       0.21554779502061738        0.0000000000000000     
  0.11212458749821429       0.22373932904394619        0.0000000000000000     
  0.11310911213492281       0.23201297331538806        0.0000000000000000     
  0.10082186688981333       0.19905114526714157        0.0000000000000000     
  0.10194189183731224       0.20710442222216155        0.0000000000000000     
  0.10298858279212579       0.21523549619288695        0.0000000000000000     
  0.10396193975425397       0.22344436717931770        0.0000000000000000     
  0.10486196272369680       0.23173103518145396        0.0000000000000000     
   9.3106152402272768E-002  0.19872197423098531        0.0000000000000000     
   9.4134667846624873E-002  0.20680023057096983        0.0000000000000000     
   9.5090845724824583E-002  0.21495374209520443        0.0000000000000000     
   9.5974686036871940E-002  0.22318250880368906        0.0000000000000000     
   9.6786188782766958E-002  0.23148653069642380        0.0000000000000000     
   8.5571449092942856E-002  0.19842354460983036        0.0000000000000000     
   8.6507655736473024E-002  0.20652579629182655        0.0000000000000000     
   8.7371448154181505E-002  0.21470253272756984        0.0000000000000000     
   8.8162826346068202E-002  0.22295375391706021        0.0000000000000000     
   8.8881790312133238E-002  0.23127945986029766        0.0000000000000000     
   7.8217756961823565E-002  0.19815585640367675        0.0000000000000000     
   7.9060855506856736E-002  0.20628111938473168        0.0000000000000000     
   7.9830390080196462E-002  0.21448186808998312        0.0000000000000000     
   8.0526360681842782E-002  0.22275810251943107        0.0000000000000000     
   8.1148767311795669E-002  0.23110982267307550        0.0000000000000000     
  0.11310911213492281       0.23201297331538806        0.0000000000000000     
  0.11404610631489995       0.24038497078785936        0.0000000000000000     
  0.11496344308683507       0.24887156441427646        0.0000000000000000     
  0.11586112245072812       0.25747275419463933        0.0000000000000000     
  0.11673914440657915       0.26618854012894788        0.0000000000000000     
  0.10486196272369680       0.23173103518145396        0.0000000000000000     
  0.10569349421105938       0.24011874394753674        0.0000000000000000     
  0.10646137672694676       0.24863073722580736        0.0000000000000000     
  0.10716561027135899       0.25726701501626575        0.0000000000000000     
  0.10780619484429604       0.26602757731891191        0.0000000000000000     
   9.6786188782766958E-002  0.23148653069642380        0.0000000000000000     
   9.7516101399775443E-002  0.23989208041981730        0.0000000000000000     
   9.8155171325163285E-002  0.24842543062027819        0.0000000000000000     
   9.8703398558930497E-002  0.25708658129780654        0.0000000000000000     
   9.9160783101077066E-002  0.26587553245240231        0.0000000000000000     
   8.8881790312133238E-002  0.23127945986029766        0.0000000000000000     
   8.9513927881048158E-002  0.23970498020470099        0.0000000000000000     
   9.0044826881484644E-002  0.24825564459768909        0.0000000000000000     
   9.0474487313442639E-002  0.25693145303926179        0.0000000000000000     
   9.0802909176922186E-002  0.26573240552941918        0.0000000000000000     
   8.1148767311795669E-002  0.23110982267307550        0.0000000000000000     
   8.1686973654877537E-002  0.23955744330218798        0.0000000000000000     
   8.2130343395910785E-002  0.24812137915803992        0.0000000000000000     
   8.2478876534895412E-002  0.25680163024063135        0.0000000000000000     
   8.2732573071831406E-002  0.26559819654996236        0.0000000000000000     
  0.11673914440657915       0.26618854012894788        0.0000000000000000     
  0.11753814546832557       0.27518349786826035        0.0000000000000000     
  0.11819876214990478       0.28462220306363467        0.0000000000000000     
  0.11872099445131680       0.29450465571507084        0.0000000000000000     
  0.11910484237256162       0.30483085582256891        0.0000000000000000     
  0.10780619484429604       0.26602757731891191        0.0000000000000000     
  0.10836436111610867       0.27504446451005732        0.0000000000000000     
  0.10882133975714763       0.28444971696601334        0.0000000000000000     
  0.10917713076741288       0.29424333468677999        0.0000000000000000     
  0.10943173414690448       0.30442531767235725        0.0000000000000000     
   9.9160783101077066E-002  0.26587553245240231        0.0000000000000000     
   9.9538492422648603E-002  0.27489041398060649        0.0000000000000000     
   9.9847693994690706E-002  0.28422935577896008        0.0000000000000000     
  0.10008838781720343       0.29389235784746298        0.0000000000000000     
  0.10026057389018674       0.30387942018611519        0.0000000000000000     
   9.0802909176922186E-002  0.26573240552941918        0.0000000000000000     
   9.1060539387945311E-002  0.27472134627990791        0.0000000000000000     
   9.1277824862534052E-002  0.28396111950247471        0.0000000000000000     
   9.1454765600688409E-002  0.29345172519711976        0.0000000000000000     
   9.1591361602408383E-002  0.30319316336384289        0.0000000000000000     
   8.2732573071831406E-002  0.26559819654996236        0.0000000000000000     
   8.2930502011998822E-002  0.27453726140796153        0.0000000000000000     
   8.3111732360677620E-002  0.28364500813655757        0.0000000000000000     
   8.3276264117867815E-002  0.29292143673575044        0.0000000000000000     
   8.3424097283569448E-002  0.30236654720554018        0.0000000000000000     
   4.5745771358402389E-002   5.9539258764045172E-002   0.0000000000000000     
   4.8128754829489778E-002   6.5023976671582023E-002   0.0000000000000000     
   5.0410699741727141E-002   7.0691977941447159E-002   0.0000000000000000     
   5.2591606095114471E-002   7.6543262573640539E-002   0.0000000000000000     
   5.4671473889651788E-002   8.2577830568162203E-002   0.0000000000000000     
   4.1267681700354109E-002   5.8866024955451436E-002   0.0000000000000000     
   4.3504811704039768E-002   6.4365949131260966E-002   0.0000000000000000     
   4.5631411523752767E-002   7.0052437050273586E-002   0.0000000000000000     
   4.7647481159493098E-002   7.5925488712489317E-002   0.0000000000000000     
   4.9553020611260781E-002   8.1985104117908145E-002   0.0000000000000000     
   3.6972653954585613E-002   5.8249229969181700E-002   0.0000000000000000     
   3.9027970457422075E-002   6.3766417151013513E-002   0.0000000000000000     
   4.0975708603717298E-002   6.9470808977518186E-002   0.0000000000000000     
   4.2815868393471249E-002   7.5362405448695713E-002   0.0000000000000000     
   4.4548449826683982E-002   8.1441206564546120E-002   0.0000000000000000     
   3.2860688121096895E-002   5.7688873805235956E-002   0.0000000000000000     
   3.4698231089636683E-002   6.3225380730839692E-002   0.0000000000000000     
   3.6443590981620706E-002   6.8947093723180947E-002   0.0000000000000000     
   3.8096767797048930E-002   7.4854012782259782E-002   0.0000000000000000     
   3.9657761535921383E-002   8.0946137908076157E-002   0.0000000000000000     
   2.8931784199887955E-002   5.7184956463614212E-002   0.0000000000000000     
   3.0515593600683621E-002   6.2742839870739475E-002   0.0000000000000000     
   3.2035058657463020E-002   6.8481291287261908E-002   0.0000000000000000     
   3.3490179370226136E-002   7.4400310713181483E-002   0.0000000000000000     
   3.4880955738972992E-002   8.0499898148498228E-002   0.0000000000000000     
   5.4671473889651788E-002   8.2577830568162203E-002   0.0000000000000000     
   5.6672363158876367E-002   8.8785917865487174E-002   0.0000000000000000     
   5.8616333936325503E-002   9.5157760406090447E-002   0.0000000000000000     
   6.0503386221999210E-002  0.10169335818997208        0.0000000000000000     
   6.2333520015897481E-002  0.10839271121713204        0.0000000000000000     
   4.9553020611260781E-002   8.1985104117908145E-002   0.0000000000000000     
   5.1378722901703346E-002   8.8219206768278893E-002   0.0000000000000000     
   5.3155281053468346E-002   9.4615720165350456E-002   0.0000000000000000     
   5.4882695066555777E-002  0.10117464430912280        0.0000000000000000     
   5.6560964940965644E-002  0.10789597919959594        0.0000000000000000     
   4.4548449826683982E-002   8.1441206564546120E-002   0.0000000000000000     
   4.6205744847836773E-002   8.7695178320270711E-002   0.0000000000000000     
   4.7820045401410917E-002   9.4112286711070858E-002   0.0000000000000000     
   4.9391351487406455E-002  0.10069253173694656        0.0000000000000000     
   5.0919663105823361E-002  0.10743591339789779        0.0000000000000000     
   3.9657761535921383E-002   8.0946137908076157E-002   0.0000000000000000     
   4.1153428997276635E-002   8.7213832521462586E-002   0.0000000000000000     
   4.2610626980153256E-002   9.3647460043251668E-002   0.0000000000000000     
   4.4029355484551252E-002  0.10024702047344335        0.0000000000000000     
   4.5409614510470632E-002  0.10701251381203764        0.0000000000000000     
   3.4880955738972992E-002   8.0499898148498228E-002   0.0000000000000000     
   3.6221775350022932E-002   8.6775169371854546E-002   0.0000000000000000     
   3.7527025789695322E-002   9.3221240161892857E-002   0.0000000000000000     
   3.8796707057990161E-002   9.9838110518613160E-002   0.0000000000000000     
   4.0030819154907450E-002  0.10662578044201544        0.0000000000000000     
   6.2333520015897481E-002  0.10839271121713204        0.0000000000000000     
   6.4091025617176306E-002  0.11523605610821190        0.0000000000000000     
   6.5760193324991723E-002  0.12220362948385320        0.0000000000000000     
   6.7341023139343703E-002  0.12929543134405602        0.0000000000000000     
   6.8833515060232248E-002  0.13651146168882028        0.0000000000000000     
   5.6560964940965644E-002  0.10789597919959594        0.0000000000000000     
   5.8173312656773668E-002  0.11476044220950714        0.0000000000000000     
   5.9702960194055577E-002  0.12174875071159368        0.0000000000000000     
   6.1149907552811369E-002  0.12886090470585557        0.0000000000000000     
   6.2514154733041047E-002  0.13609690419229278        0.0000000000000000     
   5.0919663105823361E-002  0.10743591339789779        0.0000000000000000     
   5.2388042323460116E-002  0.11432233063893407        0.0000000000000000     
   5.3779551207115202E-002  0.12133168240506480        0.0000000000000000     
   5.5094189756788606E-002  0.12846396869629001        0.0000000000000000     
   5.6331957972480348E-002  0.13571918951260969        0.0000000000000000     
   4.5409614510470632E-002  0.10701251381203764        0.0000000000000000     
   4.6735214617235642E-002  0.11392172139649268        0.0000000000000000     
   4.7989966364170578E-002  0.12095242456426658        0.0000000000000000     
   4.9173869751275398E-002  0.12810462331535935        0.0000000000000000     
   5.0286924778550145E-002  0.13537831764977099        0.0000000000000000     
   4.0030819154907450E-002  0.10662578044201544        0.0000000000000000     
   4.1214829538100274E-002  0.11355861448218299        0.0000000000000000     
   4.2334205665221711E-002  0.12061097718919903        0.0000000000000000     
   4.3388947536271753E-002  0.12778286856306359        0.0000000000000000     
   4.4379055151250422E-002  0.13507428860377665        0.0000000000000000     
   6.8833515060232248E-002  0.13651146168882028        0.0000000000000000     
   7.0248542502979405E-002  0.14384587149319880        0.0000000000000000     
   7.1596978882907225E-002  0.15129281173224443        0.0000000000000000     
   7.2878824200015721E-002  0.15885228240595708        0.0000000000000000     
   7.4094078454304865E-002  0.16652428351433679        0.0000000000000000     
   6.2514154733041047E-002  0.13609690419229278        0.0000000000000000     
   6.3805926298574470E-002  0.14345158221766191        0.0000000000000000     
   6.5035446813241513E-002  0.15091977182871952        0.0000000000000000     
   6.6202716277042162E-002  0.15850147302546555        0.0000000000000000     
   6.7307734689976403E-002  0.16619668580790009        0.0000000000000000     
   5.6331957972480348E-002  0.13571918951260969        0.0000000000000000     
   5.7502411413921012E-002  0.14309311709511763        0.0000000000000000     
   5.8615105640841200E-002  0.15058152368490765        0.0000000000000000     
   5.9670040653240913E-002  0.15818440928197977        0.0000000000000000     
   6.0667216451120144E-002  0.16590177388633393        0.0000000000000000     
   5.0286924778550145E-002  0.13537831764977099        0.0000000000000000     
   5.1337997849019025E-002  0.14277047612556598        0.0000000000000000     
   5.2335955365706309E-002  0.15027806730080887        0.0000000000000000     
   5.3280797328611983E-002  0.15790109117549972        0.0000000000000000     
   5.4172523737736053E-002  0.16563954774963840        0.0000000000000000     
   4.4379055151250422E-002  0.13507428860377665        0.0000000000000000     
   4.5312685603868509E-002  0.14248365930900694        0.0000000000000000     
   4.6197995987836825E-002  0.15000940267642315        0.0000000000000000     
   4.7034986303155370E-002  0.15765151870602531        0.0000000000000000     
   4.7823656549824144E-002  0.16541000739781342        0.0000000000000000     
   7.4094078454304865E-002  0.16652428351433679        0.0000000000000000     
   7.5238277403184395E-002  0.17429745656420553        0.0000000000000000     
   7.6306956804064033E-002  0.18216044306238507        0.0000000000000000     
   7.7300116656943751E-002  0.19011324300887550        0.0000000000000000     
   7.8217756961823565E-002  0.19815585640367675        0.0000000000000000     
   6.7307734689976403E-002  0.16619668580790009        0.0000000000000000     
   6.8345995596941114E-002  0.17399326427525322        0.0000000000000000     
   6.9312992542833060E-002  0.18187906252675501        0.0000000000000000     
   7.0208725527652283E-002  0.18985408056240546        0.0000000000000000     
   7.1033194551398768E-002  0.19791831838220464        0.0000000000000000     
   6.0667216451120144E-002  0.16590177388633393        0.0000000000000000     
   6.1602105091148891E-002  0.17372076230662789        0.0000000000000000     
   6.2470178629997167E-002  0.18162851935151925        0.0000000000000000     
   6.3271437067664943E-002  0.18962504502100810        0.0000000000000000     
   6.4005880404152254E-002  0.19771033931509432        0.0000000000000000     
   5.4172523737736053E-002  0.16563954774963840        0.0000000000000000     
   5.5006605885807754E-002  0.17347995065832958        0.0000000000000000     
   5.5778515065556325E-002  0.18140881353667790        0.0000000000000000     
   5.6488251276981760E-002  0.18942613638468322        0.0000000000000000     
   5.7135814520084052E-002  0.19753191920234575        0.0000000000000000     
   4.7823656549824144E-002  0.16541000739781342        0.0000000000000000     
   4.8559497980917687E-002  0.17327082933035831        0.0000000000000000     
   4.9238001849510549E-002  0.18121994508223083        0.0000000000000000     
   4.9859168155602707E-002  0.18925735465343108        0.0000000000000000     
   5.0422996899194175E-002  0.19738305804395889        0.0000000000000000     
   7.8217756961823565E-002  0.19815585640367675        0.0000000000000000     
   7.9060855506856736E-002  0.20628111938473168        0.0000000000000000     
   7.9830390080196462E-002  0.21448186808998312        0.0000000000000000     
   8.0526360681842782E-002  0.22275810251943107        0.0000000000000000     
   8.1148767311795669E-002  0.23110982267307550        0.0000000000000000     
   7.1033194551398768E-002  0.19791831838220464        0.0000000000000000     
   7.1785012835333686E-002  0.20606550749269884        0.0000000000000000     
   7.2462793600718278E-002  0.21428937940043422        0.0000000000000000     
   7.3066536847552516E-002  0.22258993410541084        0.0000000000000000     
   7.3596242575836385E-002  0.23096717160762870        0.0000000000000000     
   6.4005880404152254E-002  0.19771033931509432        0.0000000000000000     
   6.4670873399461634E-002  0.20587826825874145        0.0000000000000000     
   6.5263780813595643E-002  0.21412269787691290        0.0000000000000000     
   6.5784602646554280E-002  0.22244362816960855        0.0000000000000000     
   6.6233338898337546E-002  0.23084105913682856        0.0000000000000000     
   5.7135814520084052E-002  0.19753191920234575        0.0000000000000000     
   5.7718437199240552E-002  0.20571940168285960        0.0000000000000000     
   5.8233351718828569E-002  0.21398182351941913        0.0000000000000000     
   5.8680558078848088E-002  0.22231918471202430        0.0000000000000000     
   5.9060056279299132E-002  0.23073148526067511        0.0000000000000000     
   5.0422996899194175E-002  0.19738305804395889        0.0000000000000000     
   5.0927704234670461E-002  0.20558890776505326        0.0000000000000000     
   5.1371506316417050E-002  0.21386675632795296        0.0000000000000000     
   5.1754403144433948E-002  0.22221660373265800        0.0000000000000000     
   5.2076394718721157E-002  0.23063844997916841        0.0000000000000000     
   8.1148767311795669E-002  0.23110982267307550        0.0000000000000000     
   8.1686973654877537E-002  0.23955744330218798        0.0000000000000000     
   8.2130343395910785E-002  0.24812137915803992        0.0000000000000000     
   8.2478876534895412E-002  0.25680163024063135        0.0000000000000000     
   8.2732573071831406E-002  0.26559819654996236        0.0000000000000000     
   7.3596242575836385E-002  0.23096717160762870        0.0000000000000000     
   7.4048623948671607E-002  0.23943451561959891        0.0000000000000000     
   7.4420394129159823E-002  0.24800538985383266        0.0000000000000000     
   7.4711553117301044E-002  0.25667979431032989        0.0000000000000000     
   7.4922100913095271E-002  0.26545772898909059        0.0000000000000000     
   6.6233338898337546E-002  0.23084105913682856        0.0000000000000000     
   6.6612263989838411E-002  0.23932124306425478        0.0000000000000000     
   6.6923652341949788E-002  0.24789043223756918        0.0000000000000000     
   6.7167503954671762E-002  0.25654862665677169        0.0000000000000000     
   6.7343818828004234E-002  0.26529582632186244        0.0000000000000000     
   5.9060056279299132E-002  0.23073148526067511        0.0000000000000000     
   5.9377893778377933E-002  0.23921762563615553        0.0000000000000000     
   5.9640118034280730E-002  0.24777650630924952        0.0000000000000000     
   5.9846729047007524E-002  0.25640812727995693        0.0000000000000000     
   5.9997726816558315E-002  0.26511248854827796        0.0000000000000000     
   5.2076394718721157E-002  0.23063844997916841        0.0000000000000000     
   5.2345513314290201E-002  0.23912366333530122        0.0000000000000000     
   5.2569791206152600E-002  0.24766361206887361        0.0000000000000000     
   5.2749228394308373E-002  0.25625829617988555        0.0000000000000000     
   5.2883824878757507E-002  0.26490771566833704        0.0000000000000000     
   8.2732573071831406E-002  0.26559819654996236        0.0000000000000000     
   8.2930502011998822E-002  0.27453726140796153        0.0000000000000000     
   8.3111732360677620E-002  0.28364500813655757        0.0000000000000000     
   8.3276264117867815E-002  0.29292143673575044        0.0000000000000000     
   8.3424097283569448E-002  0.30236654720554018        0.0000000000000000     
   7.4922100913095271E-002  0.26545772898909059        0.0000000000000000     
   7.5093071866741551E-002  0.27433262307027584        0.0000000000000000     
   7.5265500328438928E-002  0.28329790573404673        0.0000000000000000     
   7.5439386298187416E-002  0.29235357698040332        0.0000000000000000     
   7.5614729775987016E-002  0.30149963680934555        0.0000000000000000     
   6.7343818828004234E-002  0.26529582632186244        0.0000000000000000     
   6.7492940524105940E-002  0.27410189497235943        0.0000000000000000     
   6.7655212605135476E-002  0.28293669634778096        0.0000000000000000     
   6.7830635071092910E-002  0.29180023044812692        0.0000000000000000     
   6.8019207921978214E-002  0.30069249727339742        0.0000000000000000     
   5.9997726816558315E-002  0.26511248854827796        0.0000000000000000     
   6.0130107984091949E-002  0.27384507711421224        0.0000000000000000     
   6.0280869190767285E-002  0.28256137997776004        0.0000000000000000     
   6.0450010436584323E-002  0.29126139713892119        0.0000000000000000     
   6.0637531721543049E-002  0.29994512859769568        0.0000000000000000     
   5.2883824878757507E-002  0.26490771566833704        0.0000000000000000     
   5.3004574246699611E-002  0.27356216949583445        0.0000000000000000     
   5.3142470085334313E-002  0.28217195662398414        0.0000000000000000     
   5.3297512394661621E-002  0.29073707705278617        0.0000000000000000     
   5.3469701174681514E-002  0.29925753078224043        0.0000000000000000     
   2.8931784199887955E-002   5.7184956463614212E-002   0.0000000000000000     
   3.0515593600683621E-002   6.2742839870739475E-002   0.0000000000000000     
   3.2035058657463020E-002   6.8481291287261908E-002   0.0000000000000000     
   3.3490179370226136E-002   7.4400310713181483E-002   0.0000000000000000     
   3.4880955738972992E-002   8.0499898148498228E-002   0.0000000000000000     
   2.5084975828130358E-002   5.6732248666969604E-002   0.0000000000000000     
   2.6442554769893170E-002   6.2317429550248354E-002   0.0000000000000000     
   2.7754407485612632E-002   6.8075937498317765E-002   0.0000000000000000     
   2.9020533975288729E-002   7.4007772511177863E-002   0.0000000000000000     
   3.0240934238921473E-002   8.0112934588828608E-002   0.0000000000000000     
   2.1219296642995662E-002   5.6325521137955283E-002   0.0000000000000000     
   2.2441611376595647E-002   6.1947784748901787E-002   0.0000000000000000     
   2.3605933320437950E-002   6.7733568184905335E-002   0.0000000000000000     
   2.4712262474522562E-002   7.3682871445965914E-002   0.0000000000000000     
   2.5760598838849486E-002   7.9795694532083544E-002   0.0000000000000000     
   1.7334746644483874E-002   5.5964773876571242E-002   0.0000000000000000     
   1.8512763420791053E-002   6.1633905466699779E-002   0.0000000000000000     
   1.9589636161938970E-002   6.7454183347024563E-002   0.0000000000000000     
   2.0565364867927639E-002   7.3425607517545649E-002   0.0000000000000000     
   2.1439949538757046E-002   7.9548177978263010E-002   0.0000000000000000     
   1.3431325832594990E-002   5.5650006882817488E-002   0.0000000000000000     
   1.4656010902479378E-002   6.1375791703642324E-002   0.0000000000000000     
   1.5705516010115699E-002   6.7237782984675518E-002   0.0000000000000000     
   1.6579841155503955E-002   7.3235980725917083E-002   0.0000000000000000     
   1.7278986338644140E-002   7.9370384927367019E-002   0.0000000000000000     
   3.4880955738972992E-002   8.0499898148498228E-002   0.0000000000000000     
   3.6221775350022932E-002   8.6775169371854546E-002   0.0000000000000000     
   3.7527025789695322E-002   9.3221240161892857E-002   0.0000000000000000     
   3.8796707057990161E-002   9.9838110518613160E-002   0.0000000000000000     
   4.0030819154907450E-002  0.10662578044201544        0.0000000000000000     
   3.0240934238921473E-002   8.0112934588828608E-002   0.0000000000000000     
   3.1422502293498272E-002   8.6392586157250151E-002   0.0000000000000000     
   3.2572132156006531E-002   9.2847889642422535E-002   0.0000000000000000     
   3.3689823826446259E-002   9.9478845044345801E-002   0.0000000000000000     
   3.4775577304817451E-002  0.10628545236301992        0.0000000000000000     
   2.5760598838849486E-002   7.9795694532083544E-002   0.0000000000000000     
   2.6767328215125230E-002   8.6079480163452918E-002   0.0000000000000000     
   2.7748836405056269E-002   9.2541671060268768E-002   0.0000000000000000     
   2.8705123408642619E-002   9.9182267222531054E-002   0.0000000000000000     
   2.9636189225884263E-002  0.10600126865023980        0.0000000000000000     
   2.1439949538757046E-002   7.9548177978263010E-002   0.0000000000000000     
   2.2256253114903809E-002   8.5835851390462875E-002   0.0000000000000000     
   2.3057138536844539E-002   9.2302584415431516E-002   0.0000000000000000     
   2.3842605804579226E-002   9.8948377053168904E-002   0.0000000000000000     
   2.4612654918107876E-002  0.10577322930367507        0.0000000000000000     
   1.7278986338644140E-002   7.9370384927367019E-002   0.0000000000000000     
   1.7889276992834015E-002   8.5661699838280050E-002   0.0000000000000000     
   1.8497038551371331E-002   9.2130629707910833E-002   0.0000000000000000     
   1.9102271014256097E-002   9.8777174536259393E-002   0.0000000000000000     
   1.9704974381488299E-002  0.10560133432332573        0.0000000000000000     
   4.0030819154907450E-002  0.10662578044201544        0.0000000000000000     
   4.1214829538100274E-002  0.11355861448218299        0.0000000000000000     
   4.2334205665221711E-002  0.12061097718919903        0.0000000000000000     
   4.3388947536271753E-002  0.12778286856306359        0.0000000000000000     
   4.4379055151250422E-002  0.13507428860377665        0.0000000000000000     
   3.4775577304817451E-002  0.10628545236301992        0.0000000000000000     
   3.5816432559903057E-002  0.11323892674616537        0.0000000000000000     
   3.6799429560485999E-002  0.12031048334150263        0.0000000000000000     
   3.7724568306566307E-002  0.12750012214903167        0.0000000000000000     
   3.8591848798143959E-002  0.13480784316875249        0.0000000000000000     
   2.9636189225884263E-002  0.10600126865023980        0.0000000000000000     
   3.0529569156493064E-002  0.11296857503860032        0.0000000000000000     
   3.1372798500180876E-002  0.12005408608281790        0.0000000000000000     
   3.2165877256947695E-002  0.12725780178289250        0.0000000000000000     
   3.2908805426793523E-002  0.13457972213882419        0.0000000000000000     
   2.4612654918107876E-002  0.10577322930367507        0.0000000000000000     
   2.5354239327870304E-002  0.11274755935948776        0.0000000000000000     
   2.6054312484306317E-002  0.11984178541314480        0.0000000000000000     
   2.6712874387415916E-002  0.12705590746464618        0.0000000000000000     
   2.7329925037199103E-002  0.13438992551399187        0.0000000000000000     
   1.9704974381488299E-002  0.10560133432332573        0.0000000000000000     
   2.0290443074034770E-002  0.11257587970882774        0.0000000000000000     
   2.0843971512862328E-002  0.11967358133248336        0.0000000000000000     
   2.1365559697970975E-002  0.12689443919429258        0.0000000000000000     
   2.1855207629360707E-002  0.13423845329425541        0.0000000000000000     
   4.4379055151250422E-002  0.13507428860377665        0.0000000000000000     
   4.5312685603868509E-002  0.14248365930900694        0.0000000000000000     
   4.6197995987836825E-002  0.15000940267642315        0.0000000000000000     
   4.7034986303155370E-002  0.15765151870602531        0.0000000000000000     
   4.7823656549824144E-002  0.16541000739781342        0.0000000000000000     
   3.8591848798143959E-002  0.13480784316875249        0.0000000000000000     
   3.9408489361622015E-002  0.14223315007782222        0.0000000000000000     
   4.0181708323403537E-002  0.14977554655339803        0.0000000000000000     
   4.0911505683488503E-002  0.15743503259547995        0.0000000000000000     
   4.1597881441876941E-002  0.16521160820406791        0.0000000000000000     
   3.2908805426793523E-002  0.13457972213882419        0.0000000000000000     
   3.3607423805432114E-002  0.14201943186439353        0.0000000000000000     
   3.4267573188577205E-002  0.14957651567338104        0.0000000000000000     
   3.4889253576228817E-002  0.15725097356578677        0.0000000000000000     
   3.5472464968386942E-002  0.16504280554161066        0.0000000000000000     
   2.7329925037199103E-002  0.13438992551399187        0.0000000000000000     
   2.7909488935298776E-002  0.14184250466872086        0.0000000000000000     
   2.8455590583357851E-002  0.14941231003637220        0.0000000000000000     
   2.8968229981376301E-002  0.15709934161694580        0.0000000000000000     
   2.9447407129354158E-002  0.16490359941044180        0.0000000000000000     
   2.1855207629360707E-002  0.13423845329425541        0.0000000000000000     
   2.2314684751222030E-002  0.14170236849080423        0.0000000000000000     
   2.2745760507745454E-002  0.14928292964237144        0.0000000000000000     
   2.3148434898930970E-002  0.15698013674895711        0.0000000000000000     
   2.3522707924778591E-002  0.16479398981056120        0.0000000000000000     
   4.7823656549824144E-002  0.16541000739781342        0.0000000000000000     
   4.8559497980917687E-002  0.17327082933035831        0.0000000000000000     
   4.9238001849510549E-002  0.18121994508223083        0.0000000000000000     
   4.9859168155602707E-002  0.18925735465343108        0.0000000000000000     
   5.0422996899194175E-002  0.19738305804395889        0.0000000000000000     
   4.1597881441876941E-002  0.16521160820406791        0.0000000000000000     
   4.2236639069637226E-002  0.17309085731313845        0.0000000000000000     
   4.2823582037837760E-002  0.18105836385666815        0.0000000000000000     
   4.3358710346478556E-002  0.18911412783465695        0.0000000000000000     
   4.3842023995559601E-002  0.19725814924710491        0.0000000000000000     
   3.5472464968386942E-002  0.16504280554161066        0.0000000000000000     
   3.6013886845124868E-002  0.17293749359709443        0.0000000000000000     
   3.6510198686515921E-002  0.18092051972847972        0.0000000000000000     
   3.6961400492560081E-002  0.18899188393576646        0.0000000000000000     
   3.7367492263257363E-002  0.19715158621895476        0.0000000000000000     
   2.9447407129354158E-002  0.16490359941044180        0.0000000000000000     
   2.9891241307380651E-002  0.17281073818222625        0.0000000000000000     
   3.0297851795545019E-002  0.18080641269766559        0.0000000000000000     
   3.0667238593847280E-002  0.18889062295675965        0.0000000000000000     
   3.0999401702287422E-002  0.19706336895950854        0.0000000000000000     
   2.3522707924778591E-002  0.16479398981056120        0.0000000000000000     
   2.3868702456404538E-002  0.17271059106853395        0.0000000000000000     
   2.4186541364925058E-002  0.18071604276422573        0.0000000000000000     
   2.4476224650340151E-002  0.18881034489763646        0.0000000000000000     
   2.4737752312649807E-002  0.19699349746876621        0.0000000000000000     
   5.0422996899194175E-002  0.19738305804395889        0.0000000000000000     
   5.0927704234670461E-002  0.20558890776505326        0.0000000000000000     
   5.1371506316417050E-002  0.21386675632795296        0.0000000000000000     
   5.1754403144433948E-002  0.22221660373265800        0.0000000000000000     
   5.2076394718721157E-002  0.23063844997916841        0.0000000000000000     
   4.3842023995559601E-002  0.19725814924710491        0.0000000000000000     
   4.4272939835371491E-002  0.20548049332578924        0.0000000000000000     
   4.4650874716204783E-002  0.21377122530248718        0.0000000000000000     
   4.4975828638059476E-002  0.22213034517719876        0.0000000000000000     
   4.5247801600935583E-002  0.23055785294992398        0.0000000000000000     
   3.7367492263257363E-002  0.19715158621895476        0.0000000000000000     
   3.7728409330963796E-002  0.20538786518553423        0.0000000000000000     
   3.8044087028035439E-002  0.21368895944299449        0.0000000000000000     
   3.8314525354472301E-002  0.22205486899133564        0.0000000000000000     
   3.8539724310274373E-002  0.23048559383055756        0.0000000000000000     
   3.0999401702287422E-002  0.19706336895950854        0.0000000000000000     
   3.1294112721447373E-002  0.20531102334428827        0.0000000000000000     
   3.1551143251909032E-002  0.21361995874947498        0.0000000000000000     
   3.1770493293672430E-002  0.22199017517506858        0.0000000000000000     
   3.1952162846737533E-002  0.23042167262106913        0.0000000000000000     
   2.4737752312649807E-002  0.19699349746876621        0.0000000000000000     
   2.4970050006822220E-002  0.20524996780205143        0.0000000000000000     
   2.5172043387825568E-002  0.21356422322192856        0.0000000000000000     
   2.5343732455659847E-002  0.22193626372839767        0.0000000000000000     
   2.5485117210325071E-002  0.23036608932145869        0.0000000000000000     
   5.2076394718721157E-002  0.23063844997916841        0.0000000000000000     
   5.2345513314290201E-002  0.23912366333530122        0.0000000000000000     
   5.2569791206152600E-002  0.24766361206887361        0.0000000000000000     
   5.2749228394308373E-002  0.25625829617988555        0.0000000000000000     
   5.2883824878757507E-002  0.26490771566833704        0.0000000000000000     
   4.5247801600935583E-002  0.23055785294992398        0.0000000000000000     
   4.5475590366596354E-002  0.23903819503371868        0.0000000000000000     
   4.5667991696805070E-002  0.24755581784163869        0.0000000000000000     
   4.5825005591561704E-002  0.25611072137368401        0.0000000000000000     
   4.5946632050866271E-002  0.26470290562985466        0.0000000000000000     
   3.8539724310274373E-002  0.23048559383055756        0.0000000000000000     
   3.8728592704317555E-002  0.23896005960343483        0.0000000000000000     
   3.8890039345477731E-002  0.24745719195274193        0.0000000000000000     
   3.9024064233754922E-002  0.25597699087847881        0.0000000000000000     
   3.9130667369149115E-002  0.26451945638064556        0.0000000000000000     
   3.1952162846737533E-002  0.23042167262106913        0.0000000000000000     
   3.2104520327453791E-002  0.23888925704444969        0.0000000000000000     
   3.2235934152170624E-002  0.24736773440218335        0.0000000000000000     
   3.2346404320888020E-002  0.25585710469427009        0.0000000000000000     
   3.2435930833605998E-002  0.26435736792070991        0.0000000000000000     
   2.5485117210325071E-002  0.23036608932145869        0.0000000000000000     
   2.5603373236005072E-002  0.23882578735676327        0.0000000000000000     
   2.5705676116883722E-002  0.24728744518996290        0.0000000000000000     
   2.5792025852961014E-002  0.25575106282105770        0.0000000000000000     
   2.5862422444236942E-002  0.26421664025004754        0.0000000000000000     
   5.2883824878757507E-002  0.26490771566833704        0.0000000000000000     
   5.3004574246699611E-002  0.27356216949583445        0.0000000000000000     
   5.3142470085334313E-002  0.28217195662398414        0.0000000000000000     
   5.3297512394661621E-002  0.29073707705278617        0.0000000000000000     
   5.3469701174681514E-002  0.29925753078224043        0.0000000000000000     
   4.5946632050866271E-002  0.26470290562985466        0.0000000000000000     
   4.6057168500968970E-002  0.27328187569721601        0.0000000000000000     
   4.6180912368119977E-002  0.28179713666283357        0.0000000000000000     
   4.6317863652319304E-002  0.29024868852670743        0.0000000000000000     
   4.6468022353566930E-002  0.29863653128883744        0.0000000000000000     
   3.9130667369149115E-002  0.26451945638064556        0.0000000000000000     
   3.9228719935940098E-002  0.27303289929834729        0.0000000000000000     
   3.9337093118407676E-002  0.28146563047068901        0.0000000000000000     
   3.9455786916551848E-002  0.28981764989767062        0.0000000000000000     
   3.9584801330372607E-002  0.29808895757929249        0.0000000000000000     
   3.2435930833605998E-002  0.26435736792070991        0.0000000000000000     
   3.2519228551612982E-002  0.27281524029922810        0.0000000000000000     
   3.2611012336197405E-002  0.28117743804755013        0.0000000000000000     
   3.2711282187359261E-002  0.28944396116567594        0.0000000000000000     
   3.2820038105098551E-002  0.29761480965360554        0.0000000000000000     
   2.5862422444236942E-002  0.26421664025004754        0.0000000000000000     
   2.5928694347987623E-002  0.27262889869985862        0.0000000000000000     
   2.6002670021489153E-002  0.28093255939341721        0.0000000000000000     
   2.6084349464741530E-002  0.28912762233072320        0.0000000000000000     
   2.6173732677744761E-002  0.29721408751177669        0.0000000000000000     
   1.3431325832594990E-002   5.5650006882817488E-002   0.0000000000000000     
   1.4656010902479378E-002   6.1375791703642324E-002   0.0000000000000000     
   1.5705516010115699E-002   6.7237782984675518E-002   0.0000000000000000     
   1.6579841155503955E-002   7.3235980725917083E-002   0.0000000000000000     
   1.7278986338644140E-002   7.9370384927367019E-002   0.0000000000000000     
   9.7836383676454843E-003   5.5458552703513686E-002   0.0000000000000000     
   1.0977044109889136E-002   6.1215066175831945E-002   0.0000000000000000     
   1.1943274626331692E-002   6.7099696220214833E-002   0.0000000000000000     
   1.2682329916973155E-002   7.3112442836662309E-002   0.0000000000000000     
   1.3194209981813525E-002   7.9253306025174414E-002   0.0000000000000000     
   6.6662884099518253E-003   5.5467743885479530E-002   0.0000000000000000     
   7.5815533312488196E-003   6.1193351599371199E-002   0.0000000000000000     
   8.2926137719505043E-003   6.7055252175999169E-002   0.0000000000000000     
   8.7994697320568846E-003   7.3053445615363449E-002   0.0000000000000000     
   9.1021212115679536E-003   7.9187931917463983E-002   0.0000000000000000     
   4.0792759595140128E-003   5.5677580428715005E-002   0.0000000000000000     
   4.4695385665584290E-003   6.1310647974260078E-002   0.0000000000000000     
   4.7535334469721371E-003   6.7104450852028555E-002   0.0000000000000000     
   4.9312606007551373E-003   7.3058989062020435E-002   0.0000000000000000     
   5.0027200279074259E-003   7.9174262604235754E-002   0.0000000000000000     
   2.0226010163320483E-003   5.6088062333220133E-002   0.0000000000000000     
   1.6409998158179672E-003   6.1566955300498570E-002   0.0000000000000000     
   1.3260336513965891E-003   6.7247292248302989E-002   0.0000000000000000     
   1.0777025230679154E-003   7.3129073176633363E-002   0.0000000000000000     
   8.9600643083194431E-004   7.9212298085489713E-002   0.0000000000000000     
   1.7278986338644140E-002   7.9370384927367019E-002   0.0000000000000000     
   1.7889276992834015E-002   8.5661699838280050E-002   0.0000000000000000     
   1.8497038551371331E-002   9.2130629707910833E-002   0.0000000000000000     
   1.9102271014256097E-002   9.8777174536259393E-002   0.0000000000000000     
   1.9704974381488299E-002  0.10560133432332573        0.0000000000000000     
   1.3194209981813525E-002   7.9253306025174414E-002   0.0000000000000000     
   1.3597621047155985E-002   8.5546173901273101E-002   0.0000000000000000     
   1.4011269339303724E-002   9.2014934580480365E-002   0.0000000000000000     
   1.4435154858256742E-002   9.8659588062796219E-002   0.0000000000000000     
   1.4869277604015038E-002  0.10548013434822062        0.0000000000000000     
   9.1021212115679536E-003   7.9187931917463983E-002   0.0000000000000000     
   9.3125064761098685E-003   8.5478421973810795E-002   0.0000000000000000     
   9.5425637913087811E-003   9.1944626675913854E-002   0.0000000000000000     
   9.7922931571646950E-003   9.8586546023773119E-002   0.0000000000000000     
   1.0061694573677605E-002  0.10540418001738860        0.0000000000000000     
   5.0027200279074259E-003   7.9174262604235754E-002   0.0000000000000000     
   5.0339332796956633E-003   8.5458444055893132E-002   0.0000000000000000     
   5.0909219073865045E-003   9.1919705994211245E-002   0.0000000000000000     
   5.1736859109799494E-003   9.8558048419190109E-002   0.0000000000000000     
   5.2822252904759981E-003  0.10537347133082969        0.0000000000000000     
   8.9600643083194431E-004   7.9212298085489713E-002   0.0000000000000000     
   7.6190145791337274E-004   8.5486240147520126E-002   0.0000000000000000     
   6.5634368753689437E-004   9.1940172535372594E-002   0.0000000000000000     
   5.7933311970251040E-004   9.8574095249047200E-002   0.0000000000000000     
   5.3086975441021941E-004  0.10538800828854389        0.0000000000000000     
   1.9704974381488299E-002  0.10560133432332573        0.0000000000000000     
   2.0290443074034770E-002  0.11257587970882774        0.0000000000000000     
   2.0843971512862328E-002  0.11967358133248336        0.0000000000000000     
   2.1365559697970975E-002  0.12689443919429258        0.0000000000000000     
   2.1855207629360707E-002  0.13423845329425541        0.0000000000000000     
   1.4869277604015038E-002  0.10548013434822062        0.0000000000000000     
   1.5297409683326374E-002  0.11245189325972076        0.0000000000000000     
   1.5703323202938515E-002  0.11955018462026376        0.0000000000000000     
   1.6087018162851460E-002  0.12677500842984959        0.0000000000000000     
   1.6448494563065207E-002  0.13412636468847833        0.0000000000000000     
   1.0061694573677605E-002  0.10540418001738860        0.0000000000000000     
   1.0334368444085027E-002  0.11237395718526730        0.0000000000000000     
   1.0593915171624479E-002  0.11947230605591615        0.0000000000000000     
   1.0840334756295958E-002  0.12669922662933514        0.0000000000000000     
   1.1073627198099465E-002  0.13405471890552420        0.0000000000000000     
   5.2822252904759981E-003  0.10537347133082969        0.0000000000000000     
   5.4013193563107282E-003  0.11234207148546736        0.0000000000000000     
   5.5157474189202211E-003  0.11943994563944048        0.0000000000000000     
   5.6255094783044749E-003  0.12666709379274901        0.0000000000000000     
   5.7306055344634906E-003  0.13402351594539302        0.0000000000000000     
   5.3086975441021941E-004  0.10538800828854389        0.0000000000000000     
   4.9826242000347836E-004  0.11235623616032098        0.0000000000000000     
   4.6881994482574128E-004  0.11945310337083681        0.0000000000000000     
   4.4254232887700970E-004  0.12667860992009142        0.0000000000000000     
   4.1942957215728230E-004  0.13403275580808471        0.0000000000000000     
   2.1855207629360707E-002  0.13423845329425541        0.0000000000000000     
   2.2314684751222030E-002  0.14170236849080423        0.0000000000000000     
   2.2745760507745454E-002  0.14928292964237144        0.0000000000000000     
   2.3148434898930970E-002  0.15698013674895711        0.0000000000000000     
   2.3522707924778591E-002  0.16479398981056120        0.0000000000000000     
   1.6448494563065207E-002  0.13412636468847833        0.0000000000000000     
   1.6787350422749241E-002  0.14159901543002079        0.0000000000000000     
   1.7103183761073067E-002  0.14918772268834779        0.0000000000000000     
   1.7395994578036676E-002  0.15689248646345932        0.0000000000000000     
   1.7665782873640064E-002  0.16471330675535545        0.0000000000000000     
   1.1073627198099465E-002  0.13405471890552420        0.0000000000000000     
   1.1291825119427789E-002  0.14153243758574779        0.0000000000000000     
   1.1492961142673725E-002  0.14912603737127014        0.0000000000000000     
   1.1677035267837269E-002  0.15683551826209122        0.0000000000000000     
   1.1844047494918422E-002  0.16466088025821102        0.0000000000000000     
   5.7306055344634906E-003  0.13402351594539302        0.0000000000000000     
   5.8281088412576749E-003  0.14150263495798523        0.0000000000000000     
   5.9150926525474278E-003  0.14909787369113842        0.0000000000000000     
   5.9915569683327554E-003  0.15680923214485273        0.0000000000000000     
   6.0575017886136543E-003  0.16463671031912802        0.0000000000000000     
   4.1942957215728230E-004  0.13403275580808471        0.0000000000000000     
   3.9620158823889433E-004  0.14150960754673306        0.0000000000000000     
   3.6957829069417941E-004  0.14910323164795278        0.0000000000000000     
   3.3955967952313581E-004  0.15681362811174393        0.0000000000000000     
   3.0614575472576525E-004  0.16464079693810638        0.0000000000000000     
   2.3522707924778591E-002  0.16479398981056120        0.0000000000000000     
   2.3868702456404538E-002  0.17271059106853395        0.0000000000000000     
   2.4186541364925058E-002  0.18071604276422573        0.0000000000000000     
   2.4476224650340151E-002  0.18881034489763646        0.0000000000000000     
   2.4737752312649807E-002  0.19699349746876621        0.0000000000000000     
   1.7665782873640064E-002  0.16471330675535545        0.0000000000000000     
   1.7914616554962102E-002  0.17263673566802301        0.0000000000000000     
   1.8144563529081646E-002  0.18064932530544905        0.0000000000000000     
   1.8355623795998689E-002  0.18875107566763344        0.0000000000000000     
   1.8547797355713241E-002  0.19694198675457639        0.0000000000000000     
   1.1844047494918422E-002  0.16466088025821102        0.0000000000000000     
   1.1997329865818892E-002  0.17258885539269897        0.0000000000000000     
   1.2140214422440388E-002  0.18060617569862439        0.0000000000000000     
   1.2272701164782910E-002  0.18871284117598727        0.0000000000000000     
   1.2394790092846459E-002  0.19690885182478757        0.0000000000000000     
   6.0575017886136543E-003  0.16463671031912802        0.0000000000000000     
   6.1168423889749052E-003  0.17256695024256186        0.0000000000000000     
   6.1734940450012916E-003  0.18058659394375179        0.0000000000000000     
   6.2274567566928066E-003  0.18869564142269776        0.0000000000000000     
   6.2787305240494563E-003  0.19689409267939983        0.0000000000000000     
   3.0614575472576525E-004  0.16464079693810638        0.0000000000000000     
   2.7315412443014572E-004  0.17257102021761164        0.0000000000000000     
   2.4440239676434914E-004  0.18059058004083123        0.0000000000000000     
   2.1989057172838071E-004  0.18869947640776502        0.0000000000000000     
   1.9961864932223827E-004  0.19689770931841311        0.0000000000000000     
   2.4737752312649807E-002  0.19699349746876621        0.0000000000000000     
   2.4970050006822220E-002  0.20524996780205143        0.0000000000000000     
   2.5172043387825568E-002  0.21356422322192856        0.0000000000000000     
   2.5343732455659847E-002  0.22193626372839767        0.0000000000000000     
   2.5485117210325071E-002  0.23036608932145869        0.0000000000000000     
   1.8547797355713241E-002  0.19694198675457639        0.0000000000000000     
   1.8719151832622499E-002  0.20520485137563288        0.0000000000000000     
   1.8867754851123658E-002  0.21352246234015840        0.0000000000000000     
   1.8993606411216724E-002  0.22189481964815277        0.0000000000000000     
   1.9096706512901688E-002  0.23032192329961612        0.0000000000000000     
   1.2394790092846459E-002  0.19690885182478757        0.0000000000000000     
   1.2504348844382356E-002  0.20517582688184205        0.0000000000000000     
   1.2599245057141932E-002  0.21349538558396752        0.0000000000000000     
   1.2679478731125184E-002  0.22186752793116393        0.0000000000000000     
   1.2745049866332110E-002  0.23029225392343128        0.0000000000000000     
   6.2787305240494563E-003  0.19689409267939983        0.0000000000000000     
   6.3256410421017994E-003  0.20516289432067888        0.0000000000000000     
   6.3665140058803936E-003  0.21348299295335596        0.0000000000000000     
   6.4013494153852398E-003  0.22185438857743106        0.0000000000000000     
   6.4301472706163373E-003  0.23027708119290419        0.0000000000000000     
   1.9961864932223827E-004  0.19689770931841311        0.0000000000000000     
   1.8302842578082380E-004  0.20516605369214339        0.0000000000000000     
   1.6956169733904061E-004  0.21348528444832374        0.0000000000000000     
   1.5921846399689031E-004  0.22185540158695422        0.0000000000000000     
   1.5199872575436891E-004  0.23027640510803485        0.0000000000000000     
   2.5485117210325071E-002  0.23036608932145869        0.0000000000000000     
   2.5603373236005072E-002  0.23882578735676327        0.0000000000000000     
   2.5705676116883722E-002  0.24728744518996290        0.0000000000000000     
   2.5792025852961014E-002  0.25575106282105770        0.0000000000000000     
   2.5862422444236942E-002  0.26421664025004754        0.0000000000000000     
   1.9096706512901688E-002  0.23032192329961612        0.0000000000000000     
   1.9182570291738546E-002  0.23877412262908462        0.0000000000000000     
   1.9256712883287286E-002  0.24722176697109460        0.0000000000000000     
   1.9319134287547911E-002  0.25566485632564595        0.0000000000000000     
   1.9369834504520414E-002  0.26410339069273880        0.0000000000000000     
   1.2745049866332110E-002  0.23029225392343128        0.0000000000000000     
   1.2799530356421359E-002  0.23873873495012293        0.0000000000000000     
   1.2846492095051567E-002  0.24717614240059232        0.0000000000000000     
   1.2885935082222740E-002  0.25560447627483934        0.0000000000000000     
   1.2917859317934877E-002  0.26402373657286410        0.0000000000000000     
   6.4301472706163373E-003  0.23027708119290419        0.0000000000000000     
   6.4542534300535050E-003  0.23871962431987823        0.0000000000000000     
   6.4750137521765623E-003  0.24715057147845612        0.0000000000000000     
   6.4924282369855030E-003  0.25556992266863787        0.0000000000000000     
   6.5064968844803324E-003  0.26397767789042342        0.0000000000000000     
   1.5199872575436891E-004  0.23027640510803485        0.0000000000000000     
   1.4673951263499165E-004  0.23871679073835050        0.0000000000000000     
   1.4227785466226610E-004  0.24714505420468599        0.0000000000000000     
   1.3861375183619738E-004  0.25556119550704148        0.0000000000000000     
   1.3574720415678032E-004  0.26396521464541672        0.0000000000000000     
   2.5862422444236942E-002  0.26421664025004754        0.0000000000000000     
   2.5928694347987623E-002  0.27262889869985862        0.0000000000000000     
   2.6002670021489153E-002  0.28093255939341721        0.0000000000000000     
   2.6084349464741530E-002  0.28912762233072320        0.0000000000000000     
   2.6173732677744761E-002  0.29721408751177669        0.0000000000000000     
   1.9369834504520414E-002  0.26410339069273880        0.0000000000000000     
   1.9418195079398324E-002  0.27248015134089681        0.0000000000000000     
   1.9473597557375169E-002  0.28073791953864352        0.0000000000000000     
   1.9536041938450939E-002  0.28887669528597909        0.0000000000000000     
   1.9605528222625644E-002  0.29689647858290341        0.0000000000000000     
   1.2917859317934877E-002  0.26402373657286410        0.0000000000000000     
   1.2948808500179388E-002  0.27237527506300047        0.0000000000000000     
   1.2985326326947683E-002  0.28060044351358249        0.0000000000000000     
   1.3027412798239763E-002  0.28869924192461005        0.0000000000000000     
   1.3075067914055622E-002  0.29667167029608321        0.0000000000000000     
   6.5064968844803324E-003  0.26397767789042342        0.0000000000000000     
   6.5205346103308099E-003  0.27231426986616986        0.0000000000000000     
   6.5378563302066961E-003  0.28052013131823411        0.0000000000000000     
   6.5584620441079891E-003  0.28859526224661625        0.0000000000000000     
   6.5823517520346916E-003  0.29653966265131615        0.0000000000000000     
   1.3574720415678032E-004  0.26396521464541672        0.0000000000000000     
   1.3337340985259240E-004  0.27229713575040482        0.0000000000000000     
   1.3118756715220828E-004  0.28049698295259834        0.0000000000000000     
   1.2918967605562813E-004  0.28856475625199751        0.0000000000000000     
   1.2737973656285189E-004  0.29650045564860217        0.0000000000000000     
   2.0226010163320483E-003   5.6088062333220133E-002   0.0000000000000000     
   1.6409998158179672E-003   6.1566955300498570E-002   0.0000000000000000     
   1.3260336513965891E-003   6.7247292248302989E-002   0.0000000000000000     
   1.0777025230679154E-003   7.3129073176633363E-002   0.0000000000000000     
   8.9600643083194431E-004   7.9212298085489713E-002   0.0000000000000000     
  -3.1762330805634666E-004   5.6452965090924796E-002   0.0000000000000000     
  -1.3992569749878268E-003   6.1800760677401610E-002   0.0000000000000000     
  -2.2573962951398727E-003   6.7385232728418260E-002   0.0000000000000000     
  -2.8920412685124850E-003   7.3206381243974758E-002   0.0000000000000000     
  -3.3031918951056645E-003   7.9264206224071113E-002   0.0000000000000000     
  -3.7552839021134507E-003   5.6526064193758878E-002   0.0000000000000000     
  -5.1464258598742096E-003   6.1850551204284059E-002   0.0000000000000000     
  -6.2642670730009842E-003   6.7419728655970151E-002   0.0000000000000000     
  -7.1088075414937734E-003   7.3233596548817198E-002   0.0000000000000000     
  -7.6800472653525739E-003   7.9292154882825150E-002   0.0000000000000000     
  -8.2903807658392635E-003   5.6307359641722406E-002   0.0000000000000000     
  -9.6005068388411822E-003   6.1716326881145950E-002   0.0000000000000000     
  -1.0694578682186743E-002   6.7350780030958693E-002   0.0000000000000000     
  -1.1572596295875943E-002   7.3210719091160684E-002   0.0000000000000000     
  -1.2234559679908781E-002   7.9296144061751839E-002   0.0000000000000000     
  -1.3922913899233785E-002   5.5796851434815345E-002   0.0000000000000000     
  -1.4761499911888744E-002   6.1398087707987270E-002   0.0000000000000000     
  -1.5548331122697148E-002   6.7178386853383884E-002   0.0000000000000000     
  -1.6283407531658994E-002   7.3137748871005173E-002   0.0000000000000000     
  -1.6966729138774284E-002   7.9276173760851165E-002   0.0000000000000000     
   8.9600643083194431E-004   7.9212298085489713E-002   0.0000000000000000     
   7.6190145791337274E-004   8.5486240147520126E-002   0.0000000000000000     
   6.5634368753689437E-004   9.1940172535372594E-002   0.0000000000000000     
   5.7933311970251040E-004   9.8574095249047200E-002   0.0000000000000000     
   5.3086975441021941E-004  0.10538800828854389        0.0000000000000000     
  -3.3031918951056645E-003   7.9264206224071113E-002   0.0000000000000000     
  -3.5882921684932800E-003   8.5531528889850106E-002   0.0000000000000000     
  -3.8447860822491998E-003   9.1981170462454506E-002   0.0000000000000000     
  -4.0726736363734251E-003   9.8613130941884355E-002   0.0000000000000000     
  -4.2719548308659556E-003  0.10542741032813963        0.0000000000000000     
  -7.6800472653525739E-003   7.9292154882825150E-002   0.0000000000000000     
  -8.1013507787805663E-003   8.5564028924041469E-002   0.0000000000000000     
  -8.4960826159809263E-003   9.2017843938513630E-002   0.0000000000000000     
  -8.8642427769536573E-003   9.8653599926241592E-002   0.0000000000000000     
  -9.2058312616987541E-003  0.10547129688722542        0.0000000000000000     
  -1.2234559679908781E-002   7.9296144061751839E-002   0.0000000000000000     
  -1.2777274372948485E-002   8.5583740250094256E-002   0.0000000000000000     
  -1.3297545913658285E-002   9.2050192963549951E-002   0.0000000000000000     
  -1.3795374302038182E-002   9.8695502202118951E-002   0.0000000000000000     
  -1.4270759538088176E-002  0.10551966796580121        0.0000000000000000     
  -1.6966729138774284E-002   7.9276173760851165E-002   0.0000000000000000     
  -1.7616062950997036E-002   8.5590662868008399E-002   0.0000000000000000     
  -1.8249175975281279E-002   9.2078217537563470E-002   0.0000000000000000     
  -1.8866068211627004E-002   9.8738837769516336E-002   0.0000000000000000     
  -1.9466739660034215E-002  0.10557252356386707        0.0000000000000000     
   5.3086975441021941E-004  0.10538800828854389        0.0000000000000000     
   4.9826242000347836E-004  0.11235623616032098        0.0000000000000000     
   4.6881994482574128E-004  0.11945310337083681        0.0000000000000000     
   4.4254232887700970E-004  0.12667860992009142        0.0000000000000000     
   4.1942957215728230E-004  0.13403275580808471        0.0000000000000000     
  -4.2719548308659556E-003  0.10542741032813963        0.0000000000000000     
  -4.4516282284450424E-003  0.11239641040711018        0.0000000000000000     
  -4.6206923918289339E-003  0.11949253296468587        0.0000000000000000     
  -4.7791473210176310E-003  0.12671577800086670        0.0000000000000000     
  -4.9269930160111362E-003  0.13406614551565268        0.0000000000000000     
  -9.2058312616987541E-003  0.10547129688722542        0.0000000000000000     
  -9.5251784526431509E-003  0.11244255342311699        0.0000000000000000     
  -9.8266147322137818E-003  0.11953898813556835        0.0000000000000000     
  -1.0110140100410643E-002  0.12676060102457945        0.0000000000000000     
  -1.0375754557233736E-002  0.13410739209015032        0.0000000000000000     
  -1.4270759538088176E-002  0.10551966796580121        0.0000000000000000     
  -1.4722388252590849E-002  0.11249466520834144        0.0000000000000000     
  -1.5148947076328799E-002  0.11959246888348424        0.0000000000000000     
  -1.5550436009302022E-002  0.12681307899122962        0.0000000000000000     
  -1.5926855051510515E-002  0.13415649553157760        0.0000000000000000     
  -1.9466739660034215E-002  0.10557252356386707        0.0000000000000000     
  -2.0043257628288135E-002  0.11255274576278348        0.0000000000000000     
  -2.0587689424173987E-002  0.11965297520843356        0.0000000000000000     
  -2.1100035047691767E-002  0.12687321190081724        0.0000000000000000     
  -2.1580294498841482E-002  0.13421345583993455        0.0000000000000000     
   4.1942957215728230E-004  0.13403275580808471        0.0000000000000000     
   3.9620158823889433E-004  0.14150960754673306        0.0000000000000000     
   3.6957829069417941E-004  0.14910323164795278        0.0000000000000000     
   3.3955967952313581E-004  0.15681362811174393        0.0000000000000000     
   3.0614575472576525E-004  0.16464079693810638        0.0000000000000000     
  -4.9269930160111362E-003  0.13406614551565268        0.0000000000000000     
  -5.0675532266176099E-003  0.14153902709987382        0.0000000000000000     
  -5.2041517026452239E-003  0.14912981434436021        0.0000000000000000     
  -5.3367884440939763E-003  0.15683850724911175        0.0000000000000000     
  -5.4654634509638689E-003  0.16466510581412858        0.0000000000000000     
  -1.0375754557233736E-002  0.13410739209015032        0.0000000000000000     
  -1.0626812190300901E-002  0.14157656536529004        0.0000000000000000     
  -1.0866667087229980E-002  0.14916532488300774        0.0000000000000000     
  -1.1095319248020969E-002  0.15687367064330346        0.0000000000000000     
  -1.1312768672673874E-002  0.16470160264617709        0.0000000000000000     
  -1.5926855051510515E-002  0.13415649553157760        0.0000000000000000     
  -1.6281575302810974E-002  0.14162222234298172        0.0000000000000000     
  -1.6617967863060083E-002  0.14920976326389548        0.0000000000000000     
  -1.6936032732257841E-002  0.15691911829431887        0.0000000000000000     
  -1.7235769910404250E-002  0.16475028743425196        0.0000000000000000     
  -2.1580294498841482E-002  0.13421345583993455        0.0000000000000000     
  -2.2031842564147835E-002  0.14167599803294881        0.0000000000000000     
  -2.2458054030135541E-002  0.14926312948702330        0.0000000000000000     
  -2.2858928896804596E-002  0.15697485020215809        0.0000000000000000     
  -2.3234467164155000E-002  0.16481116017835312        0.0000000000000000     
   3.0614575472576525E-004  0.16464079693810638        0.0000000000000000     
   2.7315412443014572E-004  0.17257102021761164        0.0000000000000000     
   2.4440239676434914E-004  0.18059058004083123        0.0000000000000000     
   2.1989057172838071E-004  0.18869947640776502        0.0000000000000000     
   1.9961864932223827E-004  0.19689770931841311        0.0000000000000000     
  -5.4654634509638689E-003  0.16466510581412858        0.0000000000000000     
  -5.5868447055788199E-003  0.17259498725807274        0.0000000000000000     
  -5.6976001902627523E-003  0.18061352879960629        0.0000000000000000     
  -5.7977299050156585E-003  0.18872073043872928        0.0000000000000000     
  -5.8872338498375462E-003  0.19691659217544177        0.0000000000000000     
  -1.1312768672673874E-002  0.16470160264617709        0.0000000000000000     
  -1.1516263878815420E-002  0.17263277330416926        0.0000000000000000     
  -1.1703053384072331E-002  0.18065083502982052        0.0000000000000000     
  -1.1873137188444608E-002  0.18875578782313074        0.0000000000000000     
  -1.2026515291932247E-002  0.19694763168410009        0.0000000000000000     
  -1.7235769910404250E-002  0.16475028743425196        0.0000000000000000     
  -1.7515103395279653E-002  0.17268437835590139        0.0000000000000000     
  -1.7771957184664396E-002  0.18070249873147387        0.0000000000000000     
  -1.8006331278558461E-002  0.18880464856096946        0.0000000000000000     
  -1.8218225676961866E-002  0.19699082784438809        0.0000000000000000     
  -2.3234467164155000E-002  0.16481116017835312        0.0000000000000000     
  -2.3583363254971523E-002  0.17274980241326907        0.0000000000000000     
  -2.3904311592038929E-002  0.18076851990456644        0.0000000000000000     
  -2.4197312175357220E-002  0.18886731265224532        0.0000000000000000     
  -2.4462365004926399E-002  0.19704618065630569        0.0000000000000000     
   1.9961864932223827E-004  0.19689770931841311        0.0000000000000000     
   1.8302842578082380E-004  0.20516605369214339        0.0000000000000000     
   1.6956169733904061E-004  0.21348528444832374        0.0000000000000000     
   1.5921846399689031E-004  0.22185540158695422        0.0000000000000000     
   1.5199872575436891E-004  0.23027640510803485        0.0000000000000000     
  -5.8872338498375462E-003  0.19691659217544177        0.0000000000000000     
  -5.9654863013080418E-003  0.20518250553398568        0.0000000000000000     
  -6.0318615360067766E-003  0.21349986203860299        0.0000000000000000     
  -6.0863595539337482E-003  0.22186866168929373        0.0000000000000000     
  -6.1289803550889609E-003  0.23028890448605793        0.0000000000000000     
  -1.2026515291932247E-002  0.19694763168410009        0.0000000000000000     
  -1.2161900435892277E-002  0.20520945038395599        0.0000000000000000     
  -1.2278005361681716E-002  0.21352432769392590        0.0000000000000000     
  -1.2374830069300560E-002  0.22189226361401002        0.0000000000000000     
  -1.2452374558748815E-002  0.23031325814420814        0.0000000000000000     
  -1.8218225676961866E-002  0.19699082784438809        0.0000000000000000     
  -1.8406213977971878E-002  0.20524688824205425        0.0000000000000000     
  -1.8568869779685773E-002  0.21355868141429254        0.0000000000000000     
  -1.8706193082103542E-002  0.22192620736110294        0.0000000000000000     
  -1.8818183885225194E-002  0.23034946608248547        0.0000000000000000     
  -2.4462365004926399E-002  0.19704618065630569        0.0000000000000000     
  -2.4698426927546844E-002  0.20529481910828054        0.0000000000000000     
  -2.4904454790018942E-002  0.21360292319970287        0.0000000000000000     
  -2.5080448592342694E-002  0.22197049293057264        0.0000000000000000     
  -2.5226408334518103E-002  0.23039752830088991        0.0000000000000000     
   1.5199872575436891E-004  0.23027640510803485        0.0000000000000000     
   1.4673951263499165E-004  0.23871679073835050        0.0000000000000000     
   1.4227785466226610E-004  0.24714505420468599        0.0000000000000000     
   1.3861375183619738E-004  0.25556119550704148        0.0000000000000000     
   1.3574720415678032E-004  0.26396521464541672        0.0000000000000000     
  -6.1289803550889609E-003  0.23028890448605793        0.0000000000000000     
  -6.1632258276751147E-003  0.23872945059910169        0.0000000000000000     
  -6.1925978598949124E-003  0.24715916019863104        0.0000000000000000     
  -6.2170964517483584E-003  0.25557803328464607        0.0000000000000000     
  -6.2367216032354501E-003  0.26398606985714673        0.0000000000000000     
  -1.2452374558748815E-002  0.23031325814420814        0.0000000000000000     
  -1.2515857022717732E-002  0.23875682029569381        0.0000000000000000     
  -1.2570495653898577E-002  0.24719245907964030        0.0000000000000000     
  -1.2616290452291342E-002  0.25562017449604774        0.0000000000000000     
  -1.2653241417896029E-002  0.26403996654491602        0.0000000000000000     
  -1.8818183885225194E-002  0.23034946608248547        0.0000000000000000     
  -1.8911154072492876E-002  0.23879889982812685        0.0000000000000000     
  -1.8991415527348725E-002  0.24724495084771386        0.0000000000000000     
  -1.9058968249792758E-002  0.25568761914124644        0.0000000000000000     
  -1.9113812239824959E-002  0.26412690470872463        0.0000000000000000     
  -2.5226408334518103E-002  0.23039752830088991        0.0000000000000000     
  -2.5349116977000527E-002  0.23885568919640082        0.0000000000000000     
  -2.5455357480245366E-002  0.24731663550285160        0.0000000000000000     
  -2.5545129844252602E-002  0.25578036722024217        0.0000000000000000     
  -2.5618434069022235E-002  0.26424688434857257        0.0000000000000000     
   1.3574720415678032E-004  0.26396521464541672        0.0000000000000000     
   1.3337340985259240E-004  0.27229713575040482        0.0000000000000000     
   1.3118756715220828E-004  0.28049698295259834        0.0000000000000000     
   1.2918967605562813E-004  0.28856475625199751        0.0000000000000000     
   1.2737973656285189E-004  0.29650045564860217        0.0000000000000000     
  -6.2367216032354501E-003  0.26398606985714673        0.0000000000000000     
  -6.2553770214882672E-003  0.27232350630484969        0.0000000000000000     
  -6.2769664136388863E-003  0.28053057901647155        0.0000000000000000     
  -6.3014897796873056E-003  0.28860728799201224        0.0000000000000000     
  -6.3289471196335285E-003  0.29655363323147199        0.0000000000000000     
  -1.2653241417896029E-002  0.26403996654491602        0.0000000000000000     
  -1.2688418603924769E-002  0.27239301511864883        0.0000000000000000     
  -1.2728892063589691E-002  0.28062050010964984        0.0000000000000000     
  -1.2774661796890793E-002  0.28872242151791894        0.0000000000000000     
  -1.2825727803828079E-002  0.29669877934345623        0.0000000000000000     
  -1.9113812239824959E-002  0.26412690470872463        0.0000000000000000     
  -1.9165751337456915E-002  0.27250566219180233        0.0000000000000000     
  -1.9224589382700209E-002  0.28076674623213321        0.0000000000000000     
  -1.9290326375554837E-002  0.28891015682971743        0.0000000000000000     
  -1.9362962316020801E-002  0.29693589398455489        0.0000000000000000     
  -2.5618434069022235E-002  0.26424688434857257        0.0000000000000000     
  -2.5687375222084707E-002  0.27266144752431004        0.0000000000000000     
  -2.5764058370970438E-002  0.28096931738392172        0.0000000000000000     
  -2.5848483515679435E-002  0.28917049392740773        0.0000000000000000     
  -2.5940650656211692E-002  0.29726497715476807        0.0000000000000000     
  -1.3922913899233785E-002   5.5796851434815345E-002   0.0000000000000000     
  -1.4761499911888744E-002   6.1398087707987270E-002   0.0000000000000000     
  -1.5548331122697148E-002   6.7178386853383884E-002   0.0000000000000000     
  -1.6283407531658994E-002   7.3137748871005173E-002   0.0000000000000000     
  -1.6966729138774284E-002   7.9276173760851165E-002   0.0000000000000000     
  -1.9534722487630430E-002   5.5374938735487260E-002   0.0000000000000000     
  -1.9930545758041589E-002   6.1154309747890045E-002   0.0000000000000000     
  -2.0431190438752567E-002   6.7069971721880020E-002   0.0000000000000000     
  -2.1036656529763366E-002   7.3121924657457191E-002   0.0000000000000000     
  -2.1746944031073974E-002   7.9310168554621557E-002   0.0000000000000000     
  -2.4007645716362606E-002   5.5422020706187680E-002   0.0000000000000000     
  -2.4408785056324399E-002   6.1243469063936282E-002   0.0000000000000000     
  -2.4948822674573354E-002   6.7192957235081438E-002   0.0000000000000000     
  -2.5627758571109462E-002   7.3270485219623163E-002   0.0000000000000000     
  -2.6445592745932733E-002   7.9476053017561443E-002   0.0000000000000000     
  -2.7341683585430317E-002   5.5938097346916599E-002   0.0000000000000000     
  -2.8196217806737183E-002   6.1665565656125979E-002   0.0000000000000000     
  -2.9101227830159511E-002   6.7547343392988124E-002   0.0000000000000000     
  -3.0056713655697315E-002   7.3583430557503063E-002   0.0000000000000000     
  -3.1062675283350560E-002   7.9773827149670795E-002   0.0000000000000000     
  -2.9536836094833558E-002   5.6923168657674030E-002   0.0000000000000000     
  -3.1292844009279938E-002   6.2420599524459136E-002   0.0000000000000000     
  -3.2888405905511044E-002   6.8133130195600106E-002   0.0000000000000000     
  -3.4323521783526885E-002   7.4060760671096945E-002   0.0000000000000000     
  -3.5598191643327462E-002   8.0203490950949641E-002   0.0000000000000000     
  -1.6966729138774284E-002   7.9276173760851165E-002   0.0000000000000000     
  -1.7616062950997036E-002   8.5590662868008399E-002   0.0000000000000000     
  -1.8249175975281279E-002   9.2078217537563470E-002   0.0000000000000000     
  -1.8866068211627004E-002   9.8738837769516336E-002   0.0000000000000000     
  -1.9466739660034215E-002  0.10557252356386707        0.0000000000000000     
  -2.1746944031073974E-002   7.9310168554621557E-002   0.0000000000000000     
  -2.2504593344012037E-002   8.5649878369653612E-002   0.0000000000000000     
  -2.3252144869905168E-002   9.2156229058833847E-002   0.0000000000000000     
  -2.3989598608753375E-002   9.8829220622162248E-002   0.0000000000000000     
  -2.4716954560556652E-002  0.10566885305963886        0.0000000000000000     
  -2.6445592745932733E-002   7.9476053017561443E-002   0.0000000000000000     
  -2.7329742383079277E-002   8.5826468346899554E-002   0.0000000000000000     
  -2.8207624666585215E-002   9.2338538925640784E-002   0.0000000000000000     
  -2.9079239596450545E-002   9.9012264753785106E-002   0.0000000000000000     
  -2.9944587172675265E-002  0.10584764583133252        0.0000000000000000     
  -3.1062675283350560E-002   7.9773827149670795E-002   0.0000000000000000     
  -3.2091510068198770E-002   8.6120432799746210E-002   0.0000000000000000     
  -3.3115615365321420E-002   9.2625147137984226E-002   0.0000000000000000     
  -3.4134991174718514E-002   9.9287970164384828E-002   0.0000000000000000     
  -3.5149637496390045E-002  0.10610890187894809        0.0000000000000000     
  -3.5598191643327462E-002   8.0203490950949641E-002   0.0000000000000000     
  -3.6789896399370511E-002   8.6531771728193596E-002   0.0000000000000000     
  -3.7976116966113790E-002   9.3016053695864243E-002   0.0000000000000000     
  -3.9156853343557278E-002   9.9656336853961525E-002   0.0000000000000000     
  -4.0332105531701003E-002  0.10645262120248548        0.0000000000000000     
  -1.9466739660034215E-002  0.10557252356386707        0.0000000000000000     
  -2.0043257628288135E-002  0.11255274576278348        0.0000000000000000     
  -2.0587689424173987E-002  0.11965297520843356        0.0000000000000000     
  -2.1100035047691767E-002  0.12687321190081724        0.0000000000000000     
  -2.1580294498841482E-002  0.13421345583993455        0.0000000000000000     
  -2.4716954560556652E-002  0.10566885305963886        0.0000000000000000     
  -2.5419673282215192E-002  0.11265080769446251        0.0000000000000000     
  -2.6083215330629173E-002  0.11975076584983209        0.0000000000000000     
  -2.6707580705798598E-002  0.12696872752574762        0.0000000000000000     
  -2.7292769407723464E-002  0.13430469272220913        0.0000000000000000     
  -2.9944587172675265E-002  0.10584764583133252        0.0000000000000000     
  -3.0783521916852206E-002  0.11282286361139779        0.0000000000000000     
  -3.1575898350574193E-002  0.11991609954709569        0.0000000000000000     
  -3.2321716473841217E-002  0.12712735363842614        0.0000000000000000     
  -3.3020976286653285E-002  0.13445662588538920        0.0000000000000000     
  -3.5149637496390045E-002  0.10610890187894809        0.0000000000000000     
  -3.6134803532199167E-002  0.11306891351358937        0.0000000000000000     
  -3.7065738484009035E-002  0.12014897630022428        0.0000000000000000     
  -3.7942442351819643E-002  0.12734909023885282        0.0000000000000000     
  -3.8764915135630976E-002  0.13466925532947488        0.0000000000000000     
  -4.0332105531701003E-002  0.10645262120248548        0.0000000000000000     
  -4.1473518128256087E-002  0.11338895740103724        0.0000000000000000     
  -4.2552735730933704E-002  0.12044939610921795        0.0000000000000000     
  -4.3569758339733838E-002  0.12763393732702757        0.0000000000000000     
  -4.4524585954656498E-002  0.13494258105446613        0.0000000000000000     
  -2.1580294498841482E-002  0.13421345583993455        0.0000000000000000     
  -2.2031842564147835E-002  0.14167599803294881        0.0000000000000000     
  -2.2458054030135541E-002  0.14926312948702330        0.0000000000000000     
  -2.2858928896804596E-002  0.15697485020215809        0.0000000000000000     
  -2.3234467164155000E-002  0.16481116017835312        0.0000000000000000     
  -2.7292769407723464E-002  0.13430469272220913        0.0000000000000000     
  -2.7842277990152660E-002  0.14176291416724482        0.0000000000000000     
  -2.8359603006835092E-002  0.14934764458888314        0.0000000000000000     
  -2.8844744457770750E-002  0.15705888398712406        0.0000000000000000     
  -2.9297702342959624E-002  0.16489663236196755        0.0000000000000000     
  -3.3020976286653285E-002  0.13445662588538920        0.0000000000000000     
  -3.3677545596666636E-002  0.14190799247792329        0.0000000000000000     
  -3.4295292211537480E-002  0.14948552960596681        0.0000000000000000     
  -3.4874216131265803E-002  0.15718923726951972        0.0000000000000000     
  -3.5414317355851641E-002  0.16501911546858208        0.0000000000000000     
  -3.8764915135630976E-002  0.13466925532947488        0.0000000000000000     
  -3.9537645383689764E-002  0.14211123296498418        0.0000000000000000     
  -4.0265121644242695E-002  0.14967678453827427        0.0000000000000000     
  -4.0947343917289790E-002  0.15736591004934511        0.0000000000000000     
  -4.1584312202831042E-002  0.16517860949819677        0.0000000000000000     
  -4.4524585954656498E-002  0.13494258105446613        0.0000000000000000     
  -4.5422577351222029E-002  0.14237263562842753        0.0000000000000000     
  -4.6269091304950764E-002  0.14992140938580556        0.0000000000000000     
  -4.7064127815842689E-002  0.15758890232660028        0.0000000000000000     
  -4.7807686883897825E-002  0.16537511445081160        0.0000000000000000     
  -2.3234467164155000E-002  0.16481116017835312        0.0000000000000000     
  -2.3583363254971523E-002  0.17274980241326907        0.0000000000000000     
  -2.3904311592038929E-002  0.18076851990456644        0.0000000000000000     
  -2.4197312175357220E-002  0.18886731265224532        0.0000000000000000     
  -2.4462365004926399E-002  0.19704618065630569        0.0000000000000000     
  -2.9297702342959624E-002  0.16489663236196755        0.0000000000000000     
  -2.9717935441472693E-002  0.17283601238735521        0.0000000000000000     
  -3.0104902532380892E-002  0.18085214673722866        0.0000000000000000     
  -3.0458603615684230E-002  0.18894503541158786        0.0000000000000000     
  -3.0779038691382706E-002  0.19711467841043290        0.0000000000000000     
  -3.5414317355851641E-002  0.16501911546858208        0.0000000000000000     
  -3.5915711938364819E-002  0.17294997518924282        0.0000000000000000     
  -3.6378515931875216E-002  0.18095662741759100        0.0000000000000000     
  -3.6802729336382817E-002  0.18903907215362659        0.0000000000000000     
  -3.7188352151887642E-002  0.19719730939734953        0.0000000000000000     
  -4.1584312202831042E-002  0.16517860949819677        0.0000000000000000     
  -4.2176692745647913E-002  0.17309169081893197        0.0000000000000000     
  -4.2725151790521901E-002  0.18108196194565357        0.0000000000000000     
  -4.3229689337452998E-002  0.18914942287836142        0.0000000000000000     
  -4.3690305386441211E-002  0.19729407361705567        0.0000000000000000     
  -4.7807686883897825E-002  0.16537511445081160        0.0000000000000000     
  -4.8500877863321974E-002  0.17326115927642260        0.0000000000000000     
  -4.9144810108320947E-002  0.18122815032141620        0.0000000000000000     
  -4.9739483618894756E-002  0.18927608758579242        0.0000000000000000     
  -5.0284898395043402E-002  0.19740497106955124        0.0000000000000000     
  -2.4462365004926399E-002  0.19704618065630569        0.0000000000000000     
  -2.4698426927546844E-002  0.20529481910828054        0.0000000000000000     
  -2.4904454790018942E-002  0.21360292319970287        0.0000000000000000     
  -2.5080448592342694E-002  0.22197049293057264        0.0000000000000000     
  -2.5226408334518103E-002  0.23039752830088991        0.0000000000000000     
  -3.0779038691382706E-002  0.19711467841043290        0.0000000000000000     
  -3.1065424222340057E-002  0.20535445995196297        0.0000000000000000     
  -3.1316976671420041E-002  0.21365776425437735        0.0000000000000000     
  -3.1533696038622633E-002  0.22202459131767613        0.0000000000000000     
  -3.1715582323947868E-002  0.23045494114185922        0.0000000000000000     
  -3.7188352151887642E-002  0.19719730939734953        0.0000000000000000     
  -3.7534090800074402E-002  0.20542702774242966        0.0000000000000000     
  -3.7838651702627860E-002  0.21372391578253663        0.0000000000000000     
  -3.8102034859547988E-002  0.22208797351767048        0.0000000000000000     
  -3.8324240270834815E-002  0.23051920094783124        0.0000000000000000     
  -4.3690305386441211E-002  0.19729407361705567        0.0000000000000000     
  -4.4104426660749894E-002  0.20551252247968063        0.0000000000000000     
  -4.4469479883642409E-002  0.21380137778418057        0.0000000000000000     
  -4.4785465055118767E-002  0.22216063953055570        0.0000000000000000     
  -4.5052382175178957E-002  0.23059030771880584        0.0000000000000000     
  -5.0284898395043402E-002  0.19740497106955124        0.0000000000000000     
  -5.0776431804366508E-002  0.20561094416371581        0.0000000000000000     
  -5.1209461214463681E-002  0.21389015025930935        0.0000000000000000     
  -5.1583986625334949E-002  0.22224258935633179        0.0000000000000000     
  -5.1900008036980291E-002  0.23066826145478311        0.0000000000000000     
  -2.5226408334518103E-002  0.23039752830088991        0.0000000000000000     
  -2.5349116977000527E-002  0.23885568919640082        0.0000000000000000     
  -2.5455357480245366E-002  0.24731663550285160        0.0000000000000000     
  -2.5545129844252602E-002  0.25578036722024217        0.0000000000000000     
  -2.5618434069022235E-002  0.26424688434857257        0.0000000000000000     
  -3.1715582323947868E-002  0.23045494114185922        0.0000000000000000     
  -3.1869578243411016E-002  0.23892268171379341        0.0000000000000000     
  -3.2002626513027439E-002  0.24740168102034527        0.0000000000000000     
  -3.2114727132797095E-002  0.25589193906151492        0.0000000000000000     
  -3.2205880102720026E-002  0.26439345583730228        0.0000000000000000     
  -3.8324240270834815E-002  0.23051920094783124        0.0000000000000000     
  -3.8512370378894670E-002  0.23899537069358218        0.0000000000000000     
  -3.8673527626133894E-002  0.24749425537548669        0.0000000000000000     
  -3.8807712012552509E-002  0.25601585499354473        0.0000000000000000     
  -3.8914923538150493E-002  0.26456016954775630        0.0000000000000000     
  -4.5052382175178957E-002  0.23059030771880584        0.0000000000000000     
  -4.5277493383451453E-002  0.23907375613576720        0.0000000000000000     
  -4.5468060819564754E-002  0.24759435856827572        0.0000000000000000     
  -4.5624084483518804E-002  0.25615211501633156        0.0000000000000000     
  -4.5745564375313651E-002  0.26474702547993451        0.0000000000000000     
  -5.1900008036980291E-002  0.23066826145478311        0.0000000000000000     
  -5.2164947257081401E-002  0.23915783804034838        0.0000000000000000     
  -5.2386226093319978E-002  0.24770199059871248        0.0000000000000000     
  -5.2563844545696001E-002  0.25630071912987534        0.0000000000000000     
  -5.2697802614209498E-002  0.26495402363383708        0.0000000000000000     
  -2.5618434069022235E-002  0.26424688434857257        0.0000000000000000     
  -2.5687375222084707E-002  0.27266144752431004        0.0000000000000000     
  -2.5764058370970438E-002  0.28096931738392172        0.0000000000000000     
  -2.5848483515679435E-002  0.28917049392740773        0.0000000000000000     
  -2.5940650656211692E-002  0.29726497715476807        0.0000000000000000     
  -3.2205880102720026E-002  0.26439345583730228        0.0000000000000000     
  -3.2290909239623744E-002  0.27285396439796372        0.0000000000000000     
  -3.2384638360335789E-002  0.28122119779375554        0.0000000000000000     
  -3.2487067464856176E-002  0.28949515602467779        0.0000000000000000     
  -3.2598196553184883E-002  0.29767583909073037        0.0000000000000000     
  -3.8914923538150493E-002  0.26456016954775630        0.0000000000000000     
  -3.9013972371889645E-002  0.27307680609455504        0.0000000000000000     
  -3.9123668682731684E-002  0.28151537169037472        0.0000000000000000     
  -3.9244012470676652E-002  0.28987586633521528        0.0000000000000000     
  -3.9375003735724515E-002  0.29815829002907662        0.0000000000000000     
  -4.5745564375313651E-002  0.26474702547993451        0.0000000000000000     
  -4.5856564618882392E-002  0.27332997261408409        0.0000000000000000     
  -4.5981149338158125E-002  0.28185183907377925        0.0000000000000000     
  -4.6119318533140857E-002  0.29031262485902021        0.0000000000000000     
  -4.6271072203830581E-002  0.29871232996980679        0.0000000000000000     
  -5.2697802614209498E-002  0.26495402363383708        0.0000000000000000     
  -5.2818685980602006E-002  0.27361346395655067        0.0000000000000000     
  -5.2957080326615107E-002  0.28223059994396921        0.0000000000000000     
  -5.3112985652248798E-002  0.29080543159609262        0.0000000000000000     
  -5.3286401957503081E-002  0.29933795891292092        0.0000000000000000     
  -2.9536836094833558E-002   5.6923168657674030E-002   0.0000000000000000     
  -3.1292844009279938E-002   6.2420599524459136E-002   0.0000000000000000     
  -3.2888405905511044E-002   6.8133130195600106E-002   0.0000000000000000     
  -3.4323521783526885E-002   7.4060760671096945E-002   0.0000000000000000     
  -3.5598191643327462E-002   8.0203490950949641E-002   0.0000000000000000     
  -3.1677444651086559E-002   5.8029025391153705E-002   0.0000000000000000     
  -3.4359872721004603E-002   6.3289141918020084E-002   0.0000000000000000     
  -3.6668431202372911E-002   6.8824403243000334E-002   0.0000000000000000     
  -3.8603120095191498E-002   7.4634809366094429E-002   0.0000000000000000     
  -4.0163939399460349E-002   8.0720360287302367E-002   0.0000000000000000     
  -3.4847850660703554E-002   5.8907458300049363E-002   0.0000000000000000     
  -3.8058512998963130E-002   6.4051764085893192E-002   0.0000000000000000     
  -4.0799378022490083E-002   6.9495248135271803E-002   0.0000000000000000     
  -4.3070445731284414E-002   7.5237910448185216E-002   0.0000000000000000     
  -4.4871716125346128E-002   8.1279751024633404E-002   0.0000000000000000     
  -3.9048054123684527E-002   5.9558467384360991E-002   0.0000000000000000     
  -4.2388764843155506E-002   6.4708466028078393E-002   0.0000000000000000     
  -4.5281246365862553E-002   7.0145664872414512E-002   0.0000000000000000     
  -4.7725498691805646E-002   7.5870063917369265E-002   0.0000000000000000     
  -4.9721521820984799E-002   8.1881663162942708E-002   0.0000000000000000     
  -4.4278055040029483E-002   5.9982052644088624E-002   0.0000000000000000     
  -4.7350628253581745E-002   6.5259247744575768E-002   0.0000000000000000     
  -5.0114036232490312E-002   7.0775653454428433E-002   0.0000000000000000     
  -5.2568278976755180E-002   7.6531269773646604E-002   0.0000000000000000     
  -5.4713356486376361E-002   8.2526096702230323E-002   0.0000000000000000     
  -3.5598191643327462E-002   8.0203490950949641E-002   0.0000000000000000     
  -3.6789896399370511E-002   8.6531771728193596E-002   0.0000000000000000     
  -3.7976116966113790E-002   9.3016053695864243E-002   0.0000000000000000     
  -3.9156853343557278E-002   9.9656336853961525E-002   0.0000000000000000     
  -4.0332105531701003E-002  0.10645262120248548        0.0000000000000000     
  -4.0163939399460349E-002   8.0720360287302367E-002   0.0000000000000000     
  -4.1533105315665501E-002   8.7021263488628028E-002   0.0000000000000000     
  -4.2892834044293011E-002   9.3477726452075277E-002   0.0000000000000000     
  -4.4243125585342852E-002  0.10008974917764413        0.0000000000000000     
  -4.5583979938815057E-002  0.10685733166533455        0.0000000000000000     
  -4.4871716125346128E-002   8.1279751024633404E-002   0.0000000000000000     
  -4.6429340756154729E-002   8.7549686437435811E-002   0.0000000000000000     
  -4.7969471175189772E-002   9.3976633259411885E-002   0.0000000000000000     
  -4.9492107382451245E-002  0.10056059149056165        0.0000000000000000     
  -5.0997249377939133E-002  0.10730156113088506        0.0000000000000000     
  -4.9721521820984799E-002   8.1881663162942708E-002   0.0000000000000000     
  -5.1478602720838214E-002   8.8117040574616931E-002   0.0000000000000000     
  -5.3206028358804093E-002   9.4512774117874079E-002   0.0000000000000000     
  -5.4903798734882436E-002  0.10106886379271407        0.0000000000000000     
  -5.6571913849073251E-002  0.10778530959913699        0.0000000000000000     
  -5.4713356486376361E-002   8.2526096702230323E-002   0.0000000000000000     
  -5.6680891209715929E-002   8.8723325900171415E-002   0.0000000000000000     
  -5.8602505595135954E-002   9.5086149027461792E-002   0.0000000000000000     
  -6.0478199642636447E-002  0.10161456608410144        0.0000000000000000     
  -6.2307973352217397E-002  0.10830857707009035        0.0000000000000000     
  -4.0332105531701003E-002  0.10645262120248548        0.0000000000000000     
  -4.1473518128256087E-002  0.11338895740103724        0.0000000000000000     
  -4.2552735730933704E-002  0.12044939610921795        0.0000000000000000     
  -4.3569758339733838E-002  0.12763393732702757        0.0000000000000000     
  -4.4524585954656498E-002  0.13494258105446613        0.0000000000000000     
  -4.5583979938815057E-002  0.10685733166533455        0.0000000000000000     
  -4.6885074036026264E-002  0.11376678017632301        0.0000000000000000     
  -4.8116084808293130E-002  0.12080440097178587        0.0000000000000000     
  -4.9277012255615683E-002  0.12797019405172314        0.0000000000000000     
  -5.0367856377993903E-002  0.13526415941613484        0.0000000000000000     
  -5.0997249377939133E-002  0.10730156113088506        0.0000000000000000     
  -5.2454879586512959E-002  0.11418616674202825        0.0000000000000000     
  -5.3834980433032260E-002  0.12120103288563727        0.0000000000000000     
  -5.5137551917496995E-002  0.12834615956171214        0.0000000000000000     
  -5.6362594039907184E-002  0.13562154677025284        0.0000000000000000     
  -5.6571913849073251E-002  0.10778530959913699        0.0000000000000000     
  -5.8182934779716228E-002  0.11464711709815296        0.0000000000000000     
  -5.9709422605151073E-002  0.12163929185077214        0.0000000000000000     
  -6.1151377325377780E-002  0.12876183385699455        0.0000000000000000     
  -6.2508798940396362E-002  0.13601474311682019        0.0000000000000000     
  -6.2307973352217397E-002  0.10830857707009035        0.0000000000000000     
  -6.4069239615636042E-002  0.11514963124469717        0.0000000000000000     
  -6.5739411324649596E-002  0.12211917786719052        0.0000000000000000     
  -6.7318488479258032E-002  0.12921721693757043        0.0000000000000000     
  -6.8806471079461404E-002  0.13644374845583684        0.0000000000000000     
  -4.4524585954656498E-002  0.13494258105446613        0.0000000000000000     
  -4.5422577351222029E-002  0.14237263562842753        0.0000000000000000     
  -4.6269091304950764E-002  0.14992140938580556        0.0000000000000000     
  -4.7064127815842689E-002  0.15758890232660028        0.0000000000000000     
  -4.7807686883897825E-002  0.16537511445081160        0.0000000000000000     
  -5.0367856377993903E-002  0.13526415941613484        0.0000000000000000     
  -5.1395071527332616E-002  0.14267905257931726        0.0000000000000000     
  -5.2365112055536657E-002  0.15020762905556673        0.0000000000000000     
  -5.3277977962606020E-002  0.15784988884488316        0.0000000000000000     
  -5.4133669248540711E-002  0.16560583194726666        0.0000000000000000     
  -5.6362594039907184E-002  0.13562154677025284        0.0000000000000000     
  -5.7517857940090698E-002  0.14301733592871740        0.0000000000000000     
  -5.8611094757875404E-002  0.15052366845456377        0.0000000000000000     
  -5.9642304493261307E-002  0.15814054434779193        0.0000000000000000     
  -6.0611487146248422E-002  0.16586796360840195        0.0000000000000000     
  -6.2508798940396362E-002  0.13601474311682019        0.0000000000000000     
  -6.3790936589496278E-002  0.14338748567662793        0.0000000000000000     
  -6.5007039411967005E-002  0.15086952758279676        0.0000000000000000     
  -6.6157107407808571E-002  0.15846086883532662        0.0000000000000000     
  -6.7241140577020936E-002  0.16616150943421754        0.0000000000000000     
  -6.8806471079461404E-002  0.13644374845583684        0.0000000000000000     
  -7.0214307475549340E-002  0.14378950182304889        0.0000000000000000     
  -7.1552946017811453E-002  0.15124520644026565        0.0000000000000000     
  -7.2822386706247744E-002  0.15881086230748717        0.0000000000000000     
  -7.4022629540858267E-002  0.16648646942471340        0.0000000000000000     
  -4.7807686883897825E-002  0.16537511445081160        0.0000000000000000     
  -4.8500877863321974E-002  0.17326115927642260        0.0000000000000000     
  -4.9144810108320947E-002  0.18122815032141620        0.0000000000000000     
  -4.9739483618894756E-002  0.18927608758579242        0.0000000000000000     
  -5.0284898395043402E-002  0.19740497106955124        0.0000000000000000     
  -5.4133669248540711E-002  0.16560583194726666        0.0000000000000000     
  -5.4933434776077206E-002  0.17346128106258676        0.0000000000000000     
  -5.5678523407952006E-002  0.18140205889071326        0.0000000000000000     
  -5.6368935144165112E-002  0.18942816543164606        0.0000000000000000     
  -5.7004669984716511E-002  0.19753960068538520        0.0000000000000000     
  -6.0611487146248422E-002  0.16586796360840195        0.0000000000000000     
  -6.1519530968603832E-002  0.17369495667829665        0.0000000000000000     
  -6.2367324212094719E-002  0.18161055399937898        0.0000000000000000     
  -6.3154866876721033E-002  0.18961475557164889        0.0000000000000000     
  -6.3882158962482810E-002  0.19770756139510648        0.0000000000000000     
  -6.7241140577020936E-002  0.16616150943421754        0.0000000000000000     
  -6.8259166440901853E-002  0.17396218612355219        0.0000000000000000     
  -6.9211212520749049E-002  0.18185363564741336        0.0000000000000000     
  -7.0097278816562539E-002  0.18983585800580094        0.0000000000000000     
  -7.0917365328342322E-002  0.19790885319871504        0.0000000000000000     
  -7.4022629540858267E-002  0.16648646942471340        0.0000000000000000     
  -7.5152341192971261E-002  0.17426296939835340        0.0000000000000000     
  -7.6210188333915074E-002  0.18213130383481632        0.0000000000000000     
  -7.7196170963689650E-002  0.19009147273410221        0.0000000000000000     
  -7.8110289082295031E-002  0.19814347609621097        0.0000000000000000     
  -5.0284898395043402E-002  0.19740497106955124        0.0000000000000000     
  -5.0776431804366508E-002  0.20561094416371581        0.0000000000000000     
  -5.1209461214463681E-002  0.21389015025930935        0.0000000000000000     
  -5.1583986625334949E-002  0.22224258935633179        0.0000000000000000     
  -5.1900008036980291E-002  0.23066826145478311        0.0000000000000000     
  -5.7004669984716511E-002  0.19753960068538520        0.0000000000000000     
  -5.7579493304034224E-002  0.20573133771593091        0.0000000000000000     
  -5.8087170476546261E-002  0.21399834958728339        0.0000000000000000     
  -5.8527701502252609E-002  0.22234063629944265        0.0000000000000000     
  -5.8901086381153281E-002  0.23075819785240875        0.0000000000000000     
  -6.3882158962482810E-002  0.19770756139510648        0.0000000000000000     
  -6.4542998232863066E-002  0.20588274805772136        0.0000000000000000     
  -6.5131182451344721E-002  0.21413409214746329        0.0000000000000000     
  -6.5646711617927830E-002  0.22246159366433227        0.0000000000000000     
  -6.6089585732612380E-002  0.23086525260832833        0.0000000000000000     
  -7.0917365328342322E-002  0.19790885319871504        0.0000000000000000     
  -7.1666946590852973E-002  0.20606517518908724        0.0000000000000000     
  -7.2341497138859054E-002  0.21429737793984910        0.0000000000000000     
  -7.2941016972360592E-002  0.22260546145100066        0.0000000000000000     
  -7.3465506091357588E-002  0.23098942572254189        0.0000000000000000     
  -7.8110289082295031E-002  0.19814347609621097        0.0000000000000000     
  -7.8951338378003985E-002  0.20627861911002848        0.0000000000000000     
  -7.9718114539089266E-002  0.21448820696444076        0.0000000000000000     
  -8.0410617565550915E-002  0.22277223965944776        0.0000000000000000     
  -8.1028847457388892E-002  0.23113071719504949        0.0000000000000000     
  -5.1900008036980291E-002  0.23066826145478311        0.0000000000000000     
  -5.2164947257081401E-002  0.23915783804034838        0.0000000000000000     
  -5.2386226093319978E-002  0.24770199059871248        0.0000000000000000     
  -5.2563844545696001E-002  0.25630071912987534        0.0000000000000000     
  -5.2697802614209498E-002  0.26495402363383708        0.0000000000000000     
  -5.8901086381153281E-002  0.23075819785240875        0.0000000000000000     
  -5.9213788070951422E-002  0.23924971962866071        0.0000000000000000     
  -5.9472269529350218E-002  0.24781388701067777        0.0000000000000000     
  -5.9676530756349606E-002  0.25645069999845987        0.0000000000000000     
  -5.9826571751949657E-002  0.26516015859200698        0.0000000000000000     
  -6.6089585732612380E-002  0.23086525260832833        0.0000000000000000     
  -6.6463071896228409E-002  0.23935150412203915        0.0000000000000000     
  -6.6770437209606001E-002  0.24792678334805265        0.0000000000000000     
  -6.7011681672745127E-002  0.25659109028636867        0.0000000000000000     
  -6.7186805285645815E-002  0.26534442493698734        0.0000000000000000     
  -7.3465506091357588E-002  0.23098942572254189        0.0000000000000000     
  -7.3912798732912385E-002  0.23946319152048370        0.0000000000000000     
  -7.4280729134087384E-002  0.24804067961083709        0.0000000000000000     
  -7.4569297294882569E-002  0.25672188999360185        0.0000000000000000     
  -7.4778503215297928E-002  0.26550682266877818        0.0000000000000000     
  -8.1028847457388892E-002  0.23113071719504949        0.0000000000000000     
  -8.1562968581003328E-002  0.23958478182399440        0.0000000000000000     
  -8.2003145302794345E-002  0.24815557579903105        0.0000000000000000     
  -8.2349377622761899E-002  0.25684309912015946        0.0000000000000000     
  -8.2601665540906019E-002  0.26564735178737953        0.0000000000000000     
  -5.2697802614209498E-002  0.26495402363383708        0.0000000000000000     
  -5.2818685980602006E-002  0.27361346395655067        0.0000000000000000     
  -5.2957080326615107E-002  0.28223059994396921        0.0000000000000000     
  -5.3112985652248798E-002  0.29080543159609262        0.0000000000000000     
  -5.3286401957503081E-002  0.29933795891292092        0.0000000000000000     
  -5.9826571751949657E-002  0.26516015859200698        0.0000000000000000     
  -5.9958858216287145E-002  0.27389878609023344        0.0000000000000000     
  -6.0109855849498843E-002  0.28262310579205352        0.0000000000000000     
  -6.0279564651584787E-002  0.29133311769746734        0.0000000000000000     
  -6.0467984622544976E-002  0.30002882180647467        0.0000000000000000     
  -6.7186805285645815E-002  0.26534442493698734        0.0000000000000000     
  -6.7335603085176471E-002  0.27415744498341083        0.0000000000000000     
  -6.7497870108205613E-002  0.28300080810914141        0.0000000000000000     
  -6.7673606354733171E-002  0.29187451431417905        0.0000000000000000     
  -6.7862811824759214E-002  0.30077856359852378        0.0000000000000000     
  -7.4778503215297928E-002  0.26550682266877818        0.0000000000000000     
  -7.4948920587269999E-002  0.27438944063608284        0.0000000000000000     
  -7.5121123102735346E-002  0.28336370689523271        0.0000000000000000     
  -7.5295110761693942E-002  0.29242962144622786        0.0000000000000000     
  -7.5470883564145788E-002  0.30158718428906828        0.0000000000000000     
  -8.2601665540906019E-002  0.26564735178737953        0.0000000000000000     
  -8.2798810722567728E-002  0.27459477304824947        0.0000000000000000     
  -8.2979614833088092E-002  0.28371180215032765        0.0000000000000000     
  -8.3144077872467095E-002  0.29299843909361373        0.0000000000000000     
  -8.3292199840704711E-002  0.30245468387810803        0.0000000000000000     
  -4.4278055040029483E-002   5.9982052644088624E-002   0.0000000000000000     
  -4.7350628253581745E-002   6.5259247744575768E-002   0.0000000000000000     
  -5.0114036232490312E-002   7.0775653454428433E-002   0.0000000000000000     
  -5.2568278976755180E-002   7.6531269773646604E-002   0.0000000000000000     
  -5.4713356486376361E-002   8.2526096702230323E-002   0.0000000000000000     
  -4.9858862421201244E-002   6.0407957039983473E-002   0.0000000000000000     
  -5.2604464620779265E-002   6.5823202121653185E-002   0.0000000000000000     
  -5.5194500283512624E-002   7.1427866366483975E-002   0.0000000000000000     
  -5.7628969409401341E-002   7.7221949774475801E-002   0.0000000000000000     
  -5.9907871998445425E-002   8.3205452345628678E-002   0.0000000000000000     
  -5.5111485278662657E-002   6.1065923532796773E-002   0.0000000000000000     
  -5.7810635335285458E-002   6.6519422045578647E-002   0.0000000000000000     
  -6.0419391180068720E-002   7.2144956093751503E-002   0.0000000000000000     
  -6.2937752813012435E-002   7.7942525677315411E-002   0.0000000000000000     
  -6.5365720234116589E-002   8.3912130796270246E-002   0.0000000000000000     
  -6.0035923612413687E-002   6.1955952122528551E-002   0.0000000000000000     
  -6.2969140397100345E-002   6.7347907516352112E-002   0.0000000000000000     
  -6.5788708922158615E-002   7.2926922636231045E-002   0.0000000000000000     
  -6.8494629187588432E-002   7.8692997482165336E-002   0.0000000000000000     
  -7.1086901193389854E-002   8.4646132054155027E-002   0.0000000000000000     
  -6.4632177422454362E-002   6.3078042809178780E-002   0.0000000000000000     
  -6.8079979806223934E-002   6.8308658533973582E-002   0.0000000000000000     
  -7.1302453509782274E-002   7.3773765993922560E-002   0.0000000000000000     
  -7.4299598533129355E-002   7.9473365189025716E-002   0.0000000000000000     
  -7.7071414876265218E-002   8.5407456119283034E-002   0.0000000000000000     
  -5.4713356486376361E-002   8.2526096702230323E-002   0.0000000000000000     
  -5.6680891209715929E-002   8.8723325900171415E-002   0.0000000000000000     
  -5.8602505595135954E-002   9.5086149027461792E-002   0.0000000000000000     
  -6.0478199642636447E-002  0.10161456608410144        0.0000000000000000     
  -6.2307973352217397E-002  0.10830857707009035        0.0000000000000000     
  -5.9907871998445425E-002   8.3205452345628678E-002   0.0000000000000000     
  -6.2078710789994711E-002   8.9368288282225969E-002   0.0000000000000000     
  -6.4188988523398993E-002   9.5700371786551025E-002   0.0000000000000000     
  -6.6238705198658335E-002  0.10220170285860385        0.0000000000000000     
  -6.8227860815772687E-002  0.10887228149838440        0.0000000000000000     
  -6.5365720234116589E-002   8.3912130796270246E-002   0.0000000000000000     
  -6.7714566028881359E-002   9.0051673588907283E-002   0.0000000000000000     
  -6.9995562782806914E-002   9.6359056193517673E-002   0.0000000000000000     
  -7.2208710495893197E-002  0.10283427861010139        0.0000000000000000     
  -7.4354009168140264E-002  0.10947734083865843        0.0000000000000000     
  -7.1086901193389854E-002   8.4646132054155027E-002   0.0000000000000000     
  -7.3588456926375917E-002   9.0773481820215426E-002   0.0000000000000000     
  -7.6022228373359618E-002   9.7062202248361762E-002   0.0000000000000000     
  -7.8388215534341013E-002  0.10351229333859409        0.0000000000000000     
  -8.0686418409320060E-002  0.11012375509091245        0.0000000000000000     
  -7.7071414876265218E-002   8.5407456119283034E-002   0.0000000000000000     
  -7.9700383482478321E-002   9.1533712976150303E-002   0.0000000000000000     
  -8.2268985295057190E-002   9.7809809951083279E-002   0.0000000000000000     
  -8.4777220314001797E-002  0.10423574704408199        0.0000000000000000     
  -8.7225088539312157E-002  0.11081152425514641        0.0000000000000000     
  -6.2307973352217397E-002  0.10830857707009035        0.0000000000000000     
  -6.4069239615636042E-002  0.11514963124469717        0.0000000000000000     
  -6.5739411324649596E-002  0.12211917786719052        0.0000000000000000     
  -6.7318488479258032E-002  0.12921721693757043        0.0000000000000000     
  -6.8806471079461404E-002  0.13644374845583684        0.0000000000000000     
  -6.8227860815772687E-002  0.10887228149838440        0.0000000000000000     
  -7.0137789305411091E-002  0.11569088570609590        0.0000000000000000     
  -7.1949824598242576E-002  0.12263629348194131        0.0000000000000000     
  -7.3663966694267127E-002  0.12970850482592078        0.0000000000000000     
  -7.5280215593484773E-002  0.13690751973803422        0.0000000000000000     
  -7.4354009168140264E-002  0.10947734083865843        0.0000000000000000     
  -7.6412579060180105E-002  0.11626805700678405        0.0000000000000000     
  -7.8365540432644834E-002  0.12318624124207346        0.0000000000000000     
  -8.0212893285534423E-002  0.13023189354452669        0.0000000000000000     
  -8.1954637618848858E-002  0.13740501391414367        0.0000000000000000     
  -8.0686418409320060E-002  0.11012375509091245        0.0000000000000000     
  -8.2893608879943070E-002  0.11688114514676173        0.0000000000000000     
  -8.4986558827856384E-002  0.12376902114758696        0.0000000000000000     
  -8.6965268253059905E-002  0.13078738309338814        0.0000000000000000     
  -8.8829737155553673E-002  0.13793623098416527        0.0000000000000000     
  -8.7225088539312157E-002  0.11081152425514641        0.0000000000000000     
  -8.9580878764700028E-002  0.11753015012602891        0.0000000000000000     
  -9.1812879783877172E-002  0.12438463319848181        0.0000000000000000     
  -9.3921091596843559E-002  0.13137497347250515        0.0000000000000000     
  -9.5905514203599218E-002  0.13850117094809894        0.0000000000000000     
  -6.8806471079461404E-002  0.13644374845583684        0.0000000000000000     
  -7.0214307475549340E-002  0.14378950182304889        0.0000000000000000     
  -7.1552946017811453E-002  0.15124520644026565        0.0000000000000000     
  -7.2822386706247744E-002  0.15881086230748717        0.0000000000000000     
  -7.4022629540858267E-002  0.16648646942471340        0.0000000000000000     
  -7.5280215593484773E-002  0.13690751973803422        0.0000000000000000     
  -7.6811532576817998E-002  0.14422545523190555        0.0000000000000000     
  -7.8270878925189372E-002  0.15165442832115869        0.0000000000000000     
  -7.9658254638598811E-002  0.15919443900579364        0.0000000000000000     
  -8.0973659717046398E-002  0.16684548728581039        0.0000000000000000     
  -8.1954637618848858E-002  0.13740501391414367        0.0000000000000000     
  -8.3606173871870415E-002  0.14469741676712322        0.0000000000000000     
  -8.5182902483881329E-002  0.15210091651966406        0.0000000000000000     
  -8.6684823454881640E-002  0.15961551317176614        0.0000000000000000     
  -8.8111936784871309E-002  0.16724120672342946        0.0000000000000000     
  -8.8829737155553673E-002  0.13793623098416527        0.0000000000000000     
  -9.0598231360706577E-002  0.14520538642870193        0.0000000000000000     
  -9.2289016693887421E-002  0.15258467103578166        0.0000000000000000     
  -9.3902093155096220E-002  0.16007408480540458        0.0000000000000000     
  -9.5437460744333000E-002  0.16767362773757064        0.0000000000000000     
  -9.5905514203599218E-002  0.13850117094809894        0.0000000000000000     
  -9.7787705043326456E-002  0.14574936421664161        0.0000000000000000     
  -9.9589221555207566E-002  0.15310569186951162        0.0000000000000000     
 -0.10131006373924258       0.16057015390670906        0.0000000000000000     
 -0.10295023159543146       0.16814275032823381        0.0000000000000000     
  -7.4022629540858267E-002  0.16648646942471340        0.0000000000000000     
  -7.5152341192971261E-002  0.17426296939835340        0.0000000000000000     
  -7.6210188333915074E-002  0.18213130383481632        0.0000000000000000     
  -7.7196170963689650E-002  0.19009147273410221        0.0000000000000000     
  -7.8110289082295031E-002  0.19814347609621097        0.0000000000000000     
  -8.0973659717046398E-002  0.16684548728581039        0.0000000000000000     
  -8.2214399782523873E-002  0.17459819561883766        0.0000000000000000     
  -8.3377780457023015E-002  0.18244318646250413        0.0000000000000000     
  -8.4463801740543840E-002  0.19038045981680984        0.0000000000000000     
  -8.5472463633086346E-002  0.19841001568175476        0.0000000000000000     
  -8.8111936784871309E-002  0.16724120672342946        0.0000000000000000     
  -8.9460686767271466E-002  0.17496875390114230        0.0000000000000000     
  -9.0727517695503246E-002  0.18278891143139286        0.0000000000000000     
  -9.1912429569566648E-002  0.19070167931418111        0.0000000000000000     
  -9.3015422389461672E-002  0.19870705754950704        0.0000000000000000     
  -9.5437460744333000E-002  0.16767362773757064        0.0000000000000000     
  -9.6891202147214056E-002  0.17537464424526739        0.0000000000000000     
  -9.8259400049355738E-002  0.18316847874148251        0.0000000000000000     
  -9.9542054450758047E-002  0.19105513122621598        0.0000000000000000     
 -0.10073916535142104       0.19903460169946785        0.0000000000000000     
 -0.10295023159543146       0.16814275032823381        0.0000000000000000     
 -0.10450594592235163       0.17581586665121285        0.0000000000000000     
 -0.10597342751858052       0.18358188839277309        0.0000000000000000     
 -0.10735267638411811       0.19144081555291448        0.0000000000000000     
 -0.10864369251896441       0.19939264813163710        0.0000000000000000     
  -7.8110289082295031E-002  0.19814347609621097        0.0000000000000000     
  -7.8951338378003985E-002  0.20627861911002848        0.0000000000000000     
  -7.9718114539089266E-002  0.21448820696444076        0.0000000000000000     
  -8.0410617565550915E-002  0.22277223965944776        0.0000000000000000     
  -8.1028847457388892E-002  0.23113071719504949        0.0000000000000000     
  -8.5472463633086346E-002  0.19841001568175476        0.0000000000000000     
  -8.6406133878179095E-002  0.20652237315888036        0.0000000000000000     
  -8.7267180219350732E-002  0.21470805134972823        0.0000000000000000     
  -8.8055602656601215E-002  0.22296705025429833        0.0000000000000000     
  -8.8771401189930557E-002  0.23129936987259059        0.0000000000000000     
  -9.3015422389461672E-002  0.19870705754950704        0.0000000000000000     
  -9.4041293375241364E-002  0.20679573067397800        0.0000000000000000     
  -9.4994839746958784E-002  0.21495838322420130        0.0000000000000000     
  -9.5876061504613946E-002  0.22319501520017687        0.0000000000000000     
  -9.6684958648206809E-002  0.23150562660190477        0.0000000000000000     
 -0.10073916535142104       0.19903460169946785        0.0000000000000000     
 -0.10185681686919078       0.20709869165532133        0.0000000000000000     
 -0.10290109312191345       0.21523920258785989        0.0000000000000000     
 -0.10387199410958907       0.22345613449708343        0.0000000000000000     
 -0.10476951983221765       0.23174948738299203        0.0000000000000000     
 -0.10864369251896441       0.19939264813163710        0.0000000000000000     
 -0.10985270436002734       0.20743125610291044        0.0000000000000000     
 -0.11098594034421475       0.21555050944070409        0.0000000000000000     
 -0.11204340047152665       0.22375040814501804        0.0000000000000000     
 -0.11302508474196304       0.23203095221585232        0.0000000000000000     
  -8.1028847457388892E-002  0.23113071719504949        0.0000000000000000     
  -8.1562968581003328E-002  0.23958478182399440        0.0000000000000000     
  -8.2003145302794345E-002  0.24815557579903105        0.0000000000000000     
  -8.2349377622761899E-002  0.25684309912015946        0.0000000000000000     
  -8.2601665540906019E-002  0.26564735178737953        0.0000000000000000     
  -8.8771401189930557E-002  0.23129936987259059        0.0000000000000000     
  -8.9400544240152605E-002  0.23973123240741495        0.0000000000000000     
  -8.9929000228081202E-002  0.24828886006158116        0.0000000000000000     
  -9.0356769153716321E-002  0.25697225283508929        0.0000000000000000     
  -9.0683851017057976E-002  0.26578141072793926        0.0000000000000000     
  -9.6684958648206809E-002  0.23150562660190477        0.0000000000000000     
  -9.7412488510011538E-002  0.23991750064558912        0.0000000000000000     
  -9.8049608422302287E-002  0.24845792054743401        0.0000000000000000     
  -9.8596318385079026E-002  0.25712688630743946        0.0000000000000000     
  -9.9052618398341744E-002  0.26592439792560552        0.0000000000000000     
 -0.10476951983221765       0.23174948738299203        0.0000000000000000     
 -0.10559880139058014       0.24014358653851692        0.0000000000000000     
 -0.10636496988545757       0.24866275725658962        0.0000000000000000     
 -0.10706802531684997       0.25730699953721003        0.0000000000000000     
 -0.10770796768475731       0.26607631338037807        0.0000000000000000     
 -0.11302508474196304       0.23203095221585232        0.0000000000000000     
 -0.11395948288185839       0.24040949008619844        0.0000000000000000     
 -0.11487508461754710       0.24890337018904801        0.0000000000000000     
 -0.11577188994902918       0.25751259252440090        0.0000000000000000     
 -0.11664989887630461       0.26623715709225726        0.0000000000000000     
  -8.2601665540906019E-002  0.26564735178737953        0.0000000000000000     
  -8.2798810722567728E-002  0.27459477304824947        0.0000000000000000     
  -8.2979614833088092E-002  0.28371180215032765        0.0000000000000000     
  -8.3144077872467095E-002  0.29299843909361373        0.0000000000000000     
  -8.3292199840704711E-002  0.30245468387810803        0.0000000000000000     
  -9.0683851017057976E-002  0.26578141072793926        0.0000000000000000     
  -9.0940595033831798E-002  0.27477919126739164        0.0000000000000000     
  -9.1157350419763361E-002  0.28402845198070670        0.0000000000000000     
  -9.1334117174852680E-002  0.29352919286788459        0.0000000000000000     
  -9.1470895299099755E-002  0.30328141392892521        0.0000000000000000     
  -9.9052618398341744E-002  0.26592439792560552        0.0000000000000000     
  -9.9429595063824344E-002  0.27494844434098997        0.0000000000000000     
  -9.9738334983260735E-002  0.28429701449265082        0.0000000000000000     
  -9.9978838156650832E-002  0.29397010838058824        0.0000000000000000     
 -0.10015110458399469       0.30396772600480199        0.0000000000000000     
 -0.10770796768475731       0.26607631338037807        0.0000000000000000     
 -0.10826581081254541       0.27510253226904463        0.0000000000000000     
 -0.10872256852358014       0.28451748968616014        0.0000000000000000     
 -0.10907824081786152       0.29432118563172455        0.0000000000000000     
 -0.10933282769538952       0.30451362010573807        0.0000000000000000     
 -0.11664989887630461       0.26623715709225726        0.0000000000000000     
 -0.11744924227999495       0.27524145505155551        0.0000000000000000     
 -0.11811005104072166       0.28468987756123443        0.0000000000000000     
 -0.11863232515848476       0.29458242462129380        0.0000000000000000     
 -0.11901606463328425       0.30491909623173374        0.0000000000000000     
 </DataArray>
 <DataArray  type="Float64" Name="stress" NumberOfComponents="3" format="ascii">
   6085446139.0569229        25039915.071177959        50134518.797905460     
   5863503876.1420021        22055830.902504206        9241365.6468486991     
   5639919463.5908003        13597914.612895250       -14845580.956715295     
   5414692901.4033089       -333833.79767990112       -22126321.012794215     
   5187824189.5795345       -19739414.329193592       -12600854.521370120     
   5636990699.7913008        3954219.4702093601        195866310.37162250     
   5449921665.9642725        2337847.0624315739        173433647.64876899     
   5262348951.0783205       -957462.20844602585        160704713.42429525     
   5074272555.1334362       -5931708.3424017429        157679507.69819236     
   4885692478.1296282       -12584891.339464426        164358030.47046667     
   5255002300.5970306        2808635.8906536102        337436204.13464034     
   5082513701.4318428       -3527863.0840604305        334792245.18024939     
   4910659889.7850924       -7748403.6639916897        334749536.67511117     
   4739440865.6567650       -9852985.8491694927        337308078.61923277     
   4568856629.0468760       -9841609.6395626068        342467871.01260835     
   4939480941.4741058        21603164.332497358        474844200.08696717     
   4761279982.5447168        4458700.4630501270        493317158.24128044     
   4584852279.7111073       -6774909.7537748814        507288888.79573441     
   4410197832.9732914       -12097666.317964554        516759391.75032830     
   4237316642.3312688       -11509569.229527473        521728667.10506254     
   4690426622.4225311        60337804.795746803        608090298.22859740     
   4486220509.3028812        26297537.703741312        649008386.83187509     
   4284926120.8563781        1963019.5222215652        678322769.78617001     
   4086543457.0830173       -12665749.748809576        696033447.09148633     
   3891072517.9828043       -17588770.109352350        702140418.74782681     
   5187824189.5795345       -19739414.329193592       -12600854.521370120     
   5040314399.6331758       -16725139.162899971       -3720580.6457423903     
   4893531712.5986605       -11287187.623811960        6343859.1825004667     
   4747476128.4759903       -3425559.7119078636        17592464.963363573     
   4602147647.2651501        6859744.5727822781        30025236.696852051     
   4885692478.1296282       -12584891.339464426        164358030.47046667     
   4744115088.0587950       -5645230.3399977684        169259040.63140830     
   4602706458.9919195        1856967.3393213749        176633411.09016573     
   4461466590.9289942        9921701.6984853745        186481141.84674695     
   4320395483.8700314        18548972.737503052        198802232.90114588     
   4568856629.0468760       -9841609.6395626068        342467871.01260835     
   4436895051.2664232        2128460.9175374508        342738218.56633013     
   4304543892.5820389        12799928.461513042        346771120.76307476     
   4171803152.9937286        22172792.992403984        354566577.60283452     
   4038672832.5014791        30247054.510179996        366124589.08561718     
   4237316642.3312688       -11509569.229527473        521728667.10506254     
   4118654289.2560501        6595934.6096467972        516716953.15903473     
   3999044013.3690157        21541695.742761850        516756988.20122653     
   3878485814.6701651        33327714.169823408        521848772.23163515     
   3756979693.1594987        41953989.890835524        531992305.25026155     
   3891072517.9828043       -17588770.109352350        702140418.74782681     
   3789392802.0276799        7757190.7363622189        691195244.40951204     
   3686206821.3528538        28082269.183068991        686591013.40461826     
   3581514575.9583268        43386465.230765581        688327725.73314416     
   3475316065.8440948        53669778.879463434        696405381.39508593     
   4602147647.2651501        6859744.5727822781        30025236.696852051     
   4377139462.5742712       -4930287.0642366409        14042821.777064780     
   4152609828.8983617       -15125148.651339054        3941653.6335135940     
   3928558746.2374067       -23724840.188613892       -278267.73381687776     
   3704986214.5914068       -30729361.676019669        1383057.6750938606     
   4320395483.8700314        18548972.737503052        198802232.90114588     
   4110235881.2580800        7221439.8701651096        183084064.02632442     
   3900416360.3407726       -2972487.3483583927        172799904.10452753     
   3690936921.1181240       -12032808.918027401        167949753.13573724     
   3481797563.5901103       -19959524.838900328        168533611.11997148     
   4038672832.5014791        30247054.510179996        366124589.08561718     
   3842083989.6164145        18998673.706891298        350509118.71539044     
   3645696759.1056867        8422334.1513862610        339880419.47497922     
   3449511140.9693031       -1481964.1563153267        334238491.36437839     
   3253527135.2072463       -10714221.216244578        333583334.38357264     
   3756979693.1594987        41953989.890835524        531992305.25026155     
   3572683787.6492906        30401414.445990086        516317985.84427857     
   3388451025.1931105        19059315.847904205        505183199.74489069     
   3204281405.7909498        7927694.0965435505        498587946.95209652     
   3020174929.4428115       -2993450.8080635071        496532227.46589732     
   3475316065.8440948        53669778.879463434        696405381.39508593     
   3302035275.3567057        41429662.087447166        680510665.41297209     
   3128679158.6030293        28938457.741144776        668708244.91424501     
   2955247715.5830660        16196165.840545177        660998119.89890099     
   2781740946.2968102        3202786.3856441975        657380290.36693406     
   3704986214.5914068       -30729361.676019669        1383057.6750938606     
   3547850168.1376696       -18784871.409745455        1040983.8151584148     
   3389588141.7872076       -10593647.465909243        3870142.6197658321     
   3230200135.5400267       -6155689.8444600105        9870534.0889212377     
   3069686149.3961153       -5470998.5454436541        19042158.222627193     
   3481797563.5901103       -19959524.838900328        168533611.11997148     
   3332132405.1124163       -10571868.830490112        165351883.94295421     
   3181779107.0592923       -3478011.4068428278        165335799.68092811     
   3030737669.4307566        1322047.4320846796        168485358.33388421     
   2879008092.2267880        3828307.6862603426        174800559.90183148     
   3253527135.2072463       -10714221.216244578        333583334.38357264     
   3111316893.9925570       -3888190.6796367168        328072767.59767175     
   2968856353.5237646        2103509.0099400282        325722253.97718400     
   2826145513.8008451        7260877.8524237871        326531793.52213770     
   2683184374.8237996        11583915.847845912        330501386.23251748     
   3020174929.4428115       -2993450.8080635071        496532227.46589732     
   2885403634.7781143        1266163.0428584814        489203634.77928084     
   2750819881.1806049        6150913.7843934298        485029505.50853711     
   2616423668.6502876        11660801.416575551        484009839.65366358     
   2482214997.1871495        17795825.939356565        486144637.21466690     
   2781740946.2968102        3202786.3856441975        657380290.36693406     
   2654392627.4690733        4891192.3369506598        648744485.48780274     
   2527669690.0298409        8664202.9165979624        643257554.27498388     
   2401572133.9790926        14521818.124535918        640919496.72848284     
   2276099959.3168330        22464037.960766912        641730312.84829104     
   3069686149.3961153       -5470998.5454436541        19042158.222627193     
   2900325417.0395761       -8066281.3570077419        11905598.242557291     
   2731677950.1313257       -8284012.6742985249        6233316.2713193232     
   2563743748.6713681       -6124192.4972689152        2025312.3089222566     
   2396522812.6596942       -1586820.8259588480       -718413.64466593496     
   2879008092.2267880        3828307.6862603426        174800559.90183148     
   2714213803.6884217        2023235.6792626381        166730635.44726786     
   2549849246.6853595        1650602.1232769489        160526725.73526433     
   2385914421.2175846        2710407.0182470083        156188830.76579851     
   2222409327.2851086        5202650.3642108440        153716950.53888640     
   2683184374.8237996        11583915.847845912        330501386.23251748     
   2524104349.3428154        10913400.417214274        321167307.73829764     
   2365170521.4841270        10730210.394221187        314100980.72035587     
   2206382891.2477503        11034345.778947949        309302405.17868662     
   2047741458.6336801        11825806.571347833        306771581.11328965     
   2482214997.1871495        17795825.939356565        486144637.21466690     
   2329997054.0027418        18604212.856803894        475215615.11564475     
   2177641774.5276418        18954812.138608456        466956081.22660553     
   2025149158.7618670        18847623.784820795        461366035.54758006     
   1872519206.7053945        18282647.795397520        458445478.07853878     
   2276099959.3168330        22464037.960766912        641730312.84829104     
   2131891917.6682096        25095672.998062611        628875557.57929564     
   1987263005.8159065        26324407.356430888        619092027.25402188     
   1842213223.7599301        26150241.035889983        612379721.87246060     
   1696742571.5002773        24573174.036417842        608738641.43462348     
   2396522812.6596942       -1586820.8259588480       -718413.64466593496     
   2254175129.6301460        6503337.1013821363       -6774026.0909943115     
   2108536693.4784937        3624317.9550441504       -10905166.534973361     
   1959607504.2047479       -10223878.264940143       -13111834.976592833     
   1807387561.8088872       -35041251.558640242       -13394031.415862979     
   2222409327.2851086        5202650.3642108440        153716950.53888640     
   2083805221.9599624        12526519.133356571        143885931.26219642     
   1943031601.9177246        12618672.178853273        135186951.09995517     
   1800088467.1583889        5479109.5006780624        127620010.05217350     
   1654975817.6819630       -8892168.9010976553        121185108.11887512     
   2047741458.6336801        11825806.571347833        306771581.11328965     
   1910616837.0475252        17704157.992628336        294473266.47873032     
   1772443939.1493046        20088255.040340424        282514558.07075107     
   1633222764.9389994        18978097.714453697        270895455.88934201     
   1492953314.4166188        14373686.014965594        259615959.93451628     
   1872519206.7053945        18282647.795397520        458445478.07853878     
   1734609974.8928540        22036253.679249763        444987979.55863976     
   1596773705.1732454        26033066.539542615        431077654.37742722     
   1459010397.5465763        30273086.376299143        416714502.53490669     
   1321320052.0128386        34756313.189494610        401898524.03106278     
   1696742571.5002773        24573174.036417842        608738641.43462348     
   1555784635.4959304        25522806.193175495        595430070.50190711     
   1416020899.9895446        30453106.676458895        580876240.01997852     
   1277451364.9810941        39364075.486205399        565077149.98884857     
   1140076030.4706016        52255712.622466683        548032800.40851557     
   1807387561.8088872       -35041251.558640242       -13394031.415862979     
   1775183318.4397955       -16581317.986553669       -8068578.9597839247     
   1751064947.1979480        28831522.676335812       -41431484.714393727     
   1735032448.0833120        101197270.42993104       -113482748.67966549     
   1727085821.0959117        200515925.27432156       -224222370.85562867     
   1654975817.6819630       -8892168.9010976553        121185108.11887512     
   1531302216.6196153       -13784088.334497631        136503555.40759149     
   1411807566.1715837       -4746172.3868453503        125538205.68266730     
   1296491866.3378952        18221578.941952586        88289058.944108292     
   1185355117.1185150        55119165.651777208        24756115.191907432     
   1492953314.4166188        14373686.014965594        259615959.93451628     
   1313251959.0811138       -3237605.3979281187        280369326.95749354     
   1133822632.8470228       -19942133.139430404        287243458.16385603     
   954665335.71436501       -35739897.209499359        280238353.55362982     
   775780067.68313634       -50630897.608121723        259354013.12681639     
   1321320052.0128386        34756313.189494610        401898524.03106278     
   1121032545.8242774        15058130.823122740        423528735.68990362     
   917110147.22424376       -16756359.581501722        443684272.72919285     
   709552856.21273875       -60687158.024360389        462365135.14892107     
   498360672.78975838       -116734264.50546706        479571322.94908220     
   1140076030.4706016        52255712.622466683        548032800.40851557     
   954643976.84911680        41103120.328686297        565981781.60484409     
   761670109.30324852        4811148.2869670391        594860649.37866282     
   561154427.83301699       -56620203.502635419        634669403.72995317     
   353096932.43839693       -143190935.04019409        685408044.65872216     
   1727085821.0959117        200515925.27432156       -224222370.85562867     
   1456565675.3703656        184442139.25921327       -96672527.447566181     
   1153814348.5693536        60931082.992563903        60013451.444654092     
   818831840.69293618       -170017243.52543682        245835565.82103470     
   451618151.74105728       -508402840.29498732        460793815.68159872     
   1185355117.1185150        55119165.651777208        24756115.191907432     
   978165886.47603154        12089233.795077503        155995052.83363086     
   733097634.35798371       -157204102.98022571        313034592.55701721     
   450150360.76429784       -452760844.67427790        495874734.36203825     
   129324065.69499999       -874580991.28704798        704515478.24870169     
   775780067.68313634       -50630897.608121723        259354013.12681639     
   622391656.68799722       -123476003.93704173        387692897.86867529     
   425476383.81707442       -341410649.85188723        538496851.28966761     
   185034249.07037887       -704434835.35267580        711765873.38977623     
  -98934747.552119851       -1212548560.4394274        907499964.16903746     
   498360672.78975838       -116734264.50546706        479571322.94908220     
   389242986.00617743       -222253573.93737325        598421007.65754724     
   230950596.94664511       -491688557.62243974        736400227.64261925     
   23483505.611164570       -925039215.56066275        893508982.90430272     
  -233158288.00027025       -1522305547.7521024        1069747273.4425904     
   353096932.43839693       -143190935.04019409        685408044.65872216     
   278719874.43061674       -284243476.20578700        788179382.20024490     
   149520273.74671692       -608037826.29177856        906744721.61587167     
  -34501869.613322496       -1114573985.2982523        1041104062.9055858     
  -273346555.64948827       -1803851953.2251248        1191257406.0693758     
   4690426622.4225311        60337804.795746803        608090298.22859740     
   4486220509.3028812        26297537.703741312        649008386.83187509     
   4284926120.8563781        1963019.5222215652        678322769.78617001     
   4086543457.0830173       -12665749.748809576        696033447.09148633     
   3891072517.9828043       -17588770.109352350        702140418.74782681     
   4428428890.9555349        90101024.217723846        753292506.31354475     
   4205498339.0538230        54392361.970368624        770077928.40164673     
   3983808808.3776464        22820437.141484976        784448655.95759761     
   3763360298.9270182       -4614750.2689218521        796404688.98141325     
   3544152810.7019243       -27913200.260871887        805946027.47308159     
   4077432281.8280659        93164580.341558695        900988113.13239503     
   3862031608.6209645        63663818.181865454        891691714.68310714     
   3646201253.1917996        32730781.948617458        889169632.81851780     
   3429941215.5405698        365471.64182305336        893421867.53861606     
   3213251495.6672745       -33432112.738523960        904448418.84340870     
   3637436795.0401397        69528473.167257309        1051177118.6851379     
   3455820318.0043259        54111906.338217020        1013849745.6762650     
   3272103455.2988405        31694053.943614244        992485700.36891723     
   3086286206.9236827        2274915.9834372997        987084982.76310205     
   2898368572.8788548       -34145507.542307854        997647592.85881376     
   3108442430.5917468        19192702.694814444        1203859522.9717906     
   2986864467.2038927        25736626.439443469        1136552021.3811157     
   2861515414.6987600        19710253.126475692        1094396858.6088078     
   2732395273.0763535        1113582.7559229136        1077394034.6548684     
   2599504042.3366680       -30053384.672221780        1085543549.5192885     
   3891072517.9828043       -17588770.109352350        702140418.74782681     
   3789392802.0276799        7757190.7363622189        691195244.40951204     
   3686206821.3528538        28082269.183068991        686591013.40461826     
   3581514575.9583268        43386465.230765581        688327725.73314416     
   3475316065.8440948        53669778.879463434        696405381.39508593     
   3544152810.7019243       -27913200.260871887        805946027.47308159     
   3454985753.2933197       -10614237.419801474        799014548.82562006     
   3365622916.5853724        6032127.7567949295        797224248.34313142     
   3276064300.5780840        22025895.268920064        800575126.02562177     
   3186309905.2714520        37367065.116566896        809067181.87308800     
   3213251495.6672745       -33432112.738523960        904448418.84340870     
   3133169196.3239226       -25208518.046478629        903059535.54388547     
   3054201603.1015930       -13269236.284365177        905612065.24089277     
   2976348716.0002780        2385732.5477989912        912106007.93443215     
   2899610535.0199847        21756388.450032711        922541363.62450755     
   2898368572.8788548       -34145507.542307854        997647592.85881376     
   2823943131.1194935       -36025651.143662333        1003330204.5643126     
   2751942880.9015141       -29821822.940415382        1011754464.0978993     
   2682367822.2249069       -15534022.932579160        1022920371.4595791     
   2615217955.0896783        6837748.8798402548        1036827926.6493493     
   2599504042.3366680       -30053384.672221780        1085543549.5192885     
   2527307557.6800294       -43065636.711361647        1099826555.8868966     
   2458846749.9851336       -43625632.211356521        1115651444.9141512     
   2394121619.2519708       -31733371.172244668        1133018216.6010571     
   2333132165.4805474       -7388853.5939928293        1151926870.9476035     
   3475316065.8440948        53669778.879463434        696405381.39508593     
   3302035275.3567057        41429662.087447166        680510665.41297209     
   3128679158.6030293        28938457.741144776        668708244.91424501     
   2955247715.5830660        16196165.840545177        660998119.89890099     
   2781740946.2968102        3202786.3856441975        657380290.36693406     
   3186309905.2714520        37367065.116566896        809067181.87308800     
   3025453305.2904634        30459541.080416441        793767957.51934361     
   2864187188.4671721        22186960.903262734        782702908.97424233     
   2702511554.8015819        12549324.585103989        775872036.23778951     
   2540426404.2936878        1546632.1259386539        773275339.30999184     
   2899610535.0199847        21756388.450032711        922541363.62450755     
   2751583497.9033003        20303068.877111197        907447741.89377594     
   2602812753.3682971        16370724.576478481        896730176.29696202     
   2453298301.4149837        9959355.5481284857        890388666.83406115     
   2303040142.0433531        1068961.7920643091        888423213.50507736     
   2615217955.0896783        6837748.8798402548        1036827926.6493493     
   2480425853.1952000        10960245.477515459        1021550018.5362823     
   2344555853.3063993        11489748.760782480        1010790046.8824035     
   2207607955.4232664        8426258.7296088934        1004548011.6877061     
   2069582159.5458107        1769775.3840270042        1002823912.9521918     
   2333132165.4805474       -7388853.5939928293        1151926870.9476035     
   2211980371.1661801        2431070.8816506863        1136074787.4468644     
   2089416488.2814817        7544033.4561840296        1124882520.7305732     
   1965440516.8264368        7950034.1295683384        1118350070.7987268     
   1840052456.8010571        3649072.9018361568        1116477437.6513374     
   2781740946.2968102        3202786.3856441975        657380290.36693406     
   2654392627.4690733        4891192.3369506598        648744485.48780274     
   2527669690.0298409        8664202.9165979624        643257554.27498388     
   2401572133.9790926        14521818.124535918        640919496.72848284     
   2276099959.3168330        22464037.960766912        641730312.84829104     
   2540426404.2936878        1546632.1259386539        773275339.30999184     
   2421590253.1264434        3832853.7800047398        766795032.87445664     
   2303370793.0725183        8174712.4784812927        763575716.58004308     
   2185768024.1319203        14572208.221361279        763617390.42674768     
   2068781946.3046334        23025341.008635998        766920054.41456819     
   2303040142.0433531        1068961.7920643091        888423213.50507736     
   2193036491.3217463        4049098.9844205379        884088266.85878301     
   2083640841.4382865        9055905.6372890472        883126426.82840443     
   1974853192.3929784        16089381.750649214        885537693.41394711     
   1866673544.1858206        25149527.324514508        891322066.61540902     
   2069582159.5458107        1769775.3840270042        1002823912.9521918     
   1968731342.0549874        5539927.9502269030        1000624187.4407656     
   1868479835.1271467        11307782.393027425        1001909685.0200614     
   1768827638.7622867        19073338.712428808        1006680405.6900834     
   1669774752.9603968        28836596.908409536        1014936349.4508209     
   1840052456.8010571        3649072.9018361568        1116477437.6513374     
   1748674805.3261678        8305340.6774049997        1116402794.6204131     
   1657887774.1390915        14930342.745678782        1119925491.1550155     
   1567691363.2398262        23524079.106658757        1127045527.2551417     
   1478085572.6283646        34086549.760328770        1137762902.9207966     
   2276099959.3168330        22464037.960766912        641730312.84829104     
   2131891917.6682096        25095672.998062611        628875557.57929564     
   1987263005.8159065        26324407.356430888        619092027.25402188     
   1842213223.7599301        26150241.035889983        612379721.87246060     
   1696742571.5002773        24573174.036417842        608738641.43462348     
   2068781946.3046334        23025341.008635998        766920054.41456819     
   1932922629.1868410        26250301.481518984        755521627.13331580     
   1796732642.5861216        28373030.344652176        747337149.44692624     
   1660211986.5024796        29393527.598040879        742366621.35540235     
   1523360660.9359081        29311793.241663873        740610042.85874188     
   1866673544.1858206        25149527.324514508        891322066.61540902     
   1739570736.3164196        29090148.648262858        881485201.49610496     
   1612227459.6848404        32229207.431418180        875005010.62281311     
   1484643714.2910881        34566703.674003005        871881493.99552917     
   1356819500.1351597        36102637.375986099        872114651.61425054     
   1669774752.9603968        28836596.908409536        1014936349.4508209     
   1551836239.0569401        33615214.498277724        1006766280.6676728     
   1433747457.1120687        37892938.616746783        1002095610.7816818     
   1315508407.1257596        41669769.263770640        1000924339.7928485     
   1197119089.0980346        44945706.439400494        1003252467.7011564     
   1478085572.6283646        34086549.760328770        1137762902.9207966     
   1369719137.4084237        39825499.031604707        1131364864.6480138     
   1261292634.8677988        45364223.900612652        1128608949.9235344     
   1152806065.0065100        50702724.367398560        1129495158.7473567     
   1044259427.8245332        55841000.431901753        1134023491.1194794     
   1696742571.5002773        24573174.036417842        608738641.43462348     
   1555784635.4959304        25522806.193175495        595430070.50190711     
   1416020899.9895446        30453106.676458895        580876240.01997852     
   1277451364.9810941        39364075.486205399        565077149.98884857     
   1140076030.4706016        52255712.622466683        548032800.40851557     
   1523360660.9359081        29311793.241663873        740610042.85874188     
   1380652706.6610391        27458731.047686338        731475290.15425599     
   1238265967.4349744        26676385.683036029        722886404.71797931     
   1096200443.2577047        26964757.147715747        714843386.54990876     
   954456134.12923002        28323845.441705704        707346235.65004110     
   1356819500.1351597        36102637.375986099        872114651.61425054     
   1217479032.7823708        32982132.389060736        866135234.11399460     
   1077586795.0292273        28022392.734293342        862492810.69935143     
   937142786.87572122        21223418.411641121        861187381.37031913     
   796147008.32186031        12585209.421141982        862218946.12689638     
   1197119089.0980346        44945706.439400494        1003252467.7011564     
   1066263613.8599161        42093010.217310846        999409902.38112175     
   933983382.77228320        34491127.830158353        999695457.96410072     
   800278395.83514297        22140059.277998120        1004109134.4500993     
   665148653.04848611        5039804.5607652366        1012650931.8391215     
   1044259427.8245332        55841000.431901753        1134023491.1194794     
   927006449.89367867        54791364.532402813        1131299294.9556370     
   807455730.66416264        46082590.970707059        1134494346.5122232     
   685607270.13597322        29714679.746768564        1143608645.7892323     
   561461068.30912018        5687630.8606175780        1158642192.7866740     
   1140076030.4706016        52255712.622466683        548032800.40851557     
   954643976.84911680        41103120.328686297        565981781.60484409     
   761670109.30324852        4811148.2869670391        594860649.37866282     
   561154427.83301699       -56620203.502635419        634669403.72995317     
   353096932.43839693       -143190935.04019409        685408044.65872216     
   954456134.12923002        28323845.441705704        707346235.65004110     
   794681123.80849969        11652108.726698071        724987783.81470037     
   626262954.71284354       -33830157.238051176        752709281.26890421     
   449201626.84225023       -108122952.45259121        790510728.01264095     
   263497140.19672686       -211226276.91690904        838392124.04593050     
   796147008.32186031        12585209.421141982        862218946.12689638     
   659600649.05063081       -10334189.390444040        878268158.93424654     
   513309786.15391159       -65735266.953659981        903547383.74320257     
   357274419.63171208       -153618023.26847816        938056620.55374849     
   191494549.48401880       -273982458.33494204        981795869.36589110     
   665148653.04848611        5039804.5607652366        1012650931.8391215     
   549402552.57550120       -24855774.022768527        1025822906.9635054     
   422810603.62646437       -90904180.859797120        1047374956.8015540     
   285372806.20138252       -193105415.95030934        1077307081.3532510     
   137089160.30026478       -331459479.29428554        1115619280.6186039     
   561461068.30912018        5687630.8606175780        1158642192.7866740     
   464086834.38310564       -31912645.170286179        1167652027.9024575     
   354765407.13049328       -109336898.95650476        1184192000.4439476     
   233496786.55128884       -226585130.49804148        1208262110.4111509     
   100280972.64547595       -383657339.79493946        1239862357.8040736     
   353096932.43839693       -143190935.04019409        685408044.65872216     
   278719874.43061674       -284243476.20578700        788179382.20024490     
   149520273.74671692       -608037826.29177856        906744721.61587167     
  -34501869.613322496       -1114573985.2982523        1041104062.9055858     
  -273346555.64948827       -1803851953.2251248        1191257406.0693758     
   263497140.19672686       -211226276.91690904        838392124.04593050     
   224481214.58959413       -350607413.80108690        887119479.53106642     
   141173691.23118785       -637627209.85616553        946867995.53920829     
   13574570.121535838       -1072285665.0820827        1017637672.0703580     
  -158316148.73938990       -1654582779.4788959        1099428509.1245022     
   191494549.48401880       -273982458.33494204        981795869.36589110     
   174203066.70297721       -415783197.81009841        988765345.20698583     
   123150931.09554473       -670119446.70655191        1001983140.2200071     
   38338142.661719203       -1036991205.0243419        1021449254.4049351     
  -80235298.598506868       -1516398472.7634313        1047163687.7617635     
   137089160.30026478       -331459479.29428554        1115619280.6186039     
   127885430.77078611       -479770828.23275208        1093116979.2280025     
   95451993.339774549       -705514536.84300041        1072090155.6582358     
   39788848.007238388       -1008690605.1250007        1052538809.9092860     
  -39104005.226812840       -1389299033.0787170        1034462941.9811471     
   100280972.64547595       -383657339.79493946        1239862357.8040736     
   85528306.793010086       -542570305.06910133        1200174381.5941246     
   58076877.963892341       -743812480.26545250        1157189041.8539078     
   17926686.158107758       -987383865.38402677        1110906338.5834270     
  -34922268.624332190       -1273284460.4247801        1061326271.7826810     
   3108442430.5917468        19192702.694814444        1203859522.9717906     
   2986864467.2038927        25736626.439443469        1136552021.3811157     
   2861515414.6987600        19710253.126475692        1094396858.6088078     
   2732395273.0763535        1113582.7559229136        1077394034.6548684     
   2599504042.3366680       -30053384.672221780        1085543549.5192885     
   2640583924.6114845       -32882735.249123216        1212755868.8767526     
   2564481885.8172812        6091648.7810065746        1207276285.7576096     
   2482984377.6934514        27081135.045728207        1204141891.9031754     
   2396091400.2400079        30085723.545056701        1203352687.3134530     
   2303802953.4569397        15105414.278982282        1204908671.9884350     
   2397235853.8951850       -17605042.613873601        1229825801.7930388     
   2301446455.2556062        34250816.370046735        1284279026.8976941     
   2198637207.0740623        62707176.880754828        1318270291.7134037     
   2088808109.3505602        67764038.918257833        1331799596.2401683     
   1971959162.0850923        49421402.482548952        1324866940.4779813     
   2378398218.4428258        65025780.600560427        1255069321.7206590     
   2197758175.5188622        110214129.20656991        1367560244.8013799     
   2008473902.8405871        126588378.63155496        1436782058.0394983     
   1810545400.4080136        114148528.87553358        1462734761.4350133     
   1603972668.2211268        72894579.938477695        1445418354.9879260     
   2584071018.2544222        215009734.39417803        1288486428.6596081     
   2253417046.6070514        233981587.29056972        1457119939.4686582     
   1912494464.9930301        218724740.29813302        1559677190.8814530     
   1561303273.4123638        169239193.41687417        1596158182.8979881     
   1199843471.8650460        85524946.646778405        1566562915.5182660     
   2599504042.3366680       -30053384.672221780        1085543549.5192885     
   2527307557.6800294       -43065636.711361647        1099826555.8868966     
   2458846749.9851336       -43625632.211356521        1115651444.9141512     
   2394121619.2519708       -31733371.172244668        1133018216.6010571     
   2333132165.4805474       -7388853.5939928293        1151926870.9476035     
   2303802953.4569397        15105414.278982282        1204908671.9884350     
   2239111547.6725149        3871824.2361918688        1211264462.2878323     
   2176827220.1783857        661828.49438202381        1221441047.0609009     
   2116949970.9745471        5475427.0535457134        1235438426.3076382     
   2059479800.0610049        18312619.913691044        1253256600.0280423     
   1971959162.0850923        49421402.482548952        1324866940.4779813     
   1921284011.7843714        41919827.419545889        1321745482.9258161     
   1871687341.1025038        38013184.419377327        1324723731.6613424     
   1823169150.0394845        37701473.482037663        1333801686.6845601     
   1775729438.5953135        40984694.607528687        1348979347.9954689     
   1603972668.2211268        72894579.938477695        1445418354.9879260     
   1573824950.0156043        71078372.838709891        1431269617.8008444     
   1543427112.7574892        68428435.563632727        1425499498.7154815     
   1512779156.4467778        64944768.113236248        1428107997.7318277     
   1481881081.0834706        60627370.487523317        1439095114.8498909     
   1199843471.8650460        85524946.646778405        1566562915.5182660     
   1196734362.3662155        91347460.493702412        1539836866.9129183     
   1192046535.1433420        91907581.927150905        1523768348.2233105     
   1185779990.1964314        87205310.947142839        1518357359.4494376     
   1177934727.5254827        77240647.553671122        1523603900.5912976     
   2333132165.4805474       -7388853.5939928293        1151926870.9476035     
   2211980371.1661801        2431070.8816506863        1136074787.4468644     
   2089416488.2814817        7544033.4561840296        1124882520.7305732     
   1965440516.8264368        7950034.1295683384        1118350070.7987268     
   1840052456.8010571        3649072.9018361568        1116477437.6513374     
   2059479800.0610049        18312619.913691044        1253256600.0280423     
   1948315171.0879149        18056685.487016797        1233146066.5386460     
   1836731514.4603939        16403992.212234259        1218383349.3509321     
   1724728830.1784315        13354540.089312911        1208968448.4649074     
   1612307118.2420309        8908329.1182672977        1204901363.8805616     
   1775729438.5953135        40984694.607528687        1348979347.9954689     
   1676517687.8698847        31242615.150451958        1325768935.5859687     
   1577879970.4059238        23413979.898263335        1308594338.9953885     
   1479816286.2034247        17498788.850947261        1297455558.2237260     
   1382326635.2623887        13497042.008512139        1292352593.2709830     
   1481881081.0834706        60627370.487523317        1439095114.8498909     
   1396587921.5120862        41988859.871953905        1413943394.5888374     
   1312861856.1180735        28573996.514284909        1395515489.6639426     
   1230702884.9014244        20382780.414495170        1383811400.0751977     
   1150111007.8621347        17415211.572574139        1378831125.8226044     
   1177934727.5254827        77240647.553671122        1523603900.5912976     
   1108525872.0145264        50295419.651525974        1497669443.5472538     
   1041677171.5968416        31884042.060286224        1479146801.3565910     
   977388626.27242243        22006514.779932857        1468035974.0193155     
   915660236.04126477        20662837.810448110        1464336961.5354254     
   1840052456.8010571        3649072.9018361568        1116477437.6513374     
   1748674805.3261678        8305340.6774049997        1116402794.6204131     
   1657887774.1390915        14930342.745678782        1119925491.1550155     
   1567691363.2398262        23524079.106658757        1127045527.2551417     
   1478085572.6283646        34086549.760328770        1137762902.9207966     
   1612307118.2420309        8908329.1182672977        1204901363.8805616     
   1530294110.1104703        13429886.204271138        1204593816.4464612     
   1448598035.2919755        19007887.667158902        1207923588.3316011     
   1367218893.7865493        25642333.506942391        1214890679.5359871     
   1286156685.5941961        33333223.723636806        1225495090.0596154     
   1382326635.2623887        13497042.008512139        1292352593.2709830     
   1309792498.3419185        17918156.765272737        1291492839.9631748     
   1237301607.7597723        22483425.983105719        1294310385.7283239     
   1164853963.5159569        27192849.662041068        1300805230.5664377     
   1092449565.6104670        32046427.802070022        1310977374.4775052     
   1150111007.8621347        17415211.572574139        1378831125.8226044     
   1087169970.0205204        21770152.360417783        1377099865.1705546     
   1023998491.5424868        25356957.693534732        1379085883.3451843     
   960596572.42804086        28175627.571944416        1384789180.3464870     
   896964212.67717862        30226161.995628715        1394209756.1744730     
   915660236.04126477        20662837.810448110        1464336961.5354254     
   862426525.14627278        24985872.989721358        1461414892.0686042     
   808688686.64011049        27628482.798424095        1462250081.1821771     
   754446720.52280080        28590667.236635834        1466842528.8761454     
   699700626.79433870        27872426.304341942        1475192235.1505122     
   1478085572.6283646        34086549.760328770        1137762902.9207966     
   1369719137.4084237        39825499.031604707        1131364864.6480138     
   1261292634.8677988        45364223.900612652        1128608949.9235344     
   1152806065.0065100        50702724.367398560        1129495158.7473567     
   1044259427.8245332        55841000.431901753        1134023491.1194794     
   1286156685.5941961        33333223.723636806        1225495090.0596154     
   1187551517.5191228        36263151.322431266        1218884129.2827444     
   1088960355.9201720        39239767.174961984        1216787947.7626643     
   990383200.79733837        42263071.281216383        1219206545.4993670     
   891820052.15062451        45333063.641214460        1226139922.4928625     
   1092449565.6104670        32046427.802070022        1310977374.4775052     
   1006098966.7045231        32915324.335666537        1304239910.6261406     
   919836448.07149935        34077821.778997511        1302889881.7400498     
   833662009.71138072        35533920.132011831        1306927287.8192377     
   747575651.62418175        37283619.394760370        1316352128.8637073     
   896964212.67717862        30226161.995628715        1394209756.1744730     
   825361484.96462238        29782018.071315616        1387432208.6782000     
   753920911.32177937        29878387.712705582        1386914751.8556972     
   682642491.74863720        30515270.919764817        1392657385.7069647     
   611526226.24521160        31692667.692554682        1404660110.2319961     
   699700626.79433870        27872426.304341942        1475192235.1505122     
   645339072.29942226        26863232.529371589        1468461023.4389341     
   591213745.67101753        26641464.976109385        1468862558.1096113     
   537324646.90910220        27207123.644479126        1476396839.1625504     
   483671776.01370782        28560208.534582198        1491063866.5977423     
   1044259427.8245332        55841000.431901753        1134023491.1194794     
   927006449.89367867        54791364.532402813        1131299294.9556370     
   807455730.66416264        46082590.970707059        1134494346.5122232     
   685607270.13597322        29714679.746768564        1143608645.7892323     
   561461068.30912018        5687630.8606175780        1158642192.7866740     
   891820052.15062451        45333063.641214460        1226139922.4928625     
   789666405.40426278        43899045.282998174        1223549963.6956077     
   685239283.20046675        34886775.400003612        1226744330.9641595     
   578538685.53925741        18296253.992293715        1235723024.2985311     
   469564612.42061073       -5872518.9402019680        1250486043.6987047     
   747575651.62418175        37283619.394760370        1316352128.8637073     
   660135845.62054455        35349571.445284486        1313924717.5811496     
   570446830.00071812        25918158.108502626        1317146710.7097824     
   478508604.76470792        8989379.3844483793        1326018108.2496090     
   384321169.91251159       -15436764.726898462        1340538910.2006261     
   611526226.24521160        31692667.692554682        1404660110.2319961     
   538414770.54252994        29142943.019271135        1402423556.6122563     
   463078371.06490499        19176739.096173093        1405701485.7490833     
   385517027.81233793        1794055.9232671112        1414493897.6424785     
   305730740.78481674       -23005106.499480292        1428800792.2924633     
   483671776.01370782        28560208.534582198        1491063866.5977423     
   424503180.17023200        25279160.005009353        1489046480.7889240     
   363133906.39303356        14662518.363027796        1492408656.0820546     
   299563954.68214417       -3289716.3912542313        1501150392.4771502     
   233793325.03754067       -28577544.257916525        1515271689.9742000     
   561461068.30912018        5687630.8606175780        1158642192.7866740     
   464086834.38310564       -31912645.170286179        1167652027.9024575     
   354765407.13049328       -109336898.95650476        1184192000.4439476     
   233496786.55128884       -226585130.49804148        1208262110.4111509     
   100280972.64547595       -383657339.79493946        1239862357.8040736     
   469564612.42061073       -5872518.9402019680        1250486043.6987047     
   391499579.40350062       -39609708.770669624        1248385580.9509182     
   303285299.47342813       -107177721.64435887        1252716730.8149400     
   204921772.63038221       -208576557.56129014        1263479493.2907662     
   96408998.874361455       -343806216.52146256        1280673868.3784082     
   384321169.91251159       -15436764.726898462        1340538910.2006261     
   322426695.47885722       -46252461.054571241        1329425753.7385163     
   252180920.54586187       -104905825.71337667        1323645685.0743034     
   173583845.11352599       -191396858.70331705        1323198704.2079887     
   86635469.181842491       -305725560.02442032        1328084811.1395760     
   305730740.78481674       -23005106.499480292        1428800792.2924633     
   256868182.60916337       -51840902.021991327        1410772546.2652564     
   201452270.34780568       -102521211.16352810        1396978863.2220414     
   139483004.00072360       -175046033.92413783        1387419743.1628201     
   70960383.567930892       -269415370.30378258        1382095186.0875804     
   233793325.03754067       -28577544.257916525        1515271689.9742000     
   194824040.79443464       -56375031.672915235        1492425958.5311320     
   151099348.87924761       -100023877.99484508        1472716265.2581573     
   102619249.29197785       -159524083.22371867        1456142610.1552522     
   49383742.032612562       -234875647.35958025        1442704993.2224340     
   100280972.64547595       -383657339.79493946        1239862357.8040736     
   85528306.793010086       -542570305.06910133        1200174381.5941246     
   58076877.963892341       -743812480.26545250        1157189041.8539078     
   17926686.158107758       -987383865.38402677        1110906338.5834270     
  -34922268.624332190       -1273284460.4247801        1061326271.7826810     
   96408998.874361455       -343806216.52146256        1280673868.3784082     
   79647568.887088746       -484205118.92155731        1225246789.7425733     
   51478475.986049086       -662629564.36755037        1167299395.4085178     
   11901720.171227515       -879079552.85948157        1106831685.3762670     
  -39082698.557352364       -1133555084.3972569        1043843659.6457669     
   86635469.181842491       -305725560.02442032        1328084811.1395760     
   70085411.722758681       -426944358.55155265        1258424913.4845717     
   43418791.412796199       -581885033.24827921        1187021747.9633999     
   6635608.2519453466       -770547584.11463070        1113875314.5760438     
  -40264137.759768188       -992932011.15052593        1038985613.3225397     
   70960383.567930892       -269415370.30378258        1382095186.0875804     
   56841835.300024867       -370788023.95906740        1299708752.8201127     
   33897824.244135529       -501578886.90763289        1216356099.5185075     
   2128350.4002574980       -661787959.14950788        1132037226.1828051     
  -38466586.231609315       -851415240.68464255        1046752132.8129507     
   49383742.032612562       -234875647.35958025        1442704993.2224340     
   39916839.618891716       -315736115.14408857        1349098307.7491987     
   22915574.480073750       -421711125.34559023        1255302450.0738859     
  -1620053.3838540316       -552800677.96413136        1161317420.1965046     
  -33690043.972855181       -709004772.99956727        1067143218.1170589     
   2584071018.2544222        215009734.39417803        1288486428.6596081     
   2253417046.6070514        233981587.29056972        1457119939.4686582     
   1912494464.9930301        218724740.29813302        1559677190.8814530     
   1561303273.4123638        169239193.41687417        1596158182.8979881     
   1199843471.8650460        85524946.646778405        1566562915.5182660     
   2699929119.3884945        635006258.37210894        1705799243.0506144     
   2220558305.8337135        491024991.64984369        1686160964.4814465     
   1741214837.2548015        347134874.84714276        1655805940.6763694     
   1261898713.6517639        203335907.96402043        1614734171.6353908     
   782609935.02459383        59628091.000457138        1562945657.3585079     
   2215851577.0546217        875022089.30965805        2071591442.5534439     
   1745933962.0505872        615538715.10617924        1875693322.0389929     
   1286339646.9649415        390466340.63066518        1724437970.4489872     
   837068631.79768622        199804965.88312188        1617825387.7834322     
   398120916.54881978        43554590.863539189        1555855574.0423281     
   1131838391.2528076        935057227.20682383        2385863027.1681018     
   829544015.25767505        607522757.65958333        2025717012.1413021     
   547868894.12344837        348719137.64870000        1765573280.1993101     
   286813027.85013258        158646367.17418295        1605431831.3421161     
   46376416.437724702        37304446.236028306        1545292665.5697293     
  -552110438.01694965        815111672.06360674        2648613996.8945837     
  -528611534.54502684        466977119.31004721        2136232034.7883775     
  -474197421.26967907        221893265.90123612        1779211869.9273291     
  -388868098.19089895        79860111.837200284        1577553502.3114412     
  -272623565.30869401        40877657.117913663        1531256931.9407096     
   1199843471.8650460        85524946.646778405        1566562915.5182660     
   1196734362.3662155        91347460.493702412        1539836866.9129183     
   1192046535.1433420        91907581.927150905        1523768348.2233105     
   1185779990.1964314        87205310.947142839        1518357359.4494376     
   1177934727.5254827        77240647.553671122        1523603900.5912976     
   782609935.02459383        59628091.000457138        1562945657.3585079     
   803948305.74005759        65237741.831551790        1545178352.7071314     
   824685258.72702920        68842666.901008546        1535608394.3854370     
   844820793.98551202        70442866.208835483        1534235782.3934236     
   864354911.51550364        70038339.755021691        1541060516.7310932     
   398120916.54881978        43554590.863539189        1555855574.0423281     
   436877671.51842487        46842649.890766308        1548187196.6730592     
   476010308.75508684        51383649.808181077        1546255982.0474203     
   515518828.25880653        57177590.615789041        1550061930.1654091     
   555403230.02958405        64224472.313590154        1559605041.0270221     
   46376416.437724702        37304446.236028306        1545292665.5697293     
   95522459.701315433        36162184.671333998        1548863398.8107100     
   146021685.22751242        39530530.648660429        1555711111.2092621     
   197874093.01631537        47409484.168006860        1565835802.7653890     
   251079683.06772596        59799045.229378700        1579237473.4790857     
  -272623565.30869401        40877657.117913663        1531256931.9407096     
  -220117329.71126997        33196346.173260570        1547206959.1200759     
  -165280611.85568893        33283309.422463387        1563973781.8709621     
  -108113411.74196057        41138546.865491323        1581557400.1933687     
  -48615729.370073304        56762058.502381556        1599957814.0872927     
   1177934727.5254827        77240647.553671122        1523603900.5912976     
   1108525872.0145264        50295419.651525974        1497669443.5472538     
   1041677171.5968416        31884042.060286224        1479146801.3565910     
   977388626.27242243        22006514.779932857        1468035974.0193155     
   915660236.04126477        20662837.810448110        1464336961.5354254     
   864354911.51550364        70038339.755021691        1541060516.7310932     
   815967129.86936998        50944516.342771918        1519006390.9267905     
   769293253.50847375        37563710.547980547        1503898644.5136068     
   724333282.43281937        29895922.370662451        1495737277.4915376     
   681087216.64240015        27941151.810793340        1494522289.8605893     
   555403230.02958405        64224472.313590154        1559605041.0270221     
   526706706.64178759        52583108.709290937        1540443955.0197668     
   498877838.73119861        43833930.029018968        1527763812.9413574     
   471916626.29781890        37976936.272776112        1521564614.7917955     
   445823069.34164470        35012127.440553054        1521846360.5710783     
   251079683.06772596        59799045.229378700        1579237473.4790857     
   240744602.33177572        55211196.751070701        1561982135.8261797     
   230430927.26500872        50694700.503373161        1550742306.6398461     
   220138657.86742067        46249556.486272171        1545517985.9200878     
   209867794.13901067        41875764.699764989        1546309173.6669064     
  -48615729.370073304        56762058.502381556        1599957814.0872927     
  -41919183.060655832        58828780.468142867        1583620933.3460283     
  -36047480.890092403        58146021.971057326        1572834125.6090674     
  -31000622.858376112        54713783.011146978        1567597390.8764157     
  -26778608.965514567        48532063.588389575        1567910729.1480672     
   915660236.04126477        20662837.810448110        1464336961.5354254     
   862426525.14627278        24985872.989721358        1461414892.0686042     
   808688686.64011049        27628482.798424095        1462250081.1821771     
   754446720.52280080        28590667.236635834        1466842528.8761454     
   699700626.79433870        27872426.304341942        1475192235.1505122     
   681087216.64240015        27941151.810793340        1494522289.8605893     
   636880801.57285488        27930571.617689103        1491137858.9816072     
   592432324.17445076        27113116.995056570        1491940308.3200493     
   547741784.44718337        25488787.942879111        1496929637.8759134     
   502809182.39106172        23057584.461186856        1506105847.6491952     
   445823069.34164470        35012127.440553054        1521846360.5710783     
   411871440.48905790        31036178.992563084        1518305311.1092904     
   377939814.58990383        27126907.056015715        1519380763.5019464     
   344028191.64418530        23284311.630921423        1525072717.7490485     
   310136571.65189618        19508392.717258543        1535381173.8505898     
   209867794.13901067        41875764.699764989        1546309173.6669064     
   187398441.89487422        34302695.114314407        1542917248.4516513     
   165211157.88646865        27669852.981301967        1544571446.7278652     
   143305942.11379349        21977238.300722361        1551271768.4955456     
   121682794.57684864        17224851.072578948        1563018213.7546997     
  -26778608.965514567        48532063.588389575        1567910729.1480672     
  -36538194.209692344        37730119.982957527        1564973671.0086877     
  -45753645.935843661        28741954.770948399        1567512357.9978049     
  -54424964.143977679        21567567.952330306        1575526790.1154134     
  -62552148.834089249        16206959.527118936        1589016967.3615160     
   699700626.79433870        27872426.304341942        1475192235.1505122     
   645339072.29942226        26863232.529371589        1468461023.4389341     
   591213745.67101753        26641464.976109385        1468862558.1096113     
   537324646.90910220        27207123.644479126        1476396839.1625504     
   483671776.01370782        28560208.534582198        1491063866.5977423     
   502809182.39106172        23057584.461186856        1506105847.6491952     
   466559950.09169430        23101736.225931242        1500792354.2798626     
   430467292.85927051        23667804.880488157        1502035590.3233702     
   394531210.69379658        24755790.424876884        1509835555.7797277     
   358751703.59526312        26365692.859068826        1524192250.6489284     
   310136571.65189618        19508392.717258543        1535381173.8505898     
   290353898.77832764        20112161.190797657        1531392470.5573463     
   270648148.17214566        20972337.222292699        1533384479.7075350     
   251019319.83334351        22088920.811720200        1541357201.3011508     
   231467413.76192319        23461911.959086858        1555310635.3382025     
   121682794.57684864        17224851.072578948        1563018213.7546997     
   116720918.35932210        17894507.423973199        1560261372.2713892     
   111756311.60962272        18555062.001458235        1562909226.2621002     
   106788974.32774179        19206514.805004064        1570961775.7268262     
   101818906.51368628        19848865.834635779        1584419020.6655800     
  -62552148.834089249        16206959.527118936        1589016967.3615160     
  -54338991.165322334        16448774.925457086        1587399059.4219916     
  -46208216.828286268        16415979.218022950        1590609829.9870677     
  -38159825.822996020        16108572.404770814        1598649279.0567541     
  -30193818.149446607        15526554.485715922        1611517406.6310408     
   483671776.01370782        28560208.534582198        1491063866.5977423     
   424503180.17023200        25279160.005009353        1489046480.7889240     
   363133906.39303356        14662518.363027796        1492408656.0820546     
   299563954.68214417       -3289716.3912542313        1501150392.4771502     
   233793325.03754067       -28577544.257916525        1515271689.9742000     
   358751703.59526312        26365692.859068826        1524192250.6489284     
   314073198.43264902        23046676.128835350        1519301325.4678829     
   267748522.76668000        14240424.387420282        1520185824.6780038     
   219777676.59735712       -53062.365175634623        1526845748.2792828     
   170160659.92469558       -19833784.128899142        1539281096.2717369     
   231467413.76192319        23461911.959086858        1555310635.3382025     
   202410037.24933818        20444238.418944672        1548193096.1203473     
   172260997.66375521        13787687.968807280        1547246844.5828686     
   141020295.00518548        3492260.6087140366        1552471880.7257633     
   108687929.27362293       -10442043.661353320        1563868204.5490291     
   101818906.51368628        19848865.834635779        1584419020.6655800     
   89513696.620302826        17471846.875345796        1575721792.7463305     
   76671331.084277645        13304309.107248824        1573591715.7966661     
   63291809.905619398        7346252.5303754639        1578028789.8165886     
   49375133.084326580       -402322.85527962446        1589033014.8060963     
  -30193818.149446607        15526554.485715922        1611517406.6310408     
  -24615823.454465199        14129501.498013793        1601887415.3458219     
  -19020476.971765041        12790287.802707516        1599220438.3193922     
  -13407778.701339217        11508913.399820805        1603516475.5517559     
  -7777728.6431908906        10285378.289341062        1614775527.0429127     
   233793325.03754067       -28577544.257916525        1515271689.9742000     
   194824040.79443464       -56375031.672915235        1492425958.5311320     
   151099348.87924761       -100023877.99484508        1472716265.2581573     
   102619249.29197785       -159524083.22371867        1456142610.1552522     
   49383742.032612562       -234875647.35958025        1442704993.2224340     
   170160659.92469558       -19833784.128899142        1539281096.2717369     
   141247277.42612237       -41196127.146849819        1512369523.1611397     
   108842013.88819370       -74198073.629320279        1488572187.5923157     
   72944869.310920656       -118839623.57626846        1467889089.5652745     
   33555843.694279104       -175120776.98778108        1450320229.0800164     
   108687929.27362293       -10442043.661353320        1563868204.5490291     
   89768161.010153487       -25387928.535084736        1534364904.1757514     
   68620038.340058103       -47761661.430899166        1507954040.7159462     
   45243561.263341114       -77563242.348788023        1484635614.1696265     
   19638729.779992417       -114792671.28878121        1464409624.5367823     
   49375133.084326580       -402322.85527962446        1589033014.8060963     
   40386691.546531677       -8950435.8376071993        1558412101.5749791     
   30433422.234834090       -20714641.399611667        1530861824.6290431     
   19515325.149241164       -35694939.541263849        1506382183.9682801     
   7632400.2897591144       -53891330.262551993        1484973179.5927024     
  -7777728.6431908906        10285378.289341062        1614775527.0429127     
  -6897130.9647502769        8116350.9455589680        1584511115.3588195     
  -5717834.4274822846        6942986.4645348126        1557295539.3315952     
  -4239839.0313722007        6765284.8463179711        1533128798.9612539     
  -2463144.7764334083        7583246.0908628004        1512010894.2477865     
   49383742.032612562       -234875647.35958025        1442704993.2224340     
   39916839.618891716       -315736115.14408857        1349098307.7491987     
   22915574.480073750       -421711125.34559023        1255302450.0738859     
  -1620053.3838540316       -552800677.96413136        1161317420.1965046     
  -33690043.972855181       -709004772.99956727        1067143218.1170589     
   33555843.694279104       -175120776.98778108        1450320229.0800164     
   29196619.038915262       -234719705.67215705        1349406645.4510081     
   19212759.668255121       -313067416.74085122        1247704707.8919923     
   3604265.5822641850       -410163910.19398135        1145214416.4029834     
  -17628863.219028175       -526009186.03144962        1041935770.9839978     
   19638729.779992417       -114792671.28878121        1464409624.5367823     
   18675235.088940151       -153643645.21117175        1358417158.7633903     
   13996833.692352772       -204877641.48535225        1251037157.3320897     
   5603525.5902417004       -268494660.11127388        1142269620.2428634     
  -6504689.2174080908       -344494701.08899403        1032114547.4957267     
   7632400.2897591144       -53891330.262551993        1484973179.5927024     
   8352687.7689425685       -72507933.761219874        1376129847.6863558     
   7267796.5523798876       -97141799.579040334        1265299798.3941703     
   4377726.6400665417       -127792927.71603201        1152483031.7161405     
  -317521.96799931675       -164461318.17219526        1037679547.6522796     
  -2463144.7764334083        7583246.0908628004        1512010894.2477865     
  -1771022.9210725031        8687428.6777200960        1402544712.2198963     
  -974351.75168722402        10140108.977993354        1290492631.0782397     
  -73131.268247423228        11941286.991782382        1175854650.8228176     
   932638.52919954760        14090962.718927255        1058630771.4536468     
  -552110438.01694965        815111672.06360674        2648613996.8945837     
  -528611534.54502684        466977119.31004721        2136232034.7883775     
  -474197421.26967907        221893265.90123612        1779211869.9273291     
  -388868098.19089895        79860111.837200284        1577553502.3114412     
  -272623565.30869401        40877657.117913663        1531256931.9407096     
  -2379282063.2764163       -293302832.86573005        1728380230.1421297     
  -1956600491.5494137       -314728079.83075851        1530403185.8958595     
  -1520232127.8851941       -290530687.00507277        1408733480.1879098     
  -1070176972.2837571       -220710654.38865888        1363371113.0182776     
  -606435024.74510276       -105267981.98151968        1394316084.3869674     
  -3269555651.7797518       -1120647926.7682238        897794260.47009933     
  -2673561293.8172092       -883124832.55058837        994122313.23984969     
  -2081108561.7836595       -657407158.09626925        1087703245.8410826     
  -1492197455.6791048       -443494903.40526468        1178537058.2737951     
  -906827975.50354338       -241388068.47756928        1266623750.5379908     
  -3222931203.5269542       -1666923609.6438797        156856087.87848389     
  -2679493941.3484125       -1238213138.8494399        527389416.82034761     
  -2156826722.9650717       -878736147.37234855        816121166.88685024     
  -1654929548.3769388       -588492635.21261144        1023051338.0779966     
  -1173802417.5840132       -367482602.37022930        1148179930.3937824     
  -2239408718.5180254       -1932129881.4926958       -494434287.63270742     
  -1974398434.1430223       -1379992998.7273116        130204496.63735047     
  -1747386611.4294345       -954517654.83331633        593987243.32521260     
  -1558373250.3772662       -655703849.81071711        896913952.43087590     
  -1407358350.9865096       -483551583.65949059        1038984623.9543421     
  -272623565.30869401        40877657.117913663        1531256931.9407096     
  -220117329.71126997        33196346.173260570        1547206959.1200759     
  -165280611.85568893        33283309.422463387        1563973781.8709621     
  -108113411.74196057        41138546.865491323        1581557400.1933687     
  -48615729.370073304        56762058.502381556        1599957814.0872927     
  -606435024.74510276       -105267981.98151968        1394316084.3869674     
  -546733243.97762525       -89342747.732773751        1422909046.7776492     
  -486414115.45090383       -71359687.619880512        1450772584.0676069     
  -425477639.16493917       -51318801.642843127        1477906696.2568414     
  -363923815.11972928       -29220089.801654518        1504311383.3453505     
  -906827975.50354338       -241388068.47756928        1266623750.5379908     
  -844348422.91528153       -203181621.04020590        1305860991.2245951     
  -782964657.06668544       -168627796.06839442        1342822586.1382313     
  -722676677.95775497       -137726593.56213543        1377508535.2788987     
  -663484485.58848810       -110478013.52142143        1409918838.6465995     
  -1173802417.5840132       -367482602.37022930        1148179930.3937824     
  -1112962866.5242336       -308320273.74902129        1196062792.4609151     
  -1054932236.7030294       -258521015.92306703        1240123788.0828338     
  -999710528.12040353       -218084828.89237255        1280362917.2595377     
  -947297740.77635109       -187011712.65692288        1316780179.9910343     
  -1407358350.9865096       -483551583.65949059        1038984623.9543421     
  -1352576574.8044827       -404758705.85922760        1093514450.4866068     
  -1302316854.3599434       -341039347.18392152        1142676189.9014137     
  -1256579189.6528900       -292393507.63356704        1186469842.1987638     
  -1215363580.6833167       -258821187.20814857        1224895407.3786588     
  -48615729.370073304        56762058.502381556        1599957814.0872927     
  -41919183.060655832        58828780.468142867        1583620933.3460283     
  -36047480.890092403        58146021.971057326        1572834125.6090674     
  -31000622.858376112        54713783.011146978        1567597390.8764157     
  -26778608.965514567        48532063.588389575        1567910729.1480672     
  -363923815.11972928       -29220089.801654518        1504311383.3453505     
  -340580974.54858023       -19309720.080403194        1492313266.6706278     
  -318333534.75495452       -13050686.284229755        1485759846.1724336     
  -297181495.73884922       -10442988.413124532        1484651121.8507657     
  -277124857.50026560       -11486626.467090830        1488987093.7056241     
  -663484485.58848810       -110478013.52142143        1409918838.6465995     
  -623796427.40640152       -92814319.039917469        1401943836.6266325     
  -585474326.64050853       -79703815.945727691        1399308153.9554172     
  -548518183.29080629       -71146504.238837868        1402011790.6329515     
  -512927997.35729843       -67142383.919265807        1410054746.6592383     
  -947297740.77635109       -187011712.65692288        1316780179.9910343     
  -891565541.63412130       -161685016.41040510        1312512643.2140431     
  -837469856.54675400       -141813367.01343143        1313479048.9580262     
  -785010685.51424873       -127396764.46599856        1319679397.2229805     
  -734188028.53661060       -118435208.76811956        1331113688.0089083     
  -1215363580.6833167       -258821187.20814857        1224895407.3786588     
  -1143888317.2317350       -225921812.19185081        1224019686.4328601     
  -1074320124.4736900       -199379339.48734236        1228272531.1802571     
  -1006659002.4091750       -179193769.09460101        1237653941.6208482     
  -940904951.03820181       -165365101.01366365        1252163917.7546349     
  -26778608.965514567        48532063.588389575        1567910729.1480672     
  -36538194.209692344        37730119.982957527        1564973671.0086877     
  -45753645.935843661        28741954.770948399        1567512357.9978049     
  -54424964.143977679        21567567.952330306        1575526790.1154134     
  -62552148.834089249        16206959.527118936        1589016967.3615160     
  -277124857.50026560       -11486626.467090830        1488987093.7056241     
  -271196140.02671844       -17079336.193309456        1491934172.3696239     
  -264376875.91371751       -19703557.121350400        1500271300.1774011     
  -256667065.16126218       -19359289.251208775        1513998477.1289594     
  -248066707.76936072       -16046532.582913026        1533115703.2243090     
  -512927997.35729843       -67142383.919265807        1410054746.6592383     
  -491555822.83662128       -67599313.467426121        1419290110.7682734     
  -468946688.55506963       -63933043.812672719        1433829828.0363817     
  -445100594.51263571       -56143574.954977870        1453673898.4635639     
  -420017540.70932269       -44230906.894355461        1478822322.0498180     
  -734188028.53661060       -118435208.76811956        1331113688.0089083     
  -697617242.63941145       -113829811.83942561        1347041486.2046483     
  -659463083.85990179       -103946505.30302903        1368187941.5747480     
  -619725552.19809163       -88785289.158963352        1394553054.1192110     
  -578404647.65397274       -68346163.407202661        1426136823.8380361     
  -940904951.03820181       -165365101.01366365        1252163917.7546349     
  -889380399.43507540       -155770831.30926722        1275188298.6787422     
  -835926061.82822490       -139743941.59245428        1303345640.7925022     
  -780541938.21763575       -117284431.86317737        1336635944.0959134     
  -723228028.60331416       -88392302.121463925        1375059208.5889750     
  -62552148.834089249        16206959.527118936        1589016967.3615160     
  -54338991.165322334        16448774.925457086        1587399059.4219916     
  -46208216.828286268        16415979.218022950        1590609829.9870677     
  -38159825.822996020        16108572.404770814        1598649279.0567541     
  -30193818.149446607        15526554.485715922        1611517406.6310408     
  -248066707.76936072       -16046532.582913026        1533115703.2243090     
  -225347671.20696199       -8321338.2667868137        1535632608.8241749     
  -203402587.50599822       -3175986.8221103922        1542752270.7027383     
  -182231456.66645625       -610478.24883695692        1554474688.8599966     
  -161834278.68834671       -624812.54700838029        1570799863.2959588     
  -420017540.70932269       -44230906.894355461        1478822322.0498180     
  -383438117.32731307       -29215981.282650784        1484667210.0711005     
  -348324216.33642745       -19086130.308026463        1494888932.1451735     
  -314675837.73665911       -13841353.970461056        1509487488.2720401     
  -282492981.52801162       -13481652.269962132        1528462878.4516964     
  -578404647.65397274       -68346163.407202661        1426136823.8380361     
  -528610329.52637583       -46235154.122141629        1434502863.1627676     
  -480973103.31958532       -31314451.239770681        1447019814.3143821     
  -435492969.03360438       -23584054.760094449        1463687677.2928834     
  -392169926.66844094       -23043964.683148548        1484506452.0982714     
  -723228028.60331416       -88392302.121463925        1375059208.5889750     
  -660864307.80414033       -59378856.785222977        1385139568.0991764     
  -601349248.45546913       -39860949.617326021        1399144917.2103581     
  -544682850.55730653       -29838580.617789894        1417075255.9225199     
  -490865114.10963500       -29311749.786557689        1438930584.2356570     
  -30193818.149446607        15526554.485715922        1611517406.6310408     
  -24615823.454465199        14129501.498013793        1601887415.3458219     
  -19020476.971765041        12790287.802707516        1599220438.3193922     
  -13407778.701339217        11508913.399820805        1603516475.5517559     
  -7777728.6431908906        10285378.289341062        1614775527.0429127     
  -161834278.68834671       -624812.54700838029        1570799863.2959588     
  -138839924.70376924        8846.7289731949568        1564925908.2417731     
  -115158096.46950275        2934086.8372536153        1565017512.4753256     
  -90788793.985530287        8150907.7778858207        1571074675.9966135     
  -65732017.251872465        15659309.550803270        1583097398.8056457     
  -282492981.52801162       -13481652.269962132        1528462878.4516964     
  -244932139.59970757       -11672242.134067684        1527126769.1675153     
  -206013700.95973456       -5337509.6259418577        1530758764.2000148     
  -165737665.60809520        5522545.2544053793        1539358863.5491996     
  -124104033.54478285        20907922.506996833        1552927067.2150772     
  -392169926.66844094       -23043964.683148548        1484506452.0982714     
  -342892468.14227664       -20913765.091099441        1488489998.1230538     
  -291587290.44246376       -12024501.586886540        1496444193.4934711     
  -238254393.56901646        3623825.8294413388        1508369038.2095232     
  -182893777.52192047        26031217.157928884        1524264532.2712066     
  -490865114.10963500       -29311749.786557689        1438930584.2356570     
  -432720910.33147150       -27715722.142098963        1449015595.1083817     
  -371878864.91769069       -17126889.045582235        1462073800.3556864     
  -308338977.86829996        2454749.5029665381        1478105199.9775703     
  -242101249.18328899        31029193.503585011        1497109793.9740326     
  -7777728.6431908906        10285378.289341062        1614775527.0429127     
  -6897130.9647502769        8116350.9455589680        1584511115.3588195     
  -5717834.4274822846        6942986.4645348126        1557295539.3315952     
  -4239839.0313722007        6765284.8463179711        1533128798.9612539     
  -2463144.7764334083        7583246.0908628004        1512010894.2477865     
  -65732017.251872465        15659309.550803270        1583097398.8056457     
  -54444277.031689450        22095091.940081567        1553597234.6659851     
  -41827686.948871523        32960373.871479038        1527068003.8093107     
  -27882247.003407516        48255155.345029421        1503509706.2356229     
  -12607957.195304196        67979436.360709444        1482922341.9449265     
  -124104033.54478285        20907922.506996833        1552927067.2150772     
  -102631728.99397853        35881741.165979214        1525392993.4576294     
  -78800423.576721534        58718896.046471715        1500751950.6092765     
  -52610117.293023929        89419387.148433238        1479003938.6700258     
  -24060810.142866448        127983214.47192867        1460148957.6398695     
  -182893777.52192047        26031217.157928884        1524264532.2712066     
  -151459486.85160810        49476298.623281382        1499898391.7337472     
  -116636044.31103557        84218552.989505202        1478347379.7314928     
  -78423449.900207624        130257980.25657687        1459611496.2644472     
  -36821703.619111121        187594580.42454654        1443690741.3326097     
  -242101249.18328899        31029193.503585011        1497109793.9740326     
  -200927550.60457611        62878764.311995327        1477113429.4943399     
  -155334549.15179342        109459344.70064050        1459854291.1759660     
  -105322244.82495618        170770934.66946641        1445332379.0189083     
  -50890637.624038860        246813534.21855944        1433547693.0231652     
  -2463144.7764334083        7583246.0908628004        1512010894.2477865     
  -1771022.9210725031        8687428.6777200960        1402544712.2198963     
  -974351.75168722402        10140108.977993354        1290492631.0782397     
  -73131.268247423228        11941286.991782382        1175854650.8228176     
   932638.52919954760        14090962.718927255        1058630771.4536468     
  -12607957.195304196        67979436.360709444        1482922341.9449265     
  -12111824.102205444        88410646.283639640        1374541715.2790556     
  -9555282.0222682431        115709886.16269657        1264136143.9091887     
  -4938330.9554669634        149877155.99796543        1151705627.8353350     
   1739029.0981679708        190912455.78935128        1037250167.0574737     
  -24060810.142866448        127983214.47192867        1460148957.6398695     
  -22157938.926987819        168222269.79642105        1355135722.6209798     
  -16238799.051449925        221848887.31977797        1248658497.3078575     
  -6303390.5162333548        288863067.04206401        1140717281.7005038     
   7648286.6786425561        369264808.96321386        1031312075.7989393     
  -36821703.619111121        187594580.42454654        1443690741.3326097     
  -31909367.395405889        248122299.21611342        1344326734.2456579     
  -21024902.839214772        328557112.44929862        1244059691.2742360     
  -4168309.9505373538        428899020.12410486        1142889612.4183486     
   18660411.270627201        549148022.24053597        1040816497.6780133     
  -50890637.624038860        246813534.21855944        1433547693.0231652     
  -41366109.507449836        328110734.54274464        1342114750.1530938     
  -23913593.385566175        435834561.55124319        1250339725.8083317     
   1466910.7416289449        569985015.24411011        1158222619.9888830     
   34775402.874121785        730562095.62131119        1065763432.6947210     
  -2239408718.5180254       -1932129881.4926958       -494434287.63270742     
  -1974398434.1430223       -1379992998.7273116        130204496.63735047     
  -1747386611.4294345       -954517654.83331633        593987243.32521260     
  -1558373250.3772662       -655703849.81071711        896913952.43087590     
  -1407358350.9865096       -483551583.65949059        1038984623.9543421     
  -843190522.13886285       -612794656.12422037        493927106.24845147     
  -994658684.13619411       -446831503.52981204        756091510.87647104     
  -1162274803.2131929       -334694874.53430521        947860932.07050490     
  -1346038879.3698654       -276384769.13770652        1069235369.8305483     
  -1545950912.6062031       -271901187.33999729        1120214824.1566074     
  -521599456.57068753        384152430.00096226        1369069220.0495079     
  -831085910.23117471        241479898.83714330        1294251500.3808601     
  -1134869816.3895888        117815859.34691137        1239499851.4264357     
  -1432951175.0459266        13160311.530268848        1204814273.1862357     
  -1725329986.2001870       -72486744.612789452        1190194765.6602592     
  -1274635521.8134825        1058711376.8828539        2130992053.7704663     
  -1483680112.4279625        684941208.37355828        1744684465.1505203     
  -1665171650.9586172        403014546.81033826        1468904001.3930113     
  -1819110137.4054482        212931392.19319940        1303650662.4979343     
  -1945495571.7684548        114691744.52213907        1248924448.4652936     
  -3102298717.8672700        1410882184.5214441        2779695607.4113231     
  -2952441290.7265615        883552425.07942629        2107390405.1854517     
  -2753180306.9202805        520901187.85597777        1636073381.9702280     
  -2504515766.4484324        322928472.85109448        1365744537.7656493     
  -2206447669.3110147        289634280.06476974        1296403872.5717125     
  -1407358350.9865096       -483551583.65949059        1038984623.9543421     
  -1352576574.8044827       -404758705.85922760        1093514450.4866068     
  -1302316854.3599434       -341039347.18392152        1142676189.9014137     
  -1256579189.6528900       -292393507.63356704        1186469842.1987638     
  -1215363580.6833167       -258821187.20814857        1224895407.3786588     
  -1545950912.6062031       -271901187.33999729        1120214824.1566074     
  -1513275634.4585660       -227609430.60206977        1156571472.7864795     
  -1484211532.2916718       -195354927.13328159        1189253007.2140458     
  -1458758606.1055288       -175137676.93366736        1218259427.4393110     
  -1436916855.9001291       -166957680.00319505        1243590733.4622695     
  -1725329986.2001870       -72486744.612789452        1190194765.6602592     
  -1709924140.6150703       -61244989.295625687        1209440929.4372654     
  -1697218591.2539601       -59004221.391815901        1226704951.9271209     
  -1687213338.1168594       -65764440.901375115        1241986833.1298268     
  -1679908381.2037663       -81525647.824285686        1255286573.0453765     
  -1945495571.7684548        114691744.52213907        1248924448.4652936     
  -1942522093.2739971        94334618.060088515        1252122820.4389660     
  -1941338031.2468090        68012770.040479779        1255032024.0406377     
  -1941943385.6868868        35726200.463311434        1257652059.2703118     
  -1944338156.5942376       -2525090.6714299917        1259982926.1279895     
  -2206447669.3110147        289634280.06476974        1296403872.5717125     
  -2211069492.4353504        239129391.46507013        1284617145.7915781     
  -2216569852.2702122        185696047.16361761        1274234223.5545962     
  -2222948748.8156080        129334247.16038120        1265255105.8607678     
  -2230206182.0715337        70043991.455381751        1257679792.7100954     
  -1215363580.6833167       -258821187.20814857        1224895407.3786588     
  -1143888317.2317350       -225921812.19185081        1224019686.4328601     
  -1074320124.4736900       -199379339.48734236        1228272531.1802571     
  -1006659002.4091750       -179193769.09460101        1237653941.6208482     
  -940904951.03820181       -165365101.01366365        1252163917.7546349     
  -1436916855.9001291       -166957680.00319505        1243590733.4622695     
  -1355842196.5590074       -147439524.29796362        1233839446.7553875     
  -1275397051.7641490       -130019750.41360366        1229431718.7267385     
  -1195581421.5155506       -114698358.35011157        1230367549.3763263     
  -1116395305.8132112       -101475348.10748139        1236646938.7041483     
  -1679908381.2037663       -81525647.824285686        1255286573.0453765     
  -1588620060.3015656       -75204431.728667140        1238150202.7492347     
  -1496683697.7983527       -66723076.962995052        1226572384.1163657     
  -1404099293.6941233       -56081583.527274728        1220553117.1467710     
  -1310866847.9888740       -43279951.421491802        1220092401.8404536     
  -1944338156.5942376       -2525090.6714299917        1259982926.1279895     
  -1842221908.4594126       -9216534.4839531183        1236951954.4144025     
  -1738180062.5763009       -9489319.1355146170        1219694527.3491330     
  -1632212618.9448955       -3343444.6260975599        1208210644.9321780     
  -1524319577.5651946        9221089.0442987084        1202500307.1635399     
  -2230206182.0715337        70043991.455381751        1257679792.7100954     
  -2116647741.0325429        50524167.436172605        1230244701.7508919     
  -1999886146.0979848        41681523.068860769        1208798148.4250445     
  -1879921397.2678666        43516058.353414536        1193340132.7325544     
  -1756753494.5421708        56027773.289889216        1183870654.6734147     
  -940904951.03820181       -165365101.01366365        1252163917.7546349     
  -889380399.43507540       -155770831.30926722        1275188298.6787422     
  -835926061.82822490       -139743941.59245428        1303345640.7925022     
  -780541938.21763575       -117284431.86317737        1336635944.0959134     
  -723228028.60331416       -88392302.121463925        1375059208.5889750     
  -1116395305.8132112       -101475348.10748139        1236646938.7041483     
  -1052028412.0818732       -92893856.449036002        1254368800.3034763     
  -987161071.05234420       -82644207.129951417        1277070143.4377654     
  -921793282.72461843       -70726400.150213987        1304750968.1070156     
  -855925047.09869432       -57140435.509811789        1337411274.3112309     
  -1310866847.9888740       -43279951.421491802        1220092401.8404536     
  -1234096125.4284406       -35842791.798745692        1230844182.2918720     
  -1158254294.2753458       -31501936.867132366        1246421964.6235662     
  -1083341354.5295868       -30257386.626636088        1266825748.8355319     
  -1009357306.1911703       -32109141.077285051        1292055534.9277723     
  -1524319577.5651946        9221089.0442987084        1202500307.1635399     
  -1435583539.4747672        15382362.641631961        1204614444.6439292     
  -1349205731.4972212        13682869.196030855        1211401104.3499026     
  -1265186153.6325409        4122608.7075409293        1222860286.2814639     
  -1183524805.8807452       -13298418.823893011        1238991990.4386058     
  -1756753494.5421708        56027773.289889216        1183870654.6734147     
  -1656490654.2208641        60781606.872068405        1175679587.3596480     
  -1560015382.7179720        52910211.059535503        1172007562.6167779     
  -1467327680.0334835        32413585.852324247        1172854580.4448018     
  -1378427546.1674147       -708268.74962270260        1178220640.8437266     
  -723228028.60331416       -88392302.121463925        1375059208.5889750     
  -660864307.80414033       -59378856.785222977        1385139568.0991764     
  -601349248.45546913       -39860949.617326021        1399144917.2103581     
  -544682850.55730653       -29838580.617789894        1417075255.9225199     
  -490865114.10963500       -29311749.786557689        1438930584.2356570     
  -855925047.09869432       -57140435.509811789        1337411274.3112309     
  -788200464.13621795       -44294274.306009740        1337784255.4588890     
  -721831300.54066133       -35966177.658612281        1342086898.8540504     
  -656817556.31202114       -32156145.567599773        1350319204.4967258     
  -593159231.45030236       -32864178.032993108        1362481172.3869081     
  -1009357306.1911703       -32109141.077285051        1292055534.9277723     
  -936258510.64672685       -35426258.880312562        1284463253.4770601     
  -863021892.38562191       -38283967.627802402        1280805306.9203868     
  -789647451.40785193       -40682267.319747776        1281081695.2577553     
  -716135187.71342540       -42621157.956165224        1285292418.4891632     
  -1183524805.8807452       -13298418.823893011        1238991990.4386058     
  -1105038447.3356769       -32774810.508157730        1225176562.1537025     
  -1024921023.9903611       -46814319.524932742        1215300141.4093676     
  -943172535.84480381       -55416945.874237090        1209362728.2056012     
  -859792982.89901125       -58582689.556086242        1207364322.5424173     
  -1378427546.1674147       -708268.74962270260        1178220640.8437266     
  -1294540274.2030559       -36339929.189511657        1159924181.4888079     
  -1207528695.3548803       -61557233.350005567        1145571402.3209906     
  -1117392809.6228745       -76360181.231070876        1135162303.3402765     
  -1024132617.0070462       -80748772.832721889        1128696884.5466650     
  -490865114.10963500       -29311749.786557689        1438930584.2356570     
  -432720910.33147150       -27715722.142098963        1449015595.1083817     
  -371878864.91769069       -17126889.045582235        1462073800.3556864     
  -308338977.86829996        2454749.5029665381        1478105199.9775703     
  -242101249.18328899        31029193.503585011        1497109793.9740326     
  -593159231.45030236       -32864178.032993108        1362481172.3869081     
  -525653158.46252817       -30775658.755626231        1368894266.3693249     
  -455708878.87379265       -20559784.141727462        1379421951.9154174     
  -383326392.68410015       -2216554.1912998259        1394064229.0251970     
  -308505699.89345849        24254031.095619366        1412821097.6986551     
  -716135187.71342540       -42621157.956165224        1285292418.4891632     
  -636006110.69003260       -39061806.598077863        1287730688.0408337     
  -553698462.10034037       -28240550.018992305        1295424946.3452818     
  -469212241.94435710       -10157388.218936324        1308375193.4025173     
  -382547450.22207266        15187678.802117050        1326581429.2125297     
  -859792982.89901125       -58582689.556086242        1207364322.5424173     
  -763779767.01399362       -52574165.669471443        1205524860.1229002     
  -665847614.59733748       -40169186.677392393        1210082783.6452692     
  -565996525.64905632       -21367752.579895616        1221038093.1095231     
  -464226500.16912591        3830136.6230946183        1238390788.5156589     
  -1024132617.0070462       -80748772.832721889        1128696884.5466650     
  -908974127.43440759       -71312735.969800919        1122276782.6155372     
  -792156336.36479104       -56345694.116947681        1123395463.8153870     
  -673679243.79819965       -35847647.274179429        1132052928.1462281     
  -553542849.73462868       -9818595.4414826334        1148249175.6080480     
  -242101249.18328899        31029193.503585011        1497109793.9740326     
  -200927550.60457611        62878764.311995327        1477113429.4943399     
  -155334549.15179342        109459344.70064050        1459854291.1759660     
  -105322244.82495618        170770934.66946641        1445332379.0189083     
  -50890637.624038860        246813534.21855944        1433547693.0231652     
  -308505699.89345849        24254031.095619366        1412821097.6986551     
  -258608956.40458030        56511550.372706011        1396979622.1262441     
  -202404846.69420508        109793623.72144778        1385016812.9844866     
  -139893370.76237041        184100251.14172184        1376932670.2733874     
  -71074528.609035671        279431432.63366199        1372727193.9929380     
  -382547450.22207266        15187678.802117050        1326581429.2125297     
  -320666403.91063160        48831523.921625867        1317097583.1193879     
  -250589928.03028971        109793467.60413237        1312633843.7262335     
  -172318022.58105761        198073509.84960854        1313190211.0330715     
  -85850687.562923804        313671650.65809047        1318766685.0398960     
  -464226500.16912591        3830136.6230946183        1238390788.5156589     
  -387099893.12273848        39838684.958724082        1237467312.4737704     
  -299889793.16003698        109458876.34872521        1242705383.4012055     
  -202596200.28102577        212690710.79309762        1254105001.2979634     
  -95219114.485700026        349534188.29184920        1271666166.1640465     
  -553542849.73462868       -9818595.4414826334        1148249175.6080480     
  -457909424.04090023        29533033.483995825        1158088810.1893897     
  -350304442.08344638        108789849.95523110        1175231432.0093949     
  -230727903.86226696        227951853.97221282        1199677041.0680606     
  -99179809.377362967        387019045.53494859        1231425637.3653858     
  -50890637.624038860        246813534.21855944        1433547693.0231652     
  -41366109.507449836        328110734.54274464        1342114750.1530938     
  -23913593.385566175        435834561.55124319        1250339725.8083317     
   1466910.7416289449        569985015.24411011        1158222619.9888830     
   34775402.874121785        730562095.62131119        1065763432.6947210     
  -71074528.609035671        279431432.63366199        1372727193.9929380     
  -57125998.989626080        381606427.73835367        1292730390.1470716     
  -34118962.598554879        513976445.41525596        1211660793.2133360     
  -2053419.4357965887        676541485.66444075        1129518403.1917369     
   39070630.498610407        869301548.48580396        1046303220.0822546     
  -85850687.562923804        313671650.65809047        1318766685.0398960     
  -69565903.906908065        436098116.30343765        1251524958.7789969     
  -43092094.712852150        592488000.40891623        1182479727.8170450     
  -6429259.9807699025        782841302.97449362        1111630992.1540525     
   40422600.289350867        1007158024.0001854        1038978751.7900103     
  -95219114.485700026        349534188.29184920        1271666166.1640465     
  -78685824.259284407        491585800.23800999        1218498456.0488689     
  -50832989.728482395        671369226.53213668        1162796529.6194677     
  -11660610.893270612        888884467.17428172        1104560386.8758440     
   38831312.246336520        1144131522.1644337        1043790027.8179983     
  -99179809.377362967        387019045.53494859        1231425637.3653858     
  -84485760.046773165        548069479.54203534        1193650881.9566872     
  -57341647.645423889        750620123.78499520        1152611198.6205871     
  -17747472.173308730        994670978.26383984        1108306587.3570900     
   34296766.369569600        1280222042.9785564        1060737048.1662083     
  -3102298717.8672700        1410882184.5214441        2779695607.4113231     
  -2952441290.7265615        883552425.07942629        2107390405.1854517     
  -2753180306.9202805        520901187.85597777        1636073381.9702280     
  -2504515766.4484324        322928472.85109448        1365744537.7656493     
  -2206447669.3110147        289634280.06476974        1296403872.5717125     
  -5426045365.1058111        277104447.14857006        1821811823.9073031     
  -4748979885.2108727        141224013.41342235        1487892502.9526553     
  -4045304958.8944712        94041734.416483402        1268195199.1736467     
  -3315020586.1566100        135557610.15774798        1162719912.5702801     
  -2558126766.9972868        265771640.63721800        1171466643.1425469     
  -6785711887.4263821       -567449252.74891114        966950339.28181326     
  -5829341674.3057976       -386251356.63575745        944823770.98025978     
  -4869156125.0078640       -192335673.26476192        950153058.01934183     
  -3905155239.5325775        14297797.364069462        982938200.39905608     
  -2937339017.8799376        233649055.25074756        1043179198.1194031     
  -7181298284.8289766       -1122778915.1709993        215111153.53485009     
  -6193526658.0113440       -698873685.06812954        478184209.26826638     
  -5224733805.2604628       -338231035.18777251        681946958.50730956     
  -4274919726.5763464       -40850965.529949903        826399401.25197875     
  -3344084421.9589815        193266523.90535855        911541537.50227213     
  -6612804557.3135967       -1388884540.1176972       -433705733.33358705     
  -5841534836.3275032       -796642971.88368523        87973817.816670954     
  -5112037999.6522646       -343644351.35254526        463576900.63754672     
  -4424314047.2879038       -29888678.524308205        693103515.12904668     
  -3778362979.2343998        144624046.60106039        776553661.29116321     
  -2206447669.3110147        289634280.06476974        1296403872.5717125     
  -2211069492.4353504        239129391.46507013        1284617145.7915781     
  -2216569852.2702122        185696047.16361761        1274234223.5545962     
  -2222948748.8156080        129334247.16038120        1265255105.8607678     
  -2230206182.0715337        70043991.455381751        1257679792.7100954     
  -2558126766.9972868        265771640.63721800        1171466643.1425469     
  -2556680684.3709888        210193915.56121922        1151232667.5650542     
  -2554914884.1632218        155681915.75679028        1135433161.8240402     
  -2552829366.3739901        102235641.22390997        1124068125.9195018     
  -2550424131.0032864        49855091.962600350        1117137559.8514435     
  -2937339017.8799376        233649055.25074756        1043179198.1194031     
  -2921165985.8078003        175596206.80701387        1015895937.0852159     
  -2903474981.8621950        122603264.60817087        996077811.18083048     
  -2884266006.0431209        74670228.654224277        983724820.40624774     
  -2863539058.3505816        31797098.945159435        978836964.76146531     
  -3344084421.9589815        193266523.90535855        911541537.50227213     
  -3304525396.7457886        135336265.20245194        878606954.35205996     
  -3262250145.3671298        86460093.717764616        856168171.62496972     
  -3217258667.8230052        46638009.451297522        844225189.32100785     
  -3169550964.1134148        15870012.403048873        842778007.44017005     
  -3778362979.2343998        144624046.60106039        776553661.29116321     
  -3706758917.1849403        89414090.747552633        739365719.36558664     
  -3631240374.6780257        47252403.085569859        715704243.15645814     
  -3551807351.7136364        18138983.615161419        705569232.66377807     
  -3468459848.2917876        2073832.3362863064        708960687.88754857     
  -2230206182.0715337        70043991.455381751        1257679792.7100954     
  -2116647741.0325429        50524167.436172605        1230244701.7508919     
  -1999886146.0979848        41681523.068860769        1208798148.4250445     
  -1879921397.2678666        43516058.353414536        1193340132.7325544     
  -1756753494.5421708        56027773.289889216        1183870654.6734147     
  -2550424131.0032864        49855091.962600350        1117137559.8514435     
  -2418927895.0478621        39642598.836990833        1095030590.1025546     
  -2285482746.3704257        35926481.451408029        1078585540.9113548     
  -2150088684.9709749        38706739.805881381        1067802412.2778460     
  -2012745710.8495150        47983373.900381684        1062681204.2020236     
  -2863539058.3505816        31797098.945159435        978836964.76146531     
  -2715038219.1234832        30611979.219718575        960594834.85374367     
  -2565842708.3479280        31742431.322457552        947688008.42804599     
  -2415952526.0239158        35188455.253391862        940116485.48436618     
  -2265367672.1514511        40950051.012498021        937880266.02270961     
  -3169550964.1134148        15870012.403048873        842778007.44017005     
  -3004978713.2594061        23432308.584347367        826937436.00446451     
  -2840966032.0304947        29129372.681982398        816105550.97511685     
  -2677512920.4266858        32961204.695936680        810282352.35212231     
  -2514619378.4479818        34927804.626235485        809467840.13548052     
  -3468459848.2917876        2073832.3362863064        708960687.88754857     
  -3288749377.4556293        18103586.930902719        694058393.55471480     
  -3110852717.4181328        28087305.529978275        683838168.55256617     
  -2934769868.1792841        32024988.133568764        678300012.88110614     
  -2760500829.7391014        29916634.741596222        677443926.54033053     
  -1756753494.5421708        56027773.289889216        1183870654.6734147     
  -1656490654.2208641        60781606.872068405        1175679587.3596480     
  -1560015382.7179720        52910211.059535503        1172007562.6167779     
  -1467327680.0334835        32413585.852324247        1172854580.4448018     
  -1378427546.1674147       -708268.74962270260        1178220640.8437266     
  -2012745710.8495150        47983373.900381684        1062681204.2020236     
  -1902957982.3709447        48024893.567005873        1051639034.0541022     
  -1795757764.9012065        39441376.537533045        1044492115.4367696     
  -1691145058.4403000        22232822.811954975        1041240448.3500242     
  -1589119862.9882267       -3600767.6097415090        1041884032.7938682     
  -2265367672.1514511        40950051.012498021        937880266.02270961     
  -2147837315.6307869        35744578.729023337        925387060.48514438     
  -2031694412.3093750        25914262.448043227        916165315.43785882     
  -1916938962.1872175        11459102.169551969        910215030.88085449     
  -1803570965.2643075       -7620902.1064409018        907536206.81412315     
  -2514619378.4479818        34927804.626235485        809467840.13548052     
  -2391128654.0003896        23940662.358111620        796923666.65278256     
  -2267825324.9424706        12328868.791085362        787027162.62005138     
  -2144709391.2742307        92423.925135135651        779778328.03728902     
  -2021780852.9956601       -12768672.239735246        775177162.90449381     
  -2760500829.7391014        29916634.741596222        677443926.54033053     
  -2632831997.4797568        12613144.454267502        666248852.55700576     
  -2504150502.8005023       -1314804.4333698750        657077656.98333728     
  -2374456345.7013450       -11867211.921327472        649930339.81932962     
  -2243749526.1822796       -19044078.009589553        644806901.06498194     
  -1378427546.1674147       -708268.74962270260        1178220640.8437266     
  -1294540274.2030559       -36339929.189511657        1159924181.4888079     
  -1207528695.3548803       -61557233.350005567        1145571402.3209906     
  -1117392809.6228745       -76360181.231070876        1135162303.3402765     
  -1024132617.0070462       -80748772.832721889        1128696884.5466650     
  -1589119862.9882267       -3600767.6097415090        1041884032.7938682     
  -1492446528.8957305       -31288452.869613528        1025565724.8608364     
  -1393349553.9682465       -50897335.346205592        1013305944.1054209     
  -1291828938.2057726       -62427415.039478779        1005104690.5276240     
  -1187884681.6083035       -65878691.949459851        1000961964.1274409     
  -1803570965.2643075       -7620902.1064409018        907536206.81412315     
  -1693783434.7850659       -27266171.908733606        892378606.57934105     
  -1582272929.5196657       -41168192.423834026        881394380.51268971     
  -1469039449.4681058       -49326963.651740313        874583528.61417103     
  -1354082994.6303916       -51742485.592453599        871946050.88378072     
  -2021780852.9956601       -12768672.239735246        775177162.90449381     
  -1898550991.8710594       -24273086.306841135        760362826.64432275     
  -1774298822.0091267       -32369804.582862139        749836711.54279566     
  -1649024343.4098778       -37058827.067821920        743598817.59991491     
  -1522727556.0733008       -38340153.761690319        741649144.81567514     
  -2243749526.1822796       -19044078.009589553        644806901.06498194     
  -2106749200.1537089       -22309196.063958764        629518385.05578578     
  -1969427231.4366403       -24502171.823322535        618632937.19574249     
  -1831783620.0310826       -25623005.287727594        612150557.48485970     
  -1693818365.9370346       -25671696.457167804        610071245.92313492     
  -1024132617.0070462       -80748772.832721889        1128696884.5466650     
  -908974127.43440759       -71312735.969800919        1122276782.6155372     
  -792156336.36479104       -56345694.116947681        1123395463.8153870     
  -673679243.79819965       -35847647.274179429        1132052928.1462281     
  -553542849.73462868       -9818595.4414826334        1148249175.6080480     
  -1187884681.6083035       -65878691.949459851        1000961964.1274409     
  -1055957088.6625993       -55855388.353477299        994036605.56367683     
  -923103963.18825340       -42746976.328690052        992336251.06365585     
  -789325305.18526506       -26553455.875091016        995860900.62737858     
  -654621114.65364182       -7274826.9927158654        1004610554.2548534     
  -1354082994.6303916       -51742485.592453599        871946050.88378072     
  -1211997095.6465876       -43115154.463886082        863659371.89098477     
  -1069719433.1024814       -33848611.467649579        858283917.89469779     
  -927250006.99807143       -23942856.603738427        855819688.89491141     
  -784588817.33336592       -13397889.872162372        856266684.89163542     
  -1522727556.0733008       -38340153.761690319        741649144.81567514     
  -1377094148.3863666       -33092034.301028669        731145081.59746027     
  -1232002746.1074748       -29650599.533841729        721238464.30851138     
  -1087453349.2366199       -28015849.460108399        711929292.94882035     
  -943445957.77379847       -28187784.079824805        703217567.51840258     
  -1693818365.9370346       -25671696.457167804        610071245.92313492     
  -1551248246.8819478       -25786027.864925265        596493734.68310201     
  -1409953902.2032387       -30152940.527269959        581199890.30509305     
  -1269935331.9009023       -38772434.444187999        564189712.78910995     
  -1131192535.9749420       -51644509.615700424        545463202.13515460     
  -553542849.73462868       -9818595.4414826334        1148249175.6080480     
  -457909424.04090023        29533033.483995825        1158088810.1893897     
  -350304442.08344638        108789849.95523110        1175231432.0093949     
  -230727903.86226696        227951853.97221282        1199677041.0680606     
  -99179809.377362967        387019045.53494859        1231425637.3653858     
  -654621114.65364182       -7274826.9927158654        1004610554.2548534     
  -541274715.10119510        23537023.892828047        1018177668.5989062     
  -417024907.88162798        90693567.002115935        1040037878.2202220     
  -281871692.99493295        194194802.33515251        1070191183.1187936     
  -135815070.44112614        334040729.89191884        1108637583.2946351     
  -784588817.33336592       -13397889.872162372        856266684.89163542     
  -650700563.81192732        9722847.0065141022        872315105.63570535     
  -506977051.21996355        65627780.786935419        897646729.69562900     
  -353418279.55747515        154316911.46911621        932261557.07141578     
  -190024248.82446542        275790239.05301952        976159587.76305413     
  -943445957.77379847       -28187784.079824805        703217567.51840258     
  -786186970.17307758       -11909497.174907804        720501121.29978430     
  -620160872.09844625        33592491.309727043        748057986.43562281     
  -445367663.54988354        108318181.37411335        785888162.92590821     
  -261807344.52739748        212267573.01826739        833991650.77066195     
  -1131192535.9749420       -51644509.615700424        545463202.13515460     
  -947733934.18467164       -41360008.651489466        562735715.59114408     
  -756576370.51707983       -5412301.4295399189        591271648.44019139     
  -557719844.97215354        56198612.050185293        631071000.68228924     
  -351164357.54992694        143472731.78758943        682133772.31744087     
  -99179809.377362967        387019045.53494859        1231425637.3653858     
  -84485760.046773165        548069479.54203534        1193650881.9566872     
  -57341647.645423889        750620123.78499520        1152611198.6205871     
  -17747472.173308730        994670978.26383984        1108306587.3570900     
   34296766.369569600        1280222042.9785564        1060737048.1662083     
  -135815070.44112614        334040729.89191884        1108637583.2946351     
  -126688129.57307348        484215346.91382706        1087764958.3281579     
  -94569479.468293548        711028994.72485411        1068384674.0837016     
  -39459120.126794159        1014481673.3249509        1050496730.5612677     
   38642948.451458335        1394573382.7141871        1034101127.7608371     
  -190024248.82446542        275790239.05301952        976159587.76305413     
  -172872220.27777156        419166697.93210638        984487680.43243551     
  -122186836.32837370        674321008.15353739        999065382.47325432     
  -37968096.976278901        1041253169.7172754        1019892693.8855097     
   79783997.778508008        1519963182.6233664        1046969614.6692106     
  -261807344.52739748        212267573.01826739        833991650.77066195     
  -223038032.16085690        352923532.59688592        883819048.26952803     
  -140193718.22566339        640496164.07103062        944653323.78923690     
  -13274402.721789658        1074985467.4407790        1016494477.3298168     
   157719914.35076106        1656391442.7061062        1099342508.8912442     
  -351164357.54992694        143472731.78758943        682133772.31744087     
  -277185565.22235155        285485850.90811622        785759061.83941770     
  -148590125.16014054        609554462.47743940        905148498.03167284     
   34621962.636702478        1115678566.4955111        1040302080.8941952     
   272450698.16818136        1803858162.9623964        1191219810.4269919     
  -6612804557.3135967       -1388884540.1176972       -433705733.33358705     
  -5841534836.3275032       -796642971.88368523        87973817.816670954     
  -5112037999.6522646       -343644351.35254526        463576900.63754672     
  -4424314047.2879038       -29888678.524308205        693103515.12904668     
  -3778362979.2343998        144624046.60106039        776553661.29116321     
  -5614005805.0688696       -643685688.36083436       -71024949.583296910     
  -5229980383.6594324       -359226786.13506842        206733136.54035699     
  -4867214765.8814926       -145633896.01429105        403714229.62862968     
  -4525708951.7350473       -2907017.9984974861        519918329.68152660     
  -4205462941.2200980        68953847.912309885        555345436.69904745     
  -5300356009.1305065       -104031523.49587345        205993956.53918487     
  -5117004957.8863010       -71384308.454941511        263762505.09549510     
  -4934400629.5942154       -41226169.921087980        306053535.91043442     
  -4752543024.2542543       -13557107.894308567        332867048.98399472     
  -4571432141.8664255        11622877.625372171        344203044.31618190     
  -5671855169.4985123        230077954.47717142        397350985.03385490     
  -5502608559.0080948        66884461.156708479        259061923.48209411     
  -5313595590.7904387       -30421173.072923183        170594819.48296210     
  -5104816264.8455315       -61838948.211747885        131949673.03645518     
  -4876270581.1733885       -27368864.259763241        143126484.14257535     
  -6728503286.1728802        358642745.55830812        503046135.90072072     
  -6386791187.0248280        55579522.699889898        192631391.70015389     
  -6004799649.4701557       -113218905.46981907       -2661919.6537834248     
  -5582528673.5088663       -147752538.95078993       -82833798.161102697     
  -5119978259.1409674       -48021377.743064165       -47884243.821783453     
  -3778362979.2343998        144624046.60106039        776553661.29116321     
  -3706758917.1849403        89414090.747552633        739365719.36558664     
  -3631240374.6780257        47252403.085569859        715704243.15645814     
  -3551807351.7136364        18138983.615161419        705569232.66377807     
  -3468459848.2917876        2073832.3362863064        708960687.88754857     
  -4205462941.2200980        68953847.912309885        555345436.69904745     
  -4095942559.9994550        46431013.186602831        539536475.72562325     
  -3985711393.9483428        26277461.229141235        531824266.59947675     
  -3874769443.0667558        8493192.0399277210        532208809.32060450     
  -3763116707.3546991       -6921794.3810493946        540690103.88900840     
  -4571432141.8664255        11622877.625372171        344203044.31618190     
  -4439508909.6722403        17133123.568191290        346035419.39676195     
  -4310078588.2745695        14333666.855946302        350534832.45543599     
  -4183141177.6734228        3224507.4886364937        357701283.49221599     
  -4058696677.8687892       -16194354.533730268        367534772.50709313     
  -4876270581.1733885       -27368864.259763241        143126484.14257535     
  -4737457966.2032900        1520421.8923025131        158862550.37899169     
  -4604341957.6567087        11421019.965981245        171835940.72433549     
  -4476922555.5336390        2332929.9612936974        182046655.17860952     
  -4355199759.8340826       -25743848.121779442        189494693.74180952     
  -5119978259.1409674       -48021377.743064165       -47884243.821783453     
  -4989789729.5926228       -407091.84109759331       -21982131.327679377     
  -4868501502.0947666        17539520.559213877       -4272408.5938234488     
  -4756113576.6474161        5818459.4578592777        5244924.3797866590     
  -4652625953.2505636       -35570275.145171881        6569867.5931484643     
  -3468459848.2917876        2073832.3362863064        708960687.88754857     
  -3288749377.4556293        18103586.930902719        694058393.55471480     
  -3110852717.4181328        28087305.529978275        683838168.55256617     
  -2934769868.1792841        32024988.133568764        678300012.88110614     
  -2760500829.7391014        29916634.741596222        677443926.54033053     
  -3763116707.3546991       -6921794.3810493946        540690103.88900840     
  -3572503968.8901844        1937540.9363584518        524556014.40473801     
  -3382215430.0390267        9716210.8759117126        513780927.44479209     
  -3192251090.8012185        16414215.437642694        508364843.00917476     
  -3002610951.1767545        22031554.621539831        508307761.09788442     
  -4058696677.8687892       -16194354.533730268        367534772.50709313     
  -3855247576.9369559       -13925210.041847467        351906767.58757907     
  -3650633064.4331727       -7771360.3101332188        342314698.38602924     
  -3444853140.3574300        2267194.6614470482        338758564.90244663     
  -3237907804.7097292        16190454.872887135        341238367.13682681     
  -4355199759.8340826       -25743848.121779442        189494693.74180952     
  -4136980201.5959649       -29484666.003736019        176110653.10324359     
  -3916105620.6005774       -24375408.028151512        169439481.37627649     
  -3692576016.8479261       -10416074.195017815        169481178.56091633     
  -3466391390.3380246        12393335.495631456        176235744.65715808     
  -4652625953.2505636       -35570275.145171881        6569867.5931484643     
  -4417701842.8671799       -44740826.949273348       -2832329.0482814056     
  -4178633098.5412364       -40095932.278157473       -4844723.5844726833     
  -3935419720.2727175       -21635591.131808758        532683.98458583979     
  -3688061708.0616250        10640196.489804268        13299893.658886157     
  -2760500829.7391014        29916634.741596222        677443926.54033053     
  -2632831997.4797568        12613144.454267502        666248852.55700576     
  -2504150502.8005023       -1314804.4333698750        657077656.98333728     
  -2374456345.7013450       -11867211.921327472        649930339.81932962     
  -2243749526.1822796       -19044078.009589553        644806901.06498194     
  -3002610951.1767545        22031554.621539831        508307761.09788442     
  -2867645378.6186776        11304732.725740194        500323268.97356689     
  -2732317226.8602767        1786508.1643470526        494410082.88672036     
  -2596626495.9015670       -6523119.0626740456        490568202.83734912     
  -2460573185.7425380       -13624148.955309868        488797628.82545215     
  -3237907804.7097292        16190454.872887135        341238367.13682681     
  -3095509984.3448715        12080953.621046185        335706026.44865817     
  -2953399667.9992933        7013105.6382678747        332292419.42578948     
  -2811576855.6729779        986910.92461943626        330997546.06820023     
  -2670041547.3659463       -5997630.5199782848        331821406.37590009     
  -3466391390.3380246        12393335.495631456        176235744.65715808     
  -3316425814.6583505        14941807.140142441        172397124.98229846     
  -3167397826.2175426        14364987.988434076        170724666.60052928     
  -3019307425.0155921        10662878.040523648        171218369.51188084     
  -2872154611.0525055        3835477.2964161634        173878233.71632493     
  -3688061708.0616250        10640196.489804268        13299893.658886157     
  -3530392869.5590925        19887293.283072948        10396564.574472338     
  -3374311701.5150280        23842155.214810848        9706824.4109753072     
  -3219818203.9293885        22504782.285123587        11230673.168389302     
  -3066912376.8022213        15875174.493850470        14968110.846721364     
  -2243749526.1822796       -19044078.009589553        644806901.06498194     
  -2106749200.1537089       -22309196.063958764        629518385.05578578     
  -1969427231.4366403       -24502171.823322535        618632937.19574249     
  -1831783620.0310826       -25623005.287727594        612150557.48485970     
  -1693818365.9370346       -25671696.457167804        610071245.92313492     
  -2460573185.7425380       -13624148.955309868        488797628.82545215     
  -2312846124.8069801       -16300714.764741659        476069022.42223322     
  -2164873507.5660801       -18158759.556372166        467052862.66485798     
  -2016655334.0198452       -19198283.330208421        461749149.55332971     
  -1868191604.1682589       -19419286.086225986        460157883.08765036     
  -2670041547.3659463       -5997630.5199782848        331821406.37590009     
  -2513560955.8185825       -8677605.3730572462        321563942.13164258     
  -2356910894.3490148       -10792680.485463738        314328303.02992618     
  -2200091362.9572716       -12342855.857281566        310114489.07075363     
  -2043102361.6433315       -13328131.488455176        308922500.25411218     
  -2872154611.0525055        3835477.2964161634        173878233.71632493     
  -2708893693.1885014        560132.11114895344        166003144.18402115     
  -2545539391.7854447       -2403934.6106204987        160459258.29095668     
  -2382091706.8433571       -5056722.8689427376        157246576.03711194     
  -2218550638.3622279       -7398232.6638031006        156365097.42250395     
  -3066912376.8022213        15875174.493850470        14968110.846721364     
  -2898844336.9167395        11412497.687872767        9386628.5793762729     
  -2730758999.8753691        7007478.0681879520        5445728.4479407184     
  -2562656365.6781235        2660115.6347554922        3145410.4524263912     
  -2394536434.3249745       -1629589.6123328209        2485674.5928328102     
  -1693818365.9370346       -25671696.457167804        610071245.92313492     
  -1551248246.8819478       -25786027.864925265        596493734.68310201     
  -1409953902.2032387       -30152940.527269959        581199890.30509305     
  -1269935331.9009023       -38772434.444187999        564189712.78910995     
  -1131192535.9749420       -51644509.615700424        545463202.13515460     
  -1868191604.1682589       -19419286.086225986        460157883.08765036     
  -1729670101.5344565       -22473929.068827987        446060555.34870958     
  -1591295895.0266025       -26019559.137928545        431243773.86402386     
  -1453068984.6446970       -30056176.293504596        415707538.63359904     
  -1314989370.3887215       -34583780.535549283        399451849.65743566     
  -2043102361.6433315       -13328131.488455176        308922500.25411218     
  -1905781248.5958588       -18468617.995432138        295621913.97509366     
  -1767478953.4239006       -20338497.420795083        282598753.34256744     
  -1628195476.1274502       -18937769.764508903        269853018.35654169     
  -1487930816.7065101       -14266435.026590884        257384709.01700860     
  -2218550638.3622279       -7398232.6638031006        156365097.42250395     
  -2079581688.0661461       -13770094.644711971        145177810.56225729     
  -1938503077.3951144       -13109755.375815868        135264828.74072617     
  -1795314806.3491580       -5417214.8571660519        126626151.95793653     
  -1650016874.9282992        9307526.9111790657        119261780.21387325     
  -2394536434.3249745       -1629589.6123328209        2485674.5928328102     
  -2251071419.9452877       -8378359.0166078806       -5271754.8898137612     
  -2104368266.9402468       -4333333.0030120611       -10757999.941492556     
  -1954426975.3098590        10505488.428398728       -13973060.562211899     
  -1801247545.0540977        36138105.277712822       -14916936.751962185     
  -1131192535.9749420       -51644509.615700424        545463202.13515460     
  -947733934.18467164       -41360008.651489466        562735715.59114408     
  -756576370.51707983       -5412301.4295399189        591271648.44019139     
  -557719844.97215354        56198612.050185293        631071000.68228924     
  -351164357.54992694        143472731.78758943        682133772.31744087     
  -1314989370.3887215       -34583780.535549283        399451849.65743566     
  -1115903358.2476192       -15360938.743362606        420912095.99349159     
  -913077614.81440639        16327674.022540271        441067313.78451598     
  -706512140.08908308        60482057.762137830        459917503.03052306     
  -496206934.07164335        117102212.47545666        477462663.73149997     
  -1487930816.7065101       -14266435.026590884        257384709.01700860     
  -1309127245.4662256        3121792.2180765867        278413585.88371396     
  -1130543173.5190470        19778355.152419567        285568986.26731473     
  -952178600.86497343        35703253.776415408        278850910.16781223     
  -774033527.50397599        50896488.090135664        258259357.58520567     
  -1650016874.9282992        9307526.9111790657        119261780.21387325     
  -1527405595.8404975        14088184.232827723        135240185.26182163     
  -1408973046.6310039        4939741.9601108432        124776665.88857734     
  -1294719227.2998152       -18137799.906952500        87871222.094165623     
  -1184644137.8469365       -55144441.368385315        24523853.878553722     
  -1801247545.0540977        36138105.277712822       -14916936.751962185     
  -1770738409.3704264        17538237.300841808       -8608105.8721944652     
  -1748367234.1502664       -28188165.554376364       -41309647.351682141     
  -1734134019.3936515       -101041103.28809035       -113021561.19043739     
  -1728038765.1005237       -201020575.90009421       -223743847.38844165     
  -351164357.54992694        143472731.78758943        682133772.31744087     
  -277185565.22235155        285485850.90811622        785759061.83941770     
  -148590125.16014054        609554462.47743940        905148498.03167284     
   34621962.636702478        1115678566.4955111        1040302080.8941952     
   272450698.16818136        1803858162.9623964        1191219810.4269919     
  -496206934.07164335        117102212.47545666        477462663.73149997     
  -387584718.99769932        223249025.33153200        596771782.71168160     
  -229934176.69333038        492823595.62238199        735242381.65674126     
  -23255307.158558667        925825923.34790099        892874460.56668615     
   232451889.60662225        1522256008.5081284        1069668019.4415104     
  -774033527.50397599        50896488.090135664        258259357.58520567     
  -621061223.12763453        124088994.64859816        386732598.76866186     
  -424648912.02508789        342081523.62774181        537764653.21161497     
  -184796594.19635054        704874075.02751207        711355520.91404665     
   98495730.358576834        1212466648.8479145        907505201.87597477     
  -1184644137.8469365       -55144441.368385315        24523853.878553722     
  -977615077.61215627       -11994241.140704930        155641510.01035100     
  -732734331.15540433        157328246.49352688        312715312.69625926     
  -450001898.47667682        452823021.53437942        495745261.93627131     
  -129417779.57598412        874490083.98173249        704731357.73036957     
  -1728038765.1005237       -201020575.90009421       -223743847.38844165     
  -1457246282.4512908       -185000682.03645855       -96501483.563228041     
  -1154190434.0842738       -61436235.780174077        60094360.110713325     
  -818871219.99954915        169672762.86846292        246043683.63335106     
  -451288640.19706106        508326313.90962243        461346487.00471526     
 </DataArray>
 <DataArray  type="Float64" Name="VM" NumberOfComponents="1" format="ascii">
   6073585684.2677917     
   5852529019.4699402     
   5633191501.2366190     
   5414995443.9215937     
   5197767830.7340488     
   5645217508.7964954     
   5457027417.7182484     
   5270183480.1691341     
   5084581077.6537933     
   4900273050.1307936     
   5286008631.7779617     
   5117240069.1994476     
   4948622244.9181452     
   4780211780.2326689     
   4612089047.8757906     
   4996865146.5161514     
   4835148734.7106199     
   4671616886.7631445     
   4506047623.8227539     
   4338243526.2490053     
   4778080570.4241037     
   4612214774.2839050     
   4442133458.2661467     
   4266748722.7419353     
   4085119017.5992107     
   5197767830.7340488     
   5048701859.4237890     
   4899197379.8821774     
   4749287585.7688522     
   4599015656.6914835     
   4900273050.1307936     
   4755984370.0658484     
   4611936817.2327394     
   4468203541.7246408     
   4324880262.7134190     
   4612089047.8757906     
   4475377853.0962706     
   4339921052.0509815     
   4205839396.1515069     
   4073300482.3089032     
   4338243526.2490053     
   4211553100.1561441     
   4087515655.0996275     
   3966293018.3895178     
   3848127298.1217990     
   4085119017.5992107     
   3970316805.6226902     
   3860001807.0556684     
   3754347474.5397191     
   3653645319.8958778     
   4599015656.6914835     
   4379674227.5147123     
   4160198626.5127058     
   3940474762.1835189     
   3720446847.3450637     
   4324880262.7134190     
   4118855259.7788219     
   3913365556.4686313     
   3708395049.2900248     
   3504000344.6974339     
   4073300482.3089032     
   3880405360.2303109     
   3688770339.4727507     
   3498483595.3717771     
   3309719949.8539443     
   3848127298.1217990     
   3668260056.1490297     
   3490417202.1754045     
   3314792517.7278714     
   3141677747.4786305     
   3653645319.8958778     
   3486780100.3453426     
   3322716315.4030213     
   3161746864.8952646     
   3004268657.5275621     
   3720446847.3450637     
   3557280259.8445616     
   3394903979.8131990     
   3233327573.9800611     
   3072602324.9758620     
   3504000344.6974339     
   3349696812.0852294     
   3196373636.9015398     
   3044097195.8335176     
   2892982238.0140491     
   3309719949.8539443     
   3164695964.6601849     
   3020952236.7504678     
   2878628132.4091339     
   2737923354.1696501     
   3141677747.4786305     
   3006636482.2101955     
   2873306224.5703802     
   2741914616.8300066     
   2612765726.6822457     
   3004268657.5275621     
   2880182150.8367162     
   2758374472.5114245     
   2639169908.8963580     
   2522986057.2742162     
   3072602324.9758620     
   2904440162.9694457     
   2735850665.7995558     
   2566813721.4230490     
   2397316939.8855410     
   2892982238.0140491     
   2728528263.6975861     
   2564143445.2375131     
   2399856875.9523978     
   2235722382.0339499     
   2737923354.1696501     
   2579364384.0877490     
   2421723814.5724492     
   2265150141.0243716     
   2109856664.7160101     
   2612765726.6822457     
   2462391981.3462491     
   2314162945.3677788     
   2168407469.7746305     
   2025572658.4491308     
   2522986057.2742162     
   2382969802.5260954     
   2246646060.7862024     
   2114541522.0191681     
   1987343212.6953149     
   2397316939.8855410     
   2250961085.8412118     
   2106811544.4909356     
   1964870643.9462497     
   1825307922.0619957     
   2235722382.0339499     
   2092464521.6614079     
   1950855989.9090116     
   1810896526.3957632     
   1672661903.5439463     
   2109856664.7160101     
   1969032195.4922962     
   1829152584.1462948     
   1690246831.3680847     
   1552371830.3483090     
   2025572658.4491308     
   1888167355.3707440     
   1751079353.5078340     
   1614438596.5367849     
   1478424072.6061854     
   1987343212.6953149     
   1856076550.8256426     
   1724868680.2331400     
   1594077283.1605222     
   1464222790.5308847     
   1825307922.0619957     
   1783586538.1752191     
   1738310542.1785922     
   1698126302.2327650     
   1681532299.1397777     
   1672661903.5439463     
   1556304516.0420237     
   1430805135.3681359     
   1296527643.4835818     
   1159572199.8921604     
   1552371830.3483090     
   1401682510.5017364     
   1247432846.3307486     
   1087374585.3395774     
   919494510.45413911     
   1478424072.6061854     
   1333487844.4269416     
   1203040492.5573080     
   1091583019.2084284     
   1005053220.8172132     
   1464222790.5308847     
   1354548586.8396699     
   1279874045.0723526     
   1248314292.6820927     
   1266923016.8165104     
   1681532299.1397777     
   1383830594.0230165     
   1129381172.6212623     
   1009907102.2434130     
   1152835276.9529421     
   1159572199.8921604     
   1009025641.1374869     
   985577595.07472312     
   1161513428.1928616     
   1543938849.5459642     
   919494510.45413911     
   964564918.33785486     
   1145770539.9688978     
   1476699921.0851276     
   1957234647.3725579     
   1005053220.8172132     
   1166936375.8450978     
   1426712117.9964404     
   1809156459.9453764     
   2334505622.1321077     
   1266923016.8165104     
   1449614998.4532604     
   1717421981.7019823     
   2111090635.3804035     
   2663232267.9160485     
   4778080570.4241037     
   4612214774.2839050     
   4442133458.2661467     
   4266748722.7419353     
   4085119017.5992107     
   4574105755.0376692     
   4386284061.5190086     
   4198383047.9202847     
   4010367849.6250648     
   3822221073.8148484     
   4323147016.2988710     
   4130231457.3995204     
   3943143387.2591138     
   3762692018.9638968     
   3589931683.7337646     
   4037052789.4037843     
   3852569929.7732415     
   3682260570.3729067     
   3527202428.8460979     
   3389184964.6358504     
   3735097929.8908839     
   3566567172.5462432     
   3424232939.1976800     
   3308364571.4866095     
   3220506600.0095515     
   4085119017.5992107     
   3970316805.6226902     
   3860001807.0556684     
   3754347474.5397191     
   3653645319.8958778     
   3822221073.8148484     
   3726792723.5450492     
   3635086194.6086884     
   3547349121.4762902     
   3463910099.0970793     
   3589931683.7337646     
   3513248754.1609707     
   3439367684.0200114     
   3368585564.9042358     
   3301269035.5192299     
   3389184964.6358504     
   3331321290.9597511     
   3275223381.8581715     
   3221196153.8970461     
   3169631832.2843418     
   3220506600.0095515     
   3182268626.0608130     
   3144699305.0678687     
   3108052400.1439185     
   3072719645.0013075     
   3653645319.8958778     
   3486780100.3453426     
   3322716315.4030213     
   3161746864.8952646     
   3004268657.5275621     
   3463910099.0970793     
   3309432621.7721572     
   3158858090.1638622     
   3012597507.8882890     
   2871185095.6996789     
   3301269035.5192299     
   3160085850.7428045     
   3024015100.2028775     
   2893564308.6889873     
   2769371877.4315972     
   3169631832.2843418     
   3042390472.1542077     
   2921510801.3696213     
   2807552694.8279176     
   2701199391.5333724     
   3072719645.0013075     
   2959642437.7745857     
   2854126416.6794214     
   2756721776.2414432     
   2668081235.7025537     
   3004268657.5275621     
   2880182150.8367162     
   2758374472.5114245     
   2639169908.8963580     
   2522986057.2742162     
   2871185095.6996789     
   2760209468.6404853     
   2652526732.6063104     
   2548583389.7844563     
   2448929073.5928044     
   2769371877.4315972     
   2673084700.5722947     
   2581183598.2708807     
   2494205455.0831695     
   2412782986.7787819     
   2701199391.5333724     
   2620834495.2853212     
   2545915443.9315214     
   2477013095.8115745     
   2414770389.4523659     
   2668081235.7025537     
   2604318493.0002041     
   2546912105.1361423     
   2496402603.4572916     
   2453371004.4046617     
   2522986057.2742162     
   2382969802.5260954     
   2246646060.7862024     
   2114541522.0191681     
   1987343212.6953149     
   2448929073.5928044     
   2323484012.0371723     
   2203091671.4532094     
   2088466646.6705217     
   1980490888.2734029     
   2412782986.7787819     
   2303778785.7047172     
   2201194356.7512999     
   2105842965.3630824     
   2018670277.8451009     
   2414770389.4523659     
   2323337129.8893132     
   2239492259.5605922     
   2164031055.4769812     
   2097821586.4806094     
   2453371004.4046617     
   2379732381.6882477     
   2314513760.5190496     
   2258397689.1841106     
   2212083026.0191245     
   1987343212.6953149     
   1856076550.8256426     
   1724868680.2331400     
   1594077283.1605222     
   1464222790.5308847     
   1980490888.2734029     
   1863924142.0448139     
   1751763693.3997600     
   1644939796.1844039     
   1544594113.4933820     
   2018670277.8451009     
   1921915370.9262552     
   1833974792.7560294     
   1756054891.0838058     
   1689453551.5091274     
   2097821586.4806094     
   2022441131.2793608     
   1959457446.0726292     
   1909953649.5949306     
   1874961770.3651795     
   2212083026.0191245     
   2156632882.0068464     
   2116159487.5657196     
   2091432498.2564588     
   2083130502.3423309     
   1464222790.5308847     
   1354548586.8396699     
   1279874045.0723526     
   1248314292.6820927     
   1266923016.8165104     
   1544594113.4933820     
   1482975390.6789215     
   1454046123.2504852     
   1461767188.6640182     
   1509439917.2675872     
   1689453551.5091274     
   1660138887.7804689     
   1658536777.3170288     
   1687002658.0294607     
   1748133886.3755536     
   1874961770.3651795     
   1863613347.5928600     
   1875220128.0445549     
   1911963916.2998343     
   1976845331.2891734     
   2083130502.3423309     
   2078807114.6783991     
   2093689108.4372807     
   2130366272.0081291     
   2192600911.6911573     
   1266923016.8165104     
   1449614998.4532604     
   1717421981.7019823     
   2111090635.3804035     
   2663232267.9160485     
   1509439917.2675872     
   1616466846.3350868     
   1790584167.1418157     
   2066711380.0179782     
   2475275771.2443566     
   1748133886.3755536     
   1791263187.7585361     
   1886441808.8948774     
   2060740795.7360752     
   2339634312.0206656     
   1976845331.2891734     
   1972968479.4481723     
   2005576355.8586051     
   2093487130.4984417     
   2255591830.2928815     
   2192600911.6911573     
   2160869821.4883056     
   2148740950.4073238     
   2166861200.8350096     
   2226487652.2386842     
   3735097929.8908839     
   3566567172.5462432     
   3424232939.1976800     
   3308364571.4866095     
   3220506600.0095515     
   3387170611.5540099     
   3306588970.2795305     
   3232425692.8821778     
   3164529044.8663244     
   3102958434.6824808     
   3213513283.6752076     
   3188592219.4118862     
   3148583350.0424619     
   3089860142.8350763     
   3009887980.3807626     
   3198741353.0753870     
   3195422854.3807721     
   3160501641.8322797     
   3082728075.3571439     
   2954458273.3743315     
   3338958463.4277945     
   3312849713.7251716     
   3253451176.0187564     
   3137712374.3233294     
   2950708462.2835288     
   3220506600.0095515     
   3182268626.0608130     
   3144699305.0678687     
   3108052400.1439185     
   3072719645.0013075     
   3102958434.6824808     
   3066993782.2548318     
   3035274483.8944211     
   3008129031.5345449     
   2985972914.2526598     
   3009887980.3807626     
   2975497100.7506618     
   2949269164.4949222     
   2931503335.4241066     
   2922559306.4118500     
   2954458273.3743315     
   2918169006.1263194     
   2894370719.6850896     
   2883218491.0478020     
   2884924420.4932842     
   2950708462.2835288     
   2905940738.8712511     
   2878449889.8043838     
   2868187555.1697216     
   2875172766.3752780     
   3072719645.0013075     
   2959642437.7745857     
   2854126416.6794214     
   2756721776.2414432     
   2668081235.7025537     
   2985972914.2526598     
   2884965441.6937814     
   2792328056.5936527     
   2708624936.9808998     
   2634504228.3997741     
   2922559306.4118500     
   2834131026.1738491     
   2755098255.5448456     
   2685971003.6578207     
   2627332763.8568931     
   2884924420.4932842     
   2809143556.6086283     
   2743956898.7325797     
   2689751266.3660779     
   2646989802.4128466     
   2875172766.3752780     
   2811520362.8359814     
   2759804490.0140967     
   2720230276.8799133     
   2693100200.9845705     
   2668081235.7025537     
   2604318493.0002041     
   2546912105.1361423     
   2496402603.4572916     
   2453371004.4046617     
   2634504228.3997741     
   2583518441.4645772     
   2539389880.3963356     
   2502551585.8046494     
   2473449619.9515710     
   2627332763.8568931     
   2587715140.5762963     
   2555253435.1223598     
   2530263079.6599913     
   2513055699.7371612     
   2646989802.4128466     
   2616860092.4232607     
   2594009256.0517926     
   2578642559.8931003     
   2570954913.3993320     
   2693100200.9845705     
   2670216430.5135140     
   2654604261.1367111     
   2646378309.8388829     
   2645643943.7449150     
   2453371004.4046617     
   2379732381.6882477     
   2314513760.5190496     
   2258397689.1841106     
   2212083026.0191245     
   2473449619.9515710     
   2413620687.7583079     
   2363548729.0779710     
   2323829214.3723011     
   2295043896.2008533     
   2513055699.7371612     
   2466440290.9836321     
   2430736616.4223943     
   2406409884.7838526     
   2393895544.6310916     
   2570954913.3993320     
   2536223968.7842689     
   2513436114.9693532     
   2502915243.1945262     
   2504954676.0227818     
   2645643943.7449150     
   2620874203.3941088     
   2609054293.0871854     
   2610379632.4892716     
   2625024698.6378584     
   2212083026.0191245     
   2156632882.0068464     
   2116159487.5657196     
   2091432498.2564588     
   2083130502.3423309     
   2295043896.2008533     
   2254342054.2788339     
   2227457998.2636566     
   2214834271.7199345     
   2216851139.6240001     
   2393895544.6310916     
   2364928730.0145578     
   2348600174.1986547     
   2345148581.3496437     
   2354783947.6506777     
   2504954676.0227818     
   2485040096.6001425     
   2476674987.3729973     
   2479982644.6300139     
   2495084968.7344351     
   2625024698.6378584     
   2611874646.2915630     
   2609330863.6683502     
   2617459143.5461974     
   2636342564.4770050     
   2083130502.3423309     
   2078807114.6783991     
   2093689108.4372807     
   2130366272.0081291     
   2192600911.6911573     
   2216851139.6240001     
   2201305910.1825242     
   2200879843.9011531     
   2217516692.3984075     
   2254111819.3573108     
   2354783947.6506777     
   2328761429.6866641     
   2314555982.3651819     
   2313558286.2628222     
   2327850574.3808236     
   2495084968.7344351     
   2460248473.7387524     
   2434419146.2404051     
   2418535341.9377074     
   2413979939.0275130     
   2636342564.4770050     
   2595018976.3527222     
   2560200954.2428622     
   2532469701.3878131     
   2512647499.0506535     
   2192600911.6911573     
   2160869821.4883056     
   2148740950.4073238     
   2166861200.8350096     
   2226487652.2386842     
   2254111819.3573108     
   2187019245.5275040     
   2136259059.3708413     
   2111543087.2477229     
   2123911710.1178541     
   2327850574.3808236     
   2228904621.1139441     
   2143082363.9480562     
   2078714822.1569684     
   2045978724.8032565     
   2413979939.0275130     
   2286814280.0001245     
   2169861598.7524605     
   2069758728.4051771     
   1995170828.5751081     
   2512647499.0506535     
   2360949929.2184901     
   2217066050.6580386     
   2085825999.1852705     
   1973909909.0737245     
   3338958463.4277945     
   3312849713.7251716     
   3253451176.0187564     
   3137712374.3233294     
   2950708462.2835288     
   3835052996.0741134     
   3551204232.7744031     
   3282221088.7958846     
   3033025530.6254206     
   2810296366.3605843     
   4075685967.5817556     
   3592653570.4128761     
   3197799283.4978743     
   2902659540.0395956     
   2721234457.8849154     
   4263107276.0977516     
   3586620769.8069835     
   3095554880.3192749     
   2791802756.8392038     
   2676863951.3370414     
   4739697558.8781052     
   3799316938.0057425     
   3142627191.4672780     
   2766708557.6601639     
   2668591796.9384999     
   2950708462.2835288     
   2905940738.8712511     
   2878449889.8043838     
   2868187555.1697216     
   2875172766.3752780     
   2810296366.3605843     
   2785833716.1916142     
   2775310969.7661004     
   2778634751.2974687     
   2795725191.7557068     
   2721234457.8849154     
   2713529549.0809155     
   2716153462.6288819     
   2729034403.7196355     
   2752095692.9932575     
   2676863951.3370414     
   2684010325.5401249     
   2697744217.9210882     
   2718004045.4093847     
   2744735980.1368155     
   2668591796.9384999     
   2690429120.1150575     
   2715136924.0291934     
   2742590007.4221172     
   2772713466.9632235     
   2875172766.3752780     
   2811520362.8359814     
   2759804490.0140967     
   2720230276.8799133     
   2693100200.9845705     
   2795725191.7557068     
   2747538879.9831681     
   2710988570.9925208     
   2686184630.3755045     
   2673279029.2058973     
   2752095692.9932575     
   2715030717.6532159     
   2689074104.5055404     
   2674266672.0395560     
   2670659821.0284472     
   2744735980.1368155     
   2714236360.3991480     
   2694140278.9875169     
   2684454557.1267266     
   2685186376.7753315     
   2772713466.9632235     
   2744312278.0275497     
   2725472061.5714879     
   2716198729.4137592     
   2716505888.0812812     
   2693100200.9845705     
   2670216430.5135140     
   2654604261.1367111     
   2646378309.8388829     
   2645643943.7449150     
   2673279029.2058973     
   2656893895.2971878     
   2648264741.9948983     
   2647471338.6178317     
   2654584644.3231778     
   2670659821.0284472     
   2659618669.1659546     
   2656854483.7485552     
   2662410088.5208192     
   2676322299.6251922     
   2685186376.7753315     
   2677993182.5918374     
   2679662635.6960754     
   2690204903.4232683     
   2709628247.4838905     
   2716505888.0812812     
   2711376949.9818263     
   2715790773.0033417     
   2729735344.3028255     
   2753200680.0619769     
   2645643943.7449150     
   2620874203.3941088     
   2609054293.0871854     
   2610379632.4892716     
   2625024698.6378584     
   2654584644.3231778     
   2639046533.1896467     
   2635148341.7653832     
   2642973895.0457120     
   2662597462.6626382     
   2676322299.6251922     
   2667275564.6517162     
   2668673457.4745870     
   2680540978.8852248     
   2702900381.8216643     
   2709628247.4838905     
   2704644518.6465950     
   2709024892.2490697     
   2722771461.8779221     
   2745886191.4734139     
   2753200680.0619769     
   2750204432.3203030     
   2755591067.3678989     
   2769362545.9688416     
   2791520482.1272178     
   2625024698.6378584     
   2611874646.2915630     
   2609330863.6683502     
   2617459143.5461974     
   2636342564.4770050     
   2662597462.6626382     
   2648917577.5540233     
   2645935379.6328812     
   2653693220.5861793     
   2672242848.0573425     
   2702900381.8216643     
   2688485681.4995346     
   2685033941.1235723     
   2692566296.5280538     
   2711108317.6344619     
   2745886191.4734139     
   2730467268.0921116     
   2726464395.9960918     
   2733883583.3807406     
   2752732405.5938587     
   2791520482.1272178     
   2774758235.4542623     
   2770069796.6651182     
   2777455993.2929778     
   2796917282.8599844     
   2636342564.4770050     
   2595018976.3527222     
   2560200954.2428622     
   2532469701.3878131     
   2512647499.0506535     
   2672242848.0573425     
   2624738363.8816543     
   2583209104.7567358     
   2547981100.5373602     
   2519515014.2904873     
   2711108317.6344619     
   2659663301.0217075     
   2613817793.9056220     
   2573713463.9055896     
   2539548004.0056396     
   2752732405.5938587     
   2699632847.0096016     
   2651904878.6306581     
   2609581082.7615609     
   2572704779.3218217     
   2796917282.8599844     
   2744484623.6025071     
   2697337351.5385270     
   2655474377.8929486     
   2618895393.9224901     
   2512647499.0506535     
   2360949929.2184901     
   2217066050.6580386     
   2085825999.1852705     
   1973909909.0737245     
   2519515014.2904873     
   2350636868.8046207     
   2185107855.6639233     
   2025900773.0469627     
   1877395522.8409958     
   2539548004.0056396     
   2358541073.8382425     
   2177227664.8724246     
   1996988972.1016016     
   1819961372.2685184     
   2572704779.3218217     
   2384771032.4185386     
   2193888350.9370384     
   2000390225.5684326     
   1804808005.5122898     
   2618895393.9224901     
   2429298047.3590527     
   2235224226.7401447     
   2036675220.1933463     
   1833653078.9862778     
   4739697558.8781052     
   3799316938.0057425     
   3142627191.4672780     
   2766708557.6601639     
   2668591796.9384999     
   3743134272.0892119     
   3215267308.6797447     
   2812015251.1733174     
   2556195387.7864599     
   2479386743.8442998     
   3271074559.7790470     
   2920888325.9708934     
   2635214679.1472483     
   2434832191.9154110     
   2339810868.3378110     
   2804879898.4185519     
   2495895379.6622720     
   2350948404.7144156     
   2291528673.5724163     
   2244204774.3389735     
   2270384236.1961927     
   1768850889.7872188     
   1831670027.1778846     
   2061554583.4707150     
   2184586104.7795234     
   2668591796.9384999     
   2690429120.1150575     
   2715136924.0291934     
   2742590007.4221172     
   2772713466.9632235     
   2479386743.8442998     
   2516359112.3990951     
   2553664780.1622710     
   2591226436.8028688     
   2628976737.1522636     
   2339810868.3378110     
   2387146776.8705859     
   2432890642.1848760     
   2476749420.6388774     
   2518477714.9758325     
   2244204774.3389735     
   2298324896.1614347     
   2349619972.5601249     
   2397279298.0461855     
   2440680385.6105161     
   2184586104.7795234     
   2243467721.3979192     
   2298982896.9661598     
   2349510946.0554762     
   2393875826.4390402     
   2772713466.9632235     
   2744312278.0275497     
   2725472061.5714879     
   2716198729.4137592     
   2716505888.0812812     
   2628976737.1522636     
   2605914119.8194313     
   2592257520.0317650     
   2588028070.8172760     
   2593259453.8871441     
   2518477714.9758325     
   2497234230.7442412     
   2485288368.9097962     
   2482704181.8216925     
   2489563654.0162158     
   2440680385.6105161     
   2417632454.7211585     
   2403826950.4508886     
   2399400972.1025438     
   2404515792.9823766     
   2393875826.4390402     
   2365536811.0166478     
   2346418301.7109113     
   2336760058.4587026     
   2336835110.1497684     
   2716505888.0812812     
   2711376949.9818263     
   2715790773.0033417     
   2729735344.3028255     
   2753200680.0619769     
   2593259453.8871441     
   2597462208.4051685     
   2611037364.7676840     
   2633981404.3970613     
   2666298042.3466182     
   2489563654.0162158     
   2501223943.1056623     
   2522225439.7482471     
   2552602693.5025492     
   2592400380.2402015     
   2404515792.9823766     
   2421524251.4777575     
   2448052753.1911497     
   2484201025.9894066     
   2530077097.0143738     
   2336835110.1497684     
   2356912835.4433174     
   2386967684.1998010     
   2427188266.0091066     
   2477762634.1925426     
   2753200680.0619769     
   2750204432.3203030     
   2755591067.3678989     
   2769362545.9688416     
   2791520482.1272178     
   2666298042.3466182     
   2668984479.3931694     
   2679737002.3631597     
   2698568528.5093412     
   2725495595.2364411     
   2592400380.2402015     
   2597958047.4872661     
   2611345369.1582994     
   2632587008.6339855     
   2661723479.2196922     
   2530077097.0143738     
   2535847310.6969609     
   2549284868.5929675     
   2570424963.6323590     
   2599340174.8743277     
   2477762634.1925426     
   2481302275.8658237     
   2492400240.7105470     
   2511100162.9327059     
   2537515182.6674829     
   2791520482.1272178     
   2774758235.4542623     
   2770069796.6651182     
   2777455993.2929778     
   2796917282.8599844     
   2725495595.2364411     
   2714084937.4896531     
   2713198725.2994332     
   2722843360.5647578     
   2743025219.0581040     
   2661723479.2196922     
   2655864754.5252647     
   2659142289.6125088     
   2671571054.3476915     
   2693173061.3069530     
   2599340174.8743277     
   2599547822.4656415     
   2607622905.5349097     
   2623580215.4463167     
   2647458365.8260517     
   2537515182.6674829     
   2544594458.7650948     
   2558358357.5219803     
   2578802201.1435575     
   2605974143.7421961     
   2796917282.8599844     
   2744484623.6025071     
   2697337351.5385270     
   2655474377.8929486     
   2618895393.9224901     
   2743025219.0581040     
   2691774215.3422451     
   2645755971.8567610     
   2605009741.2697015     
   2569593987.9472461     
   2693173061.3069530     
   2644990497.1000290     
   2602124851.1864014     
   2564727269.6117387     
   2533010647.6457167     
   2647458365.8260517     
   2604221014.3649592     
   2566525389.6767468     
   2534705075.3856044     
   2509219796.3374033     
   2605974143.7421961     
   2569543139.6396523     
   2539022773.1662145     
   2514994736.1961746     
   2498248234.3270011     
   2618895393.9224901     
   2429298047.3590527     
   2235224226.7401447     
   2036675220.1933463     
   1833653078.9862778     
   2569593987.9472461     
   2382672603.1880226     
   2192876260.2523055     
   2000626214.8548379     
   1806594120.1233265     
   2533010647.6457167     
   2354080636.9501696     
   2174977543.6996999     
   1997250653.0880871     
   1823294969.3822513     
   2509219796.3374033     
   2343532251.5219054     
   2181364997.0618949     
   2025919427.5305989     
   1881903658.2280715     
   2498248234.3270011     
   2350905459.9130802     
   2211559242.9964089     
   2085302823.2490027     
   1979161387.1565833     
   2270384236.1961927     
   1768850889.7872188     
   1831670027.1778846     
   2061554583.4707150     
   2184586104.7795234     
   1140910539.8754237     
   1568305637.8146102     
   1941447140.0027032     
   2223955347.7423005     
   2410019159.2471895     
   2498612488.7945700     
   2444374707.7666097     
   2458575885.4648089     
   2535175072.1313462     
   2665829153.5578299     
   4209325126.5531240     
   3580287199.7650380     
   3174798048.1118321     
   2973274671.7040820     
   2949690887.3713250     
   6258749625.5377541     
   5042766511.0512552     
   4161211731.6659551     
   3575113411.0636997     
   3260881969.3841925     
   2184586104.7795234     
   2243467721.3979192     
   2298982896.9661598     
   2349510946.0554762     
   2393875826.4390402     
   2410019159.2471895     
   2451600723.6563487     
   2488788365.8327761     
   2521038353.7190828     
   2547990257.0698867     
   2665829153.5578299     
   2685350873.7366028     
   2701537432.7184582     
   2714341365.6258264     
   2723787092.0526738     
   2949690887.3713250     
   2944311949.3621111     
   2937817388.7507820     
   2930335277.7214098     
   2922023021.0475769     
   3260881969.3841925     
   3228849098.7097745     
   3198482727.9801526     
   3169912197.3603349     
   3143280722.5928411     
   2393875826.4390402     
   2365536811.0166478     
   2346418301.7109113     
   2336760058.4587026     
   2336835110.1497684     
   2547990257.0698867     
   2495440058.9716277     
   2451983487.2673640     
   2418026538.7779655     
   2394000015.8419752     
   2723787092.0526738     
   2647441388.8470421     
   2580327529.4287772     
   2522924016.7063026     
   2475759923.9297719     
   2922023021.0475769     
   2822594199.5544019     
   2732733073.6687236     
   2652921198.8179655     
   2583739935.7856464     
   3143280722.5928411     
   3021621798.7271395     
   2910020470.4024191     
   2808912048.0417285     
   2718896489.2902708     
   2336835110.1497684     
   2356912835.4433174     
   2386967684.1998010     
   2427188266.0091066     
   2477762634.1925426     
   2394000015.8419752     
   2395410055.4238281     
   2406752657.6129794     
   2428298833.6515050     
   2460278751.6114001     
   2475759923.9297719     
   2454582796.5834212     
   2442695492.7431140     
   2440554722.8867803     
   2448600843.0066366     
   2583739935.7856464     
   2537027249.2096539     
   2498295867.0296617     
   2468216097.9121814     
   2447544128.8430853     
   2718896489.2902708     
   2644807617.0847626     
   2576779658.4883924     
   2515636323.7720919     
   2462457784.4206338     
   2477762634.1925426     
   2481302275.8658237     
   2492400240.7105470     
   2511100162.9327059     
   2537515182.6674829     
   2460278751.6114001     
   2440759990.1045890     
   2428984193.4042816     
   2425161532.9959664     
   2429503873.7969966     
   2448600843.0066366     
   2407115375.4646325     
   2373735294.7264972     
   2348741029.8830547     
   2332396506.2378507     
   2447544128.8430853     
   2385191723.5162730     
   2331423815.3441801     
   2286493462.4904685     
   2250664955.4305639     
   2462457784.4206338     
   2380416755.6327515     
   2307506063.0155277     
   2243847948.4135842     
   2189643921.0626121     
   2537515182.6674829     
   2544594458.7650948     
   2558358357.5219803     
   2578802201.1435575     
   2605974143.7421961     
   2429503873.7969966     
   2425426890.1455784     
   2430460609.6593442     
   2444655312.4441080     
   2468083648.1036921     
   2332396506.2378507     
   2314289745.1799664     
   2307838846.4804692     
   2313230267.3449087     
   2330630406.1463761     
   2250664955.4305639     
   2214912877.8606219     
   2193426789.7784691     
   2186667932.8717451     
   2195024874.4756498     
   2189643921.0626121     
   2131903742.9248948     
   2090957676.3363149     
   2067754931.7569869     
   2063128591.6930609     
   2605974143.7421961     
   2569543139.6396523     
   2539022773.1662145     
   2514994736.1961746     
   2498248234.3270011     
   2468083648.1036921     
   2437076678.0372000     
   2414551685.1170621     
   2401467925.6118994     
   2399194410.4004703     
   2330630406.1463761     
   2307619600.3405128     
   2295949885.7314806     
   2297055472.2976570     
   2313033912.5427756     
   2195024874.4756498     
   2181932869.5190687     
   2183504234.7666416     
   2201751791.5308776     
   2239626682.9404860     
   2063128591.6930609     
   2060967193.3106315     
   2077538148.2991219     
   2115530022.3338885     
   2178814391.4612637     
   2498248234.3270011     
   2350905459.9130802     
   2211559242.9964089     
   2085302823.2490027     
   1979161387.1565833     
   2399194410.4004703     
   2276871115.9586101     
   2165002971.4989486     
   2070395443.2037005     
   2001873827.6520081     
   2313033912.5427756     
   2219076994.8388114     
   2138505419.3010511     
   2079683947.0071938     
   2052734728.5275617     
   2239626682.9404860     
   2177325045.5550561     
   2131604007.3289073     
   2112055265.9665053     
   2129462267.5572174     
   2178814391.4612637     
   2151331994.0403523     
   2143664655.4431262     
   2166187595.2960720     
   2229736873.9964523     
   6258749625.5377541     
   5042766511.0512552     
   4161211731.6659551     
   3575113411.0636997     
   3260881969.3841925     
   6401510090.9942989     
   5466708010.5068092     
   4645290167.7363014     
   3938637633.2253819     
   3378095166.9254141     
   6732185099.1804399     
   5878511649.2982635     
   5051488341.1097469     
   4266705931.6947870     
   3554367368.6924057     
   6701304774.1022654     
   5933437831.9913607     
   5200022250.7325850     
   4488962105.3013496     
   3789363543.6713228     
   6085890596.4461765     
   5488876913.7382889     
   5013881888.9199324     
   4569944055.4492302     
   4080746479.2465315     
   3260881969.3841925     
   3228849098.7097745     
   3198482727.9801526     
   3169912197.3603349     
   3143280722.5928411     
   3378095166.9254141     
   3330796645.3191333     
   3288952167.9227490     
   3252532475.2397027     
   3221535253.6773186     
   3554367368.6924057     
   3489000440.8147812     
   3431863496.7109475     
   3382761949.3076911     
   3341599114.1551795     
   3789363543.6713228     
   3701523560.4527078     
   3623655285.2559953     
   3555435766.6279545     
   3496774269.8082466     
   4080746479.2465315     
   3964779694.8725581     
   3859588316.5423913     
   3764780802.1205997     
   3680392206.6939149     
   3143280722.5928411     
   3021621798.7271395     
   2910020470.4024191     
   2808912048.0417285     
   2718896489.2902708     
   3221535253.6773186     
   3089652450.5230789     
   2965952082.6726942     
   2851001308.8798327     
   2745523639.6754727     
   3341599114.1551795     
   3197453616.2954087     
   3059467299.3574228     
   2928230778.4017296     
   2804495088.0021100     
   3496774269.8082466     
   3339511386.1047320     
   3186342242.2622786     
   3037776885.0119510     
   2894490500.4167314     
   3680392206.6939149     
   3510112466.6902809     
   3341926528.1033010     
   3176186151.9225740     
   3013409290.4666719     
   2718896489.2902708     
   2644807617.0847626     
   2576779658.4883924     
   2515636323.7720919     
   2462457784.4206338     
   2745523639.6754727     
   2651938687.3523307     
   2563205038.2656775     
   2480042307.9801135     
   2403364280.8598323     
   2804495088.0021100     
   2694490672.5558147     
   2588277468.0965376     
   2486408434.3725071     
   2389570540.3190641     
   2894490500.4167314     
   2771385319.7399373     
   2651297548.4531555     
   2534588591.2021637     
   2421702768.9508328     
   3013409290.4666719     
   2880422592.1338143     
   2750042207.5168109     
   2622448079.8598857     
   2497873553.8699555     
   2462457784.4206338     
   2380416755.6327515     
   2307506063.0155277     
   2243847948.4135842     
   2189643921.0626121     
   2403364280.8598323     
   2310202249.5972323     
   2225637559.8610353     
   2150065106.7376719     
   2083969359.3551393     
   2389570540.3190641     
   2283085962.0731096     
   2184195799.1734042     
   2093498469.9013786     
   2011721692.5502660     
   2421702768.9508328     
   2300751234.6617246     
   2185981630.7150459     
   2078066730.9922800     
   1977856903.5185258     
   2497873553.8699555     
   2362365383.0394716     
   2231391687.9114599     
   2105549069.1786780     
   1985637750.7358441     
   2189643921.0626121     
   2131903742.9248948     
   2090957676.3363149     
   2067754931.7569869     
   2063128591.6930609     
   2083969359.3551393     
   2005869044.5377345     
   1941309360.4835348     
   1891559411.9555204     
   1857833837.7432997     
   2011721692.5502660     
   1912135708.1486177     
   1821864629.3660016     
   1742253380.4264662     
   1674761233.1714535     
   1977856903.5185258     
   1858933005.9183078     
   1744343736.6568406     
   1635054647.3239455     
   1532264995.7699344     
   1985637750.7358441     
   1853226871.8957314     
   1720390911.2388415     
   1587428946.6082170     
   1454796941.0430136     
   2063128591.6930609     
   2060967193.3106315     
   2077538148.2991219     
   2115530022.3338885     
   2178814391.4612637     
   1857833837.7432997     
   1848331571.7435668     
   1861449149.9131060     
   1899428544.4697449     
   1965357112.8744609     
   1674761233.1714535     
   1647007392.2386515     
   1646788835.5390167     
   1676481863.6741743     
   1738746366.3377130     
   1532264995.7699344     
   1471813267.3934546     
   1444068199.4529395     
   1452992502.8684132     
   1501932101.8242676     
   1454796941.0430136     
   1345632354.4747465     
   1271671641.8979390     
   1241090091.1613336     
   1261032430.3808508     
   2178814391.4612637     
   2151331994.0403523     
   2143664655.4431262     
   2166187595.2960720     
   2229736873.9964523     
   1965357112.8744609     
   1965084358.1568372     
   2001520595.7359383     
   2093177198.5781021     
   2258436006.8880892     
   1738746366.3377130     
   1784851753.4257038     
   1883195823.8681579     
   2060516309.6374857     
   2341755953.5032725     
   1501932101.8242676     
   1611342509.8707857     
   1787957734.4020724     
   2066354960.3873539     
   2476474131.0871334     
   1261032430.3808508     
   1445585858.8723125     
   1715252416.5147505     
   2110449151.4672644     
   2663397294.6941428     
   6085890596.4461765     
   5488876913.7382889     
   5013881888.9199324     
   4569944055.4492302     
   4080746479.2465315     
   5322863034.4993830     
   5072593559.6891079     
   4846763136.0943813     
   4613007571.8349094     
   4348089430.6988010     
   5261225408.6950493     
   5102183216.5779886     
   4942427443.2854967     
   4780671466.5314550     
   4615916736.9527950     
   5831081304.5535994     
   5554507424.9508066     
   5306683099.3036547     
   5079323659.0473766     
   4868958966.6895895     
   6969481776.1126194     
   6423432580.4016399     
   5949000064.2463312     
   5512005871.9482450     
   5096812113.3898182     
   4080746479.2465315     
   3964779694.8725581     
   3859588316.5423913     
   3764780802.1205997     
   3680392206.6939149     
   4348089430.6988010     
   4224024015.4064708     
   4103636356.8273845     
   3987048806.1197171     
   3874543213.0329695     
   4615916736.9527950     
   4488297794.5035229     
   4359746108.2050867     
   4230368743.3230810     
   4100341258.2517023     
   4868958966.6895895     
   4746201129.0894718     
   4619660632.0959911     
   4489176796.6473999     
   4354771269.4797983     
   5096812113.3898182     
   4989731460.7979851     
   4877300529.3189154     
   4759034144.6724548     
   4634957152.9314594     
   3680392206.6939149     
   3510112466.6902809     
   3341926528.1033010     
   3176186151.9225740     
   3013409290.4666719     
   3874543213.0329695     
   3687165208.0196486     
   3502035188.6455936     
   3319403439.0457411     
   3139656102.2953982     
   4100341258.2517023     
   3896274859.1318121     
   3694637984.7643213     
   3495583005.3562832     
   3299403454.0265784     
   4354771269.4797983     
   4133587054.9472609     
   3914990412.9358578     
   3699045227.9877696     
   3485994855.1767125     
   4634957152.9314594     
   4395504947.8605404     
   4158738568.4020867     
   3924646760.2539496     
   3693465139.8119469     
   3013409290.4666719     
   2880422592.1338143     
   2750042207.5168109     
   2622448079.8598857     
   2497873553.8699555     
   3139656102.2953982     
   3001150762.5378861     
   2864221694.8103695     
   2729019071.2802825     
   2595737307.6003079     
   3299403454.0265784     
   3155601421.8775120     
   3012405358.2604499     
   2869916077.4790792     
   2728270560.4001117     
   3485994855.1767125     
   3337307169.3742275     
   3188346861.5402112     
   3039156580.4902358     
   2889810344.1159725     
   3693465139.8119469     
   3540424203.6702404     
   3386337466.6441088     
   3231187927.5766869     
   3074989991.9046741     
   2497873553.8699555     
   2362365383.0394716     
   2231391687.9114599     
   2105549069.1786780     
   1985637750.7358441     
   2595737307.6003079     
   2447804528.0805149     
   2302631268.0033145     
   2160598949.6367207     
   2022244758.5380869     
   2728270560.4001117     
   2570303950.1258688     
   2413734638.6657200     
   2258741226.8515644     
   2105591008.6745081     
   2889810344.1159725     
   2724388706.6137619     
   2559472364.4728546     
   2395103411.0606465     
   2231357982.5076952     
   3074989991.9046741     
   2904612902.8596139     
   2734285742.5341120     
   2563993246.4519849     
   2393725927.2746501     
   1985637750.7358441     
   1853226871.8957314     
   1720390911.2388415     
   1587428946.6082170     
   1454796941.0430136     
   2022244758.5380869     
   1884224326.2333834     
   1746255537.6659846     
   1608439437.2593169     
   1470918460.9976153     
   2105591008.6745081     
   1964515986.0774791     
   1824289945.5159483     
   1684935224.5992842     
   1546497605.3844943     
   2231357982.5076952     
   2087928007.9110575     
   1946135264.3891947     
   1805979385.5828207     
   1667534110.8151264     
   2393725927.2746501     
   2246912509.2590570     
   2102287529.3133936     
   1959850279.0630863     
   1819769188.5612993     
   1454796941.0430136     
   1345632354.4747465     
   1271671641.8979390     
   1241090091.1613336     
   1261032430.3808508     
   1470918460.9976153     
   1326588073.9395857     
   1196873795.8253520     
   1086333797.8045292     
   1000976006.2986615     
   1546497605.3844943     
   1396586226.5072978     
   1243192773.7391663     
   1084060964.5249698     
   917173718.41712677     
   1667534110.8151264     
   1552273953.1736181     
   1427899527.1072834     
   1294722964.2135084     
   1158835778.6046352     
   1819769188.5612993     
   1779634803.2865345     
   1735920146.1975315     
   1697213276.8408577     
   1682064156.2139359     
   1261032430.3808508     
   1445585858.8723125     
   1715252416.5147505     
   2110449151.4672644     
   2663397294.6941428     
   1000976006.2986615     
   1164044515.6368687     
   1425063468.4396071     
   1808562750.6043568     
   2334526711.3969398     
   917173718.41712677     
   962739992.47456133     
   1144632465.4033706     
   1476257295.5550575     
   1957307096.4081061     
   1158835778.6046352     
   1008376016.0408423     
   985040194.63620400     
   1161297425.7378430     
   1544213486.9532638     
   1682064156.2139359     
   1384246377.2440193     
   1129537449.5368476     
   1009896799.9262923     
   1153247897.1926591     
 </DataArray>
 <DataArray  type="Float64" Name="strain" NumberOfComponents="3" format="ascii">
  0.10129890274225950       -3.0009898777431654E-002   2.1724958145759032E-003
   9.7614785447854180E-002  -2.8949922199001610E-002   4.0045917803011033E-004
   9.3930668153448860E-002  -2.7972965407739081E-002  -6.4330850812432949E-004
   9.0246550859043539E-002  -2.7079028403644539E-002  -9.5880724388774929E-004
   8.6562433564638219E-002  -2.6268111186717569E-002  -5.4603702925937192E-004
   9.3930073899170630E-002  -2.8119049841119681E-002   8.4875401161036423E-003
   9.0820338530759048E-002  -2.7210644212114166E-002   7.5154580647799896E-003
   8.7710603162347578E-002  -2.6327702458865704E-002   6.9638709150527944E-003
   8.4600867793935941E-002  -2.5470224581373872E-002   6.8327786669216684E-003
   8.1491132425524471E-002  -2.4638210579639219E-002   7.1221813203868889E-003
   8.7569328497163923E-002  -2.6228200904807597E-002   1.4622235512501081E-002
   8.4726201005951018E-002  -2.5471366225226888E-002   1.4507663957810807E-002
   8.1883073514738169E-002  -2.4682439509991994E-002   1.4505813255921485E-002
   7.9039946023525265E-002  -2.3861420759103316E-002   1.4616683406833419E-002
   7.6196818532312416E-002  -2.3008309972560426E-002   1.4840274410546361E-002
   8.2216666536239269E-002  -2.4337351968495569E-002   2.0576582003768579E-002
   7.9332372873430035E-002  -2.3732088238339416E-002   2.1377076857122153E-002
   7.6448079210620662E-002  -2.3037176561118450E-002   2.1982518514481825E-002
   7.3563785547811358E-002  -2.2252616936832538E-002   2.2392906975847560E-002
   7.0679491885002110E-002  -2.1378409365481799E-002   2.2608242241219378E-002
   7.7872088016396779E-002  -2.2446503032183540E-002   2.6350579589905887E-002
   7.4638854133195986E-002  -2.1992810251452055E-002   2.8123696762714590E-002
   7.1405620249995194E-002  -2.1391913612244864E-002   2.9393986690734036E-002
   6.8172386366794346E-002  -2.0643813114561916E-002   3.0161449373964408E-002
   6.4939152483593499E-002  -1.9748508758403227E-002   3.0426084812405829E-002
   8.6562433564638219E-002  -2.6268111186717569E-002  -5.4603702925937192E-004
   8.4088865689700754E-002  -2.5480324317547542E-002  -1.6122516131550357E-004
   8.1615297814763399E-002  -2.4655778356723501E-002   2.7490056457502021E-004
   7.9141729939826044E-002  -2.3794473304245084E-002   7.6234014841242148E-004
   7.6668162064888579E-002  -2.2896409160112707E-002   1.3010935901969223E-003
   8.1491132425524471E-002  -2.4638210579639219E-002   7.1221813203868889E-003
   7.9096810952679897E-002  -2.3814662612627269E-002   7.3345584273610265E-003
   7.6702489479835378E-002  -2.2982582839304239E-002   7.6541144805738481E-003
   7.4308168006990818E-002  -2.2141971259670219E-002   8.0808494800257008E-003
   7.1913846534146342E-002  -2.1292827873725106E-002   8.6147634257163208E-003
   7.6196818532312416E-002  -2.3008309972560426E-002   1.4840274410546361E-002
   7.3937608549852707E-002  -2.2149000907706495E-002   1.4851989471207638E-002
   7.1678398567393081E-002  -2.1309387321884976E-002   1.5026748566399906E-002
   6.9419188584933456E-002  -2.0489469215095243E-002   1.5364551696122830E-002
   6.7159978602473747E-002  -1.9689246587337728E-002   1.5865398860376745E-002
   7.0679491885002110E-002  -2.1378409365481799E-002   2.2608242241219378E-002
   6.8611258481219267E-002  -2.0483339202786138E-002   2.2391067970224839E-002
   6.6543025077436452E-002  -1.9636191804465714E-002   2.2392802822053151E-002
   6.4474791673653636E-002  -1.8836967170520434E-002   2.2613446796704191E-002
   6.2406558269870807E-002  -1.8085665300950238E-002   2.3052999894178000E-002
   6.4939152483593499E-002  -1.9748508758403227E-002   3.0426084812405829E-002
   6.3117760746779522E-002  -1.8817677497865698E-002   2.9951793924412190E-002
   6.1296369009965546E-002  -1.7962996287046451E-002   2.9752277247533460E-002
   5.9474977273151625E-002  -1.7184465125945542E-002   2.9827534781769582E-002
   5.7653585536337593E-002  -1.6482084014562748E-002   3.0177566527120392E-002
   7.6668162064888579E-002  -2.2896409160112707E-002   1.3010935901969223E-003
   7.2976975811559042E-002  -2.1967868763941967E-002   6.0852227700614048E-004
   6.9285789558229394E-002  -2.1015134955347459E-002   1.7080499078558908E-004
   6.5594603304899857E-002  -2.0038207734330599E-002  -1.2058268465398037E-005
   6.1903417051570209E-002  -1.9037087100890693E-002   5.9932499254067295E-005
   7.1913846534146342E-002  -2.1292827873725106E-002   8.6147634257163208E-003
   6.8467824154950507E-002  -2.0430822075120980E-002   7.9336427744740590E-003
   6.5021801775754673E-002  -1.9551623257509837E-002   7.4879958445295269E-003
   6.1575779396558866E-002  -1.8655231420891073E-002   7.2778226358819476E-003
   5.8129757017363004E-002  -1.7741646565265556E-002   7.3031231485320980E-003
   6.7159978602473747E-002  -1.9689246587337728E-002   1.5865398860376745E-002
   6.3939739791739114E-002  -1.8893775386300549E-002   1.5188728477666918E-002
   6.0719500981004509E-002  -1.8088111559671993E-002   1.4728151510582432E-002
   5.7499262170269960E-002  -1.7272255107451770E-002   1.4483667959123064E-002
   5.4279023359535328E-002  -1.6446206029640309E-002   1.4455277823288148E-002
   6.2406558269870807E-002  -1.8085665300950238E-002   2.3052999894178000E-002
   5.9392722721924890E-002  -1.7356728697479951E-002   2.2373779386585406E-002
   5.6378887173978987E-002  -1.6624599861833816E-002   2.1891271988945263E-002
   5.3365051626033111E-002  -1.5889278794012356E-002   2.1605477701257515E-002
   5.0351216078087180E-002  -1.5150765494015117E-002   2.1516396523522219E-002
   5.7653585536337593E-002  -1.6482084014562748E-002   3.0177566527120392E-002
   5.4826772945507862E-002  -1.5819682008659408E-002   2.9488795501228793E-002
   5.1999960354678104E-002  -1.5161088163996070E-002   2.8977357279617283E-002
   4.9173147763848374E-002  -1.4506302480572910E-002   2.8643251862285710E-002
   4.6346335173018616E-002  -1.3855324958389981E-002   2.8486479249233809E-002
   6.1903417051570209E-002  -1.9037087100890693E-002   5.9932499254067295E-005
   5.9224760492676554E-002  -1.8052332030850771E-002   4.5109298656864638E-005
   5.6546103933783010E-002  -1.7124501500034528E-002   1.6770618018985273E-004
   5.3867447374889410E-002  -1.6253595508441132E-002   4.2772314385325361E-004
   5.1188790815995810E-002  -1.5439614056071305E-002   8.2516018964717830E-004
   5.8129757017363004E-002  -1.7741646565265556E-002   7.3031231485320980E-003
   5.5588399429359392E-002  -1.6836859839403584E-002   7.1652483041946824E-003
   5.3047041841355752E-002  -1.5966862392077175E-002   7.1645513195068844E-003
   5.0505684253352182E-002  -1.5131654223285704E-002   7.3010321944683154E-003
   4.7964326665348500E-002  -1.4331235333029602E-002   7.5746909290793640E-003
   5.4279023359535328E-002  -1.6446206029640309E-002   1.4455277823288148E-002
   5.1874722519940797E-002  -1.5621387647956730E-002   1.4216486595899108E-002
   4.9470421680346377E-002  -1.4809223284119821E-002   1.4114631005677974E-002
   4.7066120840751971E-002  -1.4009712938130497E-002   1.4149711052625968E-002
   4.4661820001157426E-002  -1.3222856609988232E-002   1.4321726736742424E-002
   5.0351216078087180E-002  -1.5150765494015117E-002   2.1516396523522219E-002
   4.8083729764420949E-002  -1.4405915456509599E-002   2.1198824173768838E-002
   4.5816243450754780E-002  -1.3651584176163134E-002   2.1017945238703276E-002
   4.3548757137088584E-002  -1.2887771652975180E-002   2.0973759718325422E-002
   4.1281270823422381E-002  -1.2114477886946473E-002   2.1066267612635567E-002
   4.6346335173018616E-002  -1.3855324958389981E-002   2.8486479249233809E-002
   4.4215421162799806E-002  -1.3190443265062857E-002   2.8112261037804787E-002
   4.2084507152581024E-002  -1.2493945068205906E-002   2.7874494018582635E-002
   3.9953593142362201E-002  -1.1765830367819866E-002   2.7773178191567591E-002
   3.7822679132143378E-002  -1.1006099163904715E-002   2.7808313556759279E-002
   5.1188790815995810E-002  -1.5439614056071305E-002   8.2516018964717830E-004
   4.8379088357444644E-002  -1.4636065107814678E-002   5.1590925717748259E-004
   4.5569385898893588E-002  -1.3796456628561604E-002   2.7011037175717068E-004
   4.2759683440342477E-002  -1.2920788618311321E-002   8.7763533386631121E-005
   3.9949980981791366E-002  -1.2009061077064453E-002  -3.1131257935523848E-005
   4.7964326665348500E-002  -1.4331235333029602E-002   7.5746909290793640E-003
   4.5226780549744050E-002  -1.3537348423787732E-002   7.2249942027149405E-003
   4.2489234434139600E-002  -1.2721736198038847E-002   6.9561581151947882E-003
   3.9751688318535178E-002  -1.1884398655783807E-002   6.7681826665179357E-003
   3.7014142202930755E-002  -1.1025335797022029E-002   6.6610678566850767E-003
   4.4661820001157426E-002  -1.3222856609988232E-002   1.4321726736742424E-002
   4.2013838820294191E-002  -1.2438631739760508E-002   1.3917250001992898E-002
   3.9365857639431012E-002  -1.1647015767516949E-002   1.3611042497882087E-002
   3.6717876458567764E-002  -1.0848008693256285E-002   1.3403104224409754E-002
   3.4069895277704598E-002  -1.0041610516979271E-002   1.3293435181575886E-002
   4.1281270823422381E-002  -1.2114477886946473E-002   2.1066267612635567E-002
   3.8740263169095013E-002  -1.1339915055733646E-002   2.0592676655011272E-002
   3.6199255514767652E-002  -1.0572295336994733E-002   2.0234763519819572E-002
   3.3658247860440346E-002  -9.8116187307289889E-003   1.9992528207061804E-002
   3.1117240206112923E-002  -9.0578852369370133E-003   1.9865970716736681E-002
   3.7822679132143378E-002  -1.1006099163904715E-002   2.7808313556759279E-002
   3.5406053596146514E-002  -1.0241198371706672E-002   2.7251274161769479E-002
   3.2989428060149623E-002  -9.4975749064723503E-003   2.6827321181007613E-002
   3.0572802524152717E-002  -8.7752287682014846E-003   2.6536454614473293E-002
   2.8156176988155868E-002  -8.0741599568944222E-003   2.6378674462167018E-002
   3.9949980981791366E-002  -1.2009061077064453E-002  -3.1131257935523848E-005
   3.7537068808328855E-002  -1.1162486696461027E-002  -2.9354113060975351E-004
   3.5124156634866344E-002  -1.0482278168141734E-002  -4.7255721651551230E-004
   3.2711244461403832E-002  -9.9684354921060758E-003  -5.6817951565235614E-004
   3.0298332287941321E-002  -9.6209586683551063E-003  -5.8040802802072911E-004
   3.7014142202930755E-002  -1.1025335797022029E-002   6.6610678566850767E-003
   3.4667454436999257E-002  -1.0210250790910536E-002   6.2350570213618450E-003
   3.2320766671067813E-002  -9.5048468066077363E-003   5.8581012143313904E-003
   2.9974078905136425E-002  -8.9091238441139781E-003   5.5302004355941847E-003
   2.7627391139204871E-002  -8.4230819034281090E-003   5.2513546851512549E-003
   3.4069895277704598E-002  -1.0041610516979271E-002   1.3293435181575886E-002
   3.1755093160828946E-002  -9.2580148853604882E-003   1.2760508214078314E-002
   2.9440291043953376E-002  -8.5274154450741824E-003   1.2242297516399214E-002
   2.7125488927077723E-002  -7.8498121961207701E-003   1.1738803088538155E-002
   2.4810686810202154E-002  -7.2252051385003346E-003   1.1250024930495706E-002
   3.1117240206112923E-002  -9.0578852369370133E-003   1.9865970716736681E-002
   2.8799984979817984E-002  -8.3057789798101078E-003   1.9282812447541056E-002
   2.6482729753523046E-002  -7.5499840835405174E-003   1.8680031689688514E-002
   2.4165474527228108E-002  -6.7905005481278952E-003   1.8057628443179291E-002
   2.1848219300933169E-002  -6.0273283735726157E-003   1.7415602708012720E-002
   2.8156176988155868E-002  -8.0741599568944222E-003   2.6378674462167018E-002
   2.5802129893966297E-002  -7.3535430742600605E-003   2.5801969721749307E-002
   2.3448082799776782E-002  -6.5725527220067415E-003   2.5171303734199069E-002
   2.1094035705587211E-002  -5.7311889001353811E-003   2.4486676499516774E-002
   1.8739988611397695E-002  -4.8294516086452299E-003   2.3748088017702340E-002
   3.0298332287941321E-002  -9.6209586683551063E-003  -5.8040802802072911E-004
   2.9669295230596027E-002  -9.1522718919748725E-003  -3.4963842159063674E-004
   2.9040258173250788E-002  -8.2747993580508106E-003  -1.7953643376237283E-003
   2.8411221115905549E-002  -6.9885410665843778E-003  -4.9175857761188380E-003
   2.7782184058560255E-002  -5.2934970175742002E-003  -9.7163027370772426E-003
   2.7627391139204871E-002  -8.4230819034281090E-003   5.2513546851512549E-003
   2.5590624051999411E-002  -7.8862458886730380E-003   5.9151540676622982E-003
   2.3553856964793951E-002  -7.1381407039720068E-003   5.4399889129155832E-003
   2.1517089877588491E-002  -6.1787663493236000E-003   3.8258592209113595E-003
   1.9480322790383031E-002  -5.0081228247296217E-003   1.0727649916493220E-003
   2.4810686810202154E-002  -7.2252051385003346E-003   1.1250024930495706E-002
   2.1903720678341537E-002  -6.6202198853710370E-003   1.2149337501491386E-002
   1.8996754546480865E-002  -6.0014820498922872E-003   1.2447216520433763E-002
   1.6089788414620249E-002  -5.3689916320634815E-003   1.2143661987323959E-002
   1.3182822282759549E-002  -4.7227486318843770E-003   1.1238673902162044E-002
   2.1848219300933169E-002  -6.0273283735726157E-003   1.7415602708012720E-002
   1.8608585109622343E-002  -5.3541938820693413E-003   1.8352911879895822E-002
   1.5368950918311572E-002  -4.8648233958129145E-003   1.9226318484931691E-002
   1.2129316727000780E-002  -4.5592169148030333E-003   2.0035822523119914E-002
   8.8896825356899745E-003  -4.4373744390399095E-003   2.0781423994460230E-002
   1.8739988611397695E-002  -4.8294516086452299E-003   2.3748088017702340E-002
   1.5705217345841849E-002  -4.0881678787674791E-003   2.4525877202876578E-002
   1.2670446080285974E-002  -3.7281647417334585E-003   2.5777294806408724E-002
   9.6356748147301274E-003  -3.7494421975423423E-003   2.7502340828297972E-002
   6.6009035491742529E-003  -4.1520002461952199E-003   2.9701015268544628E-002
   2.7782184058560255E-002  -5.2934970175742002E-003  -9.7163027370772426E-003
   2.3353883893210026E-002  -4.2087927225316069E-003  -4.1891428560612010E-003
   1.8925583727859741E-002  -4.7535536929707023E-003   2.6005828959350108E-003
   1.4497283562509455E-002  -6.9277799288886277E-003   1.0652874518911504E-002
   1.0068983397159226E-002  -1.0731471430288408E-002   1.9967732012869277E-002
   1.9480322790383031E-002  -5.0081228247296217E-003   1.0727649916493220E-003
   1.6242318605625139E-002  -4.6893422024621989E-003   6.7597856227906705E-003
   1.3004314420867524E-002  -6.2855565547936809E-003   1.3564832344137412E-002
   9.7663102361096876E-003  -9.7967658817261216E-003   2.1487905155688325E-002
   6.5283060513519064E-003  -1.5222970183259132E-002   3.0529004057443743E-002
   1.3182822282759549E-002  -4.7227486318843770E-003   1.1238673902162044E-002
   1.0990574297818495E-002  -5.1698916823906815E-003   1.6800025574309263E-002
   8.7983263128773442E-003  -7.8175594166168261E-003   2.3334863555885599E-002
   6.6060783279363600E-003  -1.2665751834563158E-002   3.0843187846890302E-002
   4.4138303429951398E-003  -1.9714468936229856E-002   3.9324998447324955E-002
   8.8896825356899745E-003  -4.4373744390399095E-003   2.0781423994460230E-002
   7.5986509697898233E-003  -5.6504411623204409E-003   2.5931576998493716E-002
   6.3076194038896166E-003  -9.3495622784405541E-003   3.1910676531180168E-002
   5.0165878379893891E-003  -1.5534737787400200E-002   3.8718722592519787E-002
   3.7255562720893420E-003  -2.4205967689200358E-002   4.6355715182512247E-002
   6.6009035491742529E-003  -4.1520002461952199E-003   2.9701015268544628E-002
   6.0665486215392139E-003  -6.1309906422495342E-003   3.4154439895343947E-002
   5.5321936939041749E-003  -1.0881565140263227E-002   3.9292271270021106E-002
   4.9978387662692192E-003  -1.8403723740237590E-002   4.5114509392575386E-002
   4.4634838386341524E-003  -2.8697466442171304E-002   5.1621154263006286E-002
   7.7872088016396779E-002  -2.2446503032183540E-002   2.6350579589905887E-002
   7.4638854133195986E-002  -2.1992810251452055E-002   2.8123696762714590E-002
   7.1405620249995194E-002  -2.1391913612244864E-002   2.9393986690734036E-002
   6.8172386366794346E-002  -2.0643813114561916E-002   3.0161449373964408E-002
   6.4939152483593499E-002  -1.9748508758403227E-002   3.0426084812405829E-002
   7.3356643061503635E-002  -2.0640460717815612E-002   3.2642675273586941E-002
   6.9819677174378536E-002  -2.0120952329096303E-002   3.3370043564071361E-002
   6.6282711287253354E-002  -1.9538703422863485E-002   3.3992775091495897E-002
   6.2745745400128242E-002  -1.8893713999117122E-002   3.4510869855861243E-002
   5.9208779513003101E-002  -1.8185984057857485E-002   3.4924327857166870E-002
   6.7491381795426630E-002  -1.8834418403447684E-002   3.9042818235737117E-002
   6.4048874386106749E-002  -1.8249094406740399E-002   3.8639974302934643E-002
   6.0606366976786910E-002  -1.7685493233482043E-002   3.8530684088802440E-002
   5.7163859567467043E-002  -1.7143614883672463E-002   3.8714947593340029E-002
   5.3721352158147190E-002  -1.6623459357311771E-002   3.9192764816547709E-002
   6.0276304218166044E-002  -1.7028376089079741E-002   4.5551008476355972E-002
   5.7326445768381015E-002  -1.6377236484384682E-002   4.3933488979304818E-002
   5.4376587318595938E-002  -1.5832283044100632E-002   4.3007713682653083E-002
   5.1426728868810861E-002  -1.5393515768227794E-002   4.2773682586401088E-002
   4.8476870419025785E-002  -1.5060934656766070E-002   4.3231395690548596E-002
   5.1711410329721708E-002  -1.5222333774711827E-002   5.2167245995444256E-002
   4.9652391321201000E-002  -1.4505378562028742E-002   4.9250587593181683E-002
   4.7593372312680293E-002  -1.3979072854719207E-002   4.7423863873048339E-002
   4.5534353304159614E-002  -1.3643416652783052E-002   4.6687074835044293E-002
   4.3475334295638907E-002  -1.3498409956220370E-002   4.7040220479169170E-002
   6.4939152483593499E-002  -1.9748508758403227E-002   3.0426084812405829E-002
   6.3117760746779522E-002  -1.8817677497865698E-002   2.9951793924412190E-002
   6.1296369009965546E-002  -1.7962996287046451E-002   2.9752277247533460E-002
   5.9474977273151625E-002  -1.7184465125945542E-002   2.9827534781769582E-002
   5.7653585536337593E-002  -1.6482084014562748E-002   3.0177566527120392E-002
   5.9208779513003101E-002  -1.8185984057857485E-002   3.4924327857166870E-002
   5.7636167075321001E-002  -1.7451832723463290E-002   3.4623963782443534E-002
   5.6063554637638902E-002  -1.6727579120313613E-002   3.4546384094869029E-002
   5.4490942199956795E-002  -1.6013223248408419E-002   3.4691588794443610E-002
   5.2918329762274702E-002  -1.5308765107747813E-002   3.5059577881167148E-002
   5.3721352158147190E-002  -1.6623459357311771E-002   3.9192764816547709E-002
   5.2345529195631103E-002  -1.6085987949060923E-002   3.9132579873568371E-002
   5.0969706233115045E-002  -1.5492161953580719E-002   3.9243189493772021E-002
   4.9593883270598972E-002  -1.4841981370871407E-002   3.9524593677158729E-002
   4.8218060308082913E-002  -1.4135446200932711E-002   3.9976792423728660E-002
   4.8476870419025785E-002  -1.5060934656766070E-002   4.3231395690548596E-002
   4.7245847107709876E-002  -1.4720143174658508E-002   4.3477642197786881E-002
   4.6014823796393975E-002  -1.4256744786847825E-002   4.3842693444242305E-002
   4.4783800485078011E-002  -1.3670739493334187E-002   4.4326549429915096E-002
   4.3552777173762103E-002  -1.2962127294117720E-002   4.4929210154805138E-002
   4.3475334295638907E-002  -1.3498409956220370E-002   4.7040220479169170E-002
   4.2337120811557299E-002  -1.3354298400256176E-002   4.7659150755098856E-002
   4.1198907327475678E-002  -1.3021327620114945E-002   4.8344895946279887E-002
   4.0060693843394064E-002  -1.2499497615797262E-002   4.9097456052712471E-002
   3.8922480359312422E-002  -1.1788808387302618E-002   4.9916831074396151E-002
   5.7653585536337593E-002  -1.6482084014562748E-002   3.0177566527120392E-002
   5.4826772945507862E-002  -1.5819682008659408E-002   2.9488795501228793E-002
   5.1999960354678104E-002  -1.5161088163996070E-002   2.8977357279617283E-002
   4.9173147763848374E-002  -1.4506302480572910E-002   2.8643251862285710E-002
   4.6346335173018616E-002  -1.3855324958389981E-002   2.8486479249233809E-002
   5.2918329762274702E-002  -1.5308765107747813E-002   3.5059577881167148E-002
   5.0271924049438976E-002  -1.4619607508445376E-002   3.4396611492504892E-002
   4.7625518336603223E-002  -1.3951153260614815E-002   3.3917126055550501E-002
   4.4979112623767512E-002  -1.3303402364256176E-002   3.3621121570304210E-002
   4.2332706910931772E-002  -1.2676354819369462E-002   3.3508598036766313E-002
   4.8218060308082913E-002  -1.4135446200932711E-002   3.9976792423728660E-002
   4.5758209620669454E-002  -1.3419533008231316E-002   3.9322735482063623E-002
   4.3298358933255898E-002  -1.2741218357233512E-002   3.8858307639535024E-002
   4.0838508245842418E-002  -1.2100502247939444E-002   3.8583508896142649E-002
   3.8378657558428897E-002  -1.1497384680349026E-002   3.8498339251886685E-002
   4.3552777173762103E-002  -1.2962127294117720E-002   4.4929210154805138E-002
   4.1285629659199088E-002  -1.2219458508017408E-002   4.4267167469905569E-002
   3.9018482144636074E-002  -1.1531283453852289E-002   4.3800902031570818E-002
   3.6751334630073060E-002  -1.0897602131622851E-002   4.3530413839800601E-002
   3.4484187115510045E-002  -1.0318414541328605E-002   4.3455702894594980E-002
   3.8922480359312422E-002  -1.1788808387302618E-002   4.9916831074396151E-002
   3.6854184165028087E-002  -1.1019384007803390E-002   4.9229907456030786E-002
   3.4785887970743778E-002  -1.0321348550471010E-002   4.8744909231658168E-002
   3.2717591776459443E-002  -9.6947020153060476E-003   4.8461836401278158E-002
   3.0649295582175107E-002  -9.1394444023080168E-003   4.8380688964891283E-002
   4.6346335173018616E-002  -1.3855324958389981E-002   2.8486479249233809E-002
   4.4215421162799806E-002  -1.3190443265062857E-002   2.8112261037804787E-002
   4.2084507152581024E-002  -1.2493945068205906E-002   2.7874494018582635E-002
   3.9953593142362201E-002  -1.1765830367819866E-002   2.7773178191567591E-002
   3.7822679132143378E-002  -1.1006099163904715E-002   2.7808313556759279E-002
   4.2332706910931772E-002  -1.2676354819369462E-002   3.3508598036766313E-002
   4.0340673283207368E-002  -1.2044070369298804E-002   3.3227784757893120E-002
   3.8348639655482894E-002  -1.1380608757387903E-002   3.3088281051801866E-002
   3.6356606027758538E-002  -1.0685969983636915E-002   3.3090086918492398E-002
   3.4364572400034044E-002  -9.9601540480458994E-003   3.3233202357964620E-002
   3.8378657558428897E-002  -1.1497384680349026E-002   3.8498339251886685E-002
   3.6530362693773674E-002  -1.0897697473535056E-002   3.8310491563880597E-002
   3.4682067829118333E-002  -1.0267272446569949E-002   3.8268811829230857E-002
   3.2833772964463062E-002  -9.6061095994540730E-003   3.8373300047937708E-002
   3.0985478099807770E-002  -8.9142089321871953E-003   3.8623956220001060E-002
   3.4484187115510045E-002  -1.0318414541328605E-002   4.3455702894594980E-002
   3.2784489394498656E-002  -9.7513245777711560E-003   4.3360381455766511E-002
   3.1084791673487308E-002  -9.1539361357519423E-003   4.3416086350869326E-002
   2.9385093952475967E-002  -8.5262492152709535E-003   4.3622817579903612E-002
   2.7685396231464567E-002  -7.8682638163284913E-003   4.3980575142868905E-002
   3.0649295582175107E-002  -9.1394444023080168E-003   4.8380688964891283E-002
   2.9103053385382438E-002  -8.6049516820074223E-003   4.8377454433551237E-002
   2.7556811188589797E-002  -8.0405998249341443E-003   4.8530104616717334E-002
   2.6010568991797142E-002  -7.4463888310881514E-003   4.8838639514389479E-002
   2.4464326795004432E-002  -6.8223187004696761E-003   4.9303059126567850E-002
   3.7822679132143378E-002  -1.1006099163904715E-002   2.7808313556759279E-002
   3.5406053596146514E-002  -1.0241198371706672E-002   2.7251274161769479E-002
   3.2989428060149623E-002  -9.4975749064723503E-003   2.6827321181007613E-002
   3.0572802524152717E-002  -8.7752287682014846E-003   2.6536454614473293E-002
   2.8156176988155868E-002  -8.0741599568944222E-003   2.6378674462167018E-002
   3.4364572400034044E-002  -9.9601540480458994E-003   3.3233202357964620E-002
   3.2084125645706424E-002  -9.2271081212422223E-003   3.2739270509110352E-002
   2.9803678891378763E-002  -8.5107793738530696E-003   3.2384609809366804E-002
   2.7523232137051122E-002  -7.8111678058783822E-003   3.2169220258734102E-002
   2.5242785382723482E-002  -7.1282734173184759E-003   3.2093101857212147E-002
   3.0985478099807770E-002  -8.9142089321871953E-003   3.8623956220001060E-002
   2.8847394862032347E-002  -8.2130178707777168E-003   3.8197692064831215E-002
   2.6709311624256916E-002  -7.5239838412339000E-003   3.7916883793655237E-002
   2.4571228386481455E-002  -6.8471068435553908E-003   3.7781531406472932E-002
   2.2433145148706063E-002  -6.1823868777426960E-003   3.7791634903284188E-002
   2.7685396231464567E-002  -7.8682638163284913E-003   4.3980575142868905E-002
   2.5695861245124279E-002  -7.1989276203134056E-003   4.3626538828932485E-002
   2.3706326258784077E-002  -6.5371883086145638E-003   4.3424143133872876E-002
   2.1716791272443810E-002  -5.8830458812326215E-003   4.3373388057690102E-002
   1.9727256286103577E-002  -5.2365003381668329E-003   4.3474273600383445E-002
   2.4464326795004432E-002  -6.8223187004696761E-003   4.9303059126567850E-002
   2.2629524794982370E-002  -6.1848373698487058E-003   4.9025810801413938E-002
   2.0794722794960252E-002  -5.5503927759954497E-003   4.8906387830019826E-002
   1.8959920794938176E-002  -4.9189849189092416E-003   4.8944790212385458E-002
   1.7125118794916044E-002  -4.2906137985909698E-003   4.9141017948510779E-002
   2.8156176988155868E-002  -8.0741599568944222E-003   2.6378674462167018E-002
   2.5802129893966297E-002  -7.3535430742600605E-003   2.5801969721749307E-002
   2.3448082799776782E-002  -6.5725527220067415E-003   2.5171303734199069E-002
   2.1094035705587211E-002  -5.7311889001353811E-003   2.4486676499516774E-002
   1.8739988611397695E-002  -4.8294516086452299E-003   2.3748088017702340E-002
   2.5242785382723482E-002  -7.1282734173184759E-003   3.2093101857212147E-002
   2.2873584789112222E-002  -6.4456180158437570E-003   3.1697262573351093E-002
   2.0504384195501060E-002  -5.7467234091242714E-003   3.1325077537779106E-002
   1.8135183601889836E-002  -5.0315895971599287E-003   3.0976546750496048E-002
   1.5765983008278639E-002  -4.3002165799510550E-003   3.0651670211501780E-002
   2.2433145148706063E-002  -6.1823868777426960E-003   3.7791634903284188E-002
   2.0126406551094211E-002  -5.5376929574275091E-003   3.7532526811606431E-002
   1.7819667953482318E-002  -4.9208940962412462E-003   3.7374688463638561E-002
   1.5512929355870481E-002  -4.3319902941845873E-003   3.7318119859380494E-002
   1.3206190758258629E-002  -3.7709815512569356E-003   3.7362820998832175E-002
   1.9727256286103577E-002  -5.2365003381668329E-003   4.3474273600383445E-002
   1.7560595179912049E-002  -4.6297678990110669E-003   4.3307762436515275E-002
   1.5393934073720594E-002  -4.0950647833587761E-003   4.3320136511777699E-002
   1.3227272967529059E-002  -3.6323909912090793E-003   4.3511395826170973E-002
   1.1060611861337610E-002  -3.2417465225630104E-003   4.3881540379695265E-002
   1.7125118794916044E-002  -4.2906137985909698E-003   4.9141017948510779E-002
   1.5176150675565964E-002  -3.7218428405950132E-003   4.9022969448077602E-002
   1.3227182556215841E-002  -3.2692354704756954E-003   4.9161421682196338E-002
   1.1278214436865712E-002  -2.9327916882337240E-003   4.9556374650866736E-002
   9.3292463175155826E-003  -2.7125114938686412E-003   5.0207828354089212E-002
   1.8739988611397695E-002  -4.8294516086452299E-003   2.3748088017702340E-002
   1.5705217345841849E-002  -4.0881678787674791E-003   2.4525877202876578E-002
   1.2670446080285974E-002  -3.7281647417334585E-003   2.5777294806408724E-002
   9.6356748147301274E-003  -3.7494421975423423E-003   2.7502340828297972E-002
   6.6009035491742529E-003  -4.1520002461952199E-003   2.9701015268544628E-002
   1.5765983008278639E-002  -4.3002165799510550E-003   3.0651670211501780E-002
   1.3186424853174838E-002  -3.7792038069308642E-003   3.1416137298637015E-002
   1.0606866698070982E-002  -3.6951507275317375E-003   3.2617402188319183E-002
   8.0273085429671265E-003  -4.0480573417544380E-003   3.4255464880547773E-002
   5.4477503878633260E-003  -4.8379236495987854E-003   3.6330325375323658E-002
   1.3206190758258629E-002  -3.7709815512569356E-003   3.7362820998832175E-002
   1.1045015097796068E-002  -3.4702397350938885E-003   3.8058286887150683E-002
   8.8838394373334933E-003  -3.6621367133305577E-003   3.9153719962205444E-002
   6.7226637768709255E-003  -4.3466724859665302E-003   4.0649120223995770E-002
   4.5614881164083576E-003  -5.5238470530024619E-003   4.2544487672521947E-002
   1.1060611861337610E-002  -3.2417465225630104E-003   4.3881540379695265E-002
   9.2809880797055308E-003  -3.1612756632569822E-003   4.4452325968418568E-002
   7.5013642980733923E-003  -3.6291226991289408E-003   4.5386248128067339E-002
   5.7217405164412555E-003  -4.6452876301787353E-003   4.6683306858640881E-002
   3.9421167348091743E-003  -6.2097704564060829E-003   4.8343502160139509E-002
   9.3292463175155826E-003  -2.7125114938686412E-003   5.0207828354089212E-002
   7.8943437989031917E-003  -2.8523115914202979E-003   5.0598254542439824E-002
   6.4594412802907453E-003  -3.5961086849275459E-003   5.1314986685904396E-002
   5.0245387616783543E-003  -4.9439027743904684E-003   5.2358024784483204E-002
   3.5896362430659634E-003  -6.8956938598097040E-003   5.3727368838176526E-002
   6.6009035491742529E-003  -4.1520002461952199E-003   2.9701015268544628E-002
   6.0665486215392139E-003  -6.1309906422495342E-003   3.4154439895343947E-002
   5.5321936939041749E-003  -1.0881565140263227E-002   3.9292271270021106E-002
   4.9978387662692192E-003  -1.8403723740237590E-002   4.5114509392575386E-002
   4.4634838386341524E-003  -2.8697466442171304E-002   5.1621154263006286E-002
   5.4477503878633260E-003  -4.8379236495987854E-003   3.6330325375323658E-002
   5.4943906454986702E-003  -6.9658629696327523E-003   3.8441844113012880E-002
   5.5410309031339589E-003  -1.1332988620425366E-002   4.1030946473365693E-002
   5.5876711607693447E-003  -1.7939300601975725E-002   4.4097632456382180E-002
   5.6343114184046472E-003  -2.6784798914284647E-002   4.7641902062061758E-002
   4.5614881164083576E-003  -5.5238470530024619E-003   4.2544487672521947E-002
   4.9823004341001120E-003  -7.8007352970165256E-003   4.2846498292302720E-002
   5.4031127517918387E-003  -1.1784412100586922E-002   4.3419269409533640E-002
   5.8239250694836972E-003  -1.7474877463714296E-002   4.4262801024213858E-002
   6.2447373871753753E-003  -2.4872131386397989E-002   4.5377093136343083E-002
   3.9421167348091743E-003  -6.2097704564060829E-003   4.8343502160139509E-002
   4.5302779873435291E-003  -8.6356076243997992E-003   4.7368402433213441E-002
   5.1184392398779116E-003  -1.2235835580748880E-002   4.6457240078523553E-002
   5.7066004924123098E-003  -1.7010454325452871E-002   4.5610015096069059E-002
   6.2947617449467044E-003  -2.2959463858511220E-002   4.4826727485849704E-002
   3.5896362430659634E-003  -6.8956938598097040E-003   5.3727368838176526E-002
   4.1383233052290080E-003  -9.4704799517834060E-003   5.2007556535745403E-002
   4.6870103673921359E-003  -1.2687259060910339E-002   5.0144858480336008E-002
   5.2356974295552638E-003  -1.6546031187190988E-002   4.8139274671948507E-002
   5.7843844917183640E-003  -2.1046796330624673E-002   4.5990805110582844E-002
   5.1711410329721708E-002  -1.5222333774711827E-002   5.2167245995444256E-002
   4.9652391321201000E-002  -1.4505378562028742E-002   4.9250587593181683E-002
   4.7593372312680293E-002  -1.3979072854719207E-002   4.7423863873048339E-002
   4.5534353304159614E-002  -1.3643416652783052E-002   4.6687074835044293E-002
   4.3475334295638907E-002  -1.3498409956220370E-002   4.7040220479169170E-002
   4.4174145753103689E-002  -1.3750965210542809E-002   5.2552754317992612E-002
   4.2710906519716318E-002  -1.2720881949402962E-002   5.2315305716163080E-002
   4.1247667286328879E-002  -1.1963569637705118E-002   5.2179481982470938E-002
   3.9784428052941516E-002  -1.1479028275449096E-002   5.2145283116916297E-002
   3.8321188819554083E-002  -1.1267257862634994E-002   5.2212709119498851E-002
   4.0041956111322455E-002  -1.2279596646373819E-002   5.3292451411031685E-002
   3.8186186839076534E-002  -1.0936385336777252E-002   5.5652091165566742E-002
   3.6330417566830600E-002  -9.9480664206910638E-003   5.7125045974247494E-002
   3.4474648294584714E-002  -9.3146398981151703E-003   5.7711315837073965E-002
   3.2618879022338794E-002  -9.0361057690496460E-003   5.7410900754045854E-002
   3.9314841404377625E-002  -1.0808228082204788E-002   5.4386337274561894E-002
   3.6078232279281516E-002  -9.1518887241514787E-003   5.9260943941393127E-002
   3.2841623154185345E-002  -7.9325632036770198E-003   6.2260555848378259E-002
   2.9605014029089223E-002  -7.1502515207811741E-003   6.3385172995517242E-002
   2.6368404903993059E-002  -6.8049536754643397E-003   6.2634795382810124E-002
   4.1992801632269483E-002  -9.3368595180358116E-003   5.5834411908583015E-002
   3.6387042840331341E-002  -7.3673921115257612E-003   6.3141864043641860E-002
   3.0781284048393170E-002  -5.9170599866629342E-003   6.7586011604862967E-002
   2.5175525256455028E-002  -4.9858631434472507E-003   6.9166854592246155E-002
   1.9569766464516872E-002  -4.5738015818789224E-003   6.7884393005791521E-002
   4.3475334295638907E-002  -1.3498409956220370E-002   4.7040220479169170E-002
   4.2337120811557299E-002  -1.3354298400256176E-002   4.7659150755098856E-002
   4.1198907327475678E-002  -1.3021327620114945E-002   4.8344895946279887E-002
   4.0060693843394064E-002  -1.2499497615797262E-002   4.9097456052712471E-002
   3.8922480359312422E-002  -1.1788808387302618E-002   4.9916831074396151E-002
   3.8321188819554083E-002  -1.1267257862634994E-002   5.2212709119498851E-002
   3.7299166673360959E-002  -1.1131027334426044E-002   5.2488126699139395E-002
   3.6277144527167855E-002  -1.0873105625985563E-002   5.2929112039305712E-002
   3.5255122380974724E-002  -1.0493492737313641E-002   5.3535665139997655E-002
   3.4233100234781627E-002  -9.9921886684101735E-003   5.4307786001215164E-002
   3.2618879022338794E-002  -9.0361057690496460E-003   5.7410900754045854E-002
   3.1811801059308462E-002  -8.9077562685960926E-003   5.7275637593452028E-002
   3.1004723096278174E-002  -8.7248836318562298E-003   5.7404695038658173E-002
   3.0197645133247887E-002  -8.4874878588301287E-003   5.7798073089664267E-002
   2.9390567170217582E-002  -8.1955689495177564E-003   5.8455771746470320E-002
   2.6368404903993059E-002  -6.8049536754643397E-003   6.2634795382810124E-002
   2.5875023969399853E-002  -6.6844852027661897E-003   6.2021683438036594E-002
   2.5381643034806656E-002  -6.5766616377269001E-003   6.1771644944337532E-002
   2.4888262100213446E-002  -6.4814829803466175E-003   6.1884679901712536E-002
   2.4394881165620226E-002  -6.3989492306252976E-003   6.2360788310161938E-002
   1.9569766464516872E-002  -4.5738015818789224E-003   6.7884393005791521E-002
   1.9488835403635080E-002  -4.4612141369360370E-003   6.6726264232893129E-002
   1.9407904342753281E-002  -4.4284396435975287E-003   6.6029961756343458E-002
   1.9326973281871478E-002  -4.4754781018631097E-003   6.5795485576142301E-002
   1.9246042220989690E-002  -4.6023295117328944E-003   6.6022835692289561E-002
   3.8922480359312422E-002  -1.1788808387302618E-002   4.9916831074396151E-002
   3.6854184165028087E-002  -1.1019384007803390E-002   4.9229907456030786E-002
   3.4785887970743778E-002  -1.0321348550471010E-002   4.8744909231658168E-002
   3.2717591776459443E-002  -9.6947020153060476E-003   4.8461836401278158E-002
   3.0649295582175107E-002  -9.1394444023080168E-003   4.8380688964891283E-002
   3.4233100234781627E-002  -9.9921886684101735E-003   5.4307786001215164E-002
   3.2381636090696830E-002  -9.4406310973226271E-003   5.3436329550007988E-002
   3.0530171946612061E-002  -8.9102577020980650E-003   5.2796611805207061E-002
   2.8678707802527292E-002  -8.4010684827369418E-003   5.2388632766812659E-002
   2.6827243658442509E-002  -7.9130634392390320E-003   5.2212392434824340E-002
   2.9390567170217582E-002  -8.1955689495177564E-003   5.8455771746470320E-002
   2.7785748388745819E-002  -7.8618781868418919E-003   5.7449987208725309E-002
   2.6180929607274084E-002  -7.4991668537252310E-003   5.6705754689800172E-002
   2.4576110825802341E-002  -7.1074349501680026E-003   5.6223074189694799E-002
   2.2971292044330585E-002  -6.6866824761700749E-003   5.6001945708409259E-002
   2.4394881165620226E-002  -6.3989492306252976E-003   6.2360788310161938E-002
   2.3066521059174998E-002  -6.2831252763611983E-003   6.1270880432182956E-002
   2.1738160952729801E-002  -6.0880760053522859E-003   6.0472337885437509E-002
   2.0409800846284597E-002  -5.8138014175988691E-003   5.9965160669925230E-002
   1.9081440739839372E-002  -5.4603015131011040E-003   5.9749348785646195E-002
   1.9246042220989690E-002  -4.6023295117328944E-003   6.6022835692289561E-002
   1.8223954101984477E-002  -4.7043723658805325E-003   6.4899009220380999E-002
   1.7201865982979264E-002  -4.6769851569794380E-003   6.4096361392118939E-002
   1.6179777863974044E-002  -4.5201678850298986E-003   6.3614892207503673E-002
   1.5157689744968839E-002  -4.2339205500321886E-003   6.3454601666535104E-002
   3.0649295582175107E-002  -9.1394444023080168E-003   4.8380688964891283E-002
   2.9103053385382438E-002  -8.6049516820074223E-003   4.8377454433551237E-002
   2.7556811188589797E-002  -8.0405998249341443E-003   4.8530104616717334E-002
   2.6010568991797142E-002  -7.4463888310881514E-003   4.8838639514389479E-002
   2.4464326795004432E-002  -6.8223187004696761E-003   4.9303059126567850E-002
   2.6827243658442509E-002  -7.9130634392390320E-003   5.2212392434824340E-002
   2.5437752404153149E-002  -7.4276391138144993E-003   5.2199065379346654E-002
   2.4048261149863796E-002  -6.9261920486738959E-003   5.2343355494369387E-002
   2.2658769895574447E-002  -6.4087222438170416E-003   5.2645262779892774E-002
   2.1269278641285083E-002  -5.8752296992437003E-003   5.3104787235916662E-002
   2.2971292044330585E-002  -6.6866824761700749E-003   5.6001945708409259E-002
   2.1740284188538947E-002  -6.2503265456217150E-003   5.5964689731737571E-002
   2.0509276332747343E-002  -5.8117842724137656E-003   5.6086783381560708E-002
   1.9278268476955743E-002  -5.3710556565457670E-003   5.6368226657878967E-002
   1.8047260621164102E-002  -4.9281406980178355E-003   5.6809019560691898E-002
   1.9081440739839372E-002  -5.4603015131011040E-003   5.9749348785646195E-002
   1.8010648738539917E-002  -5.0730139774289723E-003   5.9674327490724030E-002
   1.6939856737240439E-002  -4.6973764961535207E-003   5.9760388278291325E-002
   1.5869064735940960E-002  -4.3333890692744638E-003   6.0007531148347774E-002
   1.4798272734641502E-002  -3.9810516967920817E-003   6.0415756100893836E-002
   1.5157689744968839E-002  -4.2339205500321886E-003   6.3454601666535104E-002
   1.4248846054155939E-002  -3.8957014092360076E-003   6.3327978656306183E-002
   1.3340002363343054E-002  -3.5829687198934840E-003   6.3364170184561003E-002
   1.2431158672530168E-002  -3.2957224820034069E-003   6.3563176251299633E-002
   1.1522314981717269E-002  -3.0339626955659948E-003   6.3924996856522198E-002
   2.4464326795004432E-002  -6.8223187004696761E-003   4.9303059126567850E-002
   2.2629524794982370E-002  -6.1848373698487058E-003   4.9025810801413938E-002
   2.0794722794960252E-002  -5.5503927759954497E-003   4.8906387830019826E-002
   1.8959920794938176E-002  -4.9189849189092416E-003   4.8944790212385458E-002
   1.7125118794916044E-002  -4.2906137985909698E-003   4.9141017948510779E-002
   2.1269278641285083E-002  -5.8752296992437003E-003   5.3104787235916662E-002
   1.9611209535373222E-002  -5.3333717322217589E-003   5.2818312268918921E-002
   1.7953140429461389E-002  -4.7908056600181603E-003   5.2727477736382117E-002
   1.6295071323549556E-002  -4.2475314826330851E-003   5.2832283638305902E-002
   1.4637002217637668E-002  -3.7035492000662140E-003   5.3132729974690707E-002
   1.8047260621164102E-002  -4.9281406980178355E-003   5.6809019560691898E-002
   1.6603739490063718E-002  -4.4819060945948397E-003   5.6517062793799422E-002
   1.5160218358963334E-002  -4.0312185440408710E-003   5.6458561542068825E-002
   1.3716697227862954E-002  -3.5760780463567066E-003   5.6633515805500301E-002
   1.2273176096762560E-002  -3.1164846015415693E-003   5.7041925584093989E-002
   1.4798272734641502E-002  -3.9810516967920817E-003   6.0415756100893836E-002
   1.3607114659053794E-002  -3.6304404569678511E-003   6.0122062376055330E-002
   1.2415956583466128E-002  -3.2716314280638037E-003   6.0099639247080214E-002
   1.1224798507878463E-002  -2.9046246100804390E-003   6.0348486713968474E-002
   1.0033640432290753E-002  -2.5294200030168135E-003   6.0868604776719834E-002
   1.1522314981717269E-002  -3.0339626955659948E-003   6.3924996856522198E-002
   1.0621335042343513E-002  -2.7789748193409181E-003   6.3633311015687144E-002
   9.7203551029697438E-003  -2.5120443120865976E-003   6.3650710851416492E-002
   8.8193751635959744E-003  -2.2331711738041923E-003   6.3977196363710520E-002
   7.9183952242222189E-003  -1.9423554044921687E-003   6.4612767552568839E-002
   1.7125118794916044E-002  -4.2906137985909698E-003   4.9141017948510779E-002
   1.5176150675565964E-002  -3.7218428405950132E-003   4.9022969448077602E-002
   1.3227182556215841E-002  -3.2692354704756954E-003   4.9161421682196338E-002
   1.1278214436865712E-002  -2.9327916882337240E-003   4.9556374650866736E-002
   9.3292463175155826E-003  -2.7125114938686412E-003   5.0207828354089212E-002
   1.4637002217637668E-002  -3.7035492000662140E-003   5.3132729974690707E-002
   1.2941611530322722E-002  -3.2166812723046778E-003   5.3020498426809670E-002
   1.1246220843007762E-002  -2.8447501593356073E-003   5.3158921008446908E-002
   9.5508301556928230E-003  -2.5877558611580587E-003   5.3547997719603016E-002
   7.8554394683778561E-003  -2.4456983777730867E-003   5.4187728560277204E-002
   1.2273176096762560E-002  -3.1164846015415693E-003   5.7041925584093989E-002
   1.0825516236449319E-002  -2.7115197040146477E-003   5.6936737761849820E-002
   9.3778563761361226E-003  -2.4202648481952138E-003   5.7076357464090566E-002
   7.9301965158228901E-003  -2.2427200340827333E-003   5.7460784690816391E-002
   6.4825366555096853E-003  -2.1788852616775323E-003   5.8090019442027130E-002
   1.0033640432290753E-002  -2.5294200030168135E-003   6.0868604776719834E-002
   8.8278647939458114E-003  -2.2063581357247980E-003   6.0771687453197776E-002
   7.6220891556008840E-003  -1.9957795370549730E-003   6.0913731049126944E-002
   6.4163135172559636E-003  -1.8976842070072379E-003   6.1294735564507402E-002
   5.2105378789110146E-003  -1.9120721455820888E-003   6.1914700999340072E-002
   7.9183952242222189E-003  -1.9423554044921687E-003   6.4612767552568839E-002
   6.9486572028121529E-003  -1.7011965674343377E-003   6.4525347500853369E-002
   5.9789191814020870E-003  -1.5712942259147045E-003   6.4671041763555703E-002
   5.0091811599920072E-003  -1.5526483799316246E-003   6.5049850340676507E-002
   4.0394431385819274E-003  -1.6452590294863123E-003   6.5661773232215337E-002
   9.3292463175155826E-003  -2.7125114938686412E-003   5.0207828354089212E-002
   7.8943437989031917E-003  -2.8523115914202979E-003   5.0598254542439824E-002
   6.4594412802907453E-003  -3.5961086849275459E-003   5.1314986685904396E-002
   5.0245387616783543E-003  -4.9439027743904684E-003   5.2358024784483204E-002
   3.5896362430659634E-003  -6.8956938598097040E-003   5.3727368838176526E-002
   7.8554394683778561E-003  -2.4456983777730867E-003   5.4187728560277204E-002
   6.7230415339116917E-003  -2.6176597098619969E-003   5.4096708507873126E-002
   5.5906435994455966E-003  -3.3027218581064555E-003   5.4284391668647403E-002
   4.4582456649794877E-003  -4.5008848225067469E-003   5.4750778042599868E-002
   3.3258477305133372E-003  -6.2121486030628503E-003   5.5495867629731022E-002
   6.4825366555096853E-003  -2.1788852616775323E-003   5.8090019442027130E-002
   5.6050405632538103E-003  -2.3830078283038070E-003   5.7608449328669042E-002
   4.7275444709979145E-003  -3.0093350312855871E-003   5.7357979686553151E-002
   3.8500483787420187E-003  -4.0578668706229143E-003   5.7338610515679511E-002
   2.9725522864861437E-003  -5.5286033463162187E-003   5.7550341816048289E-002
   5.2105378789110146E-003  -1.9120721455820888E-003   6.1914700999340072E-002
   4.5403408869293463E-003  -2.1483559467456725E-003   6.1133477004827776E-002
   3.8701438949477352E-003  -2.7159482044644967E-003   6.0535750739621794E-002
   3.1999469029660825E-003  -3.6148489187392482E-003   6.0121522203722209E-002
   2.5297499109844281E-003  -4.8450580895693651E-003   5.9890791397128482E-002
   4.0394431385819274E-003  -1.6452590294863123E-003   6.5661773232215337E-002
   3.5289425049384870E-003  -1.9137040651874271E-003   6.4671791536349055E-002
   3.0184418712950190E-003  -2.4225613776436561E-003   6.3817704827853483E-002
   2.5079412376515578E-003  -3.1718309668552006E-003   6.3099513106727595E-002
   1.9974406040081105E-003  -4.1615128328227335E-003   6.2517216372972140E-002
   3.5896362430659634E-003  -6.8956938598097040E-003   5.3727368838176526E-002
   4.1383233052290080E-003  -9.4704799517834060E-003   5.2007556535745403E-002
   4.6870103673921359E-003  -1.2687259060910339E-002   5.0144858480336008E-002
   5.2356974295552638E-003  -1.6546031187190988E-002   4.8139274671948507E-002
   5.7843844917183640E-003  -2.1046796330624673E-002   4.5990805110582844E-002
   3.3258477305133372E-003  -6.2121486030628503E-003   5.5495867629731022E-002
   3.7484850760592658E-003  -8.4683231597947328E-003   5.3094027555511514E-002
   4.1711224216052362E-003  -1.1301218452722750E-002   5.0582973801035769E-002
   4.5937597671511995E-003  -1.4710834481847498E-002   4.7962706366304897E-002
   5.0163971126970797E-003  -1.8697171247167521E-002   4.5233225251316567E-002
   2.9725522864861437E-003  -5.5286033463162187E-003   5.7550341816048289E-002
   3.3028119881370749E-003  -7.4661663678063372E-003   5.4531746250998103E-002
   3.6330716897879992E-003  -9.9151778445353000E-003   5.1437609078413993E-002
   3.9633313914389096E-003  -1.2875637776503572E-002   4.8267930298295236E-002
   4.2935910930898269E-003  -1.6347546163709925E-002   4.5022709910643388E-002
   2.5297499109844281E-003  -4.8450580895693651E-003   5.9890791397128482E-002
   2.8013040414624178E-003  -6.4640095758179139E-003   5.6320712622204880E-002
   3.0728581719404232E-003  -8.5291372363478918E-003   5.2708764312468660E-002
   3.3444123024184980E-003  -1.1040441071159753E-002   4.9054946467921551E-002
   3.6159664328963906E-003  -1.3997921080252662E-002   4.5359259088561199E-002
   1.9974406040081105E-003  -4.1615128328227335E-003   6.2517216372972140E-002
   2.2439612360353051E-003  -5.4618527838292685E-003   5.8460926669131941E-002
   2.4904818680625135E-003  -7.1430966281602060E-003   5.4396439503201721E-002
   2.7370025000897566E-003  -9.2052443658162536E-003   5.0323754875181870E-002
   2.9835231321169164E-003  -1.1648295996795177E-002   4.6242872785072553E-002
   4.1992801632269483E-002  -9.3368595180358116E-003   5.5834411908583015E-002
   3.6387042840331341E-002  -7.3673921115257612E-003   6.3141864043641860E-002
   3.0781284048393170E-002  -5.9170599866629342E-003   6.7586011604862967E-002
   2.5175525256455028E-002  -4.9858631434472507E-003   6.9166854592246155E-002
   1.9569766464516872E-002  -4.5738015818789224E-003   6.7884393005791521E-002
   4.1823787364614368E-002  -2.9162079574073241E-003   7.3917967198859957E-002
   3.4554180138979346E-002  -2.9190416683378406E-003   7.3066975127529354E-002
   2.7284572913344310E-002  -2.9204929388216283E-003   7.1751590762642675E-002
   2.0014965687709295E-002  -2.9205617688584790E-003   6.9971814104200267E-002
   1.2745358462074280E-002  -2.9192481584486840E-003   6.7727645152202004E-002
   3.2555749171028742E-002   3.5044436032211912E-003   8.9768962510649239E-002
   2.6021205791978891E-002   1.5293087748500522E-003   8.1280043955023029E-002
   1.9486662412929033E-002   7.6074109019712288E-005   7.4725645386122780E-002
   1.2952119033879161E-002  -8.5526039426973323E-004   7.0105766803948727E-002
   6.4175756548293002E-003  -1.2646947350184456E-003   6.7420408208500884E-002
   1.4188687051512675E-002   9.9250951638496926E-003  0.10338739784395108     
   1.0788119799330002E-002   5.9776592180380145E-003   8.7781070526123092E-002
   7.3875525471473070E-003   3.0726411568610910E-003   7.6508175475303433E-002
   3.9869852949646284E-003   1.2100409803190533E-003   6.9568712691491702E-002
   5.8641804278193686E-004   3.8985868841184823E-004   6.6962682174688273E-002
  -1.3277398993933862E-002   1.6345746724478194E-002  0.11477327319876529     
  -1.1145077838967350E-002   1.0426009661225921E-002   9.2570054840829696E-002
  -9.0127566840008319E-003   6.0692082047023310E-003   7.7099181030184261E-002
  -6.8804355290343171E-003   3.2753423549078328E-003   6.8360651766829122E-002
  -4.7481143740678022E-003   2.0444121118420311E-003   6.6354467050764088E-002
   1.9569766464516872E-002  -4.5738015818789224E-003   6.7884393005791521E-002
   1.9488835403635080E-002  -4.4612141369360370E-003   6.6726264232893129E-002
   1.9407904342753281E-002  -4.4284396435975287E-003   6.6029961756343458E-002
   1.9326973281871478E-002  -4.4754781018631097E-003   6.5795485576142301E-002
   1.9246042220989690E-002  -4.6023295117328944E-003   6.6022835692289561E-002
   1.2745358462074280E-002  -2.9192481584486840E-003   6.7727645152202004E-002
   1.3072949719843199E-002  -2.9324458315077573E-003   6.6957728617309031E-002
   1.3400540977612112E-002  -2.9760485119516705E-003   6.6543030423368940E-002
   1.3728132235381024E-002  -3.0500561997803023E-003   6.6483550570381689E-002
   1.4055723493149951E-002  -3.1544688949938227E-003   6.6779289058347374E-002
   6.4175756548293002E-003  -1.2646947350184456E-003   6.7420408208500884E-002
   7.0470812758532501E-003  -1.4036775260793527E-003   6.7088111855832563E-002
   7.6765868968772088E-003  -1.5236573803057499E-003   6.7004425888721547E-002
   8.3060925179011640E-003  -1.6246342976975487E-003   6.7169350307167724E-002
   8.9355981389251174E-003  -1.7066082782547509E-003   6.7582885111170957E-002
   5.8641804278193686E-004   3.8985868841184823E-004   6.6962682174688273E-002
   1.4112300716652539E-003   1.2509077934898943E-004   6.7117413948464100E-002
   2.2360421005485714E-003  -7.1266248659888204E-005   6.7414148152401362E-002
   3.0608541294318888E-003  -1.9921239561479596E-004   6.7852884786500187E-002
   3.8856661583152059E-003  -2.5874766151565143E-004   6.8433623850760378E-002
  -4.7481143740678022E-003   2.0444121118420311E-003   6.6354467050764088E-002
  -3.8346038927208025E-003   1.6538590847773593E-003   6.7045634895203293E-002
  -2.9210934113737992E-003   1.3811248829861678E-003   6.7772197214408358E-002
  -2.0075829300267994E-003   1.2262095064679915E-003   6.8534154008379311E-002
  -1.0940724486797962E-003   1.1891129552233926E-003   6.9331505277116012E-002
   1.9246042220989690E-002  -4.6023295117328944E-003   6.6022835692289561E-002
   1.8223954101984477E-002  -4.7043723658805325E-003   6.4899009220380999E-002
   1.7201865982979264E-002  -4.6769851569794380E-003   6.4096361392118939E-002
   1.6179777863974044E-002  -4.5201678850298986E-003   6.3614892207503673E-002
   1.5157689744968839E-002  -4.2339205500321886E-003   6.3454601666535104E-002
   1.4055723493149951E-002  -3.1544688949938227E-003   6.6779289058347374E-002
   1.3344729582775640E-002  -3.2307603769673177E-003   6.5823610273494260E-002
   1.2633735672401326E-002  -3.2204044250760261E-003   6.5168941262256294E-002
   1.1922741762027010E-002  -3.1234010393197224E-003   6.4815282024633297E-002
   1.1211747851652701E-002  -2.9397502196987779E-003   6.4762632560625533E-002
   8.9355981389251174E-003  -1.7066082782547509E-003   6.7582885111170957E-002
   8.5155295671500049E-003  -1.7571483880540889E-003   6.6752571384189899E-002
   8.0954609953748820E-003  -1.7638236931723436E-003   6.6203098560792151E-002
   7.6753924235997677E-003  -1.7266341936094925E-003   6.5934466640977810E-002
   7.2553238518246466E-003  -1.6455798893656726E-003   6.5946675624746723E-002
   3.8856661583152059E-003  -2.5874766151565143E-004   6.8433623850760378E-002
   3.7363540551075755E-003  -2.8353639914103362E-004   6.7685892552467791E-002
   3.5870419518999460E-003  -3.0724296126882419E-004   6.7198833287726661E-002
   3.4377298486923170E-003  -3.2986734789923391E-004   6.6972446056537141E-002
   3.2884177454846862E-003  -3.5140955903230353E-004   6.7006730858899272E-002
  -1.0940724486797962E-003   1.1891129552233926E-003   6.9331505277116012E-002
  -9.9279695335164481E-004   1.1900755897723270E-003   6.8623573778327895E-002
  -8.9152145802349342E-004   1.1493377706347507E-003   6.8156145443059590E-002
  -7.9024596269533683E-004   1.0668994978109969E-003   6.7929220271311347E-002
  -6.8897046736719064E-004   9.4276077130073244E-004   6.7942798263082915E-002
   1.5157689744968839E-002  -4.2339205500321886E-003   6.3454601666535104E-002
   1.4248846054155939E-002  -3.8957014092360076E-003   6.3327978656306183E-002
   1.3340002363343054E-002  -3.5829687198934840E-003   6.3364170184561003E-002
   1.2431158672530168E-002  -3.2957224820034069E-003   6.3563176251299633E-002
   1.1522314981717269E-002  -3.0339626955659948E-003   6.3924996856522198E-002
   1.1211747851652701E-002  -2.9397502196987779E-003   6.4762632560625533E-002
   1.0475027168125803E-002  -2.7188944809027893E-003   6.4615973889202982E-002
   9.7383064845988979E-003  -2.5102763376213116E-003   6.4650746693868805E-002
   9.0015858010719929E-003  -2.3138957898545982E-003   6.4866950974622917E-002
   8.2648651175450949E-003  -2.1297528376021946E-003   6.5264586731465124E-002
   7.2553238518246466E-003  -1.6455798893656726E-003   6.5946675624746723E-002
   6.7093431131881494E-003  -1.5420875525692379E-003   6.5793230148069246E-002
   6.1633623745516522E-003  -1.4375839553492573E-003   6.5839833085084343E-002
   5.6173816359151481E-003  -1.3320690977055693E-003   6.6086484435792098E-002
   5.0714008972786440E-003  -1.2255429796385053E-003   6.6533184200192219E-002
   3.2884177454846862E-003  -3.5140955903230353E-004   6.7006730858899272E-002
   2.9517938893429980E-003  -3.6528062423579755E-004   6.6859747432904890E-002
   2.6151700332013011E-003  -3.6489157307731043E-004   6.6931429358207492E-002
   2.2785461770596128E-003  -3.5024240555692806E-004   6.7221776634806982E-002
   1.9419223209179159E-003  -3.2133312167459405E-004   6.7730789262703650E-002
  -6.8897046736719064E-004   9.4276077130073244E-004   6.7942798263082915E-002
  -7.9762050340966006E-004   8.1152630409775384E-004   6.7815525743709804E-002
  -9.0627053945213643E-004   7.0780080919502497E-004   6.7925535513238211E-002
  -1.0149205754946128E-003   6.3158428659206012E-004   6.8272827571667916E-002
  -1.1235706115370822E-003   5.8287673628909520E-004   6.8857401918999028E-002
   1.1522314981717269E-002  -3.0339626955659948E-003   6.3924996856522198E-002
   1.0621335042343513E-002  -2.7789748193409181E-003   6.3633311015687144E-002
   9.7203551029697438E-003  -2.5120443120865976E-003   6.3650710851416492E-002
   8.8193751635959744E-003  -2.2331711738041923E-003   6.3977196363710520E-002
   7.9183952242222189E-003  -1.9423554044921687E-003   6.4612767552568839E-002
   8.2648651175450949E-003  -2.1297528376021946E-003   6.5264586731465124E-002
   7.6604904870652482E-003  -1.9477708133596172E-003   6.5034335352127381E-002
   7.0561158565854015E-003  -1.7578730496215500E-003   6.5088208914012707E-002
   6.4517412261055583E-003  -1.5600595463877015E-003   6.5426207417121532E-002
   5.8473665956257082E-003  -1.3543303036585019E-003   6.6048330861453564E-002
   5.0714008972786440E-003  -1.2255429796385053E-003   6.6533184200192219E-002
   4.7386708403514728E-003  -1.1165668073783441E-003   6.6360340390818340E-002
   4.4059407834242982E-003  -1.0037017871558501E-003   6.6446660787326514E-002
   4.0732107264971236E-003  -8.8694791897138067E-004   6.6792145389716534E-002
   3.7404806695699525E-003  -7.6630520282483516E-004   6.7396794197988774E-002
   1.9419223209179159E-003  -3.2133312167459405E-004   6.7730789262703650E-002
   1.8558761022021688E-003  -2.8536280139705716E-004   6.7611326131760199E-002
   1.7698298834864208E-003  -2.4953052469047637E-004   6.7726066471357677E-002
   1.6837836647706763E-003  -2.1383629155530791E-004   6.8075010281495804E-002
   1.5977374460549258E-003  -1.7828010199116839E-004   6.8658157562175137E-002
  -1.1235706115370822E-003   5.8287673628909520E-004   6.8857401918999028E-002
  -9.8789372738265768E-004   5.4584120458422980E-004   6.8787292574952974E-002
  -8.5221684322821928E-004   5.0464073777514717E-004   6.8926425966106264E-002
  -7.1653995907378781E-004   4.5927533586116037E-004   6.9274802092459342E-002
  -5.8086307491935635E-004   4.0974499884249838E-004   6.9832420954011765E-002
   7.9183952242222189E-003  -1.9423554044921687E-003   6.4612767552568839E-002
   6.9486572028121529E-003  -1.7011965674343377E-003   6.4525347500853369E-002
   5.9789191814020870E-003  -1.5712942259147045E-003   6.4671041763555703E-002
   5.0091811599920072E-003  -1.5526483799316246E-003   6.5049850340676507E-002
   4.0394431385819274E-003  -1.6452590294863123E-003   6.5661773232215337E-002
   5.8473665956257082E-003  -1.3543303036585019E-003   6.6048330861453564E-002
   5.1193199265666400E-003  -1.1862547233493226E-003   6.5836390770274922E-002
   4.3912732575075650E-003  -1.1014022073763952E-003   6.5874719069380167E-002
   3.6632265884484969E-003  -1.0997727557397127E-003   6.6163315758768923E-002
   2.9351799193894218E-003  -1.1813663684384634E-003   6.6702180838441927E-002
   3.7404806695699525E-003  -7.6630520282483516E-004   6.7396794197988774E-002
   3.2712794287275797E-003  -6.7131287926427974E-004   6.7088367498548379E-002
   2.8020781878852173E-003  -6.3151018883865484E-004   6.7047363265257634E-002
   2.3328769470428549E-003  -6.4689713154736025E-004   6.7273781498116414E-002
   1.8636757062004822E-003  -7.1747370739067007E-004   6.7767622197124594E-002
   1.5977374460549258E-003  -1.7828010199116839E-004   6.8658157562175137E-002
   1.4045357092949849E-003  -1.5637103517908424E-004   6.8281277685674324E-002
   1.2113339725350501E-003  -1.6161817030057452E-004   6.8188974351188869E-002
   1.0181322357751127E-003  -1.9402150735517258E-004   6.8381247558718841E-002
   8.2493049901517443E-004  -2.5358104634295997E-004   6.8858097308264171E-002
  -5.8086307491935635E-004   4.0974499884249838E-004   6.9832420954011765E-002
  -4.8091123173115563E-004   3.5857080890588922E-004   6.9415121331652285E-002
  -3.8095938854295491E-004   3.0827384823728377E-004   6.9299552327173664E-002
  -2.8100754535475767E-004   2.5885411683704285E-004   6.9485713940576094E-002
  -1.8105570216655348E-004   2.1031161470497217E-004   6.9973606171859548E-002
   4.0394431385819274E-003  -1.6452590294863123E-003   6.5661773232215337E-002
   3.5289425049384870E-003  -1.9137040651874271E-003   6.4671791536349055E-002
   3.0184418712950190E-003  -2.4225613776436561E-003   6.3817704827853483E-002
   2.5079412376515578E-003  -3.1718309668552006E-003   6.3099513106727595E-002
   1.9974406040081105E-003  -4.1615128328227335E-003   6.2517216372972140E-002
   2.9351799193894218E-003  -1.1813663684384634E-003   6.6702180838441927E-002
   2.5601019261696223E-003  -1.3928385062447757E-003   6.5536012670316057E-002
   2.1850239329498297E-003  -1.7808446299296399E-003   6.4504794795667009E-002
   1.8099459397300198E-003  -2.3453847394924107E-003   6.3608527214495225E-002
   1.4348679465102238E-003  -3.0864588349344135E-003   6.2847209926800707E-002
   1.8636757062004822E-003  -7.1747370739067007E-004   6.7767622197124594E-002
   1.6230756595113152E-003  -8.7197294730217978E-004   6.6489145847615894E-002
   1.3824756128221309E-003  -1.1391278822152767E-003   6.5344675097690999E-002
   1.1418755661329587E-003  -1.5189385121298395E-003   6.4334209947350479E-002
   9.0127551944377965E-004  -2.0114048370463156E-003   6.3457750396593904E-002
   8.2493049901517443E-004  -2.5358104634295997E-004   6.8858097308264171E-002
   7.1786370496356409E-004  -3.5110738835944511E-004   6.7531191068249091E-002
   6.1079691091195983E-004  -4.9741113450103153E-004   6.6337345733925204E-002
   5.0373011686033866E-004  -6.9249228476726994E-004   6.5276561305292136E-002
   3.9666332280874524E-004  -9.3635083915799555E-004   6.4348837782350440E-002
  -1.8105570216655348E-004   2.1031161470497217E-004   6.9973606171859548E-002
  -1.5553393747363281E-004   1.6975817058306752E-004   6.8662148332215511E-002
  -1.3001217278071214E-004   1.4430561321299162E-004   6.7482806704369125E-002
  -1.0449040808779321E-004   1.3395394259549387E-004   6.6435581288321000E-002
  -7.8968643394870808E-005   1.3870315872988037E-004   6.5520472084070747E-002
   1.9974406040081105E-003  -4.1615128328227335E-003   6.2517216372972140E-002
   2.2439612360353051E-003  -5.4618527838292685E-003   5.8460926669131941E-002
   2.4904818680625135E-003  -7.1430966281602060E-003   5.4396439503201721E-002
   2.7370025000897566E-003  -9.2052443658162536E-003   5.0323754875181870E-002
   2.9835231321169164E-003  -1.1648295996795177E-002   4.6242872785072553E-002
   1.4348679465102238E-003  -3.0864588349344135E-003   6.2847209926800707E-002
   1.6602088456760394E-003  -4.0579781897305267E-003   5.8474287969543681E-002
   1.8855497448418412E-003  -5.3138540773554621E-003   5.4067204008653003E-002
   2.1108906440076430E-003  -6.8540864978110100E-003   4.9625958044129281E-002
   2.3362315431734448E-003  -8.6786754510956854E-003   4.5150550075973239E-002
   9.0127551944377965E-004  -2.0114048370463156E-003   6.3457750396593904E-002
   1.0794721442048613E-003  -2.6541035956308967E-003   5.8864743546413578E-002
   1.2576687689659742E-003  -3.4846115265509681E-003   5.4211610151057216E-002
   1.4358653937270646E-003  -4.5029286298057733E-003   4.9498350210524081E-002
   1.6140620184881688E-003  -5.7090549053961936E-003   4.4724963724814826E-002
   3.9666332280874524E-004  -9.3635083915799555E-004   6.4348837782350440E-002
   5.0175113162180887E-004  -1.2502290015317108E-003   5.9632293399742090E-002
   6.0683894043486643E-004  -1.6553689757459050E-003   5.4829657930414048E-002
   7.1192674924793571E-004  -2.1517707618008662E-003   4.9940931374366088E-002
   8.1701455806098763E-004  -2.7394343596965909E-003   4.4966113731598784E-002
  -7.8968643394870808E-005   1.3870315872988037E-004   6.5520472084070747E-002
  -7.2954192073142188E-005   1.5364559256736410E-004   6.0776937529528841E-002
  -6.6939740751420507E-005   1.7387357505832535E-004   5.5921347346723715E-002
  -6.0925289429702295E-005   1.9938710620427680E-004   5.0953701535655427E-002
  -5.4910838107977145E-005   2.3018618600278984E-004   4.5874000096324696E-002
  -1.3277398993933862E-002   1.6345746724478194E-002  0.11477327319876529     
  -1.1145077838967350E-002   1.0426009661225921E-002   9.2570054840829696E-002
  -9.0127566840008319E-003   6.0692082047023310E-003   7.7099181030184261E-002
  -6.8804355290343171E-003   3.2753423549078328E-003   6.8360651766829122E-002
  -4.7481143740678022E-003   2.0444121118420311E-003   6.6354467050764088E-002
  -3.8188186890278294E-002   7.0080297686199167E-003   7.4896476639492282E-002
  -3.1036367793336437E-002   4.5375344605677603E-003   6.6317471388820576E-002
  -2.3884548696394538E-002   2.7589825226747577E-003   6.1045117474809424E-002
  -1.6732729599452659E-002   1.6723739549411379E-003   5.9079414897458701E-002
  -9.5809105025107810E-003   1.2777087573668522E-003   6.0420363656768589E-002
  -4.8889354562488080E-002  -2.3296871872383051E-003   3.8904417953704307E-002
  -4.0143730734200543E-002  -1.3509407400904283E-003   4.3078633573726821E-002
  -3.1398106905912979E-002  -5.5124315935285717E-004   4.7133807319780244E-002
  -2.2652483077625424E-002   6.9405554974446421E-005   5.1069939191864457E-002
  -1.3906859249337876E-002   5.1100540289156227E-004   5.4887029189979605E-002
  -4.5380902010563176E-002  -1.1667404143096555E-002   6.7970971414009693E-003
  -3.8467166661559672E-002  -7.2394159407486031E-003   2.2853541395548398E-002
  -3.1553431312556120E-002  -3.8614688413804513E-003   3.5365250565096845E-002
  -2.4639695963552588E-002  -1.5335628449921635E-003   4.4332224650046520E-002
  -1.7725960614549074E-002  -2.5569795158375541E-004   4.9754463650397242E-002
  -2.7662829234503611E-002  -2.1005121098954804E-002  -2.1425485797417321E-002
  -2.6006675575413814E-002  -1.3127891141406750E-002   5.6421948542851874E-003
  -2.4350521916323992E-002  -7.1716945234081009E-003   2.5739447210759214E-002
  -2.2694368257234185E-002  -3.1365312449589539E-003   3.8866271272004621E-002
  -2.1038214598144374E-002  -1.0224013060589621E-003   4.5022667038021491E-002
  -4.7481143740678022E-003   2.0444121118420311E-003   6.6354467050764088E-002
  -3.8346038927208025E-003   1.6538590847773593E-003   6.7045634895203293E-002
  -2.9210934113737992E-003   1.3811248829861678E-003   6.7772197214408358E-002
  -2.0075829300267994E-003   1.2262095064679915E-003   6.8534154008379311E-002
  -1.0940724486797962E-003   1.1891129552233926E-003   6.9331505277116012E-002
  -9.5809105025107810E-003   1.2777087573668522E-003   6.0420363656768589E-002
  -8.6655069942965512E-003   1.2446204243418968E-003   6.1659392027031468E-002
  -7.7501034860823284E-003   1.2427424502565107E-003   6.2866811976262968E-002
  -6.8346999778681038E-003   1.2720748351106436E-003   6.4042623504463131E-002
  -5.9192964696538827E-003   1.3326175789044048E-003   6.5186826611631860E-002
  -1.3906859249337876E-002   5.1100540289156227E-004   5.4887029189979605E-002
  -1.3056565610053663E-002   8.3538176390630936E-004   5.6587309619732455E-002
  -1.2206271970769452E-002   1.1043600175268536E-003   5.8188978732656688E-002
  -1.1355978331485240E-002   1.3179401637531847E-003   5.9692036528752275E-002
  -1.0505684692201029E-002   1.4761222025854170E-003   6.1096483008019314E-002
  -1.7725960614549074E-002  -2.5569795158375541E-004   4.9754463650397242E-002
  -1.7007779739992117E-002   4.2614310347081213E-004   5.1829387673306318E-002
  -1.6289598865435156E-002   9.6597758479736312E-004   5.3738697483589462E-002
  -1.5571417990878196E-002   1.3638054923958091E-003   5.5482393081246639E-002
  -1.4853237116321237E-002   1.6196268262663738E-003   5.7060474466278155E-002
  -2.1038214598144374E-002  -1.0224013060589621E-003   4.5022667038021491E-002
  -2.0519149384111909E-002   1.6904443035287153E-005   4.7385626187752966E-002
  -2.0000084170079452E-002   8.2759515206769219E-004   4.9515968229061263E-002
  -1.9481018956046998E-002   1.4096708210383328E-003   5.1413693161946439E-002
  -1.8961953742014537E-002   1.7631314499474415E-003   5.3078800986408547E-002
  -1.0940724486797962E-003   1.1891129552233926E-003   6.9331505277116012E-002
  -9.9279695335164481E-004   1.1900755897723270E-003   6.8623573778327895E-002
  -8.9152145802349342E-004   1.1493377706347507E-003   6.8156145443059590E-002
  -7.9024596269533683E-004   1.0668994978109969E-003   6.7929220271311347E-002
  -6.8897046736719064E-004   9.4276077130073244E-004   6.7942798263082915E-002
  -5.9192964696538827E-003   1.3326175789044048E-003   6.5186826611631860E-002
  -5.5798009754076550E-003   1.3810762047361813E-003   6.4666908222393876E-002
  -5.2403054811614273E-003   1.3741562357042769E-003   6.4382926667472126E-002
  -4.9008099869151979E-003   1.3118576718088373E-003   6.4334881946866512E-002
  -4.5613144926689719E-003   1.1941805130498140E-003   6.4522774060577048E-002
  -1.0505684692201029E-002   1.4761222025854170E-003   6.1096483008019314E-002
  -9.9325355282404368E-003   1.5720768197000495E-003   6.0750899587154072E-002
  -9.3593863642798363E-003   1.5989747007737476E-003   6.0636686671401416E-002
  -8.7862372003192479E-003   1.5568158458067333E-003   6.0753844260761233E-002
  -8.2130880363586456E-003   1.4456002547987290E-003   6.1102372355233664E-002
  -1.4853237116321237E-002   1.6196268262663738E-003   5.7060474466278155E-002
  -1.4051000611849997E-002   1.7630774346638553E-003   5.6875547872608533E-002
  -1.3248764107378743E-002   1.8237931658432460E-003   5.6917425454847806E-002
  -1.2446527602907487E-002   1.8017740198046014E-003   5.7186107212995822E-002
  -1.1644291098436246E-002   1.6970199965477273E-003   5.7681593147052693E-002
  -1.8961953742014537E-002   1.7631314499474415E-003   5.3078800986408547E-002
  -1.7935196226236329E-002   1.9540780496278276E-003   5.3040853078757277E-002
  -1.6908438710458124E-002   2.0486116309127445E-003   5.3225143017811144E-002
  -1.5881681194679913E-002   2.0467321938025251E-003   5.3631670803570092E-002
  -1.4854923678901712E-002   1.9484397382966145E-003   5.4260436436034176E-002
  -6.8897046736719064E-004   9.4276077130073244E-004   6.7942798263082915E-002
  -7.9762050340966006E-004   8.1152630409775384E-004   6.7815525743709804E-002
  -9.0627053945213643E-004   7.0780080919502497E-004   6.7925535513238211E-002
  -1.0149205754946128E-003   6.3158428659206012E-004   6.8272827571667916E-002
  -1.1235706115370822E-003   5.8287673628909520E-004   6.8857401918999028E-002
  -4.5613144926689719E-003   1.1941805130498140E-003   6.4522774060577048E-002
  -4.4345389861454275E-003   1.0713250969117682E-003   6.4650480802683707E-002
  -4.3077634796218726E-003   9.9349176087941415E-004   6.5011756341020716E-002
  -4.1809879730983265E-003   9.6068050495283150E-004   6.5606600675588239E-002
  -4.0542124665747803E-003   9.7289132913158660E-004   6.6435013806386722E-002
  -8.2130880363586456E-003   1.4456002547987290E-003   6.1102372355233664E-002
  -7.8546004799398914E-003   1.3311238897260047E-003   6.1502571466625175E-002
  -7.4961129235211303E-003   1.2791827125641364E-003   6.2132625881576545E-002
  -7.1376253671023727E-003   1.2897767233135474E-003   6.2992535600087773E-002
  -6.7791378106836012E-003   1.3629059219740225E-003   6.4082300622158778E-002
  -1.1644291098436246E-002   1.6970199965477273E-003   5.7681593147052693E-002
  -1.1057804984793062E-002   1.5909226825399636E-003   5.8371797735534761E-002
  -1.0471318871149885E-002   1.5648736642490252E-003   5.9288144134905747E-002
  -9.8848327575067098E-003   1.6188729416744020E-003   6.0430632345165811E-002
  -9.2983466438635327E-003   1.7529205148164861E-003   6.1799262366314896E-002
  -1.4854923678901712E-002   1.9484397382966145E-003   5.4260436436034176E-002
  -1.4044152500704919E-002   1.8507214753542556E-003   5.5258159609412161E-002
  -1.3233381322508144E-002   1.8505646159335531E-003   5.6478311101008427E-002
  -1.2422610144311374E-002   1.9479691600352220E-003   5.7920890910822920E-002
  -1.1611838966114583E-002   2.1429351076588388E-003   5.9585899038855583E-002
  -1.1235706115370822E-003   5.8287673628909520E-004   6.8857401918999028E-002
  -9.8789372738265768E-004   5.4584120458422980E-004   6.8787292574952974E-002
  -8.5221684322821928E-004   5.0464073777514717E-004   6.8926425966106264E-002
  -7.1653995907378781E-004   4.5927533586116037E-004   6.9274802092459342E-002
  -5.8086307491935635E-004   4.0974499884249838E-004   6.9832420954011765E-002
  -4.0542124665747803E-003   9.7289132913158660E-004   6.6435013806386722E-002
  -3.7141878287820992E-003   9.8804938492169647E-004   6.6544079715714244E-002
  -3.3741631909894182E-003   9.6407982382815116E-004   6.6852598397118657E-002
  -3.0341385531967528E-003   9.0098264585166538E-004   6.7360569850599850E-002
  -2.6941139154040700E-003   7.9875785099159380E-004   6.8067994076158211E-002
  -6.7791378106836012E-003   1.3629059219740225E-003   6.4082300622158778E-002
  -6.2445553823752969E-003   1.4302575652590521E-003   6.4335579103081020E-002
  -5.7099729540669919E-003   1.4235189098816964E-003   6.4778520392957520E-002
  -5.1753905257586798E-003   1.3426899558422779E-003   6.5411124491788403E-002
  -4.6408080974503826E-003   1.1877707031406892E-003   6.6233391399573516E-002
  -9.2983466438635327E-003   1.7529205148164861E-003   6.1799262366314896E-002
  -8.5789963881622230E-003   1.8724657455961857E-003   6.2161790737053267E-002
  -7.8596461324609030E-003   1.8829579959350820E-003   6.2704191953623228E-002
  -7.1402958767596012E-003   1.7843972658331143E-003   6.3426466016024946E-002
  -6.4209456210582733E-003   1.5767835552897291E-003   6.4328612924258427E-002
  -1.1611838966114583E-002   2.1429351076588388E-003   5.9585899038855583E-002
  -1.0717510846142891E-002   2.3146739259336524E-003   6.0022714617630979E-002
  -9.8231827261711889E-003   2.3423970819885787E-003   6.0629613079115519E-002
  -8.9288546061994933E-003   2.2261045758233677E-003   6.1406594423309202E-002
  -8.0345264862277943E-003   1.9657964074388801E-003   6.2353658650211807E-002
  -5.8086307491935635E-004   4.0974499884249838E-004   6.9832420954011765E-002
  -4.8091123173115563E-004   3.5857080890588922E-004   6.9415121331652285E-002
  -3.8095938854295491E-004   3.0827384823728377E-004   6.9299552327173664E-002
  -2.8100754535475767E-004   2.5885411683704285E-004   6.9485713940576094E-002
  -1.8105570216655348E-004   2.1031161470497217E-004   6.9973606171859548E-002
  -2.6941139154040700E-003   7.9875785099159380E-004   6.8067994076158211E-002
  -2.3140429787076866E-003   6.9434706900173282E-004   6.7813456023810170E-002
  -1.9339720420113136E-003   6.2469192963507392E-004   6.7817425540597442E-002
  -1.5539011053149338E-003   5.8979243289241506E-004   6.8079902626519917E-002
  -1.1738301686185573E-003   5.8964857877275012E-004   6.8600887281577982E-002
  -4.6408080974503826E-003   1.1877707031406892E-003   6.6233391399573516E-002
  -4.0238411159914545E-003   1.0301233290974099E-003   6.6175493330592333E-002
  -3.4068741345325334E-003   9.4111001103297509E-004   6.6332879782000642E-002
  -2.7899071530736131E-003   9.2073074894723217E-004   6.6705550753798651E-002
  -2.1729401716146981E-003   9.6898554284052807E-004   6.7293506245986678E-002
  -6.4209456210582733E-003   1.5767835552897291E-003   6.4328612924258427E-002
  -5.6103056435824472E-003   1.3658995891930592E-003   6.4501233251998996E-002
  -4.7996656661066298E-003   1.2575280924308763E-003   6.4845915051383748E-002
  -3.9890256886308140E-003   1.2516690650024379E-003   6.5362658322412670E-002
  -3.1783857111549857E-003   1.3483225069084170E-003   6.6051463065085622E-002
  -8.0345264862277943E-003   1.9657964074388801E-003   6.2353658650211807E-002
  -7.0734365614806977E-003   1.7016758492890416E-003   6.2790675788029882E-002
  -6.1123466367336010E-003   1.5739461738287497E-003   6.3356531348746414E-002
  -5.1512567119864992E-003   1.5826073810576088E-003   6.4051225332361378E-002
  -4.1901667872394077E-003   1.7276594709761950E-003   6.4874757738874744E-002
  -1.8105570216655348E-004   2.1031161470497217E-004   6.9973606171859548E-002
  -1.5553393747363281E-004   1.6975817058306752E-004   6.8662148332215511E-002
  -1.3001217278071214E-004   1.4430561321299162E-004   6.7482806704369125E-002
  -1.0449040808779321E-004   1.3395394259549387E-004   6.6435581288321000E-002
  -7.8968643394870808E-005   1.3870315872988037E-004   6.5520472084070747E-002
  -1.1738301686185573E-003   5.8964857877275012E-004   6.8600887281577982E-002
  -1.0178800768952320E-003   6.4047291749314006E-004   6.7322546835526020E-002
  -8.6192998517192060E-004   7.5847799926900827E-004   6.6172946831736801E-002
  -7.0597989344860571E-004   9.4366382410086130E-004   6.5152087270210324E-002
  -5.5002980172528387E-004   1.1960303919883453E-003   6.4259968150946811E-002
  -2.1729401716146981E-003   9.6898554284052807E-004   6.7293506245986678E-002
  -1.8899375223962048E-003   1.1111876644028795E-003   6.6100363049830607E-002
  -1.6069348731777176E-003   1.3726503853248029E-003   6.5032584526401982E-002
  -1.3239322239592317E-003   1.7533737056056736E-003   6.4090170675701122E-002
  -1.0409295747407510E-003   2.2533576252464771E-003   6.3273121497727680E-002
  -3.1783857111549857E-003   1.3483225069084170E-003   6.6051463065085622E-002
  -2.7717062739765416E-003   1.5819024113127300E-003   6.4995596975129050E-002
  -2.3650268367981188E-003   1.9868227713802644E-003   6.4061719788364682E-002
  -1.9583473996196781E-003   2.5630835871106525E-003   6.3249831504792714E-002
  -1.5516679624412513E-003   3.3106848585046644E-003   6.2559932124413090E-002
  -4.1901667872394077E-003   1.7276594709761950E-003   6.4874757738874744E-002
  -3.6631863316362451E-003   2.0526171582228026E-003   6.4008248611421403E-002
  -3.1362058760330928E-003   2.6009951574363088E-003   6.3260352617625193E-002
  -2.6092254204299354E-003   3.3727934686158881E-003   6.2631069757486030E-002
  -2.0822449648267780E-003   4.3680120917628518E-003   6.2120400031003831E-002
  -7.8968643394870808E-005   1.3870315872988037E-004   6.5520472084070747E-002
  -7.2954192073142188E-005   1.5364559256736410E-004   6.0776937529528841E-002
  -6.6939740751420507E-005   1.7387357505832535E-004   5.5921347346723715E-002
  -6.0925289429702295E-005   1.9938710620427680E-004   5.0953701535655427E-002
  -5.4910838107977145E-005   2.3018618600278984E-004   4.5874000096324696E-002
  -5.5002980172528387E-004   1.1960303919883453E-003   6.4259968150946811E-002
  -6.4391696645495558E-004   1.5340698919050211E-003   5.9563474328759081E-002
  -7.3780413118462035E-004   1.9762745128229509E-003   5.4779232902731512E-002
  -8.3169129591427644E-004   2.5226442547434252E-003   4.9907243872864521E-002
  -9.2557846064395682E-004   3.1731791176650148E-003   4.4947507239157192E-002
  -1.0409295747407510E-003   2.2533576252464771E-003   6.3273121497727680E-002
  -1.2104103310985690E-003   2.9144941912419564E-003   5.8722547980242457E-002
  -1.3798910874563888E-003   3.7786754505868825E-003   5.4108534883340498E-002
  -1.5493718438142094E-003   4.8459014032822337E-003   4.9431082207021831E-002
  -1.7188526001720265E-003   6.1161720493270177E-003   4.4690189951287373E-002
  -1.5516679624412513E-003   3.3106848585046644E-003   6.2559932124413090E-002
  -1.7724342860039985E-003   4.2949184905789195E-003   5.8254158483978510E-002
  -1.9932006095667392E-003   5.5810763883510500E-003   5.3909253288550223E-002
  -2.2139669331294803E-003   7.1691585518211011E-003   4.9525216538128441E-002
  -2.4347332566922271E-003   9.0591649809891317E-003   4.5102048232713909E-002
  -2.0822449648267780E-003   4.3680120917628518E-003   6.2120400031003831E-002
  -2.3299888311712202E-003   5.6753427899163267E-003   5.8158305839967395E-002
  -2.5777326975156521E-003   7.3834773261152176E-003   5.4181388118361040E-002
  -2.8254765638600684E-003   9.4924157003603571E-003   5.0189646866184934E-002
  -3.0732204302045263E-003   1.2002157912651246E-002   4.6183082083437910E-002
  -2.7662829234503611E-002  -2.1005121098954804E-002  -2.1425485797417321E-002
  -2.6006675575413814E-002  -1.3127891141406750E-002   5.6421948542851874E-003
  -2.4350521916323992E-002  -7.1716945234081009E-003   2.5739447210759214E-002
  -2.2694368257234185E-002  -3.1365312449589539E-003   3.8866271272004621E-002
  -2.1038214598144374E-002  -1.0224013060589621E-003   4.5022667038021491E-002
  -1.0989202088359946E-002  -5.9972916580426916E-003   2.1403507937432897E-002
  -1.4343487217954174E-002  -2.4738983048158969E-003   3.2763965471313744E-002
  -1.7697772347548355E-002   2.3312610716087756E-004   4.1073973723055213E-002
  -2.1052057477142557E-002   2.1237815778875520E-003   4.6333532692657095E-002
  -2.4406342606736731E-002   3.1980681073643935E-003   4.8542642380119655E-002
  -1.0614086426182938E-002   9.0105377828694766E-003   5.9326332868812004E-002
  -1.5058831331371961E-002   8.1800945317749285E-003   5.6084231683170602E-002
  -1.9503576236561040E-002   7.6379467377298005E-003   5.3711660228478883E-002
  -2.3948321141750120E-002   7.3840944007341133E-003   5.2208618504736876E-002
  -2.8393066046939169E-002   7.4185375207877768E-003   5.1575106511944566E-002
  -2.6537482247972310E-002   2.4018367223781645E-002   9.2342988996720207E-002
  -2.8152707915667166E-002   1.8834087368365782E-002   7.5602993489855885E-002
  -2.9767933583361977E-002   1.5042767368298723E-002   6.3652506727030489E-002
  -3.1383159251056801E-002   1.2644407223580564E-002   5.6491528708243824E-002
  -3.2998384918751608E-002   1.1639006934211257E-002   5.4120059433496057E-002
  -5.8759389553728392E-002   3.9026196664693757E-002  0.12045347632115733     
  -5.3625116970839826E-002   2.9488080204956579E-002   9.1320250891369581E-002
  -4.8490844387951232E-002   2.2447587998867702E-002   7.0896513218709878E-002
  -4.3356571805062680E-002   1.7904720046427069E-002   5.9182263303178134E-002
  -3.8222299222174100E-002   1.5859476347634571E-002   5.6177501144774211E-002
  -2.1038214598144374E-002  -1.0224013060589621E-003   4.5022667038021491E-002
  -2.0519149384111909E-002   1.6904443035287153E-005   4.7385626187752966E-002
  -2.0000084170079452E-002   8.2759515206769219E-004   4.9515968229061263E-002
  -1.9481018956046998E-002   1.4096708210383328E-003   5.1413693161946439E-002
  -1.8961953742014537E-002   1.7631314499474415E-003   5.3078800986408547E-002
  -2.4406342606736731E-002   3.1980681073643935E-003   4.8542642380119655E-002
  -2.4083213421299085E-002   3.7728876622583341E-003   5.0118097154080776E-002
  -2.3760084235861456E-002   4.1651422092369994E-003   5.1534296979275321E-002
  -2.3436955050423813E-002   4.3748317482998553E-003   5.2791241855703476E-002
  -2.3113825864986177E-002   4.4019562794473943E-003   5.3888931783365013E-002
  -2.8393066046939169E-002   7.4185375207877768E-003   5.1575106511944566E-002
  -2.8192510730439709E-002   7.5288708814815891E-003   5.2409106942281500E-002
  -2.7991955413940256E-002   7.5026892664062025E-003   5.3157214583508576E-002
  -2.7791400097440782E-002   7.3399926755613795E-003   5.3819429435625829E-002
  -2.7590844780941343E-002   7.0407811089474026E-003   5.4395751498632988E-002
  -3.2998384918751608E-002   1.1639006934211257E-002   5.4120059433496057E-002
  -3.2847041311533730E-002   1.1284854100704796E-002   5.4258655552355199E-002
  -3.2695697704315879E-002   1.0840236323575374E-002   5.4384721041760974E-002
  -3.2544354097098008E-002   1.0305153602822959E-002   5.4498255901713512E-002
  -3.2393010489880143E-002   9.6796059384473554E-003   5.4599260132212876E-002
  -3.8222299222174100E-002   1.5859476347634571E-002   5.6177501144774211E-002
  -3.8046805164581185E-002   1.5040837319927919E-002   5.5666742984301715E-002
  -3.7871311106988284E-002   1.4177783380744685E-002   5.5216816354032500E-002
  -3.7695817049395369E-002   1.3270314530084391E-002   5.4827721253966608E-002
  -3.7520322991802468E-002   1.2318430767947364E-002   5.4499457684104136E-002
  -1.8961953742014537E-002   1.7631314499474415E-003   5.3078800986408547E-002
  -1.7935196226236329E-002   1.9540780496278276E-003   5.3040853078757277E-002
  -1.6908438710458124E-002   2.0486116309127445E-003   5.3225143017811144E-002
  -1.5881681194679913E-002   2.0467321938025251E-003   5.3631670803570092E-002
  -1.4854923678901712E-002   1.9484397382966145E-003   5.4260436436034176E-002
  -2.3113825864986177E-002   4.4019562794473943E-003   5.3888931783365013E-002
  -2.1860172321160304E-002   4.3218855778289766E-003   5.3466376026066798E-002
  -2.0606518777334465E-002   4.2099894185940179E-003   5.3275374478158666E-002
  -1.9352865233508619E-002   4.0662678017425596E-003   5.3315927139640812E-002
  -1.8099211689682780E-002   3.8907207272746991E-003   5.3588034010513097E-002
  -2.7590844780941343E-002   7.0407811089474026E-003   5.4395751498632988E-002
  -2.6100978846382759E-002   6.6896931060300424E-003   5.3653175452466839E-002
  -2.4611112911824239E-002   6.3713672062751803E-003   5.3151469978375845E-002
  -2.3121246977265683E-002   6.0858034096827052E-003   5.2890635076360076E-002
  -2.1631381042707107E-002   5.8330017162528391E-003   5.2870670746419657E-002
  -3.2393010489880143E-002   9.6796059384473554E-003   5.4599260132212876E-002
  -3.0657615801903775E-002   9.0575006342311776E-003   5.3601251357957444E-002
  -2.8922221113927438E-002   8.5327449939562594E-003   5.2853429518462433E-002
  -2.7186826425951102E-002   8.1053390176228507E-003   5.2355794613727712E-002
  -2.5451431737974737E-002   7.7752827052309514E-003   5.2108346643753391E-002
  -3.7520322991802468E-002   1.2318430767947364E-002   5.4499457684104136E-002
  -3.5530083187723244E-002   1.1425308162432257E-002   5.3310603742538654E-002
  -3.3539843383644047E-002   1.0694122781637602E-002   5.2381253098418595E-002
  -3.1549603579564850E-002   1.0124874625562909E-002   5.1711405751744030E-002
  -2.9559363775485625E-002   9.7175636942090082E-003   5.1301061702514639E-002
  -1.4854923678901712E-002   1.9484397382966145E-003   5.4260436436034176E-002
  -1.4044152500704919E-002   1.8507214753542556E-003   5.5258159609412161E-002
  -1.3233381322508144E-002   1.8505646159335531E-003   5.6478311101008427E-002
  -1.2422610144311374E-002   1.9479691600352220E-003   5.7920890910822920E-002
  -1.1611838966114583E-002   2.1429351076588388E-003   5.9585899038855583E-002
  -1.8099211689682780E-002   3.8907207272746991E-003   5.3588034010513097E-002
  -1.7069337585786038E-002   3.7119111195920984E-003   5.4355981346483978E-002
  -1.6039463481889314E-002   3.5584019030958647E-003   5.5339706215636497E-002
  -1.5009589377992572E-002   3.4301930777861922E-003   5.6539208617970682E-002
  -1.3979715274095847E-002   3.3272846436632753E-003   5.7954488553486672E-002
  -2.1631381042707107E-002   5.8330017162528391E-003   5.2870670746419657E-002
  -2.0389054798146948E-002   5.5731007638297747E-003   5.3336581232647784E-002
  -1.9146728553586772E-002   5.2662391902578570E-003   5.4011618467021197E-002
  -1.7904402309026599E-002   4.9124169955373324E-003   5.4895782449539722E-002
  -1.6662076064466413E-002   4.5116341796677673E-003   5.5989073180203464E-002
  -2.5451431737974737E-002   7.7752827052309514E-003   5.2108346643753391E-002
  -2.4003304137787611E-002   7.4342904080677008E-003   5.2199959267903606E-002
  -2.2555176537600509E-002   6.9740764774199535E-003   5.2494047855162443E-002
  -2.1107048937413390E-002   6.3946409132883877E-003   5.2990612405530102E-002
  -1.9658921337226288E-002   5.6959837156721760E-003   5.3689652919006250E-002
  -2.9559363775485625E-002   9.7175636942090082E-003   5.1301061702514639E-002
  -2.7912085604708078E-002   9.2954800523054604E-003   5.0946115452251417E-002
  -2.6264807433930545E-002   8.6819137645821193E-003   5.0786994380060374E-002
  -2.4617529263153012E-002   7.8768648310394880E-003   5.0823698485941413E-002
  -2.2970251092375465E-002   6.8803332516766957E-003   5.1056227769894824E-002
  -1.1611838966114583E-002   2.1429351076588388E-003   5.9585899038855583E-002
  -1.0717510846142891E-002   2.3146739259336524E-003   6.0022714617630979E-002
  -9.8231827261711889E-003   2.3423970819885787E-003   6.0629613079115519E-002
  -8.9288546061994933E-003   2.2261045758233677E-003   6.1406594423309202E-002
  -8.0345264862277943E-003   1.9657964074388801E-003   6.2353658650211807E-002
  -1.3979715274095847E-002   3.3272846436632753E-003   5.7954488553486672E-002
  -1.2915203030740251E-002   3.2027644155809276E-003   5.7970651069885193E-002
  -1.1850690787384627E-002   3.0097202083931018E-003   5.8157098950342184E-002
  -1.0786178544029022E-002   2.7481520221001102E-003   5.8513832194858117E-002
  -9.7216663006734066E-003   2.4180598567016265E-003   5.9040850803432687E-002
  -1.6662076064466413E-002   4.5116341796677673E-003   5.5989073180203464E-002
  -1.5427177216377218E-002   4.0908549052284249E-003   5.5660074317339270E-002
  -1.4192278368288019E-002   3.6770433347980691E-003   5.5501563299883427E-002
  -1.2957379520198795E-002   3.2701994683767971E-003   5.5513540127836061E-002
  -1.1722480672109596E-002   2.8703233059643729E-003   5.5696004801197074E-002
  -1.9658921337226288E-002   5.6959837156721760E-003   5.3689652919006250E-002
  -1.8253433403053826E-002   4.9789453948757556E-003   5.3090984359993772E-002
  -1.6847945468881353E-002   4.3443664612029254E-003   5.2663006127739262E-002
  -1.5442457534708878E-002   3.7922469146534007E-003   5.2405718222242721E-002
  -1.4036969600536424E-002   3.3225867552269528E-003   5.2319120643504753E-002
  -2.2970251092375465E-002   6.8803332516766957E-003   5.1056227769894824E-002
  -2.1393971590770042E-002   5.8670358845234194E-003   5.0263381197848345E-002
  -1.9817692089164646E-002   5.0116895876076428E-003   4.9641427433909591E-002
  -1.8241412587559222E-002   4.3142943609298587E-003   4.9190366478078645E-002
  -1.6665133085953826E-002   3.7748502044898657E-003   4.8910198330355481E-002
  -8.0345264862277943E-003   1.9657964074388801E-003   6.2353658650211807E-002
  -7.0734365614806977E-003   1.7016758492890416E-003   6.2790675788029882E-002
  -6.1123466367336010E-003   1.5739461738287497E-003   6.3356531348746414E-002
  -5.1512567119864992E-003   1.5826073810576088E-003   6.4051225332361378E-002
  -4.1901667872394077E-003   1.7276594709761950E-003   6.4874757738874744E-002
  -9.7216663006734066E-003   2.4180598567016265E-003   5.9040850803432687E-002
  -8.6070076805973388E-003   2.1153381463855370E-003   5.9318751542670745E-002
  -7.4923490605212396E-003   1.9358813253401719E-003   5.9774951249668085E-002
  -6.3776904404451700E-003   1.8796893935655035E-003   6.0409449924425207E-002
  -5.2630318203690726E-003   1.9467623510609489E-003   6.1222247566941723E-002
  -1.1722480672109596E-002   2.8703233059643729E-003   5.5696004801197074E-002
  -1.0404792811843488E-002   2.5290004434821989E-003   5.5801663148436126E-002
  -9.0871049515773780E-003   2.2978164768518300E-003   5.6135081008295548E-002
  -7.7694170913112700E-003   2.1767714060728464E-003   5.6696258380775751E-002
  -6.4517292310451290E-003   2.1658652311456472E-003   5.7485195265876282E-002
  -1.4036969600536424E-002   3.3225867552269528E-003   5.2319120643504753E-002
  -1.2466791955219204E-002   2.9426627405787775E-003   5.2239410605325678E-002
  -1.0896614309901997E-002   2.6597516283634812E-003   5.2436920624628333E-002
  -9.3264366645847922E-003   2.4738534185803542E-003   5.2911650701412662E-002
  -7.7562590192675716E-003   2.3849681112305399E-003   5.3663600835678553E-002
  -1.6665133085953826E-002   3.7748502044898657E-003   4.8910198330355481E-002
  -1.4793005110724455E-002   3.3563250376753562E-003   4.8631993913339944E-002
  -1.2920877135495112E-002   3.0216867798748270E-003   4.8680470098666773E-002
  -1.1048749160265763E-002   2.7709354310880077E-003   4.9055626886336551E-002
  -9.1766211850363988E-003   2.6040709913150994E-003   4.9757464276348751E-002
  -4.1901667872394077E-003   1.7276594709761950E-003   6.4874757738874744E-002
  -3.6631863316362451E-003   2.0526171582228026E-003   6.4008248611421403E-002
  -3.1362058760330928E-003   2.6009951574363088E-003   6.3260352617625193E-002
  -2.6092254204299354E-003   3.3727934686158881E-003   6.2631069757486030E-002
  -2.0822449648267780E-003   4.3680120917628518E-003   6.2120400031003831E-002
  -5.2630318203690726E-003   1.9467623510609489E-003   6.1222247566941723E-002
  -4.5927070252732016E-003   2.2349039549013350E-003   6.0535783625470574E-002
  -3.9223822301773237E-003   2.8419179621618218E-003   6.0017395229327752E-002
  -3.2520574350814492E-003   3.7678043728405497E-003   5.9667082378513453E-002
  -2.5817326399855713E-003   5.0125631869395448E-003   5.9484845073027315E-002
  -6.4517292310451290E-003   2.1658652311456472E-003   5.7485195265876282E-002
  -5.5885976847853229E-003   2.4171907515802560E-003   5.7074228601840138E-002
  -4.7254661385254899E-003   3.0828407668869878E-003   5.6880799894803449E-002
  -3.8623345922656695E-003   4.1628152770654299E-003   5.6904909144766432E-002
  -2.9992030460058491E-003   5.6571142821161269E-003   5.7146556351728828E-002
  -7.7562590192675716E-003   2.3849681112305399E-003   5.3663600835678553E-002
  -6.6508583101725950E-003   2.5994775482590937E-003   5.3623583540530054E-002
  -5.5454576010775759E-003   3.3237635716122718E-003   5.3850566614052242E-002
  -4.4400568919825845E-003   4.5578261812900898E-003   5.4344550056245076E-002
  -3.3346561828875797E-003   6.3016653772926534E-003   5.5105533867108689E-002
  -9.1766211850363988E-003   2.6040709913150994E-003   4.9757464276348751E-002
  -7.7794889014349833E-003   2.7817643449377649E-003   5.0183848441540224E-002
  -6.3823566178335955E-003   3.5646863763377501E-003   5.0926695387073784E-002
  -4.9852243342321800E-003   4.9528370855148815E-003   5.1986005112949291E-002
  -3.5880920506307923E-003   6.9462164724692910E-003   5.3361777619166717E-002
  -2.0822449648267780E-003   4.3680120917628518E-003   6.2120400031003831E-002
  -2.3299888311712202E-003   5.6753427899163267E-003   5.8158305839967395E-002
  -2.5777326975156521E-003   7.3834773261152176E-003   5.4181388118361040E-002
  -2.8254765638600684E-003   9.4924157003603571E-003   5.0189646866184934E-002
  -3.0732204302045263E-003   1.2002157912651246E-002   4.6183082083437910E-002
  -2.5817326399855713E-003   5.0125631869395448E-003   5.9484845073027315E-002
  -2.8601321218522033E-003   6.6457371239206919E-003   5.6018316906373100E-002
  -3.1385316037188613E-003   8.7368689032470415E-003   5.2505301039244556E-002
  -3.4169310855854803E-003   1.1285958524919662E-002   4.8945797471641933E-002
  -3.6953305674521791E-003   1.4293005988937013E-002   4.5339806203564370E-002
  -2.9992030460058491E-003   5.6571142821161269E-003   5.7146556351728828E-002
  -3.3399223132989896E-003   7.6161314579251682E-003   5.4232748213756538E-002
  -3.6806415805921170E-003   1.0090260480379531E-002   5.1240788205405285E-002
  -4.0213608478853000E-003   1.3079501349478745E-002   4.8170676326675613E-002
  -4.3620801151784128E-003   1.6583854065223003E-002   4.5022412577567117E-002
  -3.3346561828875797E-003   6.3016653772926534E-003   5.5105533867108689E-002
  -3.7693594055114568E-003   8.5865257919299220E-003   5.2801599762117651E-002
  -4.2040626281353898E-003   1.1443652057511355E-002   5.0387849616843602E-002
  -4.6387658507592525E-003   1.4873044174037717E-002   4.7864283431286569E-002
  -5.0734690733832272E-003   1.8874702141508881E-002   4.5230901205446594E-002
  -3.5880920506307923E-003   6.9462164724692910E-003   5.3361777619166717E-002
  -4.1484433984897290E-003   9.5569201259344538E-003   5.1724871551456442E-002
  -4.7087947463487073E-003   1.2797043634643707E-002   4.9946485273558772E-002
  -5.2691460942076787E-003   1.6666586998597209E-002   4.8026618785473901E-002
  -5.8294974420666223E-003   2.1165550217794760E-002   4.5965272087202358E-002
  -5.8759389553728392E-002   3.9026196664693757E-002  0.12045347632115733     
  -5.3625116970839826E-002   2.9488080204956579E-002   9.1320250891369581E-002
  -4.8490844387951232E-002   2.2447587998867702E-002   7.0896513218709878E-002
  -4.3356571805062680E-002   1.7904720046427069E-002   5.9182263303178134E-002
  -3.8222299222174100E-002   1.5859476347634571E-002   5.6177501144774211E-002
  -9.1819611654173044E-002   3.1748634278005228E-002   7.8945179035983137E-002
  -7.9855784820581657E-002   2.6098632982944736E-002   6.4475341794615060E-002
  -6.7891957986990270E-002   2.1793887034747078E-002   5.4955125297524693E-002
  -5.5928131153398911E-002   1.8834396433412184E-002   5.0384529544712134E-002
  -4.3964304319807537E-002   1.7220161178940069E-002   5.0763554536177036E-002
 -0.11025795186002847        2.4471071891316726E-002   4.1901181368878576E-002
  -9.5224437788584512E-002   2.2709185760933032E-002   4.0942363409144589E-002
  -8.0190923717140594E-002   2.1140186070626621E-002   4.1173299180838147E-002
  -6.5157409645696648E-002   1.9764072820397383E-002   4.2593988683959097E-002
  -5.0123895574252703E-002   1.8580846010245483E-002   4.5204431918507468E-002
 -0.11407441017129460        1.7193509504628224E-002   9.3214833198435043E-003
  -9.9731075874848418E-002   1.9319738538921230E-002   2.0721315734958209E-002
  -8.5387741578402190E-002   2.0486485106506108E-002   2.9551034868650079E-002
  -7.1044407281956018E-002   2.0693749207382567E-002   3.5810640720919079E-002
  -5.6701072985509818E-002   1.9941530841550884E-002   3.9500133291765126E-002
 -0.10326898658797146        9.9159471179396941E-003  -1.8793915111122106E-002
  -9.3375699079373292E-002   1.5930291316909428E-002   3.8121987720557415E-003
  -8.3482411570775017E-002   1.9832784142385568E-002   2.0088332360960359E-002
  -7.3589124062176853E-002   2.1623425594367716E-002   3.0034485655592025E-002
  -6.3695836553578633E-002   2.1302215672856339E-002   3.3650658655950405E-002
  -3.8222299222174100E-002   1.5859476347634571E-002   5.6177501144774211E-002
  -3.8046805164581185E-002   1.5040837319927919E-002   5.5666742984301715E-002
  -3.7871311106988284E-002   1.4177783380744685E-002   5.5216816354032500E-002
  -3.7695817049395369E-002   1.3270314530084391E-002   5.4827721253966608E-002
  -3.7520322991802468E-002   1.2318430767947364E-002   5.4499457684104136E-002
  -4.3964304319807537E-002   1.7220161178940069E-002   5.0763554536177036E-002
  -4.3662314317322579E-002   1.6286635347875264E-002   4.9886748927819011E-002
  -4.3360324314837655E-002   1.5369273016762615E-002   4.9202103679041737E-002
  -4.3058334312352717E-002   1.4468074185601783E-002   4.8709618789845081E-002
  -4.2756344309867772E-002   1.3583038854393104E-002   4.8409294260229219E-002
  -5.0123895574252703E-002   1.8580846010245483E-002   4.5204431918507468E-002
  -4.9564080797498411E-002   1.7532433375822568E-002   4.4022157273692693E-002
  -4.9004266020744099E-002   1.6560762652780489E-002   4.3163371817835985E-002
  -4.8444451243989800E-002   1.5665833841119341E-002   4.2628075550937401E-002
  -4.7884636467235495E-002   1.4847646940838899E-002   4.2416268472996829E-002
  -5.6701072985509818E-002   1.9941530841550884E-002   3.9500133291765126E-002
  -5.5752104605108738E-002   1.8778231403769809E-002   3.8072968021922601E-002
  -5.4803136224707651E-002   1.7752252288798391E-002   3.7100620770415357E-002
  -5.3854167844306577E-002   1.6863593496636652E-002   3.6583091537243671E-002
  -5.2905199463905490E-002   1.6112255027284555E-002   3.6520380322407370E-002
  -6.3695836553578633E-002   2.1302215672856339E-002   3.3650658655950405E-002
  -6.2226385740153434E-002   2.0024029431717244E-002   3.2039181172508757E-002
  -6.0756934926728276E-002   1.8943741924816293E-002   3.1013850536779852E-002
  -5.9287484113303084E-002   1.8061353152154208E-002   3.0574666748763718E-002
  -5.7818033299877891E-002   1.7376863113730379E-002   3.0721629808460438E-002
  -3.7520322991802468E-002   1.2318430767947364E-002   5.4499457684104136E-002
  -3.5530083187723244E-002   1.1425308162432257E-002   5.3310603742538654E-002
  -3.3539843383644047E-002   1.0694122781637602E-002   5.2381253098418595E-002
  -3.1549603579564850E-002   1.0124874625562909E-002   5.1711405751744030E-002
  -2.9559363775485625E-002   9.7175636942090082E-003   5.1301061702514639E-002
  -4.2756344309867772E-002   1.3583038854393104E-002   4.8409294260229219E-002
  -4.0513677911649323E-002   1.2755349455855824E-002   4.7451325571110703E-002
  -3.8271011513430805E-002   1.2026188422708931E-002   4.6738706772825378E-002
  -3.6028345115212322E-002   1.1395555754952897E-002   4.6271437865373327E-002
  -3.3785678716993825E-002   1.0863451452587269E-002   4.6049518848754356E-002
  -4.7884636467235495E-002   1.4847646940838899E-002   4.2416268472996829E-002
  -4.5403696881489979E-002   1.4085390749279392E-002   4.1625776176995560E-002
  -4.2922757295744421E-002   1.3358254063780599E-002   4.1066480365215326E-002
  -4.0441817709998884E-002   1.2666236884342775E-002   4.0738381037655869E-002
  -3.7960878124253347E-002   1.2009339210965558E-002   4.0641478194317418E-002
  -5.2905199463905490E-002   1.6112255027284555E-002   3.6520380322407370E-002
  -5.0200140097245174E-002   1.5415432042702820E-002   3.5833955560193462E-002
  -4.7495080730584824E-002   1.4690319704852180E-002   3.5364573875588397E-002
  -4.4790021363924452E-002   1.3936918013732376E-002   3.5112235268591967E-002
  -4.2084961997264206E-002   1.3155226969343833E-002   3.5076939739204158E-002
  -5.7818033299877891E-002   1.7376863113730379E-002   3.0721629808460438E-002
  -5.4903007558915001E-002   1.6745473336126526E-002   3.0075863720704310E-002
  -5.1987981817952111E-002   1.6022385345923637E-002   2.9632987303944536E-002
  -4.9072956076989249E-002   1.5207599143122568E-002   2.9393000558181268E-002
  -4.6157930336026332E-002   1.4301114727722108E-002   2.9355903483414325E-002
  -2.9559363775485625E-002   9.7175636942090082E-003   5.1301061702514639E-002
  -2.7912085604708078E-002   9.2954800523054604E-003   5.0946115452251417E-002
  -2.6264807433930545E-002   8.6819137645821193E-003   5.0786994380060374E-002
  -2.4617529263153012E-002   7.8768648310394880E-003   5.0823698485941413E-002
  -2.2970251092375465E-002   6.8803332516766957E-003   5.1056227769894824E-002
  -3.3785678716993825E-002   1.0863451452587269E-002   4.6049518848754356E-002
  -3.1956090840684112E-002   1.0315204804638156E-002   4.5571024809011096E-002
  -3.0126502964374441E-002   9.6361451001315823E-003   4.5261325002260017E-002
  -2.8296915088064777E-002   8.8262723390674161E-003   4.5120419428501049E-002
  -2.6467327211755071E-002   7.8855865214454424E-003   4.5148308087734290E-002
  -3.7960878124253347E-002   1.2009339210965558E-002   4.0641478194317418E-002
  -3.5976011487491563E-002   1.1334929556970991E-002   4.0100105954356258E-002
  -3.3991144850729800E-002   1.0590376435680927E-002   3.9700497002307218E-002
  -3.2006278213968051E-002   9.7756798470952869E-003   3.9442651338170362E-002
  -3.0021411577206253E-002   8.8908397912141890E-003   3.9326568961945335E-002
  -4.2084961997264206E-002   1.3155226969343833E-002   3.5076939739204158E-002
  -3.9971847545130390E-002   1.2354654309303811E-002   3.4533358888287242E-002
  -3.7858733092996602E-002   1.1544607771230442E-002   3.4104510380202228E-002
  -3.5745618640862856E-002   1.0725087355123408E-002   3.3790394214949192E-002
  -3.3632504188728991E-002   9.8960930609827136E-003   3.3591010392528063E-002
  -4.6157930336026332E-002   1.4301114727722108E-002   2.9355903483414325E-002
  -4.3943599013600620E-002   1.3374379061636577E-002   2.8870783610803585E-002
  -4.1729267691174854E-002   1.2498839106779680E-002   2.8473365135944617E-002
  -3.9514936368749115E-002   1.1674494863151266E-002   2.8163648058837615E-002
  -3.7300605046323376E-002   1.0901346330751571E-002   2.7941632379482551E-002
  -2.2970251092375465E-002   6.8803332516766957E-003   5.1056227769894824E-002
  -2.1393971590770042E-002   5.8670358845234194E-003   5.0263381197848345E-002
  -1.9817692089164646E-002   5.0116895876076428E-003   4.9641427433909591E-002
  -1.8241412587559222E-002   4.3142943609298587E-003   4.9190366478078645E-002
  -1.6665133085953826E-002   3.7748502044898657E-003   4.8910198330355481E-002
  -2.6467327211755071E-002   7.8855865214454424E-003   4.5148308087734290E-002
  -2.4717666550580775E-002   6.9407584299850944E-003   4.4441181410636243E-002
  -2.2968005889406416E-002   6.1184588474044732E-003   4.3909924244568244E-002
  -2.1218345228232151E-002   5.4186877737042172E-003   4.3554536589530374E-002
  -1.9468684567057762E-002   4.8414452088838544E-003   4.3375018445522440E-002
  -3.0021411577206253E-002   8.8908397912141890E-003   3.9326568961945335E-002
  -2.8093393053540763E-002   8.0144809754464363E-003   3.8669739618438115E-002
  -2.6165374529875260E-002   7.2252281072010954E-003   3.8193756488883221E-002
  -2.4237356006209729E-002   6.5230811864781905E-003   3.7898619573280744E-002
  -2.2309337482544260E-002   5.9080402132777321E-003   3.7784328871630496E-002
  -3.3632504188728991E-002   9.8960930609827136E-003   3.3591010392528063E-002
  -3.1521151099650119E-002   9.0882035209079448E-003   3.2949055821253986E-002
  -2.9409798010571135E-002   8.3319973669979328E-003   3.2492924166854481E-002
  -2.7298444921492186E-002   7.6274745992523565E-003   3.2222615429329644E-002
  -2.5187091832413230E-002   6.9746352176716653E-003   3.2138129608679254E-002
  -3.7300605046323376E-002   1.0901346330751571E-002   2.7941632379482551E-002
  -3.5000940688908688E-002   1.0161926066369231E-002   2.7279130019084052E-002
  -3.2701276331494056E-002   9.4387666267944925E-003   2.6807427278482177E-002
  -3.0401611974079409E-002   8.7318680120266196E-003   2.6526524157677256E-002
  -2.8101947616664735E-002   8.0412302220657095E-003   2.6436420656669180E-002
  -1.6665133085953826E-002   3.7748502044898657E-003   4.8910198330355481E-002
  -1.4793005110724455E-002   3.3563250376753562E-003   4.8631993913339944E-002
  -1.2920877135495112E-002   3.0216867798748270E-003   4.8680470098666773E-002
  -1.1048749160265763E-002   2.7709354310880077E-003   4.9055626886336551E-002
  -9.1766211850363988E-003   2.6040709913150994E-003   4.9757464276348751E-002
  -1.9468684567057762E-002   4.8414452088838544E-003   4.3375018445522440E-002
  -1.7320007869275934E-002   4.3488623040883745E-003   4.3074919574425996E-002
  -1.5171331171494107E-002   3.9030702104630999E-003   4.3001237546091753E-002
  -1.3022654473712297E-002   3.5040689280081416E-003   4.3153972360519738E-002
  -1.0873977775930452E-002   3.1518584567229446E-003   4.3533124017710312E-002
  -2.2309337482544260E-002   5.9080402132777321E-003   3.7784328871630496E-002
  -1.9984375821790364E-002   5.3413995705015038E-003   3.7425239448609343E-002
  -1.7659414161036443E-002   4.7844536410515809E-003   3.7192303108770239E-002
  -1.5334452500282500E-002   4.2372024249280500E-003   3.7085519852112829E-002
  -1.3009490839528619E-002   3.6996459221307898E-003   3.7104889678637537E-002
  -2.5187091832413230E-002   6.9746352176716653E-003   3.2138129608679254E-002
  -2.2786108968267632E-002   6.3339368369146887E-003   3.1682953535889943E-002
  -2.0385126104122041E-002   5.6658370716400133E-003   3.1253666786702161E-002
  -1.7984143239976456E-002   4.9703359218479602E-003   3.0850269361115547E-002
  -1.5583160375830851E-002   4.2474333875385795E-003   3.0472761259130780E-002
  -2.8101947616664735E-002   8.0412302220657095E-003   2.6436420656669180E-002
  -2.5725207308707837E-002   7.3264741033276515E-003   2.5848061836267755E-002
  -2.3348467000750966E-002   6.5472205022283625E-003   2.5185328579887367E-002
  -2.0971726692794096E-002   5.7034694187680438E-003   2.4448220887528099E-002
  -1.8594986384837198E-002   4.7952208529463691E-003   2.3636738759190035E-002
  -9.1766211850363988E-003   2.6040709913150994E-003   4.9757464276348751E-002
  -7.7794889014349833E-003   2.7817643449377649E-003   5.0183848441540224E-002
  -6.3823566178335955E-003   3.5646863763377501E-003   5.0926695387073784E-002
  -4.9852243342321800E-003   4.9528370855148815E-003   5.1986005112949291E-002
  -3.5880920506307923E-003   6.9462164724692910E-003   5.3361777619166717E-002
  -1.0873977775930452E-002   3.1518584567229446E-003   4.3533124017710312E-002
  -9.1389303711507247E-003   3.0986573070531098E-003   4.4121032305952601E-002
  -7.4038829663710462E-003   3.5966839894434055E-003   4.5068308056209622E-002
  -5.6688355615913122E-003   4.6459385038938733E-003   4.6374951268481054E-002
  -3.9337881568116961E-003   6.2464208504042773E-003   4.8040961942767524E-002
  -1.3009490839528619E-002   3.6996459221307898E-003   3.7104889678637537E-002
  -1.0893623631898025E-002   3.4155502691682049E-003   3.7800321244213897E-002
  -8.7777564242674036E-003   3.6286816025487417E-003   3.8898024953477259E-002
  -6.6618892166368342E-003   4.3390399222726465E-003   4.0398000806428018E-002
  -4.5460220090061884E-003   5.5466252283393191E-003   4.2300248803065682E-002
  -1.5583160375830851E-002   4.2474333875385795E-003   3.0472761259130780E-002
  -1.3043568683676754E-002   3.7324432312835915E-003   3.1221715256323987E-002
  -1.0503976991522739E-002   3.6606792156543486E-003   3.2415846078876986E-002
  -7.9643852993686263E-003   4.0321413406513070E-003   3.4055153726789356E-002
  -5.4247936072146282E-003   4.8468296062747773E-003   3.6139638200062017E-002
  -1.8594986384837198E-002   4.7952208529463691E-003   2.3636738759190035E-002
  -1.5588765526487081E-002   4.0493361933985339E-003   2.4385214342282913E-002
  -1.2582544668136963E-002   3.6926768287597334E-003   2.5621771432408291E-002
  -9.5763238097868186E-003   3.7252427590305226E-003   2.7346410029565865E-002
  -6.5701029514367293E-003   4.1470339842094583E-003   2.9559130133755773E-002
  -3.5880920506307923E-003   6.9462164724692910E-003   5.3361777619166717E-002
  -4.1484433984897290E-003   9.5569201259344538E-003   5.1724871551456442E-002
  -4.7087947463487073E-003   1.2797043634643707E-002   4.9946485273558772E-002
  -5.2691460942076787E-003   1.6666586998597209E-002   4.8026618785473901E-002
  -5.8294974420666223E-003   2.1165550217794760E-002   4.5965272087202358E-002
  -3.9337881568116961E-003   6.2464208504042773E-003   4.8040961942767524E-002
  -4.5325455607870269E-003   8.7036964297624864E-003   4.7136481527553509E-002
  -5.1313029647624964E-003   1.2323330642755703E-002   4.6296669210293739E-002
  -5.7300603687379902E-003   1.7105323489383151E-002   4.5521524990988271E-002
  -6.3288177727132966E-003   2.3049674969645828E-002   4.4811048869636272E-002
  -4.5460220090061884E-003   5.5466252283393191E-003   4.2300248803065682E-002
  -4.9770371609567238E-003   7.8504727335906299E-003   4.2661132818738873E-002
  -5.4080523129072487E-003   1.1849617650867492E-002   4.3292833240507686E-002
  -5.8390674648576921E-003   1.7544059980169318E-002   4.4195350068372087E-002
  -6.2700826168083645E-003   2.4933799721496896E-002   4.5368683302332458E-002
  -5.4247936072146282E-003   4.8468296062747773E-003   3.6139638200062017E-002
  -5.4819181989987122E-003   6.9972490374190510E-003   3.8298825425012881E-002
  -5.5390427907828768E-003   1.1375904658978829E-002   4.0934977364200265E-002
  -5.5961673825670553E-003   1.7982796470955263E-002   4.4048094017625397E-002
  -5.6532919743511809E-003   2.6817924473347965E-002   4.7638175385287251E-002
  -6.5701029514367293E-003   4.1470339842094583E-003   2.9559130133755773E-002
  -6.0471886749131065E-003   6.1440253412470280E-003   3.4049559346374769E-002
  -5.5242743983895393E-003   1.0902191667091360E-002   3.9223101581372488E-002
  -5.0013601218658471E-003   1.8421532961741670E-002   4.5079756838748458E-002
  -4.4784458453422937E-003   2.8702049225199033E-002   5.1619525118502985E-002
 -0.10326898658797146        9.9159471179396941E-003  -1.8793915111122106E-002
  -9.3375699079373292E-002   1.5930291316909428E-002   3.8121987720557415E-003
  -8.3482411570775017E-002   1.9832784142385568E-002   2.0088332360960359E-002
  -7.3589124062176853E-002   2.1623425594367716E-002   3.0034485655592025E-002
  -6.3695836553578633E-002   2.1302215672856339E-002   3.3650658655950405E-002
  -9.0348334976010330E-002   1.7341934219330446E-002  -3.0777478152761995E-003
  -8.5370205796981860E-002   2.0162788816046023E-002   8.9584359167488026E-003
  -8.0392076617953417E-002   2.1908842229169279E-002   1.7494283283907286E-002
  -7.5413947438924975E-002   2.2580094458700281E-002   2.2529794286199487E-002
  -7.0435818259896518E-002   2.2176545504638989E-002   2.4064968923625391E-002
  -8.7819109201362405E-002   2.4767921320721309E-002   8.9264047833646776E-003
  -8.4926494422496973E-002   2.4395286315182479E-002   1.1429708554138121E-002
  -8.2033879643631485E-002   2.3984900315952948E-002   1.3262319889452159E-002
  -7.9141264864766026E-002   2.3536763323032794E-002   1.4424238789306439E-002
  -7.6248650085900621E-002   2.3050875336421667E-002   1.4915465253701216E-002
  -9.5681309264027736E-002   3.2193908422112089E-002   1.7218542684800379E-002
  -9.2044564955918465E-002   2.8627783814318949E-002   1.1226016684224079E-002
  -8.8407820647809360E-002   2.6060958402736804E-002   7.3924421775950246E-003
  -8.4771076339700116E-002   2.4493432187365195E-002   5.7178191649130579E-003
  -8.1134332031590983E-002   2.3925205168204219E-002   6.2021476461782653E-003
 -0.11393493516400621        3.9619895523502868E-002   2.1798665889031232E-002
 -0.10672441739724658        3.2860281313455642E-002   8.3473603070066682E-003
  -9.9513899630486846E-002   2.8137016489520467E-002  -1.1534985166394840E-004
  -9.2303381863727163E-002   2.5450101051697836E-002  -3.5894645869811170E-003
  -8.5092864096967480E-002   2.4799534999987105E-002  -2.0749838989439495E-003
  -6.3695836553578633E-002   2.1302215672856339E-002   3.3650658655950405E-002
  -6.2226385740153434E-002   2.0024029431717244E-002   3.2039181172508757E-002
  -6.0756934926728276E-002   1.8943741924816293E-002   3.1013850536779852E-002
  -5.9287484113303084E-002   1.8061353152154208E-002   3.0574666748763718E-002
  -5.7818033299877891E-002   1.7376863113730379E-002   3.0721629808460438E-002
  -7.0435818259896518E-002   2.2176545504638989E-002   2.4064968923625391E-002
  -6.8497864399257272E-002   2.1253563019773991E-002   2.3379913948110342E-002
  -6.6559910538618094E-002   2.0366514656894069E-002   2.3045718219310660E-002
  -6.4621956677978903E-002   1.9515400415999244E-002   2.3062381737226197E-002
  -6.2684002817339740E-002   1.8700220297089343E-002   2.3429904501857030E-002
  -7.6248650085900621E-002   2.3050875336421667E-002   1.4915465253701216E-002
  -7.4077480779044969E-002   2.2483096607831057E-002   1.4994868173859685E-002
  -7.1906311472189233E-002   2.1789287388971956E-002   1.5189842739735560E-002
  -6.9735142165333566E-002   2.0969447679844391E-002   1.5500388951329359E-002
  -6.7563972858477844E-002   2.0023577480448446E-002   1.5926506808640703E-002
  -8.1134332031590983E-002   2.3925205168204219E-002   6.2021476461782653E-003
  -7.8965234879516344E-002   2.3712630195888158E-002   6.8840438497563064E-003
  -7.6796137727441718E-002   2.3212060121049899E-002   7.4462240980545380E-003
  -7.4627040575367121E-002   2.2423494943689760E-002   7.8886883910730798E-003
  -7.2457943423292481E-002   2.1346934663807424E-002   8.2114367288117461E-003
  -8.5092864096967480E-002   2.4799534999987105E-002  -2.0749838989439495E-003
  -8.3161126700671550E-002   2.4942163783944815E-002  -9.5255902419943972E-004
  -8.1229389304375510E-002   2.4634832853127397E-002  -1.8513770573234944E-004
  -7.9297651908079581E-002   2.3877542207534741E-002   2.2728005645742191E-004
  -7.7365914511783540E-002   2.2670291847166624E-002   2.8469426236976680E-004
  -5.7818033299877891E-002   1.7376863113730379E-002   3.0721629808460438E-002
  -5.4903007558915001E-002   1.6745473336126526E-002   3.0075863720704310E-002
  -5.1987981817952111E-002   1.6022385345923637E-002   2.9632987303944536E-002
  -4.9072956076989249E-002   1.5207599143122568E-002   2.9393000558181268E-002
  -4.6157930336026332E-002   1.4301114727722108E-002   2.9355903483414325E-002
  -6.2684002817339740E-002   1.8700220297089343E-002   2.3429904501857030E-002
  -5.9551420519518200E-002   1.7894812193390230E-002   2.2730760624205315E-002
  -5.6418838221696674E-002   1.7073013998126996E-002   2.2263840189274325E-002
  -5.3286255923875189E-002   1.6234825711300138E-002   2.2029143197064241E-002
  -5.0153673626053608E-002   1.5380247332909436E-002   2.2026669647574992E-002
  -6.7563972858477844E-002   2.0023577480448446E-002   1.5926506808640703E-002
  -6.4184500232073366E-002   1.9044151050653990E-002   1.5249293262128427E-002
  -6.0805027605668874E-002   1.8123642650330306E-002   1.4833636930061268E-002
  -5.7425554979264402E-002   1.7262052279477934E-002   1.4679537812439355E-002
  -5.4046082352859917E-002   1.6459379938096763E-002   1.4786995909262496E-002
  -7.2457943423292481E-002   2.1346934663807424E-002   8.2114367288117461E-003
  -6.8802246696580735E-002   2.0193489907917556E-002   7.6314616344738892E-003
  -6.5146549969868864E-002   1.9174271302533696E-002   7.3423775263053142E-003
  -6.1490853243157020E-002   1.8289278847656004E-002   7.3441844043063741E-003
  -5.7835156516445232E-002   1.7538512543283979E-002   7.6368822684768495E-003
  -7.7365914511783540E-002   2.2670291847166624E-002   2.8469426236976680E-004
  -7.3404659913039960E-002   2.1342828765181343E-002  -1.2273425875886090E-004
  -6.9443405314296491E-002   2.0224899954736891E-002  -2.0993802199381628E-004
  -6.5482150715552911E-002   1.9316505415833442E-002   2.3082972665386392E-005
  -6.1520896116809443E-002   1.8617645148471529E-002   5.7632872521840017E-004
  -4.6157930336026332E-002   1.4301114727722108E-002   2.9355903483414325E-002
  -4.3943599013600620E-002   1.3374379061636577E-002   2.8870783610803585E-002
  -4.1729267691174854E-002   1.2498839106779680E-002   2.8473365135944617E-002
  -3.9514936368749115E-002   1.1674494863151266E-002   2.8163648058837615E-002
  -3.7300605046323376E-002   1.0901346330751571E-002   2.7941632379482551E-002
  -5.0153673626053608E-002   1.5380247332909436E-002   2.2026669647574992E-002
  -4.7850613307273332E-002   1.4526639105189060E-002   2.1680674988854565E-002
  -4.5547552988493015E-002   1.3691361270373834E-002   2.1424436925091217E-002
  -4.3244492669712746E-002   1.2874413828463268E-002   2.1257955456285130E-002
  -4.0941432350932422E-002   1.2075796779457526E-002   2.1181230582436261E-002
  -5.4046082352859917E-002   1.6459379938096763E-002   1.4786995909262496E-002
  -5.1652237840519755E-002   1.5678899148741793E-002   1.4547261146108520E-002
  -4.9258393328179564E-002   1.4883883433967598E-002   1.4399338175117543E-002
  -4.6864548815839395E-002   1.4074332793775214E-002   1.4343226996288677E-002
  -4.4470704303499212E-002   1.3250247228163425E-002   1.4378927609622338E-002
  -5.7835156516445232E-002   1.7538512543283979E-002   7.6368822684768495E-003
  -5.5348472613339882E-002   1.6831159192294123E-002   7.4705420825662665E-003
  -5.2861788710234545E-002   1.6076405597561613E-002   7.3980688860229363E-003
  -5.0375104807129152E-002   1.5274251759086688E-002   7.4194626788481703E-003
  -4.7888420904023843E-002   1.4424697676869463E-002   7.5347234610407474E-003
  -6.1520896116809443E-002   1.8617645148471529E-002   5.7632872521840017E-004
  -5.8939317625733567E-002   1.7983419235846676E-002   4.5051779822713467E-004
  -5.6357739134657858E-002   1.7268927761155323E-002   4.2062905780893001E-004
  -5.3776160643582094E-002   1.6474170724399002E-002   4.8666250396353639E-004
  -5.1194582152506274E-002   1.5599148125575280E-002   6.4861813669125912E-004
  -3.7300605046323376E-002   1.0901346330751571E-002   2.7941632379482551E-002
  -3.5000940688908688E-002   1.0161926066369231E-002   2.7279130019084052E-002
  -3.2701276331494056E-002   9.4387666267944925E-003   2.6807427278482177E-002
  -3.0401611974079409E-002   8.7318680120266196E-003   2.6526524157677256E-002
  -2.8101947616664735E-002   8.0412302220657095E-003   2.6436420656669180E-002
  -4.0941432350932422E-002   1.2075796779457526E-002   2.1181230582436261E-002
  -3.8465931839625961E-002   1.1292552044622539E-002   2.0629657638296772E-002
  -3.5990431328319472E-002   1.0521721545224197E-002   2.0238957382143846E-002
  -3.3514930817013046E-002   9.7633052812624195E-003   2.0009129813977622E-002
  -3.1039430305706522E-002   9.0173032527375296E-003   1.9940174933798183E-002
  -4.4470704303499212E-002   1.3250247228163425E-002   1.4378927609622338E-002
  -4.1849294570111092E-002   1.2423178022875292E-002   1.3934437492371179E-002
  -3.9227884836722925E-002   1.1604676463654012E-002   1.3620893131296802E-002
  -3.6606475103334785E-002   1.0794742550498330E-002   1.3438294526399323E-002
  -3.3985065369946582E-002   9.9933762834090722E-003   1.3386641677678196E-002
  -4.7888420904023843E-002   1.4424697676869463E-002   7.5347234610407474E-003
  -4.5151028880364104E-002   1.3553804001128322E-002   7.1934695813075829E-003
  -4.2413636856704316E-002   1.2687631382083550E-002   6.9532345259414562E-003
  -3.9676244833044577E-002   1.1826179819734408E-002   6.8140182949415172E-003
  -3.6938852809384783E-002   1.0969449314081087E-002   6.7758208883085050E-003
  -5.1194582152506274E-002   1.5599148125575280E-002   6.4861813669125912E-004
  -4.8371134770385016E-002   1.4684429979381575E-002   4.0675390510630516E-004
  -4.5547687388263758E-002   1.3770586300513310E-002   2.3598156607743115E-004
  -4.2724240006142500E-002   1.2857617088969875E-002   1.3630111960514363E-004
  -3.9900792624021242E-002   1.1945522344752657E-002   1.0771256568942178E-004
  -2.8101947616664735E-002   8.0412302220657095E-003   2.6436420656669180E-002
  -2.5725207308707837E-002   7.3264741033276515E-003   2.5848061836267755E-002
  -2.3348467000750966E-002   6.5472205022283625E-003   2.5185328579887367E-002
  -2.0971726692794096E-002   5.7034694187680438E-003   2.4448220887528099E-002
  -1.8594986384837198E-002   4.7952208529463691E-003   2.3636738759190035E-002
  -3.1039430305706522E-002   9.0173032527375296E-003   1.9940174933798183E-002
  -2.8715465380230135E-002   8.2737850231918153E-003   1.9329290731777415E-002
  -2.6391500454753733E-002   7.5228201561675367E-003   1.8687230200774368E-002
  -2.4067535529277428E-002   6.7644086516650756E-003   1.8013993340789292E-002
  -2.1743570603800944E-002   5.9985505096844527E-003   1.7309580151822213E-002
  -3.3985065369946582E-002   9.9933762834090722E-003   1.3386641677678196E-002
  -3.1670677719953820E-002   9.2210959430554240E-003   1.2810282938920725E-002
  -2.9356290069961037E-002   8.4984198101062530E-003   1.2245945978177922E-002
  -2.7041902419968296E-002   7.8253478845621040E-003   1.1693630795450140E-002
  -2.4727514769975548E-002   7.2018801664227028E-003   1.1153337390737039E-002
  -3.6938852809384783E-002   1.0969449314081087E-002   6.7758208883085050E-003
  -3.4590844327878879E-002   1.0168406862918866E-002   6.2910384576978159E-003
  -3.2242835846372830E-002   9.4740194640453093E-003   5.8614759120981345E-003
  -2.9894827364866802E-002   8.8862871174596892E-003   5.4871332515105831E-003
  -2.7546818883360885E-002   8.4052098231611472E-003   5.1680104759345077E-003
  -3.9900792624021242E-002   1.1945522344752657E-002   1.0771256568942178E-004
  -3.7475965204005091E-002   1.1115717782782975E-002  -2.2844271189192966E-004
  -3.5051137783989050E-002   1.0449619117984366E-002  -4.6617999746467742E-004
  -3.2626310363972982E-002   9.9472263503559422E-003  -6.0549929102918232E-004
  -3.0201482943956859E-002   9.6085394798990365E-003  -6.4640059258502802E-004
  -1.8594986384837198E-002   4.7952208529463691E-003   2.3636738759190035E-002
  -1.5588765526487081E-002   4.0493361933985339E-003   2.4385214342282913E-002
  -1.2582544668136963E-002   3.6926768287597334E-003   2.5621771432408291E-002
  -9.5763238097868186E-003   3.7252427590305226E-003   2.7346410029565865E-002
  -6.5701029514367293E-003   4.1470339842094583E-003   2.9559130133755773E-002
  -2.1743570603800944E-002   5.9985505096844527E-003   1.7309580151822213E-002
  -1.8521584610410174E-002   5.3235011455153858E-003   1.8239524159717968E-002
  -1.5299598617019475E-002   4.8375159744477036E-003   1.9112916930662360E-002
  -1.2077612623628740E-002   4.5405949964810455E-003   1.9929758464656000E-002
  -8.8556266302380060E-003   4.4327382116158276E-003   2.0690048761698332E-002
  -2.4727514769975548E-002   7.2018801664227028E-003   1.1153337390737039E-002
  -2.1834396385527477E-002   6.5976660976324042E-003   1.2064588721627606E-002
  -1.8941278001079552E-002   5.9823551201355629E-003   1.2374656071583640E-002
  -1.6048159616631634E-002   5.3559472339317904E-003   1.2083539440605195E-002
  -1.3155041232183612E-002   4.7184424390221413E-003   1.1191238828692246E-002
  -2.7546818883360885E-002   8.4052098231611472E-003   5.1680104759345077E-003
  -2.5527200851839099E-002   7.8718310497496169E-003   5.8604080280122706E-003
  -2.3507582820317285E-002   7.1271942658235332E-003   5.4069888551716849E-003
  -2.1487964788795492E-002   6.1712994713832015E-003   3.8077529574138437E-003
  -1.9468346757273682E-002   5.0041466664282608E-003   1.0627003347373279E-003
  -3.0201482943956859E-002   9.6085394798990365E-003  -6.4640059258502802E-004
  -2.9599998009344652E-002   9.1459960018661635E-003  -3.7301792112842680E-004
  -2.8998513074732557E-002   8.2720334115117256E-003  -1.7900847185728930E-003
  -2.8397028140120406E-002   6.9866517088334190E-003  -4.8976009849189539E-003
  -2.7795543205508255E-002   5.2898508938343802E-003  -9.6955667201658047E-003
  -6.5701029514367293E-003   4.1470339842094583E-003   2.9559130133755773E-002
  -6.0471886749131065E-003   6.1440253412470280E-003   3.4049559346374769E-002
  -5.5242743983895393E-003   1.0902191667091360E-002   3.9223101581372488E-002
  -5.0013601218658471E-003   1.8421532961741670E-002   4.5079756838748458E-002
  -4.4784458453422937E-003   2.8702049225199033E-002   5.1619525118502985E-002
  -8.8556266302380060E-003   4.4327382116158276E-003   2.0690048761698332E-002
  -7.5759904432859820E-003   5.6587406838473631E-003   2.5860110584172868E-002
  -6.2963542563340830E-003   9.3633974771730188E-003   3.1860503205125457E-002
  -5.0167180693821492E-003   1.5546708591591143E-002   3.8691226624556402E-002
  -3.7370818824302710E-003   2.4208674027102361E-002   4.6352280842465454E-002
  -1.3155041232183612E-002   4.7184424390221413E-003   1.1191238828692246E-002
  -1.0971465358703567E-002   5.1734560264481422E-003   1.6758412613308682E-002
  -8.7878894852235073E-003   7.8246032872544696E-003   2.3303134972503317E-002
  -6.6043136117434030E-003   1.2671884221440288E-002   3.0825405906275354E-002
  -4.4207377382632917E-003   1.9715298829005690E-002   3.9325225414625575E-002
  -1.9468346757273682E-002   5.0041466664282608E-003   1.0627003347373279E-003
  -1.6233613421165746E-002   4.6881713690490323E-003   6.7444654337818766E-003
  -1.2998880085057707E-002   6.2858090973358025E-003   1.3550996883504567E-002
  -9.7641467489498444E-003   9.7970598512897075E-003   2.1482294683905091E-002
  -6.5294134128417308E-003   1.5221923630908796E-002   3.0538358834982682E-002
  -2.7795543205508255E-002   5.2898508938343802E-003  -9.6955667201658047E-003
  -2.3362434630672557E-002   4.2028867116488122E-003  -4.1817309544065484E-003
  -1.8929326055837026E-002   4.7470149074184675E-003   2.6040889381309107E-003
  -1.4496217481001467E-002   6.9222354811387943E-003   1.0661892957445213E-002
  -1.0063108906165796E-002   1.0728548432812346E-002   1.9991681103537662E-002
 </DataArray>
 </PointData>
 </Piece>
 </UnstructuredGrid>
 </VTKFile>
