 <VTKFile type="UnstructuredGrid"  version="0.1"   >
 <UnstructuredGrid>
 <Piece  NumberOfPoints="           100 "  NumberOfCells="           64 ">
 <Points>
 <DataArray  type="Float64" NumberOfComponents="3"  format="ascii" >
   0.0000000000000000        0.0000000000000000        0.0000000000000000     
  0.12500000000000000        0.0000000000000000        0.0000000000000000     
  0.25000000000000000        0.0000000000000000        0.0000000000000000     
  0.37500000000000000        0.0000000000000000        0.0000000000000000     
  0.50000000000000000        0.0000000000000000        0.0000000000000000     
   0.0000000000000000       0.12500000000000000        0.0000000000000000     
  0.12500000000000000       0.12500000000000000        0.0000000000000000     
  0.25000000000000000       0.12500000000000000        0.0000000000000000     
  0.37500000000000000       0.12500000000000000        0.0000000000000000     
  0.50000000000000000       0.12500000000000000        0.0000000000000000     
   0.0000000000000000       0.25000000000000000        0.0000000000000000     
  0.12500000000000000       0.25000000000000000        0.0000000000000000     
  0.25000000000000000       0.25000000000000000        0.0000000000000000     
  0.37500000000000000       0.25000000000000000        0.0000000000000000     
  0.50000000000000000       0.25000000000000000        0.0000000000000000     
   0.0000000000000000       0.37500000000000000        0.0000000000000000     
  0.12500000000000000       0.37500000000000000        0.0000000000000000     
  0.25000000000000000       0.37500000000000000        0.0000000000000000     
  0.37500000000000000       0.37500000000000000        0.0000000000000000     
  0.50000000000000000       0.37500000000000000        0.0000000000000000     
   0.0000000000000000       0.50000000000000000        0.0000000000000000     
  0.12500000000000000       0.50000000000000000        0.0000000000000000     
  0.25000000000000000       0.50000000000000000        0.0000000000000000     
  0.37500000000000000       0.50000000000000000        0.0000000000000000     
  0.50000000000000000       0.50000000000000000        0.0000000000000000     
  0.50000000000000000        0.0000000000000000        0.0000000000000000     
  0.62500000000000000        0.0000000000000000        0.0000000000000000     
  0.75000000000000000        0.0000000000000000        0.0000000000000000     
  0.87500000000000000        0.0000000000000000        0.0000000000000000     
   1.0000000000000000        0.0000000000000000        0.0000000000000000     
  0.50000000000000000       0.12500000000000000        0.0000000000000000     
  0.62500000000000000       0.12500000000000000        0.0000000000000000     
  0.75000000000000000       0.12500000000000000        0.0000000000000000     
  0.87500000000000000       0.12500000000000000        0.0000000000000000     
   1.0000000000000000       0.12500000000000000        0.0000000000000000     
  0.50000000000000000       0.25000000000000000        0.0000000000000000     
  0.62500000000000000       0.25000000000000000        0.0000000000000000     
  0.75000000000000000       0.25000000000000000        0.0000000000000000     
  0.87500000000000000       0.25000000000000000        0.0000000000000000     
   1.0000000000000000       0.25000000000000000        0.0000000000000000     
  0.50000000000000000       0.37500000000000000        0.0000000000000000     
  0.62500000000000000       0.37500000000000000        0.0000000000000000     
  0.75000000000000000       0.37500000000000000        0.0000000000000000     
  0.87500000000000000       0.37500000000000000        0.0000000000000000     
   1.0000000000000000       0.37500000000000000        0.0000000000000000     
  0.50000000000000000       0.50000000000000000        0.0000000000000000     
  0.62500000000000000       0.50000000000000000        0.0000000000000000     
  0.75000000000000000       0.50000000000000000        0.0000000000000000     
  0.87500000000000000       0.50000000000000000        0.0000000000000000     
   1.0000000000000000       0.50000000000000000        0.0000000000000000     
   0.0000000000000000       0.50000000000000000        0.0000000000000000     
  0.12500000000000000       0.50000000000000000        0.0000000000000000     
  0.25000000000000000       0.50000000000000000        0.0000000000000000     
  0.37500000000000000       0.50000000000000000        0.0000000000000000     
  0.50000000000000000       0.50000000000000000        0.0000000000000000     
   0.0000000000000000       0.62500000000000000        0.0000000000000000     
  0.12500000000000000       0.62500000000000000        0.0000000000000000     
  0.25000000000000000       0.62500000000000000        0.0000000000000000     
  0.37500000000000000       0.62500000000000000        0.0000000000000000     
  0.50000000000000000       0.62500000000000000        0.0000000000000000     
   0.0000000000000000       0.75000000000000000        0.0000000000000000     
  0.12500000000000000       0.75000000000000000        0.0000000000000000     
  0.25000000000000000       0.75000000000000000        0.0000000000000000     
  0.37500000000000000       0.75000000000000000        0.0000000000000000     
  0.50000000000000000       0.75000000000000000        0.0000000000000000     
   0.0000000000000000       0.87500000000000000        0.0000000000000000     
  0.12500000000000000       0.87500000000000000        0.0000000000000000     
  0.25000000000000000       0.87500000000000000        0.0000000000000000     
  0.37500000000000000       0.87500000000000000        0.0000000000000000     
  0.50000000000000000       0.87500000000000000        0.0000000000000000     
   0.0000000000000000        1.0000000000000000        0.0000000000000000     
  0.12500000000000000        1.0000000000000000        0.0000000000000000     
  0.25000000000000000        1.0000000000000000        0.0000000000000000     
  0.37500000000000000        1.0000000000000000        0.0000000000000000     
  0.50000000000000000        1.0000000000000000        0.0000000000000000     
  0.50000000000000000       0.50000000000000000        0.0000000000000000     
  0.62500000000000000       0.50000000000000000        0.0000000000000000     
  0.75000000000000000       0.50000000000000000        0.0000000000000000     
  0.87500000000000000       0.50000000000000000        0.0000000000000000     
   1.0000000000000000       0.50000000000000000        0.0000000000000000     
  0.50000000000000000       0.62500000000000000        0.0000000000000000     
  0.62500000000000000       0.62500000000000000        0.0000000000000000     
  0.75000000000000000       0.62500000000000000        0.0000000000000000     
  0.87500000000000000       0.62500000000000000        0.0000000000000000     
   1.0000000000000000       0.62500000000000000        0.0000000000000000     
  0.50000000000000000       0.75000000000000000        0.0000000000000000     
  0.62500000000000000       0.75000000000000000        0.0000000000000000     
  0.75000000000000000       0.75000000000000000        0.0000000000000000     
  0.87500000000000000       0.75000000000000000        0.0000000000000000     
   1.0000000000000000       0.75000000000000000        0.0000000000000000     
  0.50000000000000000       0.87500000000000000        0.0000000000000000     
  0.62500000000000000       0.87500000000000000        0.0000000000000000     
  0.75000000000000000       0.87500000000000000        0.0000000000000000     
  0.87500000000000000       0.87500000000000000        0.0000000000000000     
   1.0000000000000000       0.87500000000000000        0.0000000000000000     
  0.50000000000000000        1.0000000000000000        0.0000000000000000     
  0.62500000000000000        1.0000000000000000        0.0000000000000000     
  0.75000000000000000        1.0000000000000000        0.0000000000000000     
  0.87500000000000000        1.0000000000000000        0.0000000000000000     
   1.0000000000000000        1.0000000000000000        0.0000000000000000     
 </DataArray>
 </Points>
 <Cells>
 <DataArray  type="Int32"  Name="connectivity"  format="ascii">
           0           1           6           5
           1           2           7           6
           2           3           8           7
           3           4           9           8
           5           6          11          10
           6           7          12          11
           7           8          13          12
           8           9          14          13
          10          11          16          15
          11          12          17          16
          12          13          18          17
          13          14          19          18
          15          16          21          20
          16          17          22          21
          17          18          23          22
          18          19          24          23
          25          26          31          30
          26          27          32          31
          27          28          33          32
          28          29          34          33
          30          31          36          35
          31          32          37          36
          32          33          38          37
          33          34          39          38
          35          36          41          40
          36          37          42          41
          37          38          43          42
          38          39          44          43
          40          41          46          45
          41          42          47          46
          42          43          48          47
          43          44          49          48
          50          51          56          55
          51          52          57          56
          52          53          58          57
          53          54          59          58
          55          56          61          60
          56          57          62          61
          57          58          63          62
          58          59          64          63
          60          61          66          65
          61          62          67          66
          62          63          68          67
          63          64          69          68
          65          66          71          70
          66          67          72          71
          67          68          73          72
          68          69          74          73
          75          76          81          80
          76          77          82          81
          77          78          83          82
          78          79          84          83
          80          81          86          85
          81          82          87          86
          82          83          88          87
          83          84          89          88
          85          86          91          90
          86          87          92          91
          87          88          93          92
          88          89          94          93
          90          91          96          95
          91          92          97          96
          92          93          98          97
          93          94          99          98
 </DataArray>
 <DataArray  type="Int32"  Name="offsets"  format="ascii"> 
           4
           8
          12
          16
          20
          24
          28
          32
          36
          40
          44
          48
          52
          56
          60
          64
          68
          72
          76
          80
          84
          88
          92
          96
         100
         104
         108
         112
         116
         120
         124
         128
         132
         136
         140
         144
         148
         152
         156
         160
         164
         168
         172
         176
         180
         184
         188
         192
         196
         200
         204
         208
         212
         216
         220
         224
         228
         232
         236
         240
         244
         248
         252
         256
 </DataArray>
 <DataArray  type="UInt8"  Name="types"  format="ascii">
 9
 9
 9
 9
 9
 9
 9
 9
 9
 9
 9
 9
 9
 9
 9
 9
 9
 9
 9
 9
 9
 9
 9
 9
 9
 9
 9
 9
 9
 9
 9
 9
 9
 9
 9
 9
 9
 9
 9
 9
 9
 9
 9
 9
 9
 9
 9
 9
 9
 9
 9
 9
 9
 9
 9
 9
 9
 9
 9
 9
 9
 9
 9
 9
 </DataArray>
 </Cells> 
 <PointData>
 <DataArray  type="Float64" Name="disp" NumberOfComponents="3" format="ascii">
   0.0000000000000000        0.0000000000000000        0.0000000000000000     
   1.9102915801056650E-002   1.1583257392766942E-002   0.0000000000000000     
   3.6192631705892292E-002   2.5815838957506922E-002   0.0000000000000000     
   5.1269147714506920E-002   4.2697744694219934E-002   0.0000000000000000     
   6.4332463826900541E-002   6.2228974602905981E-002   0.0000000000000000     
   0.0000000000000000        0.0000000000000000        0.0000000000000000     
   1.2663314540325578E-002   9.3005933664807097E-003   0.0000000000000000     
   2.4513764251408207E-002   2.2145181463215018E-002   0.0000000000000000     
   3.5551349133247895E-002   3.8533764290202929E-002   0.0000000000000000     
   4.5776069185844620E-002   5.8466341847444446E-002   0.0000000000000000     
   0.0000000000000000        0.0000000000000000        0.0000000000000000     
   7.3329614865724453E-003   7.6701190619905442E-003   0.0000000000000000     
   1.4588703148931466E-002   1.9523283253006517E-002   0.0000000000000000     
   2.1767224987077061E-002   3.5559492573047920E-002   0.0000000000000000     
   2.8868527001009229E-002   5.5778747022114751E-002   0.0000000000000000     
   0.0000000000000000        0.0000000000000000        0.0000000000000000     
   3.1118566397972548E-003   6.6918344792964470E-003   0.0000000000000000     
   6.4174483984620664E-003   1.7950144326881412E-002   0.0000000000000000     
   9.9167752759944348E-003   3.3774929542754906E-002   0.0000000000000000     
   1.3609837272394364E-002   5.4166190126916910E-002   0.0000000000000000     
   0.0000000000000000        0.0000000000000000        0.0000000000000000     
   4.7704895589362195E-018   6.3657396183984180E-003   0.0000000000000000     
   8.6736173798840355E-018   1.7425764684839709E-002   0.0000000000000000     
   1.0842021724855044E-017   3.3180075199323873E-002   0.0000000000000000     
   1.1709383462843448E-017   5.3628671161850910E-002   0.0000000000000000     
   6.4332463826900541E-002   6.2228974602905981E-002   0.0000000000000000     
   7.5556457443226449E-002   8.4471427520084172E-002   0.0000000000000000     
   8.5115005963637955E-002  0.10948700228227357        0.0000000000000000     
   9.3008109388135043E-002  0.13727569888947425        0.0000000000000000     
   9.9235767716717743E-002  0.16783751734168609        0.0000000000000000     
   4.5776069185844620E-002   5.8466341847444446E-002   0.0000000000000000     
   5.4840316732082957E-002   8.1428377311161884E-002   0.0000000000000000     
   6.2396484094847438E-002  0.10690533385757761        0.0000000000000000     
   6.8444571274138069E-002  0.13489721148669159        0.0000000000000000     
   7.2984578269954831E-002  0.16540401019850390        0.0000000000000000     
   2.8868527001009229E-002   5.5778747022114751E-002   0.0000000000000000     
   3.5342193587830723E-002   7.9254770019074522E-002   0.0000000000000000     
   4.0637809144644287E-002  0.10506128498279475        0.0000000000000000     
   4.4755373671449931E-002  0.13319829191327542        0.0000000000000000     
   4.7694887168247636E-002  0.16366579081051655        0.0000000000000000     
   1.3609837272394364E-002   5.4166190126916910E-002   0.0000000000000000     
   1.7062088010469753E-002   7.7950605643822057E-002   0.0000000000000000     
   1.9838981113028516E-002  0.10395485565792496        0.0000000000000000     
   2.1940516580070658E-002  0.13217894016922566        0.0000000000000000     
   2.3366694411596160E-002  0.16262285917772409        0.0000000000000000     
   1.1709383462843448E-017   5.3628671161850910E-002   0.0000000000000000     
   3.6212352561015848E-017   7.7515884185404491E-002   0.0000000000000000     
   1.1091388224526710E-016  0.10358604588296830        0.0000000000000000     
   2.3589528767853363E-016  0.13183915625454229        0.0000000000000000     
   4.0245584642661925E-016  0.16227521530012651        0.0000000000000000     
   0.0000000000000000        0.0000000000000000        0.0000000000000000     
   4.7704895589362195E-018   6.3657396183984180E-003   0.0000000000000000     
   8.6736173798840355E-018   1.7425764684839709E-002   0.0000000000000000     
   1.0842021724855044E-017   3.3180075199323873E-002   0.0000000000000000     
   1.1709383462843448E-017   5.3628671161850910E-002   0.0000000000000000     
   0.0000000000000000        0.0000000000000000        0.0000000000000000     
  -3.1118566397972400E-003   6.6918344792964556E-003   0.0000000000000000     
  -6.4174483984620395E-003   1.7950144326881405E-002   0.0000000000000000     
  -9.9167752759944001E-003   3.3774929542754850E-002   0.0000000000000000     
  -1.3609837272394320E-002   5.4166190126916793E-002   0.0000000000000000     
   0.0000000000000000        0.0000000000000000        0.0000000000000000     
  -7.3329614865724159E-003   7.6701190619905537E-003   0.0000000000000000     
  -1.4588703148931410E-002   1.9523283253006497E-002   0.0000000000000000     
  -2.1767224987076991E-002   3.5559492573047830E-002   0.0000000000000000     
  -2.8868527001009142E-002   5.5778747022114550E-002   0.0000000000000000     
   0.0000000000000000        0.0000000000000000        0.0000000000000000     
  -1.2663314540325521E-002   9.3005933664807184E-003   0.0000000000000000     
  -2.4513764251408103E-002   2.2145181463214991E-002   0.0000000000000000     
  -3.5551349133247749E-002   3.8533764290202811E-002   0.0000000000000000     
  -4.5776069185844460E-002   5.8466341847444175E-002   0.0000000000000000     
   0.0000000000000000        0.0000000000000000        0.0000000000000000     
  -1.9102915801056559E-002   1.1583257392766942E-002   0.0000000000000000     
  -3.6192631705892125E-002   2.5815838957506873E-002   0.0000000000000000     
  -5.1269147714506691E-002   4.2697744694219796E-002   0.0000000000000000     
  -6.4332463826900263E-002   6.2228974602905704E-002   0.0000000000000000     
   1.1709383462843448E-017   5.3628671161850910E-002   0.0000000000000000     
   3.6212352561015848E-017   7.7515884185404491E-002   0.0000000000000000     
   1.1091388224526710E-016  0.10358604588296830        0.0000000000000000     
   2.3589528767853363E-016  0.13183915625454229        0.0000000000000000     
   4.0245584642661925E-016  0.16227521530012651        0.0000000000000000     
  -1.3609837272394320E-002   5.4166190126916793E-002   0.0000000000000000     
  -1.7062088010469666E-002   7.7950605643821863E-002   0.0000000000000000     
  -1.9838981113028287E-002  0.10395485565792474        0.0000000000000000     
  -2.1940516580070193E-002  0.13217894016922538        0.0000000000000000     
  -2.3366694411595376E-002  0.16262285917772384        0.0000000000000000     
  -2.8868527001009142E-002   5.5778747022114550E-002   0.0000000000000000     
  -3.5342193587830591E-002   7.9254770019074203E-002   0.0000000000000000     
  -4.0637809144644030E-002  0.10506128498279435        0.0000000000000000     
  -4.4755373671449480E-002  0.13319829191327498        0.0000000000000000     
  -4.7694887168246915E-002  0.16366579081051619        0.0000000000000000     
  -4.5776069185844460E-002   5.8466341847444175E-002   0.0000000000000000     
  -5.4840316732082749E-002   8.1428377311161496E-002   0.0000000000000000     
  -6.2396484094847139E-002  0.10690533385757715        0.0000000000000000     
  -6.8444571274137639E-002  0.13489721148669115        0.0000000000000000     
  -7.2984578269954192E-002  0.16540401019850348        0.0000000000000000     
  -6.4332463826900263E-002   6.2228974602905704E-002   0.0000000000000000     
  -7.5556457443226130E-002   8.4471427520083756E-002   0.0000000000000000     
  -8.5115005963637580E-002  0.10948700228227314        0.0000000000000000     
  -9.3008109388134627E-002  0.13727569888947380        0.0000000000000000     
  -9.9235767716717244E-002  0.16783751734168578        0.0000000000000000     
 </DataArray>
 <DataArray  type="Float64" Name="stress" NumberOfComponents="3" format="ascii">
   10607217098.461798        3182165129.5385389        1893894518.1748476     
   9132494867.7578201        1487544194.4788971        1091758913.4523227     
   7819571770.9846439        332253705.85526419        554118096.04407525     
   6668447808.1422710       -283706336.33235836        280972065.95010483     
   5679122979.2307024       -360335932.08397198        272320823.17041087     
   6893932459.7522907        2068179737.9256873        1389894646.4037986     
   6155557648.9253502        907514095.29126954        957713275.26745963     
   5538532188.5465107        151346287.48385596        704237756.93182111     
   5042856078.6157751       -200323685.49655080        629468091.39688277     
   4668529319.1331377       -147495823.64995384        733404278.66264486     
   3888301397.1054897        1166490419.1316469        1029894737.9959067     
   3641162764.6882253        466246696.48224473        920476186.38260233     
   3474923699.2363601        35668197.050842762        903974553.05642164     
   3389584200.7498960       -125245079.16255879        980389838.01736462     
   3385144269.2288322       -16493132.157958984        1149722041.2654309     
   1590323910.5213940        477097173.15641820        813894792.95117283     
   1589310215.0464427        163741998.05182278        980047646.79775119     
   1628746303.0541906       -14780565.443776250        1153328484.4178770     
   1708632174.5446370       -58470517.330379725        1333737305.8115485     
   1828967829.5177829        32672142.392014742        1521274110.9787679     
   2.9738116731030980E-006   8.9214350193092938E-007   741894811.26959658     
   3.2311607601985581E-006   3.8316419634212995E-006   1136427656.5129063     
   9.2645671354365744E-007  -1.5955643399918543E-006   1452299551.0161862     
  -3.6543570367555378E-006  -1.5043483857880191E-005   1689510494.7794363     
  -1.0408340855860843E-005  -3.6429192995512949E-005   1848060487.8026564     
   5679122979.2307024       -360335932.08397198        272320823.17041087     
   4930781310.6813831       -190096007.11865306        425328802.17132574     
   4135744622.0089049       -175506149.23053169        591450527.37430668     
   3294012913.2132688       -316566358.41961098        770685998.77935648     
   2405586184.2944703       -613276634.68588495        963035216.38647079     
   4668529319.1331377       -147495823.64995384        733404278.66264486     
   3970659602.2944856       -60799919.553966999        759205675.82191896     
   3237768620.3634601       -90841565.765880585        829997294.44948220     
   2469856373.3400669       -237620762.28568792        945779134.54533708     
   1666922861.2243037       -501137509.11339831        1106551196.1094801     
   3385144269.2288322       -16493132.157958984        1149722041.2654309     
   2828822147.7186217        13981444.154024124        1061936237.4523200     
   2249152516.1468344       -33369013.072583079        1051017130.3737206     
   1646135374.5134640       -158544503.83779323        1116964720.0296373     
   1019770722.8185189       -361545028.14159405        1259779006.4200642     
   1828967829.5177829        32672142.392014742        1521274110.9787679     
   1505268946.9537959        34248084.005330980        1333520487.0625267     
   1169896309.3590221       -3088491.1506441236        1254510035.1470222     
   822849916.73345971       -79337583.075914919        1284242755.2322547     
   464129769.07710916       -194499191.77047870        1422718647.3182225     
  -1.0408340855860843E-005  -3.6429192995512949E-005   1848060487.8026564     
   8.5382708229671629E-006  -4.9948598370927802E-005   1573958424.6525416     
   3.0046935635545532E-005  -5.6142133067025212E-005   1440476008.7693865     
   5.2579277927903611E-005  -5.7969311585402973E-005   1447613240.1531901     
   7.8325624374653901E-005  -4.9777032312864157E-005   1595370118.8039536     
   2.9738116731030980E-006   8.9214350193092938E-007   741894811.26959658     
   3.2311607601985581E-006   3.8316419634212995E-006   1136427656.5129063     
   9.2645671354365744E-007  -1.5955643399918543E-006   1452299551.0161862     
  -3.6543570367555378E-006  -1.5043483857880191E-005   1689510494.7794363     
  -1.0408340855860843E-005  -3.6429192995512949E-005   1848060487.8026564     
  -1590323910.5213850       -477097173.15641546        813894792.95117676     
  -1589310215.0464346       -163741998.05181766        980047646.79775262     
  -1628746303.0541866        14780565.443773031        1153328484.4178746     
  -1708632174.5446410        58470517.330355644        1333737305.8115432     
  -1828967829.5177979       -32672142.392068982        1521274110.9787583     
  -3888301397.1054726       -1166490419.1316416        1029894737.9959129     
  -3641162764.6882105       -466246696.48224032        920476186.38260460     
  -3474923699.2363505       -35668197.050845623        903974553.05641890     
  -3389584200.7498946        125245079.16254187        980389838.01735604     
  -3385144269.2288375        16493132.157923460        1149722041.2654169     
  -6893932459.7522583       -2068179737.9256775        1389894646.4038045     
  -6155557648.9253235       -907514095.29126394        957713275.26746237     
  -5538532188.5464926       -151346287.48385668        704237756.93181956     
  -5042856078.6157618        200323685.49654317        629468091.39687622     
  -4668529319.1331329        147495823.64993763        733404278.66263163     
  -10607217098.461744       -3182165129.5385232        1893894518.1748521     
  -9132494867.7577782       -1487544194.4788902        1091758913.4523261     
  -7819571770.9846096       -332253705.85526180        554118096.04407632     
  -6668447808.1422462        283706336.33236074        280972065.95010215     
  -5679122979.2306833        360335932.08397722        272320823.17040354     
  -1.0408340855860843E-005  -3.6429192995512949E-005   1848060487.8026564     
   8.5382708229671629E-006  -4.9948598370927802E-005   1573958424.6525416     
   3.0046935635545532E-005  -5.6142133067025212E-005   1440476008.7693865     
   5.2579277927903611E-005  -5.7969311585402973E-005   1447613240.1531901     
   7.8325624374653901E-005  -4.9777032312864157E-005   1595370118.8039536     
  -1828967829.5177979       -32672142.392068982        1521274110.9787583     
  -1505268946.9537721       -34248084.005402207        1333520487.0625217     
  -1169896309.3589556        3088491.1505705714        1254510035.1470199     
  -822849916.73334587        79337583.075849593        1284242755.2322531     
  -464129769.07694519        194499191.77043629        1422718647.3182178     
  -3385144269.2288375        16493132.157923460        1149722041.2654169     
  -2828822147.7185941       -13981444.154068589        1061936237.4523138     
  -2249152516.1467657        33369013.072551489        1051017130.3737206     
  -1646135374.5133581        158544503.83777392        1116964720.0296354     
  -1019770722.8183666        361545028.14160305        1259779006.4200613     
  -4668529319.1331329        147495823.64993763        733404278.66263163     
  -3970659602.2944531        60799919.553958416        759205675.82191658     
  -3237768620.3634038        90841565.765882492        829997294.44948673     
  -2469856373.3399825        237620762.28571141        945779134.54533970     
  -1666922861.2241879        501137509.11345220        1106551196.1094780     
  -5679122979.2306833        360335932.08397722        272320823.17040354     
  -4930781310.6813574        190096007.11866713        425328802.17133152     
  -4135744622.0088663        175506149.23057079        591450527.37431920     
  -3294012913.2132163        316566358.41967130        770685998.77936542     
  -2405586184.2944059        613276634.68597758        963035216.38647020     
 </DataArray>
 <DataArray  type="Float64" Name="VM" NumberOfComponents="1" format="ascii">
   9982275414.5184479     
   8695175276.7737293     
   7718753403.2778988     
   6832086230.2372169     
   5886522552.5359421     
   6583403538.0197201     
   5989980018.7052832     
   5598916026.5465393     
   5260173073.0043945     
   4911125645.5767269     
   3889212110.4786315     
   3784124915.9660339     
   3795251328.9998374     
   3848764584.7520952     
   3934575923.1741838     
   1996318364.6092584     
   2274634419.2908287     
   2582170899.6617641     
   2891247640.5869002     
   3198321318.3083682     
   1284999506.9906645     
   1968350440.2067862     
   2515456610.1695032     
   2926318016.8788161     
   3200934660.3347244     
   5886522552.5359421     
   5082201927.7762442     
   4348617685.9660835     
   3711519867.9739709     
   3228088196.4829674     
   4911125645.5767269     
   4211938967.5667801     
   3584997674.5491667     
   3070348156.1202455     
   2745631957.8021903     
   3934575923.1741838     
   3368383131.7959075     
   2906675688.2482853     
   2595903369.6377239     
   2510073625.2590837     
   3198321318.3083682     
   2747778307.0731840     
   2468535276.7748375     
   2386733693.6248331     
   2532963539.2926674     
   3200934660.3347244     
   2726175960.4992728     
   2494977634.2726092     
   2507339681.6547322     
   2763262102.6456437     
   1284999506.9906645     
   1968350440.2067862     
   2515456610.1695032     
   2926318016.8788161     
   3200934660.3347244     
   1996318364.6092575     
   2274634419.2908268     
   2582170899.6617575     
   2891247640.5868878     
   3198321318.3083477     
   3889212110.4786229     
   3784124915.9660239     
   3795251328.9998255     
   3848764584.7520800     
   3934575923.1741605     
   6583403538.0196972     
   5989980018.7052612     
   5598916026.5465202     
   5260173073.0043755     
   4911125645.5767078     
   9982275414.5184078     
   8695175276.7736931     
   7718753403.2778664     
   6832086230.2371931     
   5886522552.5359249     
   3200934660.3347244     
   2726175960.4992728     
   2494977634.2726092     
   2507339681.6547322     
   2763262102.6456437     
   3198321318.3083477     
   2747778307.0731449     
   2468535276.7747850     
   2386733693.6247759     
   2532963539.2926159     
   3934575923.1741605     
   3368383131.7958598     
   2906675688.2482195     
   2595903369.6376438     
   2510073625.2590094     
   4911125645.5767078     
   4211938967.5667439     
   3584997674.5491195     
   3070348156.1201878     
   2745631957.8021331     
   5886522552.5359249     
   5082201927.7762270     
   4348617685.9660702     
   3711519867.9739594     
   3228088196.4829645     
 </DataArray>
 <DataArray  type="Float64" Name="strain" NumberOfComponents="3" format="ascii">
  0.16087612599333725        0.0000000000000000        8.2068762454243396E-002
  0.14477052682356917       -2.0870071097474144E-002   4.7309552916267324E-002
  0.12866492765380108       -3.3560297090668816E-002   2.4011784161909928E-002
  0.11255932848403298       -3.8070677979584001E-002   1.2175456191171210E-002
   9.6453729314264894E-002  -3.4401213764219708E-002   1.1800569004051138E-002
  0.10455797563957642        0.0000000000000000        6.0228768010831268E-002
   9.8055057005632829E-002  -1.5652553323105594E-002   4.1500908594923253E-002
   9.1552138371689240E-002  -2.5170222818001624E-002   3.0516969467045584E-002
   8.5049219737745665E-002  -2.8553008484688051E-002   2.7276950627198253E-002
   7.8546301103802077E-002  -2.5800910323164922E-002   3.1780852075381276E-002
   5.8972571189433262E-002   0.0000000000000000        4.4628771979822623E-002
   5.8354812595725863E-002  -1.0435035548737048E-002   3.9887301409912770E-002
   5.7737054002018458E-002  -1.6780148545334422E-002   3.9172230632444939E-002
   5.7119295408311059E-002  -1.9035338989792126E-002   4.2483559647419136E-002
   5.6501536814603667E-002  -1.7200606882110146E-002   4.9821288454835341E-002
   2.4119912642907811E-002   0.0000000000000000        3.5268774361217489E-002
   2.5669793593848265E-002  -5.2175177743685013E-003   4.2468731361235884E-002
   2.7219674544788727E-002  -8.3900742726672247E-003   4.9977567658108006E-002
   2.8769555495729182E-002  -9.5176694948961808E-003   5.7795283251833765E-002
   3.0319436446669640E-002  -8.6003034410553365E-003   6.5921878142413279E-002
   4.5102810375396984E-017   0.0000000000000000        3.2148775155015852E-002
   3.4694469519536142E-017   4.7704895589362195E-017   4.9245198448892608E-002
   2.3418766925686896E-017  -3.1225022567582528E-017   6.2932980544034733E-002
   1.4311468676808659E-017  -2.3245294578089215E-016   7.3212121440442243E-002
   8.6736173798840355E-018  -5.5511151231257827E-016   8.0082621138115109E-002
   9.6453729314264894E-002  -3.4401213764219708E-002   1.1800569004051138E-002
   8.3130168546949657E-002  -2.7822173338717802E-002   1.8430914760757450E-002
   6.9806607779634405E-002  -2.3603825597220053E-002   2.5629522852886621E-002
   5.6483047012319196E-002  -2.1746170539726526E-002   3.3396393280438780E-002
   4.3159486245003931E-002  -2.2249208166237100E-002   4.1731526043413736E-002
   7.8546301103802077E-002  -2.5800910323164922E-002   3.1780852075381276E-002
   6.6481659636011256E-002  -2.0866630004038544E-002   3.2898912618949824E-002
   5.4417018168220407E-002  -1.7702869197915312E-002   3.5966549426144231E-002
   4.2352376700429559E-002  -1.6309627904795135E-002   4.0983762496964608E-002
   3.0287735232638724E-002  -1.6686906124678158E-002   4.7950551831410809E-002
   5.6501536814603667E-002  -1.7200606882110146E-002   4.9821288454835341E-002
   4.7077128574540238E-002  -1.3911086669359373E-002   4.6017236956267200E-002
   3.7652720334476815E-002  -1.1801912798610554E-002   4.5544075649527893E-002
   2.8228312094413368E-002  -1.0873085269863874E-002   4.8401804534617614E-002
   1.8803903854349949E-002  -1.1124604083119161E-002   5.4590423611536112E-002
   3.0319436446669640E-002  -8.6003034410553365E-003   6.5921878142413279E-002
   2.4916575362536612E-002  -6.9555433346801306E-003   5.7785887772709488E-002
   1.9513714278403590E-002  -5.9009563993058459E-003   5.4362101523037630E-002
   1.4110853194270570E-002  -5.4365426349325474E-003   5.5650519393397706E-002
   8.7079921101375461E-003  -5.5623020415601909E-003   6.1651141383789645E-002
   8.6736173798840355E-018  -5.5511151231257827E-016   8.0082621138115109E-002
   3.9204750557075840E-016  -8.7516799363029918E-016   6.8204865068276804E-002
   7.8149292592755160E-016  -1.0859368959614812E-015   6.2420627046673414E-002
   1.1661678567254086E-015  -1.2290515827295678E-015   6.2729907073304905E-002
   1.5543122344752192E-015  -1.2212453270876722E-015   6.9132705148171325E-002
   4.5102810375396984E-017   0.0000000000000000        3.2148775155015852E-002
   3.4694469519536142E-017   4.7704895589362195E-017   4.9245198448892608E-002
   2.3418766925686896E-017  -3.1225022567582528E-017   6.2932980544034733E-002
   1.4311468676808659E-017  -2.3245294578089215E-016   7.3212121440442243E-002
   8.6736173798840355E-018  -5.5511151231257827E-016   8.0082621138115109E-002
  -2.4119912642907672E-002   0.0000000000000000        3.5268774361217663E-002
  -2.5669793593848158E-002   5.2175177743685464E-003   4.2468731361235947E-002
  -2.7219674544788641E-002   8.3900742726671501E-003   4.9977567658107902E-002
  -2.8769555495729127E-002   9.5176694948957991E-003   5.7795283251833536E-002
  -3.0319436446669620E-002   8.6003034410545055E-003   6.5921878142412862E-002
  -5.8972571189432998E-002   0.0000000000000000        4.4628771979822894E-002
  -5.8354812595725641E-002   1.0435035548737049E-002   3.9887301409912868E-002
  -5.7737054002018284E-002   1.6780148545334328E-002   3.9172230632444821E-002
  -5.7119295408310948E-002   1.9035338989791838E-002   4.2483559647418762E-002
  -5.6501536814603577E-002   1.7200606882109580E-002   4.9821288454834731E-002
 -0.10455797563957592        0.0000000000000000        6.0228768010831532E-002
  -9.8055057005632412E-002   1.5652553323105552E-002   4.1500908594923371E-002
  -9.1552138371688921E-002   2.5170222818001516E-002   3.0516969467045515E-002
  -8.5049219737745416E-002   2.8553008484687864E-002   2.7276950627197968E-002
  -7.8546301103801910E-002   2.5800910323164627E-002   3.1780852075380707E-002
 -0.16087612599333645        0.0000000000000000        8.2068762454243591E-002
 -0.14477052682356850        2.0870071097474047E-002   4.7309552916267462E-002
 -0.12866492765380053        3.3560297090668684E-002   2.4011784161909973E-002
 -0.11255932848403258        3.8070677979583911E-002   1.2175456191171094E-002
  -9.6453729314264602E-002   3.4401213764219701E-002   1.1800569004050819E-002
   8.6736173798840355E-018  -5.5511151231257827E-016   8.0082621138115109E-002
   3.9204750557075840E-016  -8.7516799363029918E-016   6.8204865068276804E-002
   7.8149292592755160E-016  -1.0859368959614812E-015   6.2420627046673414E-002
   1.1661678567254086E-015  -1.2290515827295678E-015   6.2729907073304905E-002
   1.5543122344752192E-015  -1.2212453270876722E-015   6.9132705148171325E-002
  -3.0319436446669620E-002   8.6003034410545055E-003   6.5921878142412862E-002
  -2.4916575362535859E-002   6.9555433346788235E-003   5.7785887772709273E-002
  -1.9513714278402112E-002   5.9009563993042873E-003   5.4362101523037526E-002
  -1.4110853194268346E-002   5.4365426349308891E-003   5.5650519393397629E-002
  -8.7079921101346006E-003   5.5623020415586644E-003   6.1651141383789437E-002
  -5.6501536814603577E-002   1.7200606882109580E-002   4.9821288454834731E-002
  -4.7077128574539565E-002   1.3911086669358495E-002   4.6017236956266930E-002
  -3.7652720334475524E-002   1.1801912798609688E-002   4.5544075649527893E-002
  -2.8228312094411505E-002   1.0873085269863022E-002   4.8401804534617537E-002
  -1.8803903854347458E-002   1.1124604083118550E-002   5.4590423611535988E-002
  -7.8546301103801910E-002   2.5800910323164627E-002   3.1780852075380707E-002
  -6.6481659636010687E-002   2.0866630004038243E-002   3.2898912618949720E-002
  -5.4417018168219478E-002   1.7702869197915062E-002   3.5966549426144426E-002
  -4.2352376700428268E-002   1.6309627904795104E-002   4.0983762496964719E-002
  -3.0287735232637059E-002   1.6686906124678477E-002   4.7950551831410712E-002
  -9.6453729314264602E-002   3.4401213764219701E-002   1.1800569004050819E-002
  -8.3130168546949296E-002   2.7822173338717907E-002   1.8430914760757700E-002
  -6.9806607779633961E-002   2.3603825597220511E-002   2.5629522852887165E-002
  -5.6483047012318627E-002   2.1746170539727272E-002   3.3396393280439168E-002
  -4.3159486245003320E-002   2.2249208166238321E-002   4.1731526043413708E-002
 </DataArray>
 </PointData>
 </Piece>
 <Piece  NumberOfPoints="           100 "  NumberOfCells="           64 ">
 <Points>
 <DataArray  type="Float64" NumberOfComponents="3"  format="ascii" >
  0.50000000000000000        0.0000000000000000        0.0000000000000000     
  0.62500000000000000        0.0000000000000000        0.0000000000000000     
  0.75000000000000000        0.0000000000000000        0.0000000000000000     
  0.87500000000000000        0.0000000000000000        0.0000000000000000     
   1.0000000000000000        0.0000000000000000        0.0000000000000000     
  0.50000000000000000       0.12500000000000000        0.0000000000000000     
  0.62500000000000000       0.12500000000000000        0.0000000000000000     
  0.75000000000000000       0.12500000000000000        0.0000000000000000     
  0.87500000000000000       0.12500000000000000        0.0000000000000000     
   1.0000000000000000       0.12500000000000000        0.0000000000000000     
  0.50000000000000000       0.25000000000000000        0.0000000000000000     
  0.62500000000000000       0.25000000000000000        0.0000000000000000     
  0.75000000000000000       0.25000000000000000        0.0000000000000000     
  0.87500000000000000       0.25000000000000000        0.0000000000000000     
   1.0000000000000000       0.25000000000000000        0.0000000000000000     
  0.50000000000000000       0.37500000000000000        0.0000000000000000     
  0.62500000000000000       0.37500000000000000        0.0000000000000000     
  0.75000000000000000       0.37500000000000000        0.0000000000000000     
  0.87500000000000000       0.37500000000000000        0.0000000000000000     
   1.0000000000000000       0.37500000000000000        0.0000000000000000     
  0.50000000000000000       0.50000000000000000        0.0000000000000000     
  0.62500000000000000       0.50000000000000000        0.0000000000000000     
  0.75000000000000000       0.50000000000000000        0.0000000000000000     
  0.87500000000000000       0.50000000000000000        0.0000000000000000     
   1.0000000000000000       0.50000000000000000        0.0000000000000000     
   1.0000000000000000        0.0000000000000000        0.0000000000000000     
   1.1250000000000000        0.0000000000000000        0.0000000000000000     
   1.2500000000000000        0.0000000000000000        0.0000000000000000     
   1.3750000000000000        0.0000000000000000        0.0000000000000000     
   1.5000000000000000        0.0000000000000000        0.0000000000000000     
   1.0000000000000000       0.12500000000000000        0.0000000000000000     
   1.1250000000000000       0.12500000000000000        0.0000000000000000     
   1.2500000000000000       0.12500000000000000        0.0000000000000000     
   1.3750000000000000       0.12500000000000000        0.0000000000000000     
   1.5000000000000000       0.12500000000000000        0.0000000000000000     
   1.0000000000000000       0.25000000000000000        0.0000000000000000     
   1.1250000000000000       0.25000000000000000        0.0000000000000000     
   1.2500000000000000       0.25000000000000000        0.0000000000000000     
   1.3750000000000000       0.25000000000000000        0.0000000000000000     
   1.5000000000000000       0.25000000000000000        0.0000000000000000     
   1.0000000000000000       0.37500000000000000        0.0000000000000000     
   1.1250000000000000       0.37500000000000000        0.0000000000000000     
   1.2500000000000000       0.37500000000000000        0.0000000000000000     
   1.3750000000000000       0.37500000000000000        0.0000000000000000     
   1.5000000000000000       0.37500000000000000        0.0000000000000000     
   1.0000000000000000       0.50000000000000000        0.0000000000000000     
   1.1250000000000000       0.50000000000000000        0.0000000000000000     
   1.2500000000000000       0.50000000000000000        0.0000000000000000     
   1.3750000000000000       0.50000000000000000        0.0000000000000000     
   1.5000000000000000       0.50000000000000000        0.0000000000000000     
  0.50000000000000000       0.50000000000000000        0.0000000000000000     
  0.62500000000000000       0.50000000000000000        0.0000000000000000     
  0.75000000000000000       0.50000000000000000        0.0000000000000000     
  0.87500000000000000       0.50000000000000000        0.0000000000000000     
   1.0000000000000000       0.50000000000000000        0.0000000000000000     
  0.50000000000000000       0.62500000000000000        0.0000000000000000     
  0.62500000000000000       0.62500000000000000        0.0000000000000000     
  0.75000000000000000       0.62500000000000000        0.0000000000000000     
  0.87500000000000000       0.62500000000000000        0.0000000000000000     
   1.0000000000000000       0.62500000000000000        0.0000000000000000     
  0.50000000000000000       0.75000000000000000        0.0000000000000000     
  0.62500000000000000       0.75000000000000000        0.0000000000000000     
  0.75000000000000000       0.75000000000000000        0.0000000000000000     
  0.87500000000000000       0.75000000000000000        0.0000000000000000     
   1.0000000000000000       0.75000000000000000        0.0000000000000000     
  0.50000000000000000       0.87500000000000000        0.0000000000000000     
  0.62500000000000000       0.87500000000000000        0.0000000000000000     
  0.75000000000000000       0.87500000000000000        0.0000000000000000     
  0.87500000000000000       0.87500000000000000        0.0000000000000000     
   1.0000000000000000       0.87500000000000000        0.0000000000000000     
  0.50000000000000000        1.0000000000000000        0.0000000000000000     
  0.62500000000000000        1.0000000000000000        0.0000000000000000     
  0.75000000000000000        1.0000000000000000        0.0000000000000000     
  0.87500000000000000        1.0000000000000000        0.0000000000000000     
   1.0000000000000000        1.0000000000000000        0.0000000000000000     
   1.0000000000000000       0.50000000000000000        0.0000000000000000     
   1.1250000000000000       0.50000000000000000        0.0000000000000000     
   1.2500000000000000       0.50000000000000000        0.0000000000000000     
   1.3750000000000000       0.50000000000000000        0.0000000000000000     
   1.5000000000000000       0.50000000000000000        0.0000000000000000     
   1.0000000000000000       0.62500000000000000        0.0000000000000000     
   1.1250000000000000       0.62500000000000000        0.0000000000000000     
   1.2500000000000000       0.62500000000000000        0.0000000000000000     
   1.3750000000000000       0.62500000000000000        0.0000000000000000     
   1.5000000000000000       0.62500000000000000        0.0000000000000000     
   1.0000000000000000       0.75000000000000000        0.0000000000000000     
   1.1250000000000000       0.75000000000000000        0.0000000000000000     
   1.2500000000000000       0.75000000000000000        0.0000000000000000     
   1.3750000000000000       0.75000000000000000        0.0000000000000000     
   1.5000000000000000       0.75000000000000000        0.0000000000000000     
   1.0000000000000000       0.87500000000000000        0.0000000000000000     
   1.1250000000000000       0.87500000000000000        0.0000000000000000     
   1.2500000000000000       0.87500000000000000        0.0000000000000000     
   1.3750000000000000       0.87500000000000000        0.0000000000000000     
   1.5000000000000000       0.87500000000000000        0.0000000000000000     
   1.0000000000000000        1.0000000000000000        0.0000000000000000     
   1.1250000000000000        1.0000000000000000        0.0000000000000000     
   1.2500000000000000        1.0000000000000000        0.0000000000000000     
   1.3750000000000000        1.0000000000000000        0.0000000000000000     
   1.5000000000000000        1.0000000000000000        0.0000000000000000     
 </DataArray>
 </Points>
 <Cells>
 <DataArray  type="Int32"  Name="connectivity"  format="ascii">
           0           1           6           5
           1           2           7           6
           2           3           8           7
           3           4           9           8
           5           6          11          10
           6           7          12          11
           7           8          13          12
           8           9          14          13
          10          11          16          15
          11          12          17          16
          12          13          18          17
          13          14          19          18
          15          16          21          20
          16          17          22          21
          17          18          23          22
          18          19          24          23
          25          26          31          30
          26          27          32          31
          27          28          33          32
          28          29          34          33
          30          31          36          35
          31          32          37          36
          32          33          38          37
          33          34          39          38
          35          36          41          40
          36          37          42          41
          37          38          43          42
          38          39          44          43
          40          41          46          45
          41          42          47          46
          42          43          48          47
          43          44          49          48
          50          51          56          55
          51          52          57          56
          52          53          58          57
          53          54          59          58
          55          56          61          60
          56          57          62          61
          57          58          63          62
          58          59          64          63
          60          61          66          65
          61          62          67          66
          62          63          68          67
          63          64          69          68
          65          66          71          70
          66          67          72          71
          67          68          73          72
          68          69          74          73
          75          76          81          80
          76          77          82          81
          77          78          83          82
          78          79          84          83
          80          81          86          85
          81          82          87          86
          82          83          88          87
          83          84          89          88
          85          86          91          90
          86          87          92          91
          87          88          93          92
          88          89          94          93
          90          91          96          95
          91          92          97          96
          92          93          98          97
          93          94          99          98
 </DataArray>
 <DataArray  type="Int32"  Name="offsets"  format="ascii"> 
           4
           8
          12
          16
          20
          24
          28
          32
          36
          40
          44
          48
          52
          56
          60
          64
          68
          72
          76
          80
          84
          88
          92
          96
         100
         104
         108
         112
         116
         120
         124
         128
         132
         136
         140
         144
         148
         152
         156
         160
         164
         168
         172
         176
         180
         184
         188
         192
         196
         200
         204
         208
         212
         216
         220
         224
         228
         232
         236
         240
         244
         248
         252
         256
 </DataArray>
 <DataArray  type="UInt8"  Name="types"  format="ascii">
 9
 9
 9
 9
 9
 9
 9
 9
 9
 9
 9
 9
 9
 9
 9
 9
 9
 9
 9
 9
 9
 9
 9
 9
 9
 9
 9
 9
 9
 9
 9
 9
 9
 9
 9
 9
 9
 9
 9
 9
 9
 9
 9
 9
 9
 9
 9
 9
 9
 9
 9
 9
 9
 9
 9
 9
 9
 9
 9
 9
 9
 9
 9
 9
 </DataArray>
 </Cells> 
 <PointData>
 <DataArray  type="Float64" Name="disp" NumberOfComponents="3" format="ascii">
   7.2210043915840155E-002   5.4523910039135114E-002   0.0000000000000000     
   8.1135357647687409E-002   8.0714831529534015E-002   0.0000000000000000     
   8.9257172330704987E-002  0.10810335294859488        0.0000000000000000     
   9.6575487964892917E-002  0.13668947429631775        0.0000000000000000     
  0.10309030455025119       0.16647319557270257        0.0000000000000000     
   4.7183125301711357E-002   5.5586145268780050E-002   0.0000000000000000     
   5.5340315815143315E-002   8.0012986634137750E-002   0.0000000000000000     
   6.2528438273704162E-002  0.10637599472232118        0.0000000000000000     
   6.8747492677393870E-002  0.13467516953333036        0.0000000000000000     
   7.3997479026212482E-002  0.16491051106716523        0.0000000000000000     
   2.6805811777695046E-002   5.6344884718526549E-002   0.0000000000000000     
   3.3219408929680713E-002   7.9511668851711931E-002   0.0000000000000000     
   3.8742664866253052E-002  0.10514216741784002        0.0000000000000000     
   4.3375579587412061E-002  0.13323638041691080        0.0000000000000000     
   4.7118153093157734E-002  0.16379430784892429        0.0000000000000000     
   1.1078103343791239E-002   5.6800128388374595E-002   0.0000000000000000     
   1.4772636991299611E-002   7.9210878182256556E-002   0.0000000000000000     
   1.7899852108351686E-002  0.10440187103515142        0.0000000000000000     
   2.0459748694947457E-002  0.13237310694705914        0.0000000000000000     
   2.2452326751086930E-002  0.16312458591797974        0.0000000000000000     
  -6.9388939039072284E-017   5.6951876278324196E-002   0.0000000000000000     
   0.0000000000000000        7.9110614625771625E-002   0.0000000000000000     
   5.2909066017292616E-017  0.10415510557425534        0.0000000000000000     
   7.8713077722447622E-017  0.13208534912377531        0.0000000000000000     
   8.6736173798840355E-017  0.16290134527433156        0.0000000000000000     
  0.10309030455025119       0.16647319557270257        0.0000000000000000     
  0.10853728559318221       0.19764945550597457        0.0000000000000000     
  0.11265209460008843       0.23041319282435904        0.0000000000000000     
  0.11543473157096985       0.26476440752785596        0.0000000000000000     
  0.11688519650582646       0.30070309961646530        0.0000000000000000     
   7.3997479026212482E-002  0.16491051106716523        0.0000000000000000     
   7.8199795547401266E-002  0.19666967169648769        0.0000000000000000     
   8.1275840468201535E-002  0.22954030379395954        0.0000000000000000     
   8.3225613788613290E-002  0.26352240735958077        0.0000000000000000     
   8.4049115508636543E-002  0.29861598239335141        0.0000000000000000     
   4.7118153093157734E-002  0.16379430784892429        0.0000000000000000     
   4.9997751266610595E-002  0.19596982611828273        0.0000000000000000     
   5.2041739990891185E-002  0.22891681162938843        0.0000000000000000     
   5.3250119265999499E-002  0.26263526438224133        0.0000000000000000     
   5.3622889091935529E-002  0.29712518437684149        0.0000000000000000     
   2.2452326751086930E-002  0.16312458591797974        0.0000000000000000     
   2.3931152750810206E-002  0.19554991877135972        0.0000000000000000     
   2.4949793168157368E-002  0.22854271633064574        0.0000000000000000     
   2.5508248003128439E-002  0.26210297859583759        0.0000000000000000     
   2.5606517255723407E-002  0.29623070556693559        0.0000000000000000     
   8.6736173798840355E-017  0.16290134527433156        0.0000000000000000     
   8.6736173798840355E-017  0.19540994965571870        0.0000000000000000     
   1.0885389811754465E-016  0.22841801789773142        0.0000000000000000     
   1.3953681959888442E-016  0.26192555000036977        0.0000000000000000     
   1.8041124150158794E-016  0.29593254596363355        0.0000000000000000     
  -6.9388939039072284E-017   5.6951876278324196E-002   0.0000000000000000     
   0.0000000000000000        7.9110614625771625E-002   0.0000000000000000     
   5.2909066017292616E-017  0.10415510557425534        0.0000000000000000     
   7.8713077722447622E-017  0.13208534912377531        0.0000000000000000     
   8.6736173798840355E-017  0.16290134527433156        0.0000000000000000     
  -1.1078103343791300E-002   5.6800128388375289E-002   0.0000000000000000     
  -1.4772636991299550E-002   7.9210878182257083E-002   0.0000000000000000     
  -1.7899852108351544E-002  0.10440187103515175        0.0000000000000000     
  -2.0459748694947270E-002  0.13237310694705931        0.0000000000000000     
  -2.2452326751086740E-002  0.16312458591797971        0.0000000000000000     
  -2.6805811777694873E-002   5.6344884718527784E-002   0.0000000000000000     
  -3.3219408929680477E-002   7.9511668851712819E-002   0.0000000000000000     
  -3.8742664866252781E-002  0.10514216741784060        0.0000000000000000     
  -4.3375579587411783E-002  0.13323638041691108        0.0000000000000000     
  -4.7118153093157485E-002  0.16379430784892429        0.0000000000000000     
  -4.7183125301710788E-002   5.5586145268781688E-002   0.0000000000000000     
  -5.5340315815142774E-002   8.0012986634138875E-002   0.0000000000000000     
  -6.2528438273703676E-002  0.10637599472232187        0.0000000000000000     
  -6.8747492677393454E-002  0.13467516953333061        0.0000000000000000     
  -7.3997479026212135E-002  0.16491051106716526        0.0000000000000000     
  -7.2210043915839045E-002   5.4523910039137001E-002   0.0000000000000000     
  -8.1135357647686451E-002   8.0714831529535236E-002   0.0000000000000000     
  -8.9257172330704210E-002  0.10810335294859558        0.0000000000000000     
  -9.6575487964892293E-002  0.13668947429631800        0.0000000000000000     
 -0.10309030455025071       0.16647319557270254        0.0000000000000000     
   8.6736173798840355E-017  0.16290134527433156        0.0000000000000000     
   8.6736173798840355E-017  0.19540994965571870        0.0000000000000000     
   1.0885389811754465E-016  0.22841801789773142        0.0000000000000000     
   1.3953681959888442E-016  0.26192555000036977        0.0000000000000000     
   1.8041124150158794E-016  0.29593254596363355        0.0000000000000000     
  -2.2452326751086740E-002  0.16312458591797971        0.0000000000000000     
  -2.3931152750810009E-002  0.19554991877135963        0.0000000000000000     
  -2.4949793168157163E-002  0.22854271633064555        0.0000000000000000     
  -2.5508248003128176E-002  0.26210297859583753        0.0000000000000000     
  -2.5606517255723056E-002  0.29623070556693554        0.0000000000000000     
  -4.7118153093157485E-002  0.16379430784892429        0.0000000000000000     
  -4.9997751266610373E-002  0.19596982611828259        0.0000000000000000     
  -5.2041739990890963E-002  0.22891681162938821        0.0000000000000000     
  -5.3250119265999256E-002  0.26263526438224116        0.0000000000000000     
  -5.3622889091935230E-002  0.29712518437684149        0.0000000000000000     
  -7.3997479026212135E-002  0.16491051106716526        0.0000000000000000     
  -7.8199795547401016E-002  0.19666967169648750        0.0000000000000000     
  -8.1275840468201327E-002  0.22954030379395929        0.0000000000000000     
  -8.3225613788613095E-002  0.26352240735958060        0.0000000000000000     
  -8.4049115508636335E-002  0.29861598239335146        0.0000000000000000     
 -0.10309030455025071       0.16647319557270254        0.0000000000000000     
 -0.10853728559318188       0.19764945550597440        0.0000000000000000     
 -0.11265209460008821       0.23041319282435882        0.0000000000000000     
 -0.11543473157096970       0.26476440752785579        0.0000000000000000     
 -0.11688519650582635       0.30070309961646541        0.0000000000000000     
 </DataArray>
 <DataArray  type="Float64" Name="stress" NumberOfComponents="3" format="ascii">
   5111872452.9970951        2116273633.3043249       -324849163.03700775     
   4369018903.8424473        925693614.24962068       -155517757.17322060     
   3759733478.2163148        180340673.62330544       -39303322.778556064     
   3284016176.1187000       -119785188.57462692        23794140.146985848     
   2941866997.5496006        25316027.655834317        33774631.603406414     
   4702349402.7830696        1847738743.8888652        139687741.82257652     
   3951920220.3022885        896817023.41338491        265283144.81856540     
   3301667130.4678965        279815611.75920057        382862347.82221442     
   2751590133.2798882       -3265491.0736991167        492425350.83352423     
   2301689228.7382703        47573714.914696097        593972153.85249639     
   3713862977.2122283        1405514841.8663583        716753711.58535206     
   3084717508.4818401        732909224.09306538        759655742.35105681     
   2522356101.5157132        282917145.53396755        839642344.60120642     
   2026778756.3138411        55538606.189060688        956713518.33580136     
   1597985472.8762271        50773606.058348656        1110869263.5548408     
   2146413176.2845724        789601927.23680902        1406348746.2513165     
   1767410768.3811045        433970216.28865874        1327600035.4242556     
   1421800391.3597646        189645274.94760454        1331036667.5584219     
   1109582045.2205532        56627103.213646710        1416658642.6538169     
   830755729.96347046        34915701.086783022        1584465960.7104414     
   1.0367165001925568E-004   2.1512096133739639E-004   2208472845.8204751     
   7.7639360142399335E-005   1.6234724187702066E-004   1969116024.0381603     
   5.2430587344248464E-005   1.1231857934566316E-004   1857045316.6938593     
   2.5734908709546041E-005   5.7680508720995854E-005   1872260723.7875710     
  -7.3201518107153178E-007   3.1110645195540098E-006   2014762245.3192945     
   2941866997.5496006        25316027.655834317        33774631.603406414     
   2344599110.7060742        165898329.15044558        104268128.77885775     
   1661246637.3097336        19532008.802335262        204949855.71055540     
   891809577.36057663       -413782933.38849556        335819812.39850193     
   36287930.858604908       -1134046497.4220371        496877998.84268445     
   2301689228.7382703        47573714.914696097        593972153.85249639     
   1786674099.0808380        132891176.67820829        562177698.48209155     
   1207095529.5087950        2997172.0596914887        576219789.59038591     
   562953520.02214217       -342108298.94086462        636098427.17737246     
  -145751929.37912598       -902425236.32345831        741813611.24305165     
   1597985472.8762271        50773606.058348656        1110869263.5548408     
   1209932576.7547450        94239070.995718479        1001894860.0498220     
   778837387.35685933       -5769774.9882546067        954405319.74594879     
   304699904.68257201       -249252931.89356935        968400642.64321828     
  -212479871.26812533       -636210399.72024691        1043880828.7416353     
   830755729.96347046        34915701.086783022        1584465960.7104414     
   614374543.72779715        49942012.102969974        1423419613.4820437     
   376472210.85392761       -6768832.3414978981        1339506446.1772463     
   117048731.34185913       -135216832.24663273        1332726458.7960427     
  -163895894.80840820       -335401987.61242372        1403079651.3384347     
  -7.3201518107153178E-007   3.1110645195540098E-006   2014762245.3192945     
  -5.3528610115855752E-006  -3.4496215407995934E-005   1826751958.7787635     
  -1.2352756180582099E-006  -4.1587612474626402E-005   1731523168.8842776     
   8.8871218076965652E-006  -2.7622135348246083E-005   1729075875.6358411     
   2.6535550313843028E-005   7.9606650941529086E-006   1819410079.0334477     
   1.0367165001925568E-004   2.1512096133739639E-004   2208472845.8204751     
   7.7639360142399335E-005   1.6234724187702066E-004   1969116024.0381603     
   5.2430587344248464E-005   1.1231857934566316E-004   1857045316.6938593     
   2.5734908709546041E-005   5.7680508720995854E-005   1872260723.7875710     
  -7.3201518107153178E-007   3.1110645195540098E-006   2014762245.3192945     
  -2146413176.2844009       -789601927.23645997        1406348746.2513137     
  -1767410768.3809795       -433970216.28840768        1327600035.4242444     
  -1421800391.3596864       -189645274.94744396        1331036667.5584056     
  -1109582045.2205174       -56627103.213566482        1416658642.6537962     
  -830755729.96347702       -34915701.086780906        1584465960.7104170     
  -3713862977.2121110       -1405514841.8660970        716753711.58534276     
  -3084717508.4817667       -732909224.09289706        759655742.35103869     
  -2522356101.5156746       -282917145.53387249        839642344.60118186     
  -2026778756.3138361       -55538606.189028144        956713518.33577168     
  -1597985472.8762505       -50773606.058355689        1110869263.5548084     
  -4702349402.7830296       -1847738743.8886967        139687741.82256213     
  -3951920220.3022833       -896817023.41330504        265283144.81854168     
  -3301667130.4679151       -279815611.75917482        382862347.82218581     
  -2751590133.2799287        3265491.0736855268        492425350.83349425     
  -2301689228.7383204       -47573714.914720178        593972153.85246634     
  -5111872452.9971552       -2116273633.3042579       -324849163.03702760     
  -4369018903.8425274       -925693614.24963307       -155517757.17324460     
  -3759733478.2164078       -180340673.62335813       -39303322.778581202     
  -3284016176.1187935        119785188.57455754        23794140.146964353     
  -2941866997.5496850       -25316027.655871391        33774631.603391685     
  -7.3201518107153178E-007   3.1110645195540098E-006   2014762245.3192945     
  -5.3528610115855752E-006  -3.4496215407995934E-005   1826751958.7787635     
  -1.2352756180582099E-006  -4.1587612474626402E-005   1731523168.8842776     
   8.8871218076965652E-006  -2.7622135348246083E-005   1729075875.6358411     
   2.6535550313843028E-005   7.9606650941529086E-006   1819410079.0334477     
  -830755729.96347702       -34915701.086780906        1584465960.7104170     
  -614374543.72780442       -49942012.103011310        1423419613.4820330     
  -376472210.85392517        6768832.3414440900        1339506446.1772454     
  -117048731.34183800        135216832.24659669        1332726458.7960529     
   163895894.80846000        335401987.61244929        1403079651.3384607     
  -1597985472.8762505       -50773606.058355689        1110869263.5548084     
  -1209932576.7547610       -94239070.995745480        1001894860.0498050     
  -778837387.35686147        5769774.9882291555        954405319.74594975     
  -304699904.68255365        249252931.89356202        968400642.64323604     
   212479871.26816586        636210399.72027242        1043880828.7416722     
  -2301689228.7383204       -47573714.914720178        593972153.85246634     
  -1786674099.0808697       -132891176.67822117        562177698.48207939     
  -1207095529.5088105       -2997172.0596910715        576219789.59038830     
  -562953520.02213848        342108298.94087571        636098427.17739046     
   145751929.37914044        902425236.32347429        741813611.24309158     
  -2941866997.5496850       -25316027.655871391        33774631.603391685     
  -2344599110.7061319       -165898329.15043879        104268128.77885552     
  -1661246637.3097708       -19532008.802315235        204949855.71056339     
  -891809577.36059785        413782933.38851374        335819812.39851785     
  -36287930.858610749        1134046497.4220619        496877998.84271586     
 </DataArray>
 <DataArray  type="Float64" Name="VM" NumberOfComponents="1" format="ascii">
   4484229489.4234295     
   3996676027.4209018     
   3673516022.9978771     
   3345771318.6447239     
   2929875103.7335806     
   4110480895.0223598     
   3617862671.9589496     
   3239628889.4252973     
   2882306783.8875942     
   2499789074.2034330     
   3477005651.1743917     
   3085944047.2679019     
   2800661069.5283813     
   2596970247.2578769     
   2485375546.6410847     
   3077206384.7638302     
   2798684137.5127192     
   2665111590.1957622     
   2681848552.0835710     
   2862510246.6639605     
   3825187176.0972905     
   3410608999.6321125     
   3216496840.4716001     
   3242850698.6157532     
   3489670574.0645685     
   2929875103.7335806     
   2273393432.4225535     
   1689286161.5088489     
   1293785554.2468958     
   1438469224.6731646     
   2499789074.2034330     
   1980041027.8097212     
   1565106534.7613935     
   1356616914.3128285     
   1534583661.5294070     
   2485375546.6410847     
   2090496317.2836368     
   1828601439.8451793     
   1744796783.1745694     
   1893090335.5142050     
   2862510246.6639605     
   2535278559.0130196     
   2350990850.2510600     
   2318682901.5256066     
   2447505438.7578197     
   3489670574.0645685     
   3164027205.4307857     
   2999086102.9902344     
   2994847266.7429223     
   3151310696.6888380     
   3825187176.0972905     
   3410608999.6321125     
   3216496840.4716001     
   3242850698.6157532     
   3489670574.0645685     
   3077206384.7637606     
   2798684137.5126743     
   2665111590.1957302     
   2681848552.0835385     
   2862510246.6639228     
   3477005651.1743183     
   3085944047.2678680     
   2800661069.5283594     
   2596970247.2578521     
   2485375546.6410537     
   4110480895.0223422     
   3617862671.9589629     
   3239628889.4253159     
   2882306783.8876114     
   2499789074.2034469     
   4484229489.4234943     
   3996676027.4209790     
   3673516022.9979463     
   3345771318.6447802     
   2929875103.7336459     
   3489670574.0645685     
   3164027205.4307857     
   2999086102.9902344     
   2994847266.7429223     
   3151310696.6888380     
   2862510246.6639228     
   2535278559.0129991     
   2350990850.2510538     
   2318682901.5256195     
   2447505438.7578669     
   2485375546.6410537     
   2090496317.2836146     
   1828601439.8451762     
   1744796783.1745927     
   1893090335.5142708     
   2499789074.2034469     
   1980041027.8097332     
   1565106534.7614083     
   1356616914.3128569     
   1534583661.5294707     
   2929875103.7336459     
   2273393432.4226136     
   1689286161.5088980     
   1293785554.2469382     
   1438469224.6732194     
 </DataArray>
 <DataArray  type="Float64" Name="strain" NumberOfComponents="3" format="ascii">
   7.4616506050096620E-002   9.7118649567532744E-003  -1.4076797064937002E-002
   6.8188513659459354E-002  -6.4168676150518911E-003  -6.7391028108395590E-003
   6.1760521268822061E-002  -1.5792989497359820E-002  -1.7031439870707626E-003
   5.5332528878184795E-002  -1.8416500690170610E-002   1.0310794063693868E-003
   4.8904536487547501E-002  -1.4287401193484095E-002   1.4635673694809448E-003
   6.9133796326940167E-002   7.2838987175657399E-003   6.0531354789783165E-003
   6.1381251887971222E-002  -4.8126507112883632E-003   1.1495602942137834E-002
   5.3628707449002277E-002  -1.1844742123019475E-002   1.6590701738962627E-002
   4.5876163010033305E-002  -1.3812375517627762E-002   2.1338431869452716E-002
   3.8123618571064360E-002  -1.0715550895113085E-002   2.5738793333608179E-002
   5.4870142077538681E-002   4.8559324783781638E-003   3.1059327502031921E-002
   4.7747412354232015E-002  -3.2084338075247798E-003   3.2918415501879128E-002
   4.0624682630925377E-002  -7.8964947486791053E-003   3.6384501599385610E-002
   3.3501952907618718E-002  -9.2082503450848611E-003   4.1457585794551395E-002
   2.6379223184312045E-002  -7.1437005967419920E-003   4.8137668087376434E-002
   3.1825543301892162E-002   2.4279662391906223E-003   6.0941779004223713E-002
   2.7286995058241781E-002  -1.6042169037612103E-003   5.7529334868384407E-002
   2.2748446814591389E-002  -3.9482473743387477E-003   5.7678255594198279E-002
   1.8209898570940984E-002  -4.6041251725419865E-003   6.1388541181665403E-002
   1.3671350327290593E-002  -3.5718502983709682E-003   6.8660191630785794E-002
   6.5225602696727947E-016   3.0669911055269949E-015   9.5700489985553916E-002
   4.8225312632155237E-016   2.3175905639050143E-015   8.5328361041653616E-002
   3.1225022567582528E-016   1.6098233857064770E-015   8.0471963723400569E-002
   1.4051260155412137E-016   8.3266726846886741E-016   8.1131298030794746E-002
  -2.7755575615628914E-017   5.5511151231257827E-017   8.7306363963836092E-002
   4.8904536487547501E-002  -1.4287401193484095E-002   1.4635673694809448E-003
   3.8247160199349012E-002  -8.9580234010229465E-003   4.5182855804171695E-003
   2.7589783911150551E-002  -7.9806997065097474E-003   8.8811604141240674E-003
   1.6932407622952089E-002  -1.1355430109944477E-002   1.4552191870601749E-002
   6.2750313347536002E-003  -1.9082214611326975E-002   2.1531379949849661E-002
   3.8123618571064360E-002  -1.0715550895113085E-002   2.5738793333608179E-002
   2.9113445767956256E-002  -6.7185175507673833E-003   2.4361033600890633E-002
   2.0103272964848123E-002  -5.9855247798824493E-003   2.4969524215583391E-002
   1.1093100161740026E-002  -8.5165725824584548E-003   2.7564265177686141E-002
   2.0829273586318586E-003  -1.4311660958495342E-002   3.2145256487198903E-002
   2.6379223184312045E-002  -7.1437005967419920E-003   4.8137668087376434E-002
   1.9694347590933824E-002  -4.4790117005117508E-003   4.3415443935492286E-002
   1.3009471997555595E-002  -3.9903498532552067E-003   4.1357563855657781E-002
   6.3245964041773808E-003  -5.6777150549723494E-003   4.1964027847872794E-002
  -3.6027918920085444E-004  -9.5411073056634876E-003   4.5234835912137533E-002
   1.3671350327290593E-002  -3.5718502983709682E-003   6.8660191630785794E-002
   9.9898656682817690E-003  -2.2395058502561530E-003   6.1681516584221899E-002
   6.3083810092729505E-003  -1.9951749266279364E-003   5.8045279334347347E-002
   2.6268963502641494E-003  -2.8388575274865078E-003   5.7751479881161846E-002
  -1.0545883087446847E-003  -4.7705536528316883E-003   6.0800118224665502E-002
  -2.7755575615628914E-017   5.5511151231257827E-017   8.7306363963836092E-002
   8.3266726846886741E-017  -5.4817261840867104E-016   7.9159251547079756E-002
   1.8735013540549517E-016  -6.8695049648681561E-016   7.5032670651652034E-002
   2.8622937353617317E-016  -5.0480453150925086E-016   7.4926621277553118E-002
   4.0245584642661925E-016   0.0000000000000000        7.8841103424782732E-002
   6.5225602696727947E-016   3.0669911055269949E-015   9.5700489985553916E-002
   4.8225312632155237E-016   2.3175905639050143E-015   8.5328361041653616E-002
   3.1225022567582528E-016   1.6098233857064770E-015   8.0471963723400569E-002
   1.4051260155412137E-016   8.3266726846886741E-016   8.1131298030794746E-002
  -2.7755575615628914E-017   5.5511151231257827E-017   8.7306363963836092E-002
  -3.1825543301891052E-002  -2.4279662391856610E-003   6.0941779004223595E-002
  -2.7286995058240955E-002   1.6042169037647699E-003   5.7529334868383922E-002
  -2.2748446814590886E-002   3.9482473743410323E-003   5.7678255594197578E-002
  -1.8209898570940793E-002   4.6041251725431470E-003   6.1388541181664508E-002
  -1.3671350327290714E-002   3.5718502983710376E-003   6.8660191630784739E-002
  -5.4870142077538028E-002  -4.8559324783743960E-003   3.1059327502031518E-002
  -4.7747412354231626E-002   3.2084338075272154E-003   3.2918415501878344E-002
  -4.0624682630925210E-002   7.8964947486804965E-003   3.6384501599384549E-002
  -3.3501952907618794E-002   9.2082503450853781E-003   4.1457585794550104E-002
  -2.6379223184312399E-002   7.1437005967419920E-003   4.8137668087375025E-002
  -6.9133796326940333E-002  -7.2838987175631309E-003   6.0531354789776920E-003
  -6.1381251887971527E-002   4.8126507112896642E-003   1.1495602942136807E-002
  -5.3628707449002708E-002   1.1844742123019995E-002   1.6590701738961385E-002
  -4.5876163010033902E-002   1.3812375517627734E-002   2.1338431869451419E-002
  -3.8123618571065075E-002   1.0715550895112932E-002   2.5738793333606874E-002
  -7.4616506050097953E-002  -9.7118649567518589E-003  -1.4076797064937863E-002
  -6.8188513659460631E-002   6.4168676150520854E-003  -6.7391028108405998E-003
  -6.1760521268823337E-002   1.5792989497359404E-002  -1.7031439870718521E-003
  -5.5332528878186016E-002   1.8416500690169930E-002   1.0310794063684552E-003
  -4.8904536487548722E-002   1.4287401193483901E-002   1.4635673694803064E-003
  -2.7755575615628914E-017   5.5511151231257827E-017   8.7306363963836092E-002
   8.3266726846886741E-017  -5.4817261840867104E-016   7.9159251547079756E-002
   1.8735013540549517E-016  -6.8695049648681561E-016   7.5032670651652034E-002
   2.8622937353617317E-016  -5.0480453150925086E-016   7.4926621277553118E-002
   4.0245584642661925E-016   0.0000000000000000        7.8841103424782732E-002
  -1.3671350327290714E-002   3.5718502983710376E-003   6.8660191630784739E-002
  -9.9898656682816840E-003   2.2395058502555007E-003   6.1681516584221434E-002
  -6.3083810092726400E-003   1.9951749266270274E-003   5.8045279334347305E-002
  -2.6268963502636168E-003   2.8388575274858018E-003   5.7751479881162290E-002
   1.0545883087454203E-003   4.7705536528318548E-003   6.0800118224666633E-002
  -2.6379223184312399E-002   7.1437005967419920E-003   4.8137668087375025E-002
  -1.9694347590933955E-002   4.4790117005113796E-003   4.3415443935491550E-002
  -1.3009471997555505E-002   3.9903498532547939E-003   4.1357563855657822E-002
  -6.3245964041770374E-003   5.6777150549721352E-003   4.1964027847873564E-002
   3.6027918920140262E-004   9.5411073056637097E-003   4.5234835912139129E-002
  -3.8123618571065075E-002   1.0715550895112932E-002   2.5738793333606874E-002
  -2.9113445767956724E-002   6.7185175507673296E-003   2.4361033600890106E-002
  -2.0103272964848384E-002   5.9855247798825343E-003   2.4969524215583492E-002
  -1.1093100161740021E-002   8.5165725824586213E-003   2.7564265177686922E-002
  -2.0829273586316973E-003   1.4311660958495537E-002   3.2145256487200638E-002
  -4.8904536487548722E-002   1.4287401193483901E-002   1.4635673694803064E-003
  -3.8247160199350011E-002   8.9580234010233489E-003   4.5182855804170724E-003
  -2.7589783911151272E-002   7.9806997065102678E-003   8.8811604141244144E-003
  -1.6932407622952533E-002   1.1355430109944884E-002   1.4552191870602440E-002
  -6.2750313347538222E-003   1.9082214611327419E-002   2.1531379949851021E-002
 </DataArray>
 </PointData>
 </Piece>
 </UnstructuredGrid>
 </VTKFile>
