 <VTKFile type="UnstructuredGrid"  version="0.1"   >
 <UnstructuredGrid>
 <Piece  NumberOfPoints="          1600 "  NumberOfCells="         1024 ">
 <Points>
 <DataArray  type="Float64" NumberOfComponents="3"  format="ascii" >
   0.0000000000000000        0.0000000000000000        0.0000000000000000     
   3.1250000000000000E-002   0.0000000000000000        0.0000000000000000     
   6.2500000000000000E-002   0.0000000000000000        0.0000000000000000     
   9.3750000000000000E-002   0.0000000000000000        0.0000000000000000     
  0.12500000000000000        0.0000000000000000        0.0000000000000000     
   0.0000000000000000        3.1250000000000000E-002   0.0000000000000000     
   3.1250000000000000E-002   3.1250000000000000E-002   0.0000000000000000     
   6.2500000000000000E-002   3.1250000000000000E-002   0.0000000000000000     
   9.3750000000000000E-002   3.1250000000000000E-002   0.0000000000000000     
  0.12500000000000000        3.1250000000000000E-002   0.0000000000000000     
   0.0000000000000000        6.2500000000000000E-002   0.0000000000000000     
   3.1250000000000000E-002   6.2500000000000000E-002   0.0000000000000000     
   6.2500000000000000E-002   6.2500000000000000E-002   0.0000000000000000     
   9.3750000000000000E-002   6.2500000000000000E-002   0.0000000000000000     
  0.12500000000000000        6.2500000000000000E-002   0.0000000000000000     
   0.0000000000000000        9.3750000000000000E-002   0.0000000000000000     
   3.1250000000000000E-002   9.3750000000000000E-002   0.0000000000000000     
   6.2500000000000000E-002   9.3750000000000000E-002   0.0000000000000000     
   9.3750000000000000E-002   9.3750000000000000E-002   0.0000000000000000     
  0.12500000000000000        9.3750000000000000E-002   0.0000000000000000     
   0.0000000000000000       0.12500000000000000        0.0000000000000000     
   3.1250000000000000E-002  0.12500000000000000        0.0000000000000000     
   6.2500000000000000E-002  0.12500000000000000        0.0000000000000000     
   9.3750000000000000E-002  0.12500000000000000        0.0000000000000000     
  0.12500000000000000       0.12500000000000000        0.0000000000000000     
  0.12500000000000000        0.0000000000000000        0.0000000000000000     
  0.15625000000000000        0.0000000000000000        0.0000000000000000     
  0.18750000000000000        0.0000000000000000        0.0000000000000000     
  0.21875000000000000        0.0000000000000000        0.0000000000000000     
  0.25000000000000000        0.0000000000000000        0.0000000000000000     
  0.12500000000000000        3.1250000000000000E-002   0.0000000000000000     
  0.15625000000000000        3.1250000000000000E-002   0.0000000000000000     
  0.18750000000000000        3.1250000000000000E-002   0.0000000000000000     
  0.21875000000000000        3.1250000000000000E-002   0.0000000000000000     
  0.25000000000000000        3.1250000000000000E-002   0.0000000000000000     
  0.12500000000000000        6.2500000000000000E-002   0.0000000000000000     
  0.15625000000000000        6.2500000000000000E-002   0.0000000000000000     
  0.18750000000000000        6.2500000000000000E-002   0.0000000000000000     
  0.21875000000000000        6.2500000000000000E-002   0.0000000000000000     
  0.25000000000000000        6.2500000000000000E-002   0.0000000000000000     
  0.12500000000000000        9.3750000000000000E-002   0.0000000000000000     
  0.15625000000000000        9.3750000000000000E-002   0.0000000000000000     
  0.18750000000000000        9.3750000000000000E-002   0.0000000000000000     
  0.21875000000000000        9.3750000000000000E-002   0.0000000000000000     
  0.25000000000000000        9.3750000000000000E-002   0.0000000000000000     
  0.12500000000000000       0.12500000000000000        0.0000000000000000     
  0.15625000000000000       0.12500000000000000        0.0000000000000000     
  0.18750000000000000       0.12500000000000000        0.0000000000000000     
  0.21875000000000000       0.12500000000000000        0.0000000000000000     
  0.25000000000000000       0.12500000000000000        0.0000000000000000     
  0.25000000000000000        0.0000000000000000        0.0000000000000000     
  0.28125000000000000        0.0000000000000000        0.0000000000000000     
  0.31250000000000000        0.0000000000000000        0.0000000000000000     
  0.34375000000000000        0.0000000000000000        0.0000000000000000     
  0.37500000000000000        0.0000000000000000        0.0000000000000000     
  0.25000000000000000        3.1250000000000000E-002   0.0000000000000000     
  0.28125000000000000        3.1250000000000000E-002   0.0000000000000000     
  0.31250000000000000        3.1250000000000000E-002   0.0000000000000000     
  0.34375000000000000        3.1250000000000000E-002   0.0000000000000000     
  0.37500000000000000        3.1250000000000000E-002   0.0000000000000000     
  0.25000000000000000        6.2500000000000000E-002   0.0000000000000000     
  0.28125000000000000        6.2500000000000000E-002   0.0000000000000000     
  0.31250000000000000        6.2500000000000000E-002   0.0000000000000000     
  0.34375000000000000        6.2500000000000000E-002   0.0000000000000000     
  0.37500000000000000        6.2500000000000000E-002   0.0000000000000000     
  0.25000000000000000        9.3750000000000000E-002   0.0000000000000000     
  0.28125000000000000        9.3750000000000000E-002   0.0000000000000000     
  0.31250000000000000        9.3750000000000000E-002   0.0000000000000000     
  0.34375000000000000        9.3750000000000000E-002   0.0000000000000000     
  0.37500000000000000        9.3750000000000000E-002   0.0000000000000000     
  0.25000000000000000       0.12500000000000000        0.0000000000000000     
  0.28125000000000000       0.12500000000000000        0.0000000000000000     
  0.31250000000000000       0.12500000000000000        0.0000000000000000     
  0.34375000000000000       0.12500000000000000        0.0000000000000000     
  0.37500000000000000       0.12500000000000000        0.0000000000000000     
  0.37500000000000000        0.0000000000000000        0.0000000000000000     
  0.40625000000000000        0.0000000000000000        0.0000000000000000     
  0.43750000000000000        0.0000000000000000        0.0000000000000000     
  0.46875000000000000        0.0000000000000000        0.0000000000000000     
  0.50000000000000000        0.0000000000000000        0.0000000000000000     
  0.37500000000000000        3.1250000000000000E-002   0.0000000000000000     
  0.40625000000000000        3.1250000000000000E-002   0.0000000000000000     
  0.43750000000000000        3.1250000000000000E-002   0.0000000000000000     
  0.46875000000000000        3.1250000000000000E-002   0.0000000000000000     
  0.50000000000000000        3.1250000000000000E-002   0.0000000000000000     
  0.37500000000000000        6.2500000000000000E-002   0.0000000000000000     
  0.40625000000000000        6.2500000000000000E-002   0.0000000000000000     
  0.43750000000000000        6.2500000000000000E-002   0.0000000000000000     
  0.46875000000000000        6.2500000000000000E-002   0.0000000000000000     
  0.50000000000000000        6.2500000000000000E-002   0.0000000000000000     
  0.37500000000000000        9.3750000000000000E-002   0.0000000000000000     
  0.40625000000000000        9.3750000000000000E-002   0.0000000000000000     
  0.43750000000000000        9.3750000000000000E-002   0.0000000000000000     
  0.46875000000000000        9.3750000000000000E-002   0.0000000000000000     
  0.50000000000000000        9.3750000000000000E-002   0.0000000000000000     
  0.37500000000000000       0.12500000000000000        0.0000000000000000     
  0.40625000000000000       0.12500000000000000        0.0000000000000000     
  0.43750000000000000       0.12500000000000000        0.0000000000000000     
  0.46875000000000000       0.12500000000000000        0.0000000000000000     
  0.50000000000000000       0.12500000000000000        0.0000000000000000     
  0.50000000000000000        0.0000000000000000        0.0000000000000000     
  0.53125000000000000        0.0000000000000000        0.0000000000000000     
  0.56250000000000000        0.0000000000000000        0.0000000000000000     
  0.59375000000000000        0.0000000000000000        0.0000000000000000     
  0.62500000000000000        0.0000000000000000        0.0000000000000000     
  0.50000000000000000        3.1250000000000000E-002   0.0000000000000000     
  0.53125000000000000        3.1250000000000000E-002   0.0000000000000000     
  0.56250000000000000        3.1250000000000000E-002   0.0000000000000000     
  0.59375000000000000        3.1250000000000000E-002   0.0000000000000000     
  0.62500000000000000        3.1250000000000000E-002   0.0000000000000000     
  0.50000000000000000        6.2500000000000000E-002   0.0000000000000000     
  0.53125000000000000        6.2500000000000000E-002   0.0000000000000000     
  0.56250000000000000        6.2500000000000000E-002   0.0000000000000000     
  0.59375000000000000        6.2500000000000000E-002   0.0000000000000000     
  0.62500000000000000        6.2500000000000000E-002   0.0000000000000000     
  0.50000000000000000        9.3750000000000000E-002   0.0000000000000000     
  0.53125000000000000        9.3750000000000000E-002   0.0000000000000000     
  0.56250000000000000        9.3750000000000000E-002   0.0000000000000000     
  0.59375000000000000        9.3750000000000000E-002   0.0000000000000000     
  0.62500000000000000        9.3750000000000000E-002   0.0000000000000000     
  0.50000000000000000       0.12500000000000000        0.0000000000000000     
  0.53125000000000000       0.12500000000000000        0.0000000000000000     
  0.56250000000000000       0.12500000000000000        0.0000000000000000     
  0.59375000000000000       0.12500000000000000        0.0000000000000000     
  0.62500000000000000       0.12500000000000000        0.0000000000000000     
  0.62500000000000000        0.0000000000000000        0.0000000000000000     
  0.65625000000000000        0.0000000000000000        0.0000000000000000     
  0.68750000000000000        0.0000000000000000        0.0000000000000000     
  0.71875000000000000        0.0000000000000000        0.0000000000000000     
  0.75000000000000000        0.0000000000000000        0.0000000000000000     
  0.62500000000000000        3.1250000000000000E-002   0.0000000000000000     
  0.65625000000000000        3.1250000000000000E-002   0.0000000000000000     
  0.68750000000000000        3.1250000000000000E-002   0.0000000000000000     
  0.71875000000000000        3.1250000000000000E-002   0.0000000000000000     
  0.75000000000000000        3.1250000000000000E-002   0.0000000000000000     
  0.62500000000000000        6.2500000000000000E-002   0.0000000000000000     
  0.65625000000000000        6.2500000000000000E-002   0.0000000000000000     
  0.68750000000000000        6.2500000000000000E-002   0.0000000000000000     
  0.71875000000000000        6.2500000000000000E-002   0.0000000000000000     
  0.75000000000000000        6.2500000000000000E-002   0.0000000000000000     
  0.62500000000000000        9.3750000000000000E-002   0.0000000000000000     
  0.65625000000000000        9.3750000000000000E-002   0.0000000000000000     
  0.68750000000000000        9.3750000000000000E-002   0.0000000000000000     
  0.71875000000000000        9.3750000000000000E-002   0.0000000000000000     
  0.75000000000000000        9.3750000000000000E-002   0.0000000000000000     
  0.62500000000000000       0.12500000000000000        0.0000000000000000     
  0.65625000000000000       0.12500000000000000        0.0000000000000000     
  0.68750000000000000       0.12500000000000000        0.0000000000000000     
  0.71875000000000000       0.12500000000000000        0.0000000000000000     
  0.75000000000000000       0.12500000000000000        0.0000000000000000     
  0.75000000000000000        0.0000000000000000        0.0000000000000000     
  0.78125000000000000        0.0000000000000000        0.0000000000000000     
  0.81250000000000000        0.0000000000000000        0.0000000000000000     
  0.84375000000000000        0.0000000000000000        0.0000000000000000     
  0.87500000000000000        0.0000000000000000        0.0000000000000000     
  0.75000000000000000        3.1250000000000000E-002   0.0000000000000000     
  0.78125000000000000        3.1250000000000000E-002   0.0000000000000000     
  0.81250000000000000        3.1250000000000000E-002   0.0000000000000000     
  0.84375000000000000        3.1250000000000000E-002   0.0000000000000000     
  0.87500000000000000        3.1250000000000000E-002   0.0000000000000000     
  0.75000000000000000        6.2500000000000000E-002   0.0000000000000000     
  0.78125000000000000        6.2500000000000000E-002   0.0000000000000000     
  0.81250000000000000        6.2500000000000000E-002   0.0000000000000000     
  0.84375000000000000        6.2500000000000000E-002   0.0000000000000000     
  0.87500000000000000        6.2500000000000000E-002   0.0000000000000000     
  0.75000000000000000        9.3750000000000000E-002   0.0000000000000000     
  0.78125000000000000        9.3750000000000000E-002   0.0000000000000000     
  0.81250000000000000        9.3750000000000000E-002   0.0000000000000000     
  0.84375000000000000        9.3750000000000000E-002   0.0000000000000000     
  0.87500000000000000        9.3750000000000000E-002   0.0000000000000000     
  0.75000000000000000       0.12500000000000000        0.0000000000000000     
  0.78125000000000000       0.12500000000000000        0.0000000000000000     
  0.81250000000000000       0.12500000000000000        0.0000000000000000     
  0.84375000000000000       0.12500000000000000        0.0000000000000000     
  0.87500000000000000       0.12500000000000000        0.0000000000000000     
  0.87500000000000000        0.0000000000000000        0.0000000000000000     
  0.90625000000000000        0.0000000000000000        0.0000000000000000     
  0.93750000000000000        0.0000000000000000        0.0000000000000000     
  0.96875000000000000        0.0000000000000000        0.0000000000000000     
   1.0000000000000000        0.0000000000000000        0.0000000000000000     
  0.87500000000000000        3.1250000000000000E-002   0.0000000000000000     
  0.90625000000000000        3.1250000000000000E-002   0.0000000000000000     
  0.93750000000000000        3.1250000000000000E-002   0.0000000000000000     
  0.96875000000000000        3.1250000000000000E-002   0.0000000000000000     
   1.0000000000000000        3.1250000000000000E-002   0.0000000000000000     
  0.87500000000000000        6.2500000000000000E-002   0.0000000000000000     
  0.90625000000000000        6.2500000000000000E-002   0.0000000000000000     
  0.93750000000000000        6.2500000000000000E-002   0.0000000000000000     
  0.96875000000000000        6.2500000000000000E-002   0.0000000000000000     
   1.0000000000000000        6.2500000000000000E-002   0.0000000000000000     
  0.87500000000000000        9.3750000000000000E-002   0.0000000000000000     
  0.90625000000000000        9.3750000000000000E-002   0.0000000000000000     
  0.93750000000000000        9.3750000000000000E-002   0.0000000000000000     
  0.96875000000000000        9.3750000000000000E-002   0.0000000000000000     
   1.0000000000000000        9.3750000000000000E-002   0.0000000000000000     
  0.87500000000000000       0.12500000000000000        0.0000000000000000     
  0.90625000000000000       0.12500000000000000        0.0000000000000000     
  0.93750000000000000       0.12500000000000000        0.0000000000000000     
  0.96875000000000000       0.12500000000000000        0.0000000000000000     
   1.0000000000000000       0.12500000000000000        0.0000000000000000     
   0.0000000000000000       0.12500000000000000        0.0000000000000000     
   3.1250000000000000E-002  0.12500000000000000        0.0000000000000000     
   6.2500000000000000E-002  0.12500000000000000        0.0000000000000000     
   9.3750000000000000E-002  0.12500000000000000        0.0000000000000000     
  0.12500000000000000       0.12500000000000000        0.0000000000000000     
   0.0000000000000000       0.15625000000000000        0.0000000000000000     
   3.1250000000000000E-002  0.15625000000000000        0.0000000000000000     
   6.2500000000000000E-002  0.15625000000000000        0.0000000000000000     
   9.3750000000000000E-002  0.15625000000000000        0.0000000000000000     
  0.12500000000000000       0.15625000000000000        0.0000000000000000     
   0.0000000000000000       0.18750000000000000        0.0000000000000000     
   3.1250000000000000E-002  0.18750000000000000        0.0000000000000000     
   6.2500000000000000E-002  0.18750000000000000        0.0000000000000000     
   9.3750000000000000E-002  0.18750000000000000        0.0000000000000000     
  0.12500000000000000       0.18750000000000000        0.0000000000000000     
   0.0000000000000000       0.21875000000000000        0.0000000000000000     
   3.1250000000000000E-002  0.21875000000000000        0.0000000000000000     
   6.2500000000000000E-002  0.21875000000000000        0.0000000000000000     
   9.3750000000000000E-002  0.21875000000000000        0.0000000000000000     
  0.12500000000000000       0.21875000000000000        0.0000000000000000     
   0.0000000000000000       0.25000000000000000        0.0000000000000000     
   3.1250000000000000E-002  0.25000000000000000        0.0000000000000000     
   6.2500000000000000E-002  0.25000000000000000        0.0000000000000000     
   9.3750000000000000E-002  0.25000000000000000        0.0000000000000000     
  0.12500000000000000       0.25000000000000000        0.0000000000000000     
  0.12500000000000000       0.12500000000000000        0.0000000000000000     
  0.15625000000000000       0.12500000000000000        0.0000000000000000     
  0.18750000000000000       0.12500000000000000        0.0000000000000000     
  0.21875000000000000       0.12500000000000000        0.0000000000000000     
  0.25000000000000000       0.12500000000000000        0.0000000000000000     
  0.12500000000000000       0.15625000000000000        0.0000000000000000     
  0.15625000000000000       0.15625000000000000        0.0000000000000000     
  0.18750000000000000       0.15625000000000000        0.0000000000000000     
  0.21875000000000000       0.15625000000000000        0.0000000000000000     
  0.25000000000000000       0.15625000000000000        0.0000000000000000     
  0.12500000000000000       0.18750000000000000        0.0000000000000000     
  0.15625000000000000       0.18750000000000000        0.0000000000000000     
  0.18750000000000000       0.18750000000000000        0.0000000000000000     
  0.21875000000000000       0.18750000000000000        0.0000000000000000     
  0.25000000000000000       0.18750000000000000        0.0000000000000000     
  0.12500000000000000       0.21875000000000000        0.0000000000000000     
  0.15625000000000000       0.21875000000000000        0.0000000000000000     
  0.18750000000000000       0.21875000000000000        0.0000000000000000     
  0.21875000000000000       0.21875000000000000        0.0000000000000000     
  0.25000000000000000       0.21875000000000000        0.0000000000000000     
  0.12500000000000000       0.25000000000000000        0.0000000000000000     
  0.15625000000000000       0.25000000000000000        0.0000000000000000     
  0.18750000000000000       0.25000000000000000        0.0000000000000000     
  0.21875000000000000       0.25000000000000000        0.0000000000000000     
  0.25000000000000000       0.25000000000000000        0.0000000000000000     
  0.25000000000000000       0.12500000000000000        0.0000000000000000     
  0.28125000000000000       0.12500000000000000        0.0000000000000000     
  0.31250000000000000       0.12500000000000000        0.0000000000000000     
  0.34375000000000000       0.12500000000000000        0.0000000000000000     
  0.37500000000000000       0.12500000000000000        0.0000000000000000     
  0.25000000000000000       0.15625000000000000        0.0000000000000000     
  0.28125000000000000       0.15625000000000000        0.0000000000000000     
  0.31250000000000000       0.15625000000000000        0.0000000000000000     
  0.34375000000000000       0.15625000000000000        0.0000000000000000     
  0.37500000000000000       0.15625000000000000        0.0000000000000000     
  0.25000000000000000       0.18750000000000000        0.0000000000000000     
  0.28125000000000000       0.18750000000000000        0.0000000000000000     
  0.31250000000000000       0.18750000000000000        0.0000000000000000     
  0.34375000000000000       0.18750000000000000        0.0000000000000000     
  0.37500000000000000       0.18750000000000000        0.0000000000000000     
  0.25000000000000000       0.21875000000000000        0.0000000000000000     
  0.28125000000000000       0.21875000000000000        0.0000000000000000     
  0.31250000000000000       0.21875000000000000        0.0000000000000000     
  0.34375000000000000       0.21875000000000000        0.0000000000000000     
  0.37500000000000000       0.21875000000000000        0.0000000000000000     
  0.25000000000000000       0.25000000000000000        0.0000000000000000     
  0.28125000000000000       0.25000000000000000        0.0000000000000000     
  0.31250000000000000       0.25000000000000000        0.0000000000000000     
  0.34375000000000000       0.25000000000000000        0.0000000000000000     
  0.37500000000000000       0.25000000000000000        0.0000000000000000     
  0.37500000000000000       0.12500000000000000        0.0000000000000000     
  0.40625000000000000       0.12500000000000000        0.0000000000000000     
  0.43750000000000000       0.12500000000000000        0.0000000000000000     
  0.46875000000000000       0.12500000000000000        0.0000000000000000     
  0.50000000000000000       0.12500000000000000        0.0000000000000000     
  0.37500000000000000       0.15625000000000000        0.0000000000000000     
  0.40625000000000000       0.15625000000000000        0.0000000000000000     
  0.43750000000000000       0.15625000000000000        0.0000000000000000     
  0.46875000000000000       0.15625000000000000        0.0000000000000000     
  0.50000000000000000       0.15625000000000000        0.0000000000000000     
  0.37500000000000000       0.18750000000000000        0.0000000000000000     
  0.40625000000000000       0.18750000000000000        0.0000000000000000     
  0.43750000000000000       0.18750000000000000        0.0000000000000000     
  0.46875000000000000       0.18750000000000000        0.0000000000000000     
  0.50000000000000000       0.18750000000000000        0.0000000000000000     
  0.37500000000000000       0.21875000000000000        0.0000000000000000     
  0.40625000000000000       0.21875000000000000        0.0000000000000000     
  0.43750000000000000       0.21875000000000000        0.0000000000000000     
  0.46875000000000000       0.21875000000000000        0.0000000000000000     
  0.50000000000000000       0.21875000000000000        0.0000000000000000     
  0.37500000000000000       0.25000000000000000        0.0000000000000000     
  0.40625000000000000       0.25000000000000000        0.0000000000000000     
  0.43750000000000000       0.25000000000000000        0.0000000000000000     
  0.46875000000000000       0.25000000000000000        0.0000000000000000     
  0.50000000000000000       0.25000000000000000        0.0000000000000000     
  0.50000000000000000       0.12500000000000000        0.0000000000000000     
  0.53125000000000000       0.12500000000000000        0.0000000000000000     
  0.56250000000000000       0.12500000000000000        0.0000000000000000     
  0.59375000000000000       0.12500000000000000        0.0000000000000000     
  0.62500000000000000       0.12500000000000000        0.0000000000000000     
  0.50000000000000000       0.15625000000000000        0.0000000000000000     
  0.53125000000000000       0.15625000000000000        0.0000000000000000     
  0.56250000000000000       0.15625000000000000        0.0000000000000000     
  0.59375000000000000       0.15625000000000000        0.0000000000000000     
  0.62500000000000000       0.15625000000000000        0.0000000000000000     
  0.50000000000000000       0.18750000000000000        0.0000000000000000     
  0.53125000000000000       0.18750000000000000        0.0000000000000000     
  0.56250000000000000       0.18750000000000000        0.0000000000000000     
  0.59375000000000000       0.18750000000000000        0.0000000000000000     
  0.62500000000000000       0.18750000000000000        0.0000000000000000     
  0.50000000000000000       0.21875000000000000        0.0000000000000000     
  0.53125000000000000       0.21875000000000000        0.0000000000000000     
  0.56250000000000000       0.21875000000000000        0.0000000000000000     
  0.59375000000000000       0.21875000000000000        0.0000000000000000     
  0.62500000000000000       0.21875000000000000        0.0000000000000000     
  0.50000000000000000       0.25000000000000000        0.0000000000000000     
  0.53125000000000000       0.25000000000000000        0.0000000000000000     
  0.56250000000000000       0.25000000000000000        0.0000000000000000     
  0.59375000000000000       0.25000000000000000        0.0000000000000000     
  0.62500000000000000       0.25000000000000000        0.0000000000000000     
  0.62500000000000000       0.12500000000000000        0.0000000000000000     
  0.65625000000000000       0.12500000000000000        0.0000000000000000     
  0.68750000000000000       0.12500000000000000        0.0000000000000000     
  0.71875000000000000       0.12500000000000000        0.0000000000000000     
  0.75000000000000000       0.12500000000000000        0.0000000000000000     
  0.62500000000000000       0.15625000000000000        0.0000000000000000     
  0.65625000000000000       0.15625000000000000        0.0000000000000000     
  0.68750000000000000       0.15625000000000000        0.0000000000000000     
  0.71875000000000000       0.15625000000000000        0.0000000000000000     
  0.75000000000000000       0.15625000000000000        0.0000000000000000     
  0.62500000000000000       0.18750000000000000        0.0000000000000000     
  0.65625000000000000       0.18750000000000000        0.0000000000000000     
  0.68750000000000000       0.18750000000000000        0.0000000000000000     
  0.71875000000000000       0.18750000000000000        0.0000000000000000     
  0.75000000000000000       0.18750000000000000        0.0000000000000000     
  0.62500000000000000       0.21875000000000000        0.0000000000000000     
  0.65625000000000000       0.21875000000000000        0.0000000000000000     
  0.68750000000000000       0.21875000000000000        0.0000000000000000     
  0.71875000000000000       0.21875000000000000        0.0000000000000000     
  0.75000000000000000       0.21875000000000000        0.0000000000000000     
  0.62500000000000000       0.25000000000000000        0.0000000000000000     
  0.65625000000000000       0.25000000000000000        0.0000000000000000     
  0.68750000000000000       0.25000000000000000        0.0000000000000000     
  0.71875000000000000       0.25000000000000000        0.0000000000000000     
  0.75000000000000000       0.25000000000000000        0.0000000000000000     
  0.75000000000000000       0.12500000000000000        0.0000000000000000     
  0.78125000000000000       0.12500000000000000        0.0000000000000000     
  0.81250000000000000       0.12500000000000000        0.0000000000000000     
  0.84375000000000000       0.12500000000000000        0.0000000000000000     
  0.87500000000000000       0.12500000000000000        0.0000000000000000     
  0.75000000000000000       0.15625000000000000        0.0000000000000000     
  0.78125000000000000       0.15625000000000000        0.0000000000000000     
  0.81250000000000000       0.15625000000000000        0.0000000000000000     
  0.84375000000000000       0.15625000000000000        0.0000000000000000     
  0.87500000000000000       0.15625000000000000        0.0000000000000000     
  0.75000000000000000       0.18750000000000000        0.0000000000000000     
  0.78125000000000000       0.18750000000000000        0.0000000000000000     
  0.81250000000000000       0.18750000000000000        0.0000000000000000     
  0.84375000000000000       0.18750000000000000        0.0000000000000000     
  0.87500000000000000       0.18750000000000000        0.0000000000000000     
  0.75000000000000000       0.21875000000000000        0.0000000000000000     
  0.78125000000000000       0.21875000000000000        0.0000000000000000     
  0.81250000000000000       0.21875000000000000        0.0000000000000000     
  0.84375000000000000       0.21875000000000000        0.0000000000000000     
  0.87500000000000000       0.21875000000000000        0.0000000000000000     
  0.75000000000000000       0.25000000000000000        0.0000000000000000     
  0.78125000000000000       0.25000000000000000        0.0000000000000000     
  0.81250000000000000       0.25000000000000000        0.0000000000000000     
  0.84375000000000000       0.25000000000000000        0.0000000000000000     
  0.87500000000000000       0.25000000000000000        0.0000000000000000     
  0.87500000000000000       0.12500000000000000        0.0000000000000000     
  0.90625000000000000       0.12500000000000000        0.0000000000000000     
  0.93750000000000000       0.12500000000000000        0.0000000000000000     
  0.96875000000000000       0.12500000000000000        0.0000000000000000     
   1.0000000000000000       0.12500000000000000        0.0000000000000000     
  0.87500000000000000       0.15625000000000000        0.0000000000000000     
  0.90625000000000000       0.15625000000000000        0.0000000000000000     
  0.93750000000000000       0.15625000000000000        0.0000000000000000     
  0.96875000000000000       0.15625000000000000        0.0000000000000000     
   1.0000000000000000       0.15625000000000000        0.0000000000000000     
  0.87500000000000000       0.18750000000000000        0.0000000000000000     
  0.90625000000000000       0.18750000000000000        0.0000000000000000     
  0.93750000000000000       0.18750000000000000        0.0000000000000000     
  0.96875000000000000       0.18750000000000000        0.0000000000000000     
   1.0000000000000000       0.18750000000000000        0.0000000000000000     
  0.87500000000000000       0.21875000000000000        0.0000000000000000     
  0.90625000000000000       0.21875000000000000        0.0000000000000000     
  0.93750000000000000       0.21875000000000000        0.0000000000000000     
  0.96875000000000000       0.21875000000000000        0.0000000000000000     
   1.0000000000000000       0.21875000000000000        0.0000000000000000     
  0.87500000000000000       0.25000000000000000        0.0000000000000000     
  0.90625000000000000       0.25000000000000000        0.0000000000000000     
  0.93750000000000000       0.25000000000000000        0.0000000000000000     
  0.96875000000000000       0.25000000000000000        0.0000000000000000     
   1.0000000000000000       0.25000000000000000        0.0000000000000000     
   0.0000000000000000       0.25000000000000000        0.0000000000000000     
   3.1250000000000000E-002  0.25000000000000000        0.0000000000000000     
   6.2500000000000000E-002  0.25000000000000000        0.0000000000000000     
   9.3750000000000000E-002  0.25000000000000000        0.0000000000000000     
  0.12500000000000000       0.25000000000000000        0.0000000000000000     
   0.0000000000000000       0.28125000000000000        0.0000000000000000     
   3.1250000000000000E-002  0.28125000000000000        0.0000000000000000     
   6.2500000000000000E-002  0.28125000000000000        0.0000000000000000     
   9.3750000000000000E-002  0.28125000000000000        0.0000000000000000     
  0.12500000000000000       0.28125000000000000        0.0000000000000000     
   0.0000000000000000       0.31250000000000000        0.0000000000000000     
   3.1250000000000000E-002  0.31250000000000000        0.0000000000000000     
   6.2500000000000000E-002  0.31250000000000000        0.0000000000000000     
   9.3750000000000000E-002  0.31250000000000000        0.0000000000000000     
  0.12500000000000000       0.31250000000000000        0.0000000000000000     
   0.0000000000000000       0.34375000000000000        0.0000000000000000     
   3.1250000000000000E-002  0.34375000000000000        0.0000000000000000     
   6.2500000000000000E-002  0.34375000000000000        0.0000000000000000     
   9.3750000000000000E-002  0.34375000000000000        0.0000000000000000     
  0.12500000000000000       0.34375000000000000        0.0000000000000000     
   0.0000000000000000       0.37500000000000000        0.0000000000000000     
   3.1250000000000000E-002  0.37500000000000000        0.0000000000000000     
   6.2500000000000000E-002  0.37500000000000000        0.0000000000000000     
   9.3750000000000000E-002  0.37500000000000000        0.0000000000000000     
  0.12500000000000000       0.37500000000000000        0.0000000000000000     
  0.12500000000000000       0.25000000000000000        0.0000000000000000     
  0.15625000000000000       0.25000000000000000        0.0000000000000000     
  0.18750000000000000       0.25000000000000000        0.0000000000000000     
  0.21875000000000000       0.25000000000000000        0.0000000000000000     
  0.25000000000000000       0.25000000000000000        0.0000000000000000     
  0.12500000000000000       0.28125000000000000        0.0000000000000000     
  0.15625000000000000       0.28125000000000000        0.0000000000000000     
  0.18750000000000000       0.28125000000000000        0.0000000000000000     
  0.21875000000000000       0.28125000000000000        0.0000000000000000     
  0.25000000000000000       0.28125000000000000        0.0000000000000000     
  0.12500000000000000       0.31250000000000000        0.0000000000000000     
  0.15625000000000000       0.31250000000000000        0.0000000000000000     
  0.18750000000000000       0.31250000000000000        0.0000000000000000     
  0.21875000000000000       0.31250000000000000        0.0000000000000000     
  0.25000000000000000       0.31250000000000000        0.0000000000000000     
  0.12500000000000000       0.34375000000000000        0.0000000000000000     
  0.15625000000000000       0.34375000000000000        0.0000000000000000     
  0.18750000000000000       0.34375000000000000        0.0000000000000000     
  0.21875000000000000       0.34375000000000000        0.0000000000000000     
  0.25000000000000000       0.34375000000000000        0.0000000000000000     
  0.12500000000000000       0.37500000000000000        0.0000000000000000     
  0.15625000000000000       0.37500000000000000        0.0000000000000000     
  0.18750000000000000       0.37500000000000000        0.0000000000000000     
  0.21875000000000000       0.37500000000000000        0.0000000000000000     
  0.25000000000000000       0.37500000000000000        0.0000000000000000     
  0.25000000000000000       0.25000000000000000        0.0000000000000000     
  0.28125000000000000       0.25000000000000000        0.0000000000000000     
  0.31250000000000000       0.25000000000000000        0.0000000000000000     
  0.34375000000000000       0.25000000000000000        0.0000000000000000     
  0.37500000000000000       0.25000000000000000        0.0000000000000000     
  0.25000000000000000       0.28125000000000000        0.0000000000000000     
  0.28125000000000000       0.28125000000000000        0.0000000000000000     
  0.31250000000000000       0.28125000000000000        0.0000000000000000     
  0.34375000000000000       0.28125000000000000        0.0000000000000000     
  0.37500000000000000       0.28125000000000000        0.0000000000000000     
  0.25000000000000000       0.31250000000000000        0.0000000000000000     
  0.28125000000000000       0.31250000000000000        0.0000000000000000     
  0.31250000000000000       0.31250000000000000        0.0000000000000000     
  0.34375000000000000       0.31250000000000000        0.0000000000000000     
  0.37500000000000000       0.31250000000000000        0.0000000000000000     
  0.25000000000000000       0.34375000000000000        0.0000000000000000     
  0.28125000000000000       0.34375000000000000        0.0000000000000000     
  0.31250000000000000       0.34375000000000000        0.0000000000000000     
  0.34375000000000000       0.34375000000000000        0.0000000000000000     
  0.37500000000000000       0.34375000000000000        0.0000000000000000     
  0.25000000000000000       0.37500000000000000        0.0000000000000000     
  0.28125000000000000       0.37500000000000000        0.0000000000000000     
  0.31250000000000000       0.37500000000000000        0.0000000000000000     
  0.34375000000000000       0.37500000000000000        0.0000000000000000     
  0.37500000000000000       0.37500000000000000        0.0000000000000000     
  0.37500000000000000       0.25000000000000000        0.0000000000000000     
  0.40625000000000000       0.25000000000000000        0.0000000000000000     
  0.43750000000000000       0.25000000000000000        0.0000000000000000     
  0.46875000000000000       0.25000000000000000        0.0000000000000000     
  0.50000000000000000       0.25000000000000000        0.0000000000000000     
  0.37500000000000000       0.28125000000000000        0.0000000000000000     
  0.40625000000000000       0.28125000000000000        0.0000000000000000     
  0.43750000000000000       0.28125000000000000        0.0000000000000000     
  0.46875000000000000       0.28125000000000000        0.0000000000000000     
  0.50000000000000000       0.28125000000000000        0.0000000000000000     
  0.37500000000000000       0.31250000000000000        0.0000000000000000     
  0.40625000000000000       0.31250000000000000        0.0000000000000000     
  0.43750000000000000       0.31250000000000000        0.0000000000000000     
  0.46875000000000000       0.31250000000000000        0.0000000000000000     
  0.50000000000000000       0.31250000000000000        0.0000000000000000     
  0.37500000000000000       0.34375000000000000        0.0000000000000000     
  0.40625000000000000       0.34375000000000000        0.0000000000000000     
  0.43750000000000000       0.34375000000000000        0.0000000000000000     
  0.46875000000000000       0.34375000000000000        0.0000000000000000     
  0.50000000000000000       0.34375000000000000        0.0000000000000000     
  0.37500000000000000       0.37500000000000000        0.0000000000000000     
  0.40625000000000000       0.37500000000000000        0.0000000000000000     
  0.43750000000000000       0.37500000000000000        0.0000000000000000     
  0.46875000000000000       0.37500000000000000        0.0000000000000000     
  0.50000000000000000       0.37500000000000000        0.0000000000000000     
  0.50000000000000000       0.25000000000000000        0.0000000000000000     
  0.53125000000000000       0.25000000000000000        0.0000000000000000     
  0.56250000000000000       0.25000000000000000        0.0000000000000000     
  0.59375000000000000       0.25000000000000000        0.0000000000000000     
  0.62500000000000000       0.25000000000000000        0.0000000000000000     
  0.50000000000000000       0.28125000000000000        0.0000000000000000     
  0.53125000000000000       0.28125000000000000        0.0000000000000000     
  0.56250000000000000       0.28125000000000000        0.0000000000000000     
  0.59375000000000000       0.28125000000000000        0.0000000000000000     
  0.62500000000000000       0.28125000000000000        0.0000000000000000     
  0.50000000000000000       0.31250000000000000        0.0000000000000000     
  0.53125000000000000       0.31250000000000000        0.0000000000000000     
  0.56250000000000000       0.31250000000000000        0.0000000000000000     
  0.59375000000000000       0.31250000000000000        0.0000000000000000     
  0.62500000000000000       0.31250000000000000        0.0000000000000000     
  0.50000000000000000       0.34375000000000000        0.0000000000000000     
  0.53125000000000000       0.34375000000000000        0.0000000000000000     
  0.56250000000000000       0.34375000000000000        0.0000000000000000     
  0.59375000000000000       0.34375000000000000        0.0000000000000000     
  0.62500000000000000       0.34375000000000000        0.0000000000000000     
  0.50000000000000000       0.37500000000000000        0.0000000000000000     
  0.53125000000000000       0.37500000000000000        0.0000000000000000     
  0.56250000000000000       0.37500000000000000        0.0000000000000000     
  0.59375000000000000       0.37500000000000000        0.0000000000000000     
  0.62500000000000000       0.37500000000000000        0.0000000000000000     
  0.62500000000000000       0.25000000000000000        0.0000000000000000     
  0.65625000000000000       0.25000000000000000        0.0000000000000000     
  0.68750000000000000       0.25000000000000000        0.0000000000000000     
  0.71875000000000000       0.25000000000000000        0.0000000000000000     
  0.75000000000000000       0.25000000000000000        0.0000000000000000     
  0.62500000000000000       0.28125000000000000        0.0000000000000000     
  0.65625000000000000       0.28125000000000000        0.0000000000000000     
  0.68750000000000000       0.28125000000000000        0.0000000000000000     
  0.71875000000000000       0.28125000000000000        0.0000000000000000     
  0.75000000000000000       0.28125000000000000        0.0000000000000000     
  0.62500000000000000       0.31250000000000000        0.0000000000000000     
  0.65625000000000000       0.31250000000000000        0.0000000000000000     
  0.68750000000000000       0.31250000000000000        0.0000000000000000     
  0.71875000000000000       0.31250000000000000        0.0000000000000000     
  0.75000000000000000       0.31250000000000000        0.0000000000000000     
  0.62500000000000000       0.34375000000000000        0.0000000000000000     
  0.65625000000000000       0.34375000000000000        0.0000000000000000     
  0.68750000000000000       0.34375000000000000        0.0000000000000000     
  0.71875000000000000       0.34375000000000000        0.0000000000000000     
  0.75000000000000000       0.34375000000000000        0.0000000000000000     
  0.62500000000000000       0.37500000000000000        0.0000000000000000     
  0.65625000000000000       0.37500000000000000        0.0000000000000000     
  0.68750000000000000       0.37500000000000000        0.0000000000000000     
  0.71875000000000000       0.37500000000000000        0.0000000000000000     
  0.75000000000000000       0.37500000000000000        0.0000000000000000     
  0.75000000000000000       0.25000000000000000        0.0000000000000000     
  0.78125000000000000       0.25000000000000000        0.0000000000000000     
  0.81250000000000000       0.25000000000000000        0.0000000000000000     
  0.84375000000000000       0.25000000000000000        0.0000000000000000     
  0.87500000000000000       0.25000000000000000        0.0000000000000000     
  0.75000000000000000       0.28125000000000000        0.0000000000000000     
  0.78125000000000000       0.28125000000000000        0.0000000000000000     
  0.81250000000000000       0.28125000000000000        0.0000000000000000     
  0.84375000000000000       0.28125000000000000        0.0000000000000000     
  0.87500000000000000       0.28125000000000000        0.0000000000000000     
  0.75000000000000000       0.31250000000000000        0.0000000000000000     
  0.78125000000000000       0.31250000000000000        0.0000000000000000     
  0.81250000000000000       0.31250000000000000        0.0000000000000000     
  0.84375000000000000       0.31250000000000000        0.0000000000000000     
  0.87500000000000000       0.31250000000000000        0.0000000000000000     
  0.75000000000000000       0.34375000000000000        0.0000000000000000     
  0.78125000000000000       0.34375000000000000        0.0000000000000000     
  0.81250000000000000       0.34375000000000000        0.0000000000000000     
  0.84375000000000000       0.34375000000000000        0.0000000000000000     
  0.87500000000000000       0.34375000000000000        0.0000000000000000     
  0.75000000000000000       0.37500000000000000        0.0000000000000000     
  0.78125000000000000       0.37500000000000000        0.0000000000000000     
  0.81250000000000000       0.37500000000000000        0.0000000000000000     
  0.84375000000000000       0.37500000000000000        0.0000000000000000     
  0.87500000000000000       0.37500000000000000        0.0000000000000000     
  0.87500000000000000       0.25000000000000000        0.0000000000000000     
  0.90625000000000000       0.25000000000000000        0.0000000000000000     
  0.93750000000000000       0.25000000000000000        0.0000000000000000     
  0.96875000000000000       0.25000000000000000        0.0000000000000000     
   1.0000000000000000       0.25000000000000000        0.0000000000000000     
  0.87500000000000000       0.28125000000000000        0.0000000000000000     
  0.90625000000000000       0.28125000000000000        0.0000000000000000     
  0.93750000000000000       0.28125000000000000        0.0000000000000000     
  0.96875000000000000       0.28125000000000000        0.0000000000000000     
   1.0000000000000000       0.28125000000000000        0.0000000000000000     
  0.87500000000000000       0.31250000000000000        0.0000000000000000     
  0.90625000000000000       0.31250000000000000        0.0000000000000000     
  0.93750000000000000       0.31250000000000000        0.0000000000000000     
  0.96875000000000000       0.31250000000000000        0.0000000000000000     
   1.0000000000000000       0.31250000000000000        0.0000000000000000     
  0.87500000000000000       0.34375000000000000        0.0000000000000000     
  0.90625000000000000       0.34375000000000000        0.0000000000000000     
  0.93750000000000000       0.34375000000000000        0.0000000000000000     
  0.96875000000000000       0.34375000000000000        0.0000000000000000     
   1.0000000000000000       0.34375000000000000        0.0000000000000000     
  0.87500000000000000       0.37500000000000000        0.0000000000000000     
  0.90625000000000000       0.37500000000000000        0.0000000000000000     
  0.93750000000000000       0.37500000000000000        0.0000000000000000     
  0.96875000000000000       0.37500000000000000        0.0000000000000000     
   1.0000000000000000       0.37500000000000000        0.0000000000000000     
   0.0000000000000000       0.37500000000000000        0.0000000000000000     
   3.1250000000000000E-002  0.37500000000000000        0.0000000000000000     
   6.2500000000000000E-002  0.37500000000000000        0.0000000000000000     
   9.3750000000000000E-002  0.37500000000000000        0.0000000000000000     
  0.12500000000000000       0.37500000000000000        0.0000000000000000     
   0.0000000000000000       0.40625000000000000        0.0000000000000000     
   3.1250000000000000E-002  0.40625000000000000        0.0000000000000000     
   6.2500000000000000E-002  0.40625000000000000        0.0000000000000000     
   9.3750000000000000E-002  0.40625000000000000        0.0000000000000000     
  0.12500000000000000       0.40625000000000000        0.0000000000000000     
   0.0000000000000000       0.43750000000000000        0.0000000000000000     
   3.1250000000000000E-002  0.43750000000000000        0.0000000000000000     
   6.2500000000000000E-002  0.43750000000000000        0.0000000000000000     
   9.3750000000000000E-002  0.43750000000000000        0.0000000000000000     
  0.12500000000000000       0.43750000000000000        0.0000000000000000     
   0.0000000000000000       0.46875000000000000        0.0000000000000000     
   3.1250000000000000E-002  0.46875000000000000        0.0000000000000000     
   6.2500000000000000E-002  0.46875000000000000        0.0000000000000000     
   9.3750000000000000E-002  0.46875000000000000        0.0000000000000000     
  0.12500000000000000       0.46875000000000000        0.0000000000000000     
   0.0000000000000000       0.50000000000000000        0.0000000000000000     
   3.1250000000000000E-002  0.50000000000000000        0.0000000000000000     
   6.2500000000000000E-002  0.50000000000000000        0.0000000000000000     
   9.3750000000000000E-002  0.50000000000000000        0.0000000000000000     
  0.12500000000000000       0.50000000000000000        0.0000000000000000     
  0.12500000000000000       0.37500000000000000        0.0000000000000000     
  0.15625000000000000       0.37500000000000000        0.0000000000000000     
  0.18750000000000000       0.37500000000000000        0.0000000000000000     
  0.21875000000000000       0.37500000000000000        0.0000000000000000     
  0.25000000000000000       0.37500000000000000        0.0000000000000000     
  0.12500000000000000       0.40625000000000000        0.0000000000000000     
  0.15625000000000000       0.40625000000000000        0.0000000000000000     
  0.18750000000000000       0.40625000000000000        0.0000000000000000     
  0.21875000000000000       0.40625000000000000        0.0000000000000000     
  0.25000000000000000       0.40625000000000000        0.0000000000000000     
  0.12500000000000000       0.43750000000000000        0.0000000000000000     
  0.15625000000000000       0.43750000000000000        0.0000000000000000     
  0.18750000000000000       0.43750000000000000        0.0000000000000000     
  0.21875000000000000       0.43750000000000000        0.0000000000000000     
  0.25000000000000000       0.43750000000000000        0.0000000000000000     
  0.12500000000000000       0.46875000000000000        0.0000000000000000     
  0.15625000000000000       0.46875000000000000        0.0000000000000000     
  0.18750000000000000       0.46875000000000000        0.0000000000000000     
  0.21875000000000000       0.46875000000000000        0.0000000000000000     
  0.25000000000000000       0.46875000000000000        0.0000000000000000     
  0.12500000000000000       0.50000000000000000        0.0000000000000000     
  0.15625000000000000       0.50000000000000000        0.0000000000000000     
  0.18750000000000000       0.50000000000000000        0.0000000000000000     
  0.21875000000000000       0.50000000000000000        0.0000000000000000     
  0.25000000000000000       0.50000000000000000        0.0000000000000000     
  0.25000000000000000       0.37500000000000000        0.0000000000000000     
  0.28125000000000000       0.37500000000000000        0.0000000000000000     
  0.31250000000000000       0.37500000000000000        0.0000000000000000     
  0.34375000000000000       0.37500000000000000        0.0000000000000000     
  0.37500000000000000       0.37500000000000000        0.0000000000000000     
  0.25000000000000000       0.40625000000000000        0.0000000000000000     
  0.28125000000000000       0.40625000000000000        0.0000000000000000     
  0.31250000000000000       0.40625000000000000        0.0000000000000000     
  0.34375000000000000       0.40625000000000000        0.0000000000000000     
  0.37500000000000000       0.40625000000000000        0.0000000000000000     
  0.25000000000000000       0.43750000000000000        0.0000000000000000     
  0.28125000000000000       0.43750000000000000        0.0000000000000000     
  0.31250000000000000       0.43750000000000000        0.0000000000000000     
  0.34375000000000000       0.43750000000000000        0.0000000000000000     
  0.37500000000000000       0.43750000000000000        0.0000000000000000     
  0.25000000000000000       0.46875000000000000        0.0000000000000000     
  0.28125000000000000       0.46875000000000000        0.0000000000000000     
  0.31250000000000000       0.46875000000000000        0.0000000000000000     
  0.34375000000000000       0.46875000000000000        0.0000000000000000     
  0.37500000000000000       0.46875000000000000        0.0000000000000000     
  0.25000000000000000       0.50000000000000000        0.0000000000000000     
  0.28125000000000000       0.50000000000000000        0.0000000000000000     
  0.31250000000000000       0.50000000000000000        0.0000000000000000     
  0.34375000000000000       0.50000000000000000        0.0000000000000000     
  0.37500000000000000       0.50000000000000000        0.0000000000000000     
  0.37500000000000000       0.37500000000000000        0.0000000000000000     
  0.40625000000000000       0.37500000000000000        0.0000000000000000     
  0.43750000000000000       0.37500000000000000        0.0000000000000000     
  0.46875000000000000       0.37500000000000000        0.0000000000000000     
  0.50000000000000000       0.37500000000000000        0.0000000000000000     
  0.37500000000000000       0.40625000000000000        0.0000000000000000     
  0.40625000000000000       0.40625000000000000        0.0000000000000000     
  0.43750000000000000       0.40625000000000000        0.0000000000000000     
  0.46875000000000000       0.40625000000000000        0.0000000000000000     
  0.50000000000000000       0.40625000000000000        0.0000000000000000     
  0.37500000000000000       0.43750000000000000        0.0000000000000000     
  0.40625000000000000       0.43750000000000000        0.0000000000000000     
  0.43750000000000000       0.43750000000000000        0.0000000000000000     
  0.46875000000000000       0.43750000000000000        0.0000000000000000     
  0.50000000000000000       0.43750000000000000        0.0000000000000000     
  0.37500000000000000       0.46875000000000000        0.0000000000000000     
  0.40625000000000000       0.46875000000000000        0.0000000000000000     
  0.43750000000000000       0.46875000000000000        0.0000000000000000     
  0.46875000000000000       0.46875000000000000        0.0000000000000000     
  0.50000000000000000       0.46875000000000000        0.0000000000000000     
  0.37500000000000000       0.50000000000000000        0.0000000000000000     
  0.40625000000000000       0.50000000000000000        0.0000000000000000     
  0.43750000000000000       0.50000000000000000        0.0000000000000000     
  0.46875000000000000       0.50000000000000000        0.0000000000000000     
  0.50000000000000000       0.50000000000000000        0.0000000000000000     
  0.50000000000000000       0.37500000000000000        0.0000000000000000     
  0.53125000000000000       0.37500000000000000        0.0000000000000000     
  0.56250000000000000       0.37500000000000000        0.0000000000000000     
  0.59375000000000000       0.37500000000000000        0.0000000000000000     
  0.62500000000000000       0.37500000000000000        0.0000000000000000     
  0.50000000000000000       0.40625000000000000        0.0000000000000000     
  0.53125000000000000       0.40625000000000000        0.0000000000000000     
  0.56250000000000000       0.40625000000000000        0.0000000000000000     
  0.59375000000000000       0.40625000000000000        0.0000000000000000     
  0.62500000000000000       0.40625000000000000        0.0000000000000000     
  0.50000000000000000       0.43750000000000000        0.0000000000000000     
  0.53125000000000000       0.43750000000000000        0.0000000000000000     
  0.56250000000000000       0.43750000000000000        0.0000000000000000     
  0.59375000000000000       0.43750000000000000        0.0000000000000000     
  0.62500000000000000       0.43750000000000000        0.0000000000000000     
  0.50000000000000000       0.46875000000000000        0.0000000000000000     
  0.53125000000000000       0.46875000000000000        0.0000000000000000     
  0.56250000000000000       0.46875000000000000        0.0000000000000000     
  0.59375000000000000       0.46875000000000000        0.0000000000000000     
  0.62500000000000000       0.46875000000000000        0.0000000000000000     
  0.50000000000000000       0.50000000000000000        0.0000000000000000     
  0.53125000000000000       0.50000000000000000        0.0000000000000000     
  0.56250000000000000       0.50000000000000000        0.0000000000000000     
  0.59375000000000000       0.50000000000000000        0.0000000000000000     
  0.62500000000000000       0.50000000000000000        0.0000000000000000     
  0.62500000000000000       0.37500000000000000        0.0000000000000000     
  0.65625000000000000       0.37500000000000000        0.0000000000000000     
  0.68750000000000000       0.37500000000000000        0.0000000000000000     
  0.71875000000000000       0.37500000000000000        0.0000000000000000     
  0.75000000000000000       0.37500000000000000        0.0000000000000000     
  0.62500000000000000       0.40625000000000000        0.0000000000000000     
  0.65625000000000000       0.40625000000000000        0.0000000000000000     
  0.68750000000000000       0.40625000000000000        0.0000000000000000     
  0.71875000000000000       0.40625000000000000        0.0000000000000000     
  0.75000000000000000       0.40625000000000000        0.0000000000000000     
  0.62500000000000000       0.43750000000000000        0.0000000000000000     
  0.65625000000000000       0.43750000000000000        0.0000000000000000     
  0.68750000000000000       0.43750000000000000        0.0000000000000000     
  0.71875000000000000       0.43750000000000000        0.0000000000000000     
  0.75000000000000000       0.43750000000000000        0.0000000000000000     
  0.62500000000000000       0.46875000000000000        0.0000000000000000     
  0.65625000000000000       0.46875000000000000        0.0000000000000000     
  0.68750000000000000       0.46875000000000000        0.0000000000000000     
  0.71875000000000000       0.46875000000000000        0.0000000000000000     
  0.75000000000000000       0.46875000000000000        0.0000000000000000     
  0.62500000000000000       0.50000000000000000        0.0000000000000000     
  0.65625000000000000       0.50000000000000000        0.0000000000000000     
  0.68750000000000000       0.50000000000000000        0.0000000000000000     
  0.71875000000000000       0.50000000000000000        0.0000000000000000     
  0.75000000000000000       0.50000000000000000        0.0000000000000000     
  0.75000000000000000       0.37500000000000000        0.0000000000000000     
  0.78125000000000000       0.37500000000000000        0.0000000000000000     
  0.81250000000000000       0.37500000000000000        0.0000000000000000     
  0.84375000000000000       0.37500000000000000        0.0000000000000000     
  0.87500000000000000       0.37500000000000000        0.0000000000000000     
  0.75000000000000000       0.40625000000000000        0.0000000000000000     
  0.78125000000000000       0.40625000000000000        0.0000000000000000     
  0.81250000000000000       0.40625000000000000        0.0000000000000000     
  0.84375000000000000       0.40625000000000000        0.0000000000000000     
  0.87500000000000000       0.40625000000000000        0.0000000000000000     
  0.75000000000000000       0.43750000000000000        0.0000000000000000     
  0.78125000000000000       0.43750000000000000        0.0000000000000000     
  0.81250000000000000       0.43750000000000000        0.0000000000000000     
  0.84375000000000000       0.43750000000000000        0.0000000000000000     
  0.87500000000000000       0.43750000000000000        0.0000000000000000     
  0.75000000000000000       0.46875000000000000        0.0000000000000000     
  0.78125000000000000       0.46875000000000000        0.0000000000000000     
  0.81250000000000000       0.46875000000000000        0.0000000000000000     
  0.84375000000000000       0.46875000000000000        0.0000000000000000     
  0.87500000000000000       0.46875000000000000        0.0000000000000000     
  0.75000000000000000       0.50000000000000000        0.0000000000000000     
  0.78125000000000000       0.50000000000000000        0.0000000000000000     
  0.81250000000000000       0.50000000000000000        0.0000000000000000     
  0.84375000000000000       0.50000000000000000        0.0000000000000000     
  0.87500000000000000       0.50000000000000000        0.0000000000000000     
  0.87500000000000000       0.37500000000000000        0.0000000000000000     
  0.90625000000000000       0.37500000000000000        0.0000000000000000     
  0.93750000000000000       0.37500000000000000        0.0000000000000000     
  0.96875000000000000       0.37500000000000000        0.0000000000000000     
   1.0000000000000000       0.37500000000000000        0.0000000000000000     
  0.87500000000000000       0.40625000000000000        0.0000000000000000     
  0.90625000000000000       0.40625000000000000        0.0000000000000000     
  0.93750000000000000       0.40625000000000000        0.0000000000000000     
  0.96875000000000000       0.40625000000000000        0.0000000000000000     
   1.0000000000000000       0.40625000000000000        0.0000000000000000     
  0.87500000000000000       0.43750000000000000        0.0000000000000000     
  0.90625000000000000       0.43750000000000000        0.0000000000000000     
  0.93750000000000000       0.43750000000000000        0.0000000000000000     
  0.96875000000000000       0.43750000000000000        0.0000000000000000     
   1.0000000000000000       0.43750000000000000        0.0000000000000000     
  0.87500000000000000       0.46875000000000000        0.0000000000000000     
  0.90625000000000000       0.46875000000000000        0.0000000000000000     
  0.93750000000000000       0.46875000000000000        0.0000000000000000     
  0.96875000000000000       0.46875000000000000        0.0000000000000000     
   1.0000000000000000       0.46875000000000000        0.0000000000000000     
  0.87500000000000000       0.50000000000000000        0.0000000000000000     
  0.90625000000000000       0.50000000000000000        0.0000000000000000     
  0.93750000000000000       0.50000000000000000        0.0000000000000000     
  0.96875000000000000       0.50000000000000000        0.0000000000000000     
   1.0000000000000000       0.50000000000000000        0.0000000000000000     
   0.0000000000000000       0.50000000000000000        0.0000000000000000     
   3.1250000000000000E-002  0.50000000000000000        0.0000000000000000     
   6.2500000000000000E-002  0.50000000000000000        0.0000000000000000     
   9.3750000000000000E-002  0.50000000000000000        0.0000000000000000     
  0.12500000000000000       0.50000000000000000        0.0000000000000000     
   0.0000000000000000       0.53125000000000000        0.0000000000000000     
   3.1250000000000000E-002  0.53125000000000000        0.0000000000000000     
   6.2500000000000000E-002  0.53125000000000000        0.0000000000000000     
   9.3750000000000000E-002  0.53125000000000000        0.0000000000000000     
  0.12500000000000000       0.53125000000000000        0.0000000000000000     
   0.0000000000000000       0.56250000000000000        0.0000000000000000     
   3.1250000000000000E-002  0.56250000000000000        0.0000000000000000     
   6.2500000000000000E-002  0.56250000000000000        0.0000000000000000     
   9.3750000000000000E-002  0.56250000000000000        0.0000000000000000     
  0.12500000000000000       0.56250000000000000        0.0000000000000000     
   0.0000000000000000       0.59375000000000000        0.0000000000000000     
   3.1250000000000000E-002  0.59375000000000000        0.0000000000000000     
   6.2500000000000000E-002  0.59375000000000000        0.0000000000000000     
   9.3750000000000000E-002  0.59375000000000000        0.0000000000000000     
  0.12500000000000000       0.59375000000000000        0.0000000000000000     
   0.0000000000000000       0.62500000000000000        0.0000000000000000     
   3.1250000000000000E-002  0.62500000000000000        0.0000000000000000     
   6.2500000000000000E-002  0.62500000000000000        0.0000000000000000     
   9.3750000000000000E-002  0.62500000000000000        0.0000000000000000     
  0.12500000000000000       0.62500000000000000        0.0000000000000000     
  0.12500000000000000       0.50000000000000000        0.0000000000000000     
  0.15625000000000000       0.50000000000000000        0.0000000000000000     
  0.18750000000000000       0.50000000000000000        0.0000000000000000     
  0.21875000000000000       0.50000000000000000        0.0000000000000000     
  0.25000000000000000       0.50000000000000000        0.0000000000000000     
  0.12500000000000000       0.53125000000000000        0.0000000000000000     
  0.15625000000000000       0.53125000000000000        0.0000000000000000     
  0.18750000000000000       0.53125000000000000        0.0000000000000000     
  0.21875000000000000       0.53125000000000000        0.0000000000000000     
  0.25000000000000000       0.53125000000000000        0.0000000000000000     
  0.12500000000000000       0.56250000000000000        0.0000000000000000     
  0.15625000000000000       0.56250000000000000        0.0000000000000000     
  0.18750000000000000       0.56250000000000000        0.0000000000000000     
  0.21875000000000000       0.56250000000000000        0.0000000000000000     
  0.25000000000000000       0.56250000000000000        0.0000000000000000     
  0.12500000000000000       0.59375000000000000        0.0000000000000000     
  0.15625000000000000       0.59375000000000000        0.0000000000000000     
  0.18750000000000000       0.59375000000000000        0.0000000000000000     
  0.21875000000000000       0.59375000000000000        0.0000000000000000     
  0.25000000000000000       0.59375000000000000        0.0000000000000000     
  0.12500000000000000       0.62500000000000000        0.0000000000000000     
  0.15625000000000000       0.62500000000000000        0.0000000000000000     
  0.18750000000000000       0.62500000000000000        0.0000000000000000     
  0.21875000000000000       0.62500000000000000        0.0000000000000000     
  0.25000000000000000       0.62500000000000000        0.0000000000000000     
  0.25000000000000000       0.50000000000000000        0.0000000000000000     
  0.28125000000000000       0.50000000000000000        0.0000000000000000     
  0.31250000000000000       0.50000000000000000        0.0000000000000000     
  0.34375000000000000       0.50000000000000000        0.0000000000000000     
  0.37500000000000000       0.50000000000000000        0.0000000000000000     
  0.25000000000000000       0.53125000000000000        0.0000000000000000     
  0.28125000000000000       0.53125000000000000        0.0000000000000000     
  0.31250000000000000       0.53125000000000000        0.0000000000000000     
  0.34375000000000000       0.53125000000000000        0.0000000000000000     
  0.37500000000000000       0.53125000000000000        0.0000000000000000     
  0.25000000000000000       0.56250000000000000        0.0000000000000000     
  0.28125000000000000       0.56250000000000000        0.0000000000000000     
  0.31250000000000000       0.56250000000000000        0.0000000000000000     
  0.34375000000000000       0.56250000000000000        0.0000000000000000     
  0.37500000000000000       0.56250000000000000        0.0000000000000000     
  0.25000000000000000       0.59375000000000000        0.0000000000000000     
  0.28125000000000000       0.59375000000000000        0.0000000000000000     
  0.31250000000000000       0.59375000000000000        0.0000000000000000     
  0.34375000000000000       0.59375000000000000        0.0000000000000000     
  0.37500000000000000       0.59375000000000000        0.0000000000000000     
  0.25000000000000000       0.62500000000000000        0.0000000000000000     
  0.28125000000000000       0.62500000000000000        0.0000000000000000     
  0.31250000000000000       0.62500000000000000        0.0000000000000000     
  0.34375000000000000       0.62500000000000000        0.0000000000000000     
  0.37500000000000000       0.62500000000000000        0.0000000000000000     
  0.37500000000000000       0.50000000000000000        0.0000000000000000     
  0.40625000000000000       0.50000000000000000        0.0000000000000000     
  0.43750000000000000       0.50000000000000000        0.0000000000000000     
  0.46875000000000000       0.50000000000000000        0.0000000000000000     
  0.50000000000000000       0.50000000000000000        0.0000000000000000     
  0.37500000000000000       0.53125000000000000        0.0000000000000000     
  0.40625000000000000       0.53125000000000000        0.0000000000000000     
  0.43750000000000000       0.53125000000000000        0.0000000000000000     
  0.46875000000000000       0.53125000000000000        0.0000000000000000     
  0.50000000000000000       0.53125000000000000        0.0000000000000000     
  0.37500000000000000       0.56250000000000000        0.0000000000000000     
  0.40625000000000000       0.56250000000000000        0.0000000000000000     
  0.43750000000000000       0.56250000000000000        0.0000000000000000     
  0.46875000000000000       0.56250000000000000        0.0000000000000000     
  0.50000000000000000       0.56250000000000000        0.0000000000000000     
  0.37500000000000000       0.59375000000000000        0.0000000000000000     
  0.40625000000000000       0.59375000000000000        0.0000000000000000     
  0.43750000000000000       0.59375000000000000        0.0000000000000000     
  0.46875000000000000       0.59375000000000000        0.0000000000000000     
  0.50000000000000000       0.59375000000000000        0.0000000000000000     
  0.37500000000000000       0.62500000000000000        0.0000000000000000     
  0.40625000000000000       0.62500000000000000        0.0000000000000000     
  0.43750000000000000       0.62500000000000000        0.0000000000000000     
  0.46875000000000000       0.62500000000000000        0.0000000000000000     
  0.50000000000000000       0.62500000000000000        0.0000000000000000     
  0.50000000000000000       0.50000000000000000        0.0000000000000000     
  0.53125000000000000       0.50000000000000000        0.0000000000000000     
  0.56250000000000000       0.50000000000000000        0.0000000000000000     
  0.59375000000000000       0.50000000000000000        0.0000000000000000     
  0.62500000000000000       0.50000000000000000        0.0000000000000000     
  0.50000000000000000       0.53125000000000000        0.0000000000000000     
  0.53125000000000000       0.53125000000000000        0.0000000000000000     
  0.56250000000000000       0.53125000000000000        0.0000000000000000     
  0.59375000000000000       0.53125000000000000        0.0000000000000000     
  0.62500000000000000       0.53125000000000000        0.0000000000000000     
  0.50000000000000000       0.56250000000000000        0.0000000000000000     
  0.53125000000000000       0.56250000000000000        0.0000000000000000     
  0.56250000000000000       0.56250000000000000        0.0000000000000000     
  0.59375000000000000       0.56250000000000000        0.0000000000000000     
  0.62500000000000000       0.56250000000000000        0.0000000000000000     
  0.50000000000000000       0.59375000000000000        0.0000000000000000     
  0.53125000000000000       0.59375000000000000        0.0000000000000000     
  0.56250000000000000       0.59375000000000000        0.0000000000000000     
  0.59375000000000000       0.59375000000000000        0.0000000000000000     
  0.62500000000000000       0.59375000000000000        0.0000000000000000     
  0.50000000000000000       0.62500000000000000        0.0000000000000000     
  0.53125000000000000       0.62500000000000000        0.0000000000000000     
  0.56250000000000000       0.62500000000000000        0.0000000000000000     
  0.59375000000000000       0.62500000000000000        0.0000000000000000     
  0.62500000000000000       0.62500000000000000        0.0000000000000000     
  0.62500000000000000       0.50000000000000000        0.0000000000000000     
  0.65625000000000000       0.50000000000000000        0.0000000000000000     
  0.68750000000000000       0.50000000000000000        0.0000000000000000     
  0.71875000000000000       0.50000000000000000        0.0000000000000000     
  0.75000000000000000       0.50000000000000000        0.0000000000000000     
  0.62500000000000000       0.53125000000000000        0.0000000000000000     
  0.65625000000000000       0.53125000000000000        0.0000000000000000     
  0.68750000000000000       0.53125000000000000        0.0000000000000000     
  0.71875000000000000       0.53125000000000000        0.0000000000000000     
  0.75000000000000000       0.53125000000000000        0.0000000000000000     
  0.62500000000000000       0.56250000000000000        0.0000000000000000     
  0.65625000000000000       0.56250000000000000        0.0000000000000000     
  0.68750000000000000       0.56250000000000000        0.0000000000000000     
  0.71875000000000000       0.56250000000000000        0.0000000000000000     
  0.75000000000000000       0.56250000000000000        0.0000000000000000     
  0.62500000000000000       0.59375000000000000        0.0000000000000000     
  0.65625000000000000       0.59375000000000000        0.0000000000000000     
  0.68750000000000000       0.59375000000000000        0.0000000000000000     
  0.71875000000000000       0.59375000000000000        0.0000000000000000     
  0.75000000000000000       0.59375000000000000        0.0000000000000000     
  0.62500000000000000       0.62500000000000000        0.0000000000000000     
  0.65625000000000000       0.62500000000000000        0.0000000000000000     
  0.68750000000000000       0.62500000000000000        0.0000000000000000     
  0.71875000000000000       0.62500000000000000        0.0000000000000000     
  0.75000000000000000       0.62500000000000000        0.0000000000000000     
  0.75000000000000000       0.50000000000000000        0.0000000000000000     
  0.78125000000000000       0.50000000000000000        0.0000000000000000     
  0.81250000000000000       0.50000000000000000        0.0000000000000000     
  0.84375000000000000       0.50000000000000000        0.0000000000000000     
  0.87500000000000000       0.50000000000000000        0.0000000000000000     
  0.75000000000000000       0.53125000000000000        0.0000000000000000     
  0.78125000000000000       0.53125000000000000        0.0000000000000000     
  0.81250000000000000       0.53125000000000000        0.0000000000000000     
  0.84375000000000000       0.53125000000000000        0.0000000000000000     
  0.87500000000000000       0.53125000000000000        0.0000000000000000     
  0.75000000000000000       0.56250000000000000        0.0000000000000000     
  0.78125000000000000       0.56250000000000000        0.0000000000000000     
  0.81250000000000000       0.56250000000000000        0.0000000000000000     
  0.84375000000000000       0.56250000000000000        0.0000000000000000     
  0.87500000000000000       0.56250000000000000        0.0000000000000000     
  0.75000000000000000       0.59375000000000000        0.0000000000000000     
  0.78125000000000000       0.59375000000000000        0.0000000000000000     
  0.81250000000000000       0.59375000000000000        0.0000000000000000     
  0.84375000000000000       0.59375000000000000        0.0000000000000000     
  0.87500000000000000       0.59375000000000000        0.0000000000000000     
  0.75000000000000000       0.62500000000000000        0.0000000000000000     
  0.78125000000000000       0.62500000000000000        0.0000000000000000     
  0.81250000000000000       0.62500000000000000        0.0000000000000000     
  0.84375000000000000       0.62500000000000000        0.0000000000000000     
  0.87500000000000000       0.62500000000000000        0.0000000000000000     
  0.87500000000000000       0.50000000000000000        0.0000000000000000     
  0.90625000000000000       0.50000000000000000        0.0000000000000000     
  0.93750000000000000       0.50000000000000000        0.0000000000000000     
  0.96875000000000000       0.50000000000000000        0.0000000000000000     
   1.0000000000000000       0.50000000000000000        0.0000000000000000     
  0.87500000000000000       0.53125000000000000        0.0000000000000000     
  0.90625000000000000       0.53125000000000000        0.0000000000000000     
  0.93750000000000000       0.53125000000000000        0.0000000000000000     
  0.96875000000000000       0.53125000000000000        0.0000000000000000     
   1.0000000000000000       0.53125000000000000        0.0000000000000000     
  0.87500000000000000       0.56250000000000000        0.0000000000000000     
  0.90625000000000000       0.56250000000000000        0.0000000000000000     
  0.93750000000000000       0.56250000000000000        0.0000000000000000     
  0.96875000000000000       0.56250000000000000        0.0000000000000000     
   1.0000000000000000       0.56250000000000000        0.0000000000000000     
  0.87500000000000000       0.59375000000000000        0.0000000000000000     
  0.90625000000000000       0.59375000000000000        0.0000000000000000     
  0.93750000000000000       0.59375000000000000        0.0000000000000000     
  0.96875000000000000       0.59375000000000000        0.0000000000000000     
   1.0000000000000000       0.59375000000000000        0.0000000000000000     
  0.87500000000000000       0.62500000000000000        0.0000000000000000     
  0.90625000000000000       0.62500000000000000        0.0000000000000000     
  0.93750000000000000       0.62500000000000000        0.0000000000000000     
  0.96875000000000000       0.62500000000000000        0.0000000000000000     
   1.0000000000000000       0.62500000000000000        0.0000000000000000     
   0.0000000000000000       0.62500000000000000        0.0000000000000000     
   3.1250000000000000E-002  0.62500000000000000        0.0000000000000000     
   6.2500000000000000E-002  0.62500000000000000        0.0000000000000000     
   9.3750000000000000E-002  0.62500000000000000        0.0000000000000000     
  0.12500000000000000       0.62500000000000000        0.0000000000000000     
   0.0000000000000000       0.65625000000000000        0.0000000000000000     
   3.1250000000000000E-002  0.65625000000000000        0.0000000000000000     
   6.2500000000000000E-002  0.65625000000000000        0.0000000000000000     
   9.3750000000000000E-002  0.65625000000000000        0.0000000000000000     
  0.12500000000000000       0.65625000000000000        0.0000000000000000     
   0.0000000000000000       0.68750000000000000        0.0000000000000000     
   3.1250000000000000E-002  0.68750000000000000        0.0000000000000000     
   6.2500000000000000E-002  0.68750000000000000        0.0000000000000000     
   9.3750000000000000E-002  0.68750000000000000        0.0000000000000000     
  0.12500000000000000       0.68750000000000000        0.0000000000000000     
   0.0000000000000000       0.71875000000000000        0.0000000000000000     
   3.1250000000000000E-002  0.71875000000000000        0.0000000000000000     
   6.2500000000000000E-002  0.71875000000000000        0.0000000000000000     
   9.3750000000000000E-002  0.71875000000000000        0.0000000000000000     
  0.12500000000000000       0.71875000000000000        0.0000000000000000     
   0.0000000000000000       0.75000000000000000        0.0000000000000000     
   3.1250000000000000E-002  0.75000000000000000        0.0000000000000000     
   6.2500000000000000E-002  0.75000000000000000        0.0000000000000000     
   9.3750000000000000E-002  0.75000000000000000        0.0000000000000000     
  0.12500000000000000       0.75000000000000000        0.0000000000000000     
  0.12500000000000000       0.62500000000000000        0.0000000000000000     
  0.15625000000000000       0.62500000000000000        0.0000000000000000     
  0.18750000000000000       0.62500000000000000        0.0000000000000000     
  0.21875000000000000       0.62500000000000000        0.0000000000000000     
  0.25000000000000000       0.62500000000000000        0.0000000000000000     
  0.12500000000000000       0.65625000000000000        0.0000000000000000     
  0.15625000000000000       0.65625000000000000        0.0000000000000000     
  0.18750000000000000       0.65625000000000000        0.0000000000000000     
  0.21875000000000000       0.65625000000000000        0.0000000000000000     
  0.25000000000000000       0.65625000000000000        0.0000000000000000     
  0.12500000000000000       0.68750000000000000        0.0000000000000000     
  0.15625000000000000       0.68750000000000000        0.0000000000000000     
  0.18750000000000000       0.68750000000000000        0.0000000000000000     
  0.21875000000000000       0.68750000000000000        0.0000000000000000     
  0.25000000000000000       0.68750000000000000        0.0000000000000000     
  0.12500000000000000       0.71875000000000000        0.0000000000000000     
  0.15625000000000000       0.71875000000000000        0.0000000000000000     
  0.18750000000000000       0.71875000000000000        0.0000000000000000     
  0.21875000000000000       0.71875000000000000        0.0000000000000000     
  0.25000000000000000       0.71875000000000000        0.0000000000000000     
  0.12500000000000000       0.75000000000000000        0.0000000000000000     
  0.15625000000000000       0.75000000000000000        0.0000000000000000     
  0.18750000000000000       0.75000000000000000        0.0000000000000000     
  0.21875000000000000       0.75000000000000000        0.0000000000000000     
  0.25000000000000000       0.75000000000000000        0.0000000000000000     
  0.25000000000000000       0.62500000000000000        0.0000000000000000     
  0.28125000000000000       0.62500000000000000        0.0000000000000000     
  0.31250000000000000       0.62500000000000000        0.0000000000000000     
  0.34375000000000000       0.62500000000000000        0.0000000000000000     
  0.37500000000000000       0.62500000000000000        0.0000000000000000     
  0.25000000000000000       0.65625000000000000        0.0000000000000000     
  0.28125000000000000       0.65625000000000000        0.0000000000000000     
  0.31250000000000000       0.65625000000000000        0.0000000000000000     
  0.34375000000000000       0.65625000000000000        0.0000000000000000     
  0.37500000000000000       0.65625000000000000        0.0000000000000000     
  0.25000000000000000       0.68750000000000000        0.0000000000000000     
  0.28125000000000000       0.68750000000000000        0.0000000000000000     
  0.31250000000000000       0.68750000000000000        0.0000000000000000     
  0.34375000000000000       0.68750000000000000        0.0000000000000000     
  0.37500000000000000       0.68750000000000000        0.0000000000000000     
  0.25000000000000000       0.71875000000000000        0.0000000000000000     
  0.28125000000000000       0.71875000000000000        0.0000000000000000     
  0.31250000000000000       0.71875000000000000        0.0000000000000000     
  0.34375000000000000       0.71875000000000000        0.0000000000000000     
  0.37500000000000000       0.71875000000000000        0.0000000000000000     
  0.25000000000000000       0.75000000000000000        0.0000000000000000     
  0.28125000000000000       0.75000000000000000        0.0000000000000000     
  0.31250000000000000       0.75000000000000000        0.0000000000000000     
  0.34375000000000000       0.75000000000000000        0.0000000000000000     
  0.37500000000000000       0.75000000000000000        0.0000000000000000     
  0.37500000000000000       0.62500000000000000        0.0000000000000000     
  0.40625000000000000       0.62500000000000000        0.0000000000000000     
  0.43750000000000000       0.62500000000000000        0.0000000000000000     
  0.46875000000000000       0.62500000000000000        0.0000000000000000     
  0.50000000000000000       0.62500000000000000        0.0000000000000000     
  0.37500000000000000       0.65625000000000000        0.0000000000000000     
  0.40625000000000000       0.65625000000000000        0.0000000000000000     
  0.43750000000000000       0.65625000000000000        0.0000000000000000     
  0.46875000000000000       0.65625000000000000        0.0000000000000000     
  0.50000000000000000       0.65625000000000000        0.0000000000000000     
  0.37500000000000000       0.68750000000000000        0.0000000000000000     
  0.40625000000000000       0.68750000000000000        0.0000000000000000     
  0.43750000000000000       0.68750000000000000        0.0000000000000000     
  0.46875000000000000       0.68750000000000000        0.0000000000000000     
  0.50000000000000000       0.68750000000000000        0.0000000000000000     
  0.37500000000000000       0.71875000000000000        0.0000000000000000     
  0.40625000000000000       0.71875000000000000        0.0000000000000000     
  0.43750000000000000       0.71875000000000000        0.0000000000000000     
  0.46875000000000000       0.71875000000000000        0.0000000000000000     
  0.50000000000000000       0.71875000000000000        0.0000000000000000     
  0.37500000000000000       0.75000000000000000        0.0000000000000000     
  0.40625000000000000       0.75000000000000000        0.0000000000000000     
  0.43750000000000000       0.75000000000000000        0.0000000000000000     
  0.46875000000000000       0.75000000000000000        0.0000000000000000     
  0.50000000000000000       0.75000000000000000        0.0000000000000000     
  0.50000000000000000       0.62500000000000000        0.0000000000000000     
  0.53125000000000000       0.62500000000000000        0.0000000000000000     
  0.56250000000000000       0.62500000000000000        0.0000000000000000     
  0.59375000000000000       0.62500000000000000        0.0000000000000000     
  0.62500000000000000       0.62500000000000000        0.0000000000000000     
  0.50000000000000000       0.65625000000000000        0.0000000000000000     
  0.53125000000000000       0.65625000000000000        0.0000000000000000     
  0.56250000000000000       0.65625000000000000        0.0000000000000000     
  0.59375000000000000       0.65625000000000000        0.0000000000000000     
  0.62500000000000000       0.65625000000000000        0.0000000000000000     
  0.50000000000000000       0.68750000000000000        0.0000000000000000     
  0.53125000000000000       0.68750000000000000        0.0000000000000000     
  0.56250000000000000       0.68750000000000000        0.0000000000000000     
  0.59375000000000000       0.68750000000000000        0.0000000000000000     
  0.62500000000000000       0.68750000000000000        0.0000000000000000     
  0.50000000000000000       0.71875000000000000        0.0000000000000000     
  0.53125000000000000       0.71875000000000000        0.0000000000000000     
  0.56250000000000000       0.71875000000000000        0.0000000000000000     
  0.59375000000000000       0.71875000000000000        0.0000000000000000     
  0.62500000000000000       0.71875000000000000        0.0000000000000000     
  0.50000000000000000       0.75000000000000000        0.0000000000000000     
  0.53125000000000000       0.75000000000000000        0.0000000000000000     
  0.56250000000000000       0.75000000000000000        0.0000000000000000     
  0.59375000000000000       0.75000000000000000        0.0000000000000000     
  0.62500000000000000       0.75000000000000000        0.0000000000000000     
  0.62500000000000000       0.62500000000000000        0.0000000000000000     
  0.65625000000000000       0.62500000000000000        0.0000000000000000     
  0.68750000000000000       0.62500000000000000        0.0000000000000000     
  0.71875000000000000       0.62500000000000000        0.0000000000000000     
  0.75000000000000000       0.62500000000000000        0.0000000000000000     
  0.62500000000000000       0.65625000000000000        0.0000000000000000     
  0.65625000000000000       0.65625000000000000        0.0000000000000000     
  0.68750000000000000       0.65625000000000000        0.0000000000000000     
  0.71875000000000000       0.65625000000000000        0.0000000000000000     
  0.75000000000000000       0.65625000000000000        0.0000000000000000     
  0.62500000000000000       0.68750000000000000        0.0000000000000000     
  0.65625000000000000       0.68750000000000000        0.0000000000000000     
  0.68750000000000000       0.68750000000000000        0.0000000000000000     
  0.71875000000000000       0.68750000000000000        0.0000000000000000     
  0.75000000000000000       0.68750000000000000        0.0000000000000000     
  0.62500000000000000       0.71875000000000000        0.0000000000000000     
  0.65625000000000000       0.71875000000000000        0.0000000000000000     
  0.68750000000000000       0.71875000000000000        0.0000000000000000     
  0.71875000000000000       0.71875000000000000        0.0000000000000000     
  0.75000000000000000       0.71875000000000000        0.0000000000000000     
  0.62500000000000000       0.75000000000000000        0.0000000000000000     
  0.65625000000000000       0.75000000000000000        0.0000000000000000     
  0.68750000000000000       0.75000000000000000        0.0000000000000000     
  0.71875000000000000       0.75000000000000000        0.0000000000000000     
  0.75000000000000000       0.75000000000000000        0.0000000000000000     
  0.75000000000000000       0.62500000000000000        0.0000000000000000     
  0.78125000000000000       0.62500000000000000        0.0000000000000000     
  0.81250000000000000       0.62500000000000000        0.0000000000000000     
  0.84375000000000000       0.62500000000000000        0.0000000000000000     
  0.87500000000000000       0.62500000000000000        0.0000000000000000     
  0.75000000000000000       0.65625000000000000        0.0000000000000000     
  0.78125000000000000       0.65625000000000000        0.0000000000000000     
  0.81250000000000000       0.65625000000000000        0.0000000000000000     
  0.84375000000000000       0.65625000000000000        0.0000000000000000     
  0.87500000000000000       0.65625000000000000        0.0000000000000000     
  0.75000000000000000       0.68750000000000000        0.0000000000000000     
  0.78125000000000000       0.68750000000000000        0.0000000000000000     
  0.81250000000000000       0.68750000000000000        0.0000000000000000     
  0.84375000000000000       0.68750000000000000        0.0000000000000000     
  0.87500000000000000       0.68750000000000000        0.0000000000000000     
  0.75000000000000000       0.71875000000000000        0.0000000000000000     
  0.78125000000000000       0.71875000000000000        0.0000000000000000     
  0.81250000000000000       0.71875000000000000        0.0000000000000000     
  0.84375000000000000       0.71875000000000000        0.0000000000000000     
  0.87500000000000000       0.71875000000000000        0.0000000000000000     
  0.75000000000000000       0.75000000000000000        0.0000000000000000     
  0.78125000000000000       0.75000000000000000        0.0000000000000000     
  0.81250000000000000       0.75000000000000000        0.0000000000000000     
  0.84375000000000000       0.75000000000000000        0.0000000000000000     
  0.87500000000000000       0.75000000000000000        0.0000000000000000     
  0.87500000000000000       0.62500000000000000        0.0000000000000000     
  0.90625000000000000       0.62500000000000000        0.0000000000000000     
  0.93750000000000000       0.62500000000000000        0.0000000000000000     
  0.96875000000000000       0.62500000000000000        0.0000000000000000     
   1.0000000000000000       0.62500000000000000        0.0000000000000000     
  0.87500000000000000       0.65625000000000000        0.0000000000000000     
  0.90625000000000000       0.65625000000000000        0.0000000000000000     
  0.93750000000000000       0.65625000000000000        0.0000000000000000     
  0.96875000000000000       0.65625000000000000        0.0000000000000000     
   1.0000000000000000       0.65625000000000000        0.0000000000000000     
  0.87500000000000000       0.68750000000000000        0.0000000000000000     
  0.90625000000000000       0.68750000000000000        0.0000000000000000     
  0.93750000000000000       0.68750000000000000        0.0000000000000000     
  0.96875000000000000       0.68750000000000000        0.0000000000000000     
   1.0000000000000000       0.68750000000000000        0.0000000000000000     
  0.87500000000000000       0.71875000000000000        0.0000000000000000     
  0.90625000000000000       0.71875000000000000        0.0000000000000000     
  0.93750000000000000       0.71875000000000000        0.0000000000000000     
  0.96875000000000000       0.71875000000000000        0.0000000000000000     
   1.0000000000000000       0.71875000000000000        0.0000000000000000     
  0.87500000000000000       0.75000000000000000        0.0000000000000000     
  0.90625000000000000       0.75000000000000000        0.0000000000000000     
  0.93750000000000000       0.75000000000000000        0.0000000000000000     
  0.96875000000000000       0.75000000000000000        0.0000000000000000     
   1.0000000000000000       0.75000000000000000        0.0000000000000000     
   0.0000000000000000       0.75000000000000000        0.0000000000000000     
   3.1250000000000000E-002  0.75000000000000000        0.0000000000000000     
   6.2500000000000000E-002  0.75000000000000000        0.0000000000000000     
   9.3750000000000000E-002  0.75000000000000000        0.0000000000000000     
  0.12500000000000000       0.75000000000000000        0.0000000000000000     
   0.0000000000000000       0.78125000000000000        0.0000000000000000     
   3.1250000000000000E-002  0.78125000000000000        0.0000000000000000     
   6.2500000000000000E-002  0.78125000000000000        0.0000000000000000     
   9.3750000000000000E-002  0.78125000000000000        0.0000000000000000     
  0.12500000000000000       0.78125000000000000        0.0000000000000000     
   0.0000000000000000       0.81250000000000000        0.0000000000000000     
   3.1250000000000000E-002  0.81250000000000000        0.0000000000000000     
   6.2500000000000000E-002  0.81250000000000000        0.0000000000000000     
   9.3750000000000000E-002  0.81250000000000000        0.0000000000000000     
  0.12500000000000000       0.81250000000000000        0.0000000000000000     
   0.0000000000000000       0.84375000000000000        0.0000000000000000     
   3.1250000000000000E-002  0.84375000000000000        0.0000000000000000     
   6.2500000000000000E-002  0.84375000000000000        0.0000000000000000     
   9.3750000000000000E-002  0.84375000000000000        0.0000000000000000     
  0.12500000000000000       0.84375000000000000        0.0000000000000000     
   0.0000000000000000       0.87500000000000000        0.0000000000000000     
   3.1250000000000000E-002  0.87500000000000000        0.0000000000000000     
   6.2500000000000000E-002  0.87500000000000000        0.0000000000000000     
   9.3750000000000000E-002  0.87500000000000000        0.0000000000000000     
  0.12500000000000000       0.87500000000000000        0.0000000000000000     
  0.12500000000000000       0.75000000000000000        0.0000000000000000     
  0.15625000000000000       0.75000000000000000        0.0000000000000000     
  0.18750000000000000       0.75000000000000000        0.0000000000000000     
  0.21875000000000000       0.75000000000000000        0.0000000000000000     
  0.25000000000000000       0.75000000000000000        0.0000000000000000     
  0.12500000000000000       0.78125000000000000        0.0000000000000000     
  0.15625000000000000       0.78125000000000000        0.0000000000000000     
  0.18750000000000000       0.78125000000000000        0.0000000000000000     
  0.21875000000000000       0.78125000000000000        0.0000000000000000     
  0.25000000000000000       0.78125000000000000        0.0000000000000000     
  0.12500000000000000       0.81250000000000000        0.0000000000000000     
  0.15625000000000000       0.81250000000000000        0.0000000000000000     
  0.18750000000000000       0.81250000000000000        0.0000000000000000     
  0.21875000000000000       0.81250000000000000        0.0000000000000000     
  0.25000000000000000       0.81250000000000000        0.0000000000000000     
  0.12500000000000000       0.84375000000000000        0.0000000000000000     
  0.15625000000000000       0.84375000000000000        0.0000000000000000     
  0.18750000000000000       0.84375000000000000        0.0000000000000000     
  0.21875000000000000       0.84375000000000000        0.0000000000000000     
  0.25000000000000000       0.84375000000000000        0.0000000000000000     
  0.12500000000000000       0.87500000000000000        0.0000000000000000     
  0.15625000000000000       0.87500000000000000        0.0000000000000000     
  0.18750000000000000       0.87500000000000000        0.0000000000000000     
  0.21875000000000000       0.87500000000000000        0.0000000000000000     
  0.25000000000000000       0.87500000000000000        0.0000000000000000     
  0.25000000000000000       0.75000000000000000        0.0000000000000000     
  0.28125000000000000       0.75000000000000000        0.0000000000000000     
  0.31250000000000000       0.75000000000000000        0.0000000000000000     
  0.34375000000000000       0.75000000000000000        0.0000000000000000     
  0.37500000000000000       0.75000000000000000        0.0000000000000000     
  0.25000000000000000       0.78125000000000000        0.0000000000000000     
  0.28125000000000000       0.78125000000000000        0.0000000000000000     
  0.31250000000000000       0.78125000000000000        0.0000000000000000     
  0.34375000000000000       0.78125000000000000        0.0000000000000000     
  0.37500000000000000       0.78125000000000000        0.0000000000000000     
  0.25000000000000000       0.81250000000000000        0.0000000000000000     
  0.28125000000000000       0.81250000000000000        0.0000000000000000     
  0.31250000000000000       0.81250000000000000        0.0000000000000000     
  0.34375000000000000       0.81250000000000000        0.0000000000000000     
  0.37500000000000000       0.81250000000000000        0.0000000000000000     
  0.25000000000000000       0.84375000000000000        0.0000000000000000     
  0.28125000000000000       0.84375000000000000        0.0000000000000000     
  0.31250000000000000       0.84375000000000000        0.0000000000000000     
  0.34375000000000000       0.84375000000000000        0.0000000000000000     
  0.37500000000000000       0.84375000000000000        0.0000000000000000     
  0.25000000000000000       0.87500000000000000        0.0000000000000000     
  0.28125000000000000       0.87500000000000000        0.0000000000000000     
  0.31250000000000000       0.87500000000000000        0.0000000000000000     
  0.34375000000000000       0.87500000000000000        0.0000000000000000     
  0.37500000000000000       0.87500000000000000        0.0000000000000000     
  0.37500000000000000       0.75000000000000000        0.0000000000000000     
  0.40625000000000000       0.75000000000000000        0.0000000000000000     
  0.43750000000000000       0.75000000000000000        0.0000000000000000     
  0.46875000000000000       0.75000000000000000        0.0000000000000000     
  0.50000000000000000       0.75000000000000000        0.0000000000000000     
  0.37500000000000000       0.78125000000000000        0.0000000000000000     
  0.40625000000000000       0.78125000000000000        0.0000000000000000     
  0.43750000000000000       0.78125000000000000        0.0000000000000000     
  0.46875000000000000       0.78125000000000000        0.0000000000000000     
  0.50000000000000000       0.78125000000000000        0.0000000000000000     
  0.37500000000000000       0.81250000000000000        0.0000000000000000     
  0.40625000000000000       0.81250000000000000        0.0000000000000000     
  0.43750000000000000       0.81250000000000000        0.0000000000000000     
  0.46875000000000000       0.81250000000000000        0.0000000000000000     
  0.50000000000000000       0.81250000000000000        0.0000000000000000     
  0.37500000000000000       0.84375000000000000        0.0000000000000000     
  0.40625000000000000       0.84375000000000000        0.0000000000000000     
  0.43750000000000000       0.84375000000000000        0.0000000000000000     
  0.46875000000000000       0.84375000000000000        0.0000000000000000     
  0.50000000000000000       0.84375000000000000        0.0000000000000000     
  0.37500000000000000       0.87500000000000000        0.0000000000000000     
  0.40625000000000000       0.87500000000000000        0.0000000000000000     
  0.43750000000000000       0.87500000000000000        0.0000000000000000     
  0.46875000000000000       0.87500000000000000        0.0000000000000000     
  0.50000000000000000       0.87500000000000000        0.0000000000000000     
  0.50000000000000000       0.75000000000000000        0.0000000000000000     
  0.53125000000000000       0.75000000000000000        0.0000000000000000     
  0.56250000000000000       0.75000000000000000        0.0000000000000000     
  0.59375000000000000       0.75000000000000000        0.0000000000000000     
  0.62500000000000000       0.75000000000000000        0.0000000000000000     
  0.50000000000000000       0.78125000000000000        0.0000000000000000     
  0.53125000000000000       0.78125000000000000        0.0000000000000000     
  0.56250000000000000       0.78125000000000000        0.0000000000000000     
  0.59375000000000000       0.78125000000000000        0.0000000000000000     
  0.62500000000000000       0.78125000000000000        0.0000000000000000     
  0.50000000000000000       0.81250000000000000        0.0000000000000000     
  0.53125000000000000       0.81250000000000000        0.0000000000000000     
  0.56250000000000000       0.81250000000000000        0.0000000000000000     
  0.59375000000000000       0.81250000000000000        0.0000000000000000     
  0.62500000000000000       0.81250000000000000        0.0000000000000000     
  0.50000000000000000       0.84375000000000000        0.0000000000000000     
  0.53125000000000000       0.84375000000000000        0.0000000000000000     
  0.56250000000000000       0.84375000000000000        0.0000000000000000     
  0.59375000000000000       0.84375000000000000        0.0000000000000000     
  0.62500000000000000       0.84375000000000000        0.0000000000000000     
  0.50000000000000000       0.87500000000000000        0.0000000000000000     
  0.53125000000000000       0.87500000000000000        0.0000000000000000     
  0.56250000000000000       0.87500000000000000        0.0000000000000000     
  0.59375000000000000       0.87500000000000000        0.0000000000000000     
  0.62500000000000000       0.87500000000000000        0.0000000000000000     
  0.62500000000000000       0.75000000000000000        0.0000000000000000     
  0.65625000000000000       0.75000000000000000        0.0000000000000000     
  0.68750000000000000       0.75000000000000000        0.0000000000000000     
  0.71875000000000000       0.75000000000000000        0.0000000000000000     
  0.75000000000000000       0.75000000000000000        0.0000000000000000     
  0.62500000000000000       0.78125000000000000        0.0000000000000000     
  0.65625000000000000       0.78125000000000000        0.0000000000000000     
  0.68750000000000000       0.78125000000000000        0.0000000000000000     
  0.71875000000000000       0.78125000000000000        0.0000000000000000     
  0.75000000000000000       0.78125000000000000        0.0000000000000000     
  0.62500000000000000       0.81250000000000000        0.0000000000000000     
  0.65625000000000000       0.81250000000000000        0.0000000000000000     
  0.68750000000000000       0.81250000000000000        0.0000000000000000     
  0.71875000000000000       0.81250000000000000        0.0000000000000000     
  0.75000000000000000       0.81250000000000000        0.0000000000000000     
  0.62500000000000000       0.84375000000000000        0.0000000000000000     
  0.65625000000000000       0.84375000000000000        0.0000000000000000     
  0.68750000000000000       0.84375000000000000        0.0000000000000000     
  0.71875000000000000       0.84375000000000000        0.0000000000000000     
  0.75000000000000000       0.84375000000000000        0.0000000000000000     
  0.62500000000000000       0.87500000000000000        0.0000000000000000     
  0.65625000000000000       0.87500000000000000        0.0000000000000000     
  0.68750000000000000       0.87500000000000000        0.0000000000000000     
  0.71875000000000000       0.87500000000000000        0.0000000000000000     
  0.75000000000000000       0.87500000000000000        0.0000000000000000     
  0.75000000000000000       0.75000000000000000        0.0000000000000000     
  0.78125000000000000       0.75000000000000000        0.0000000000000000     
  0.81250000000000000       0.75000000000000000        0.0000000000000000     
  0.84375000000000000       0.75000000000000000        0.0000000000000000     
  0.87500000000000000       0.75000000000000000        0.0000000000000000     
  0.75000000000000000       0.78125000000000000        0.0000000000000000     
  0.78125000000000000       0.78125000000000000        0.0000000000000000     
  0.81250000000000000       0.78125000000000000        0.0000000000000000     
  0.84375000000000000       0.78125000000000000        0.0000000000000000     
  0.87500000000000000       0.78125000000000000        0.0000000000000000     
  0.75000000000000000       0.81250000000000000        0.0000000000000000     
  0.78125000000000000       0.81250000000000000        0.0000000000000000     
  0.81250000000000000       0.81250000000000000        0.0000000000000000     
  0.84375000000000000       0.81250000000000000        0.0000000000000000     
  0.87500000000000000       0.81250000000000000        0.0000000000000000     
  0.75000000000000000       0.84375000000000000        0.0000000000000000     
  0.78125000000000000       0.84375000000000000        0.0000000000000000     
  0.81250000000000000       0.84375000000000000        0.0000000000000000     
  0.84375000000000000       0.84375000000000000        0.0000000000000000     
  0.87500000000000000       0.84375000000000000        0.0000000000000000     
  0.75000000000000000       0.87500000000000000        0.0000000000000000     
  0.78125000000000000       0.87500000000000000        0.0000000000000000     
  0.81250000000000000       0.87500000000000000        0.0000000000000000     
  0.84375000000000000       0.87500000000000000        0.0000000000000000     
  0.87500000000000000       0.87500000000000000        0.0000000000000000     
  0.87500000000000000       0.75000000000000000        0.0000000000000000     
  0.90625000000000000       0.75000000000000000        0.0000000000000000     
  0.93750000000000000       0.75000000000000000        0.0000000000000000     
  0.96875000000000000       0.75000000000000000        0.0000000000000000     
   1.0000000000000000       0.75000000000000000        0.0000000000000000     
  0.87500000000000000       0.78125000000000000        0.0000000000000000     
  0.90625000000000000       0.78125000000000000        0.0000000000000000     
  0.93750000000000000       0.78125000000000000        0.0000000000000000     
  0.96875000000000000       0.78125000000000000        0.0000000000000000     
   1.0000000000000000       0.78125000000000000        0.0000000000000000     
  0.87500000000000000       0.81250000000000000        0.0000000000000000     
  0.90625000000000000       0.81250000000000000        0.0000000000000000     
  0.93750000000000000       0.81250000000000000        0.0000000000000000     
  0.96875000000000000       0.81250000000000000        0.0000000000000000     
   1.0000000000000000       0.81250000000000000        0.0000000000000000     
  0.87500000000000000       0.84375000000000000        0.0000000000000000     
  0.90625000000000000       0.84375000000000000        0.0000000000000000     
  0.93750000000000000       0.84375000000000000        0.0000000000000000     
  0.96875000000000000       0.84375000000000000        0.0000000000000000     
   1.0000000000000000       0.84375000000000000        0.0000000000000000     
  0.87500000000000000       0.87500000000000000        0.0000000000000000     
  0.90625000000000000       0.87500000000000000        0.0000000000000000     
  0.93750000000000000       0.87500000000000000        0.0000000000000000     
  0.96875000000000000       0.87500000000000000        0.0000000000000000     
   1.0000000000000000       0.87500000000000000        0.0000000000000000     
   0.0000000000000000       0.87500000000000000        0.0000000000000000     
   3.1250000000000000E-002  0.87500000000000000        0.0000000000000000     
   6.2500000000000000E-002  0.87500000000000000        0.0000000000000000     
   9.3750000000000000E-002  0.87500000000000000        0.0000000000000000     
  0.12500000000000000       0.87500000000000000        0.0000000000000000     
   0.0000000000000000       0.90625000000000000        0.0000000000000000     
   3.1250000000000000E-002  0.90625000000000000        0.0000000000000000     
   6.2500000000000000E-002  0.90625000000000000        0.0000000000000000     
   9.3750000000000000E-002  0.90625000000000000        0.0000000000000000     
  0.12500000000000000       0.90625000000000000        0.0000000000000000     
   0.0000000000000000       0.93750000000000000        0.0000000000000000     
   3.1250000000000000E-002  0.93750000000000000        0.0000000000000000     
   6.2500000000000000E-002  0.93750000000000000        0.0000000000000000     
   9.3750000000000000E-002  0.93750000000000000        0.0000000000000000     
  0.12500000000000000       0.93750000000000000        0.0000000000000000     
   0.0000000000000000       0.96875000000000000        0.0000000000000000     
   3.1250000000000000E-002  0.96875000000000000        0.0000000000000000     
   6.2500000000000000E-002  0.96875000000000000        0.0000000000000000     
   9.3750000000000000E-002  0.96875000000000000        0.0000000000000000     
  0.12500000000000000       0.96875000000000000        0.0000000000000000     
   0.0000000000000000        1.0000000000000000        0.0000000000000000     
   3.1250000000000000E-002   1.0000000000000000        0.0000000000000000     
   6.2500000000000000E-002   1.0000000000000000        0.0000000000000000     
   9.3750000000000000E-002   1.0000000000000000        0.0000000000000000     
  0.12500000000000000        1.0000000000000000        0.0000000000000000     
  0.12500000000000000       0.87500000000000000        0.0000000000000000     
  0.15625000000000000       0.87500000000000000        0.0000000000000000     
  0.18750000000000000       0.87500000000000000        0.0000000000000000     
  0.21875000000000000       0.87500000000000000        0.0000000000000000     
  0.25000000000000000       0.87500000000000000        0.0000000000000000     
  0.12500000000000000       0.90625000000000000        0.0000000000000000     
  0.15625000000000000       0.90625000000000000        0.0000000000000000     
  0.18750000000000000       0.90625000000000000        0.0000000000000000     
  0.21875000000000000       0.90625000000000000        0.0000000000000000     
  0.25000000000000000       0.90625000000000000        0.0000000000000000     
  0.12500000000000000       0.93750000000000000        0.0000000000000000     
  0.15625000000000000       0.93750000000000000        0.0000000000000000     
  0.18750000000000000       0.93750000000000000        0.0000000000000000     
  0.21875000000000000       0.93750000000000000        0.0000000000000000     
  0.25000000000000000       0.93750000000000000        0.0000000000000000     
  0.12500000000000000       0.96875000000000000        0.0000000000000000     
  0.15625000000000000       0.96875000000000000        0.0000000000000000     
  0.18750000000000000       0.96875000000000000        0.0000000000000000     
  0.21875000000000000       0.96875000000000000        0.0000000000000000     
  0.25000000000000000       0.96875000000000000        0.0000000000000000     
  0.12500000000000000        1.0000000000000000        0.0000000000000000     
  0.15625000000000000        1.0000000000000000        0.0000000000000000     
  0.18750000000000000        1.0000000000000000        0.0000000000000000     
  0.21875000000000000        1.0000000000000000        0.0000000000000000     
  0.25000000000000000        1.0000000000000000        0.0000000000000000     
  0.25000000000000000       0.87500000000000000        0.0000000000000000     
  0.28125000000000000       0.87500000000000000        0.0000000000000000     
  0.31250000000000000       0.87500000000000000        0.0000000000000000     
  0.34375000000000000       0.87500000000000000        0.0000000000000000     
  0.37500000000000000       0.87500000000000000        0.0000000000000000     
  0.25000000000000000       0.90625000000000000        0.0000000000000000     
  0.28125000000000000       0.90625000000000000        0.0000000000000000     
  0.31250000000000000       0.90625000000000000        0.0000000000000000     
  0.34375000000000000       0.90625000000000000        0.0000000000000000     
  0.37500000000000000       0.90625000000000000        0.0000000000000000     
  0.25000000000000000       0.93750000000000000        0.0000000000000000     
  0.28125000000000000       0.93750000000000000        0.0000000000000000     
  0.31250000000000000       0.93750000000000000        0.0000000000000000     
  0.34375000000000000       0.93750000000000000        0.0000000000000000     
  0.37500000000000000       0.93750000000000000        0.0000000000000000     
  0.25000000000000000       0.96875000000000000        0.0000000000000000     
  0.28125000000000000       0.96875000000000000        0.0000000000000000     
  0.31250000000000000       0.96875000000000000        0.0000000000000000     
  0.34375000000000000       0.96875000000000000        0.0000000000000000     
  0.37500000000000000       0.96875000000000000        0.0000000000000000     
  0.25000000000000000        1.0000000000000000        0.0000000000000000     
  0.28125000000000000        1.0000000000000000        0.0000000000000000     
  0.31250000000000000        1.0000000000000000        0.0000000000000000     
  0.34375000000000000        1.0000000000000000        0.0000000000000000     
  0.37500000000000000        1.0000000000000000        0.0000000000000000     
  0.37500000000000000       0.87500000000000000        0.0000000000000000     
  0.40625000000000000       0.87500000000000000        0.0000000000000000     
  0.43750000000000000       0.87500000000000000        0.0000000000000000     
  0.46875000000000000       0.87500000000000000        0.0000000000000000     
  0.50000000000000000       0.87500000000000000        0.0000000000000000     
  0.37500000000000000       0.90625000000000000        0.0000000000000000     
  0.40625000000000000       0.90625000000000000        0.0000000000000000     
  0.43750000000000000       0.90625000000000000        0.0000000000000000     
  0.46875000000000000       0.90625000000000000        0.0000000000000000     
  0.50000000000000000       0.90625000000000000        0.0000000000000000     
  0.37500000000000000       0.93750000000000000        0.0000000000000000     
  0.40625000000000000       0.93750000000000000        0.0000000000000000     
  0.43750000000000000       0.93750000000000000        0.0000000000000000     
  0.46875000000000000       0.93750000000000000        0.0000000000000000     
  0.50000000000000000       0.93750000000000000        0.0000000000000000     
  0.37500000000000000       0.96875000000000000        0.0000000000000000     
  0.40625000000000000       0.96875000000000000        0.0000000000000000     
  0.43750000000000000       0.96875000000000000        0.0000000000000000     
  0.46875000000000000       0.96875000000000000        0.0000000000000000     
  0.50000000000000000       0.96875000000000000        0.0000000000000000     
  0.37500000000000000        1.0000000000000000        0.0000000000000000     
  0.40625000000000000        1.0000000000000000        0.0000000000000000     
  0.43750000000000000        1.0000000000000000        0.0000000000000000     
  0.46875000000000000        1.0000000000000000        0.0000000000000000     
  0.50000000000000000        1.0000000000000000        0.0000000000000000     
  0.50000000000000000       0.87500000000000000        0.0000000000000000     
  0.53125000000000000       0.87500000000000000        0.0000000000000000     
  0.56250000000000000       0.87500000000000000        0.0000000000000000     
  0.59375000000000000       0.87500000000000000        0.0000000000000000     
  0.62500000000000000       0.87500000000000000        0.0000000000000000     
  0.50000000000000000       0.90625000000000000        0.0000000000000000     
  0.53125000000000000       0.90625000000000000        0.0000000000000000     
  0.56250000000000000       0.90625000000000000        0.0000000000000000     
  0.59375000000000000       0.90625000000000000        0.0000000000000000     
  0.62500000000000000       0.90625000000000000        0.0000000000000000     
  0.50000000000000000       0.93750000000000000        0.0000000000000000     
  0.53125000000000000       0.93750000000000000        0.0000000000000000     
  0.56250000000000000       0.93750000000000000        0.0000000000000000     
  0.59375000000000000       0.93750000000000000        0.0000000000000000     
  0.62500000000000000       0.93750000000000000        0.0000000000000000     
  0.50000000000000000       0.96875000000000000        0.0000000000000000     
  0.53125000000000000       0.96875000000000000        0.0000000000000000     
  0.56250000000000000       0.96875000000000000        0.0000000000000000     
  0.59375000000000000       0.96875000000000000        0.0000000000000000     
  0.62500000000000000       0.96875000000000000        0.0000000000000000     
  0.50000000000000000        1.0000000000000000        0.0000000000000000     
  0.53125000000000000        1.0000000000000000        0.0000000000000000     
  0.56250000000000000        1.0000000000000000        0.0000000000000000     
  0.59375000000000000        1.0000000000000000        0.0000000000000000     
  0.62500000000000000        1.0000000000000000        0.0000000000000000     
  0.62500000000000000       0.87500000000000000        0.0000000000000000     
  0.65625000000000000       0.87500000000000000        0.0000000000000000     
  0.68750000000000000       0.87500000000000000        0.0000000000000000     
  0.71875000000000000       0.87500000000000000        0.0000000000000000     
  0.75000000000000000       0.87500000000000000        0.0000000000000000     
  0.62500000000000000       0.90625000000000000        0.0000000000000000     
  0.65625000000000000       0.90625000000000000        0.0000000000000000     
  0.68750000000000000       0.90625000000000000        0.0000000000000000     
  0.71875000000000000       0.90625000000000000        0.0000000000000000     
  0.75000000000000000       0.90625000000000000        0.0000000000000000     
  0.62500000000000000       0.93750000000000000        0.0000000000000000     
  0.65625000000000000       0.93750000000000000        0.0000000000000000     
  0.68750000000000000       0.93750000000000000        0.0000000000000000     
  0.71875000000000000       0.93750000000000000        0.0000000000000000     
  0.75000000000000000       0.93750000000000000        0.0000000000000000     
  0.62500000000000000       0.96875000000000000        0.0000000000000000     
  0.65625000000000000       0.96875000000000000        0.0000000000000000     
  0.68750000000000000       0.96875000000000000        0.0000000000000000     
  0.71875000000000000       0.96875000000000000        0.0000000000000000     
  0.75000000000000000       0.96875000000000000        0.0000000000000000     
  0.62500000000000000        1.0000000000000000        0.0000000000000000     
  0.65625000000000000        1.0000000000000000        0.0000000000000000     
  0.68750000000000000        1.0000000000000000        0.0000000000000000     
  0.71875000000000000        1.0000000000000000        0.0000000000000000     
  0.75000000000000000        1.0000000000000000        0.0000000000000000     
  0.75000000000000000       0.87500000000000000        0.0000000000000000     
  0.78125000000000000       0.87500000000000000        0.0000000000000000     
  0.81250000000000000       0.87500000000000000        0.0000000000000000     
  0.84375000000000000       0.87500000000000000        0.0000000000000000     
  0.87500000000000000       0.87500000000000000        0.0000000000000000     
  0.75000000000000000       0.90625000000000000        0.0000000000000000     
  0.78125000000000000       0.90625000000000000        0.0000000000000000     
  0.81250000000000000       0.90625000000000000        0.0000000000000000     
  0.84375000000000000       0.90625000000000000        0.0000000000000000     
  0.87500000000000000       0.90625000000000000        0.0000000000000000     
  0.75000000000000000       0.93750000000000000        0.0000000000000000     
  0.78125000000000000       0.93750000000000000        0.0000000000000000     
  0.81250000000000000       0.93750000000000000        0.0000000000000000     
  0.84375000000000000       0.93750000000000000        0.0000000000000000     
  0.87500000000000000       0.93750000000000000        0.0000000000000000     
  0.75000000000000000       0.96875000000000000        0.0000000000000000     
  0.78125000000000000       0.96875000000000000        0.0000000000000000     
  0.81250000000000000       0.96875000000000000        0.0000000000000000     
  0.84375000000000000       0.96875000000000000        0.0000000000000000     
  0.87500000000000000       0.96875000000000000        0.0000000000000000     
  0.75000000000000000        1.0000000000000000        0.0000000000000000     
  0.78125000000000000        1.0000000000000000        0.0000000000000000     
  0.81250000000000000        1.0000000000000000        0.0000000000000000     
  0.84375000000000000        1.0000000000000000        0.0000000000000000     
  0.87500000000000000        1.0000000000000000        0.0000000000000000     
  0.87500000000000000       0.87500000000000000        0.0000000000000000     
  0.90625000000000000       0.87500000000000000        0.0000000000000000     
  0.93750000000000000       0.87500000000000000        0.0000000000000000     
  0.96875000000000000       0.87500000000000000        0.0000000000000000     
   1.0000000000000000       0.87500000000000000        0.0000000000000000     
  0.87500000000000000       0.90625000000000000        0.0000000000000000     
  0.90625000000000000       0.90625000000000000        0.0000000000000000     
  0.93750000000000000       0.90625000000000000        0.0000000000000000     
  0.96875000000000000       0.90625000000000000        0.0000000000000000     
   1.0000000000000000       0.90625000000000000        0.0000000000000000     
  0.87500000000000000       0.93750000000000000        0.0000000000000000     
  0.90625000000000000       0.93750000000000000        0.0000000000000000     
  0.93750000000000000       0.93750000000000000        0.0000000000000000     
  0.96875000000000000       0.93750000000000000        0.0000000000000000     
   1.0000000000000000       0.93750000000000000        0.0000000000000000     
  0.87500000000000000       0.96875000000000000        0.0000000000000000     
  0.90625000000000000       0.96875000000000000        0.0000000000000000     
  0.93750000000000000       0.96875000000000000        0.0000000000000000     
  0.96875000000000000       0.96875000000000000        0.0000000000000000     
   1.0000000000000000       0.96875000000000000        0.0000000000000000     
  0.87500000000000000        1.0000000000000000        0.0000000000000000     
  0.90625000000000000        1.0000000000000000        0.0000000000000000     
  0.93750000000000000        1.0000000000000000        0.0000000000000000     
  0.96875000000000000        1.0000000000000000        0.0000000000000000     
   1.0000000000000000        1.0000000000000000        0.0000000000000000     
 </DataArray>
 </Points>
 <Cells>
 <DataArray  type="Int32"  Name="connectivity"  format="ascii">
           0           1           6           5
           1           2           7           6
           2           3           8           7
           3           4           9           8
           5           6          11          10
           6           7          12          11
           7           8          13          12
           8           9          14          13
          10          11          16          15
          11          12          17          16
          12          13          18          17
          13          14          19          18
          15          16          21          20
          16          17          22          21
          17          18          23          22
          18          19          24          23
          25          26          31          30
          26          27          32          31
          27          28          33          32
          28          29          34          33
          30          31          36          35
          31          32          37          36
          32          33          38          37
          33          34          39          38
          35          36          41          40
          36          37          42          41
          37          38          43          42
          38          39          44          43
          40          41          46          45
          41          42          47          46
          42          43          48          47
          43          44          49          48
          50          51          56          55
          51          52          57          56
          52          53          58          57
          53          54          59          58
          55          56          61          60
          56          57          62          61
          57          58          63          62
          58          59          64          63
          60          61          66          65
          61          62          67          66
          62          63          68          67
          63          64          69          68
          65          66          71          70
          66          67          72          71
          67          68          73          72
          68          69          74          73
          75          76          81          80
          76          77          82          81
          77          78          83          82
          78          79          84          83
          80          81          86          85
          81          82          87          86
          82          83          88          87
          83          84          89          88
          85          86          91          90
          86          87          92          91
          87          88          93          92
          88          89          94          93
          90          91          96          95
          91          92          97          96
          92          93          98          97
          93          94          99          98
         100         101         106         105
         101         102         107         106
         102         103         108         107
         103         104         109         108
         105         106         111         110
         106         107         112         111
         107         108         113         112
         108         109         114         113
         110         111         116         115
         111         112         117         116
         112         113         118         117
         113         114         119         118
         115         116         121         120
         116         117         122         121
         117         118         123         122
         118         119         124         123
         125         126         131         130
         126         127         132         131
         127         128         133         132
         128         129         134         133
         130         131         136         135
         131         132         137         136
         132         133         138         137
         133         134         139         138
         135         136         141         140
         136         137         142         141
         137         138         143         142
         138         139         144         143
         140         141         146         145
         141         142         147         146
         142         143         148         147
         143         144         149         148
         150         151         156         155
         151         152         157         156
         152         153         158         157
         153         154         159         158
         155         156         161         160
         156         157         162         161
         157         158         163         162
         158         159         164         163
         160         161         166         165
         161         162         167         166
         162         163         168         167
         163         164         169         168
         165         166         171         170
         166         167         172         171
         167         168         173         172
         168         169         174         173
         175         176         181         180
         176         177         182         181
         177         178         183         182
         178         179         184         183
         180         181         186         185
         181         182         187         186
         182         183         188         187
         183         184         189         188
         185         186         191         190
         186         187         192         191
         187         188         193         192
         188         189         194         193
         190         191         196         195
         191         192         197         196
         192         193         198         197
         193         194         199         198
         200         201         206         205
         201         202         207         206
         202         203         208         207
         203         204         209         208
         205         206         211         210
         206         207         212         211
         207         208         213         212
         208         209         214         213
         210         211         216         215
         211         212         217         216
         212         213         218         217
         213         214         219         218
         215         216         221         220
         216         217         222         221
         217         218         223         222
         218         219         224         223
         225         226         231         230
         226         227         232         231
         227         228         233         232
         228         229         234         233
         230         231         236         235
         231         232         237         236
         232         233         238         237
         233         234         239         238
         235         236         241         240
         236         237         242         241
         237         238         243         242
         238         239         244         243
         240         241         246         245
         241         242         247         246
         242         243         248         247
         243         244         249         248
         250         251         256         255
         251         252         257         256
         252         253         258         257
         253         254         259         258
         255         256         261         260
         256         257         262         261
         257         258         263         262
         258         259         264         263
         260         261         266         265
         261         262         267         266
         262         263         268         267
         263         264         269         268
         265         266         271         270
         266         267         272         271
         267         268         273         272
         268         269         274         273
         275         276         281         280
         276         277         282         281
         277         278         283         282
         278         279         284         283
         280         281         286         285
         281         282         287         286
         282         283         288         287
         283         284         289         288
         285         286         291         290
         286         287         292         291
         287         288         293         292
         288         289         294         293
         290         291         296         295
         291         292         297         296
         292         293         298         297
         293         294         299         298
         300         301         306         305
         301         302         307         306
         302         303         308         307
         303         304         309         308
         305         306         311         310
         306         307         312         311
         307         308         313         312
         308         309         314         313
         310         311         316         315
         311         312         317         316
         312         313         318         317
         313         314         319         318
         315         316         321         320
         316         317         322         321
         317         318         323         322
         318         319         324         323
         325         326         331         330
         326         327         332         331
         327         328         333         332
         328         329         334         333
         330         331         336         335
         331         332         337         336
         332         333         338         337
         333         334         339         338
         335         336         341         340
         336         337         342         341
         337         338         343         342
         338         339         344         343
         340         341         346         345
         341         342         347         346
         342         343         348         347
         343         344         349         348
         350         351         356         355
         351         352         357         356
         352         353         358         357
         353         354         359         358
         355         356         361         360
         356         357         362         361
         357         358         363         362
         358         359         364         363
         360         361         366         365
         361         362         367         366
         362         363         368         367
         363         364         369         368
         365         366         371         370
         366         367         372         371
         367         368         373         372
         368         369         374         373
         375         376         381         380
         376         377         382         381
         377         378         383         382
         378         379         384         383
         380         381         386         385
         381         382         387         386
         382         383         388         387
         383         384         389         388
         385         386         391         390
         386         387         392         391
         387         388         393         392
         388         389         394         393
         390         391         396         395
         391         392         397         396
         392         393         398         397
         393         394         399         398
         400         401         406         405
         401         402         407         406
         402         403         408         407
         403         404         409         408
         405         406         411         410
         406         407         412         411
         407         408         413         412
         408         409         414         413
         410         411         416         415
         411         412         417         416
         412         413         418         417
         413         414         419         418
         415         416         421         420
         416         417         422         421
         417         418         423         422
         418         419         424         423
         425         426         431         430
         426         427         432         431
         427         428         433         432
         428         429         434         433
         430         431         436         435
         431         432         437         436
         432         433         438         437
         433         434         439         438
         435         436         441         440
         436         437         442         441
         437         438         443         442
         438         439         444         443
         440         441         446         445
         441         442         447         446
         442         443         448         447
         443         444         449         448
         450         451         456         455
         451         452         457         456
         452         453         458         457
         453         454         459         458
         455         456         461         460
         456         457         462         461
         457         458         463         462
         458         459         464         463
         460         461         466         465
         461         462         467         466
         462         463         468         467
         463         464         469         468
         465         466         471         470
         466         467         472         471
         467         468         473         472
         468         469         474         473
         475         476         481         480
         476         477         482         481
         477         478         483         482
         478         479         484         483
         480         481         486         485
         481         482         487         486
         482         483         488         487
         483         484         489         488
         485         486         491         490
         486         487         492         491
         487         488         493         492
         488         489         494         493
         490         491         496         495
         491         492         497         496
         492         493         498         497
         493         494         499         498
         500         501         506         505
         501         502         507         506
         502         503         508         507
         503         504         509         508
         505         506         511         510
         506         507         512         511
         507         508         513         512
         508         509         514         513
         510         511         516         515
         511         512         517         516
         512         513         518         517
         513         514         519         518
         515         516         521         520
         516         517         522         521
         517         518         523         522
         518         519         524         523
         525         526         531         530
         526         527         532         531
         527         528         533         532
         528         529         534         533
         530         531         536         535
         531         532         537         536
         532         533         538         537
         533         534         539         538
         535         536         541         540
         536         537         542         541
         537         538         543         542
         538         539         544         543
         540         541         546         545
         541         542         547         546
         542         543         548         547
         543         544         549         548
         550         551         556         555
         551         552         557         556
         552         553         558         557
         553         554         559         558
         555         556         561         560
         556         557         562         561
         557         558         563         562
         558         559         564         563
         560         561         566         565
         561         562         567         566
         562         563         568         567
         563         564         569         568
         565         566         571         570
         566         567         572         571
         567         568         573         572
         568         569         574         573
         575         576         581         580
         576         577         582         581
         577         578         583         582
         578         579         584         583
         580         581         586         585
         581         582         587         586
         582         583         588         587
         583         584         589         588
         585         586         591         590
         586         587         592         591
         587         588         593         592
         588         589         594         593
         590         591         596         595
         591         592         597         596
         592         593         598         597
         593         594         599         598
         600         601         606         605
         601         602         607         606
         602         603         608         607
         603         604         609         608
         605         606         611         610
         606         607         612         611
         607         608         613         612
         608         609         614         613
         610         611         616         615
         611         612         617         616
         612         613         618         617
         613         614         619         618
         615         616         621         620
         616         617         622         621
         617         618         623         622
         618         619         624         623
         625         626         631         630
         626         627         632         631
         627         628         633         632
         628         629         634         633
         630         631         636         635
         631         632         637         636
         632         633         638         637
         633         634         639         638
         635         636         641         640
         636         637         642         641
         637         638         643         642
         638         639         644         643
         640         641         646         645
         641         642         647         646
         642         643         648         647
         643         644         649         648
         650         651         656         655
         651         652         657         656
         652         653         658         657
         653         654         659         658
         655         656         661         660
         656         657         662         661
         657         658         663         662
         658         659         664         663
         660         661         666         665
         661         662         667         666
         662         663         668         667
         663         664         669         668
         665         666         671         670
         666         667         672         671
         667         668         673         672
         668         669         674         673
         675         676         681         680
         676         677         682         681
         677         678         683         682
         678         679         684         683
         680         681         686         685
         681         682         687         686
         682         683         688         687
         683         684         689         688
         685         686         691         690
         686         687         692         691
         687         688         693         692
         688         689         694         693
         690         691         696         695
         691         692         697         696
         692         693         698         697
         693         694         699         698
         700         701         706         705
         701         702         707         706
         702         703         708         707
         703         704         709         708
         705         706         711         710
         706         707         712         711
         707         708         713         712
         708         709         714         713
         710         711         716         715
         711         712         717         716
         712         713         718         717
         713         714         719         718
         715         716         721         720
         716         717         722         721
         717         718         723         722
         718         719         724         723
         725         726         731         730
         726         727         732         731
         727         728         733         732
         728         729         734         733
         730         731         736         735
         731         732         737         736
         732         733         738         737
         733         734         739         738
         735         736         741         740
         736         737         742         741
         737         738         743         742
         738         739         744         743
         740         741         746         745
         741         742         747         746
         742         743         748         747
         743         744         749         748
         750         751         756         755
         751         752         757         756
         752         753         758         757
         753         754         759         758
         755         756         761         760
         756         757         762         761
         757         758         763         762
         758         759         764         763
         760         761         766         765
         761         762         767         766
         762         763         768         767
         763         764         769         768
         765         766         771         770
         766         767         772         771
         767         768         773         772
         768         769         774         773
         775         776         781         780
         776         777         782         781
         777         778         783         782
         778         779         784         783
         780         781         786         785
         781         782         787         786
         782         783         788         787
         783         784         789         788
         785         786         791         790
         786         787         792         791
         787         788         793         792
         788         789         794         793
         790         791         796         795
         791         792         797         796
         792         793         798         797
         793         794         799         798
         800         801         806         805
         801         802         807         806
         802         803         808         807
         803         804         809         808
         805         806         811         810
         806         807         812         811
         807         808         813         812
         808         809         814         813
         810         811         816         815
         811         812         817         816
         812         813         818         817
         813         814         819         818
         815         816         821         820
         816         817         822         821
         817         818         823         822
         818         819         824         823
         825         826         831         830
         826         827         832         831
         827         828         833         832
         828         829         834         833
         830         831         836         835
         831         832         837         836
         832         833         838         837
         833         834         839         838
         835         836         841         840
         836         837         842         841
         837         838         843         842
         838         839         844         843
         840         841         846         845
         841         842         847         846
         842         843         848         847
         843         844         849         848
         850         851         856         855
         851         852         857         856
         852         853         858         857
         853         854         859         858
         855         856         861         860
         856         857         862         861
         857         858         863         862
         858         859         864         863
         860         861         866         865
         861         862         867         866
         862         863         868         867
         863         864         869         868
         865         866         871         870
         866         867         872         871
         867         868         873         872
         868         869         874         873
         875         876         881         880
         876         877         882         881
         877         878         883         882
         878         879         884         883
         880         881         886         885
         881         882         887         886
         882         883         888         887
         883         884         889         888
         885         886         891         890
         886         887         892         891
         887         888         893         892
         888         889         894         893
         890         891         896         895
         891         892         897         896
         892         893         898         897
         893         894         899         898
         900         901         906         905
         901         902         907         906
         902         903         908         907
         903         904         909         908
         905         906         911         910
         906         907         912         911
         907         908         913         912
         908         909         914         913
         910         911         916         915
         911         912         917         916
         912         913         918         917
         913         914         919         918
         915         916         921         920
         916         917         922         921
         917         918         923         922
         918         919         924         923
         925         926         931         930
         926         927         932         931
         927         928         933         932
         928         929         934         933
         930         931         936         935
         931         932         937         936
         932         933         938         937
         933         934         939         938
         935         936         941         940
         936         937         942         941
         937         938         943         942
         938         939         944         943
         940         941         946         945
         941         942         947         946
         942         943         948         947
         943         944         949         948
         950         951         956         955
         951         952         957         956
         952         953         958         957
         953         954         959         958
         955         956         961         960
         956         957         962         961
         957         958         963         962
         958         959         964         963
         960         961         966         965
         961         962         967         966
         962         963         968         967
         963         964         969         968
         965         966         971         970
         966         967         972         971
         967         968         973         972
         968         969         974         973
         975         976         981         980
         976         977         982         981
         977         978         983         982
         978         979         984         983
         980         981         986         985
         981         982         987         986
         982         983         988         987
         983         984         989         988
         985         986         991         990
         986         987         992         991
         987         988         993         992
         988         989         994         993
         990         991         996         995
         991         992         997         996
         992         993         998         997
         993         994         999         998
        1000        1001        1006        1005
        1001        1002        1007        1006
        1002        1003        1008        1007
        1003        1004        1009        1008
        1005        1006        1011        1010
        1006        1007        1012        1011
        1007        1008        1013        1012
        1008        1009        1014        1013
        1010        1011        1016        1015
        1011        1012        1017        1016
        1012        1013        1018        1017
        1013        1014        1019        1018
        1015        1016        1021        1020
        1016        1017        1022        1021
        1017        1018        1023        1022
        1018        1019        1024        1023
        1025        1026        1031        1030
        1026        1027        1032        1031
        1027        1028        1033        1032
        1028        1029        1034        1033
        1030        1031        1036        1035
        1031        1032        1037        1036
        1032        1033        1038        1037
        1033        1034        1039        1038
        1035        1036        1041        1040
        1036        1037        1042        1041
        1037        1038        1043        1042
        1038        1039        1044        1043
        1040        1041        1046        1045
        1041        1042        1047        1046
        1042        1043        1048        1047
        1043        1044        1049        1048
        1050        1051        1056        1055
        1051        1052        1057        1056
        1052        1053        1058        1057
        1053        1054        1059        1058
        1055        1056        1061        1060
        1056        1057        1062        1061
        1057        1058        1063        1062
        1058        1059        1064        1063
        1060        1061        1066        1065
        1061        1062        1067        1066
        1062        1063        1068        1067
        1063        1064        1069        1068
        1065        1066        1071        1070
        1066        1067        1072        1071
        1067        1068        1073        1072
        1068        1069        1074        1073
        1075        1076        1081        1080
        1076        1077        1082        1081
        1077        1078        1083        1082
        1078        1079        1084        1083
        1080        1081        1086        1085
        1081        1082        1087        1086
        1082        1083        1088        1087
        1083        1084        1089        1088
        1085        1086        1091        1090
        1086        1087        1092        1091
        1087        1088        1093        1092
        1088        1089        1094        1093
        1090        1091        1096        1095
        1091        1092        1097        1096
        1092        1093        1098        1097
        1093        1094        1099        1098
        1100        1101        1106        1105
        1101        1102        1107        1106
        1102        1103        1108        1107
        1103        1104        1109        1108
        1105        1106        1111        1110
        1106        1107        1112        1111
        1107        1108        1113        1112
        1108        1109        1114        1113
        1110        1111        1116        1115
        1111        1112        1117        1116
        1112        1113        1118        1117
        1113        1114        1119        1118
        1115        1116        1121        1120
        1116        1117        1122        1121
        1117        1118        1123        1122
        1118        1119        1124        1123
        1125        1126        1131        1130
        1126        1127        1132        1131
        1127        1128        1133        1132
        1128        1129        1134        1133
        1130        1131        1136        1135
        1131        1132        1137        1136
        1132        1133        1138        1137
        1133        1134        1139        1138
        1135        1136        1141        1140
        1136        1137        1142        1141
        1137        1138        1143        1142
        1138        1139        1144        1143
        1140        1141        1146        1145
        1141        1142        1147        1146
        1142        1143        1148        1147
        1143        1144        1149        1148
        1150        1151        1156        1155
        1151        1152        1157        1156
        1152        1153        1158        1157
        1153        1154        1159        1158
        1155        1156        1161        1160
        1156        1157        1162        1161
        1157        1158        1163        1162
        1158        1159        1164        1163
        1160        1161        1166        1165
        1161        1162        1167        1166
        1162        1163        1168        1167
        1163        1164        1169        1168
        1165        1166        1171        1170
        1166        1167        1172        1171
        1167        1168        1173        1172
        1168        1169        1174        1173
        1175        1176        1181        1180
        1176        1177        1182        1181
        1177        1178        1183        1182
        1178        1179        1184        1183
        1180        1181        1186        1185
        1181        1182        1187        1186
        1182        1183        1188        1187
        1183        1184        1189        1188
        1185        1186        1191        1190
        1186        1187        1192        1191
        1187        1188        1193        1192
        1188        1189        1194        1193
        1190        1191        1196        1195
        1191        1192        1197        1196
        1192        1193        1198        1197
        1193        1194        1199        1198
        1200        1201        1206        1205
        1201        1202        1207        1206
        1202        1203        1208        1207
        1203        1204        1209        1208
        1205        1206        1211        1210
        1206        1207        1212        1211
        1207        1208        1213        1212
        1208        1209        1214        1213
        1210        1211        1216        1215
        1211        1212        1217        1216
        1212        1213        1218        1217
        1213        1214        1219        1218
        1215        1216        1221        1220
        1216        1217        1222        1221
        1217        1218        1223        1222
        1218        1219        1224        1223
        1225        1226        1231        1230
        1226        1227        1232        1231
        1227        1228        1233        1232
        1228        1229        1234        1233
        1230        1231        1236        1235
        1231        1232        1237        1236
        1232        1233        1238        1237
        1233        1234        1239        1238
        1235        1236        1241        1240
        1236        1237        1242        1241
        1237        1238        1243        1242
        1238        1239        1244        1243
        1240        1241        1246        1245
        1241        1242        1247        1246
        1242        1243        1248        1247
        1243        1244        1249        1248
        1250        1251        1256        1255
        1251        1252        1257        1256
        1252        1253        1258        1257
        1253        1254        1259        1258
        1255        1256        1261        1260
        1256        1257        1262        1261
        1257        1258        1263        1262
        1258        1259        1264        1263
        1260        1261        1266        1265
        1261        1262        1267        1266
        1262        1263        1268        1267
        1263        1264        1269        1268
        1265        1266        1271        1270
        1266        1267        1272        1271
        1267        1268        1273        1272
        1268        1269        1274        1273
        1275        1276        1281        1280
        1276        1277        1282        1281
        1277        1278        1283        1282
        1278        1279        1284        1283
        1280        1281        1286        1285
        1281        1282        1287        1286
        1282        1283        1288        1287
        1283        1284        1289        1288
        1285        1286        1291        1290
        1286        1287        1292        1291
        1287        1288        1293        1292
        1288        1289        1294        1293
        1290        1291        1296        1295
        1291        1292        1297        1296
        1292        1293        1298        1297
        1293        1294        1299        1298
        1300        1301        1306        1305
        1301        1302        1307        1306
        1302        1303        1308        1307
        1303        1304        1309        1308
        1305        1306        1311        1310
        1306        1307        1312        1311
        1307        1308        1313        1312
        1308        1309        1314        1313
        1310        1311        1316        1315
        1311        1312        1317        1316
        1312        1313        1318        1317
        1313        1314        1319        1318
        1315        1316        1321        1320
        1316        1317        1322        1321
        1317        1318        1323        1322
        1318        1319        1324        1323
        1325        1326        1331        1330
        1326        1327        1332        1331
        1327        1328        1333        1332
        1328        1329        1334        1333
        1330        1331        1336        1335
        1331        1332        1337        1336
        1332        1333        1338        1337
        1333        1334        1339        1338
        1335        1336        1341        1340
        1336        1337        1342        1341
        1337        1338        1343        1342
        1338        1339        1344        1343
        1340        1341        1346        1345
        1341        1342        1347        1346
        1342        1343        1348        1347
        1343        1344        1349        1348
        1350        1351        1356        1355
        1351        1352        1357        1356
        1352        1353        1358        1357
        1353        1354        1359        1358
        1355        1356        1361        1360
        1356        1357        1362        1361
        1357        1358        1363        1362
        1358        1359        1364        1363
        1360        1361        1366        1365
        1361        1362        1367        1366
        1362        1363        1368        1367
        1363        1364        1369        1368
        1365        1366        1371        1370
        1366        1367        1372        1371
        1367        1368        1373        1372
        1368        1369        1374        1373
        1375        1376        1381        1380
        1376        1377        1382        1381
        1377        1378        1383        1382
        1378        1379        1384        1383
        1380        1381        1386        1385
        1381        1382        1387        1386
        1382        1383        1388        1387
        1383        1384        1389        1388
        1385        1386        1391        1390
        1386        1387        1392        1391
        1387        1388        1393        1392
        1388        1389        1394        1393
        1390        1391        1396        1395
        1391        1392        1397        1396
        1392        1393        1398        1397
        1393        1394        1399        1398
        1400        1401        1406        1405
        1401        1402        1407        1406
        1402        1403        1408        1407
        1403        1404        1409        1408
        1405        1406        1411        1410
        1406        1407        1412        1411
        1407        1408        1413        1412
        1408        1409        1414        1413
        1410        1411        1416        1415
        1411        1412        1417        1416
        1412        1413        1418        1417
        1413        1414        1419        1418
        1415        1416        1421        1420
        1416        1417        1422        1421
        1417        1418        1423        1422
        1418        1419        1424        1423
        1425        1426        1431        1430
        1426        1427        1432        1431
        1427        1428        1433        1432
        1428        1429        1434        1433
        1430        1431        1436        1435
        1431        1432        1437        1436
        1432        1433        1438        1437
        1433        1434        1439        1438
        1435        1436        1441        1440
        1436        1437        1442        1441
        1437        1438        1443        1442
        1438        1439        1444        1443
        1440        1441        1446        1445
        1441        1442        1447        1446
        1442        1443        1448        1447
        1443        1444        1449        1448
        1450        1451        1456        1455
        1451        1452        1457        1456
        1452        1453        1458        1457
        1453        1454        1459        1458
        1455        1456        1461        1460
        1456        1457        1462        1461
        1457        1458        1463        1462
        1458        1459        1464        1463
        1460        1461        1466        1465
        1461        1462        1467        1466
        1462        1463        1468        1467
        1463        1464        1469        1468
        1465        1466        1471        1470
        1466        1467        1472        1471
        1467        1468        1473        1472
        1468        1469        1474        1473
        1475        1476        1481        1480
        1476        1477        1482        1481
        1477        1478        1483        1482
        1478        1479        1484        1483
        1480        1481        1486        1485
        1481        1482        1487        1486
        1482        1483        1488        1487
        1483        1484        1489        1488
        1485        1486        1491        1490
        1486        1487        1492        1491
        1487        1488        1493        1492
        1488        1489        1494        1493
        1490        1491        1496        1495
        1491        1492        1497        1496
        1492        1493        1498        1497
        1493        1494        1499        1498
        1500        1501        1506        1505
        1501        1502        1507        1506
        1502        1503        1508        1507
        1503        1504        1509        1508
        1505        1506        1511        1510
        1506        1507        1512        1511
        1507        1508        1513        1512
        1508        1509        1514        1513
        1510        1511        1516        1515
        1511        1512        1517        1516
        1512        1513        1518        1517
        1513        1514        1519        1518
        1515        1516        1521        1520
        1516        1517        1522        1521
        1517        1518        1523        1522
        1518        1519        1524        1523
        1525        1526        1531        1530
        1526        1527        1532        1531
        1527        1528        1533        1532
        1528        1529        1534        1533
        1530        1531        1536        1535
        1531        1532        1537        1536
        1532        1533        1538        1537
        1533        1534        1539        1538
        1535        1536        1541        1540
        1536        1537        1542        1541
        1537        1538        1543        1542
        1538        1539        1544        1543
        1540        1541        1546        1545
        1541        1542        1547        1546
        1542        1543        1548        1547
        1543        1544        1549        1548
        1550        1551        1556        1555
        1551        1552        1557        1556
        1552        1553        1558        1557
        1553        1554        1559        1558
        1555        1556        1561        1560
        1556        1557        1562        1561
        1557        1558        1563        1562
        1558        1559        1564        1563
        1560        1561        1566        1565
        1561        1562        1567        1566
        1562        1563        1568        1567
        1563        1564        1569        1568
        1565        1566        1571        1570
        1566        1567        1572        1571
        1567        1568        1573        1572
        1568        1569        1574        1573
        1575        1576        1581        1580
        1576        1577        1582        1581
        1577        1578        1583        1582
        1578        1579        1584        1583
        1580        1581        1586        1585
        1581        1582        1587        1586
        1582        1583        1588        1587
        1583        1584        1589        1588
        1585        1586        1591        1590
        1586        1587        1592        1591
        1587        1588        1593        1592
        1588        1589        1594        1593
        1590        1591        1596        1595
        1591        1592        1597        1596
        1592        1593        1598        1597
        1593        1594        1599        1598
 </DataArray>
 <DataArray  type="Int32"  Name="offsets"  format="ascii"> 
           4
           8
          12
          16
          20
          24
          28
          32
          36
          40
          44
          48
          52
          56
          60
          64
          68
          72
          76
          80
          84
          88
          92
          96
         100
         104
         108
         112
         116
         120
         124
         128
         132
         136
         140
         144
         148
         152
         156
         160
         164
         168
         172
         176
         180
         184
         188
         192
         196
         200
         204
         208
         212
         216
         220
         224
         228
         232
         236
         240
         244
         248
         252
         256
         260
         264
         268
         272
         276
         280
         284
         288
         292
         296
         300
         304
         308
         312
         316
         320
         324
         328
         332
         336
         340
         344
         348
         352
         356
         360
         364
         368
         372
         376
         380
         384
         388
         392
         396
         400
         404
         408
         412
         416
         420
         424
         428
         432
         436
         440
         444
         448
         452
         456
         460
         464
         468
         472
         476
         480
         484
         488
         492
         496
         500
         504
         508
         512
         516
         520
         524
         528
         532
         536
         540
         544
         548
         552
         556
         560
         564
         568
         572
         576
         580
         584
         588
         592
         596
         600
         604
         608
         612
         616
         620
         624
         628
         632
         636
         640
         644
         648
         652
         656
         660
         664
         668
         672
         676
         680
         684
         688
         692
         696
         700
         704
         708
         712
         716
         720
         724
         728
         732
         736
         740
         744
         748
         752
         756
         760
         764
         768
         772
         776
         780
         784
         788
         792
         796
         800
         804
         808
         812
         816
         820
         824
         828
         832
         836
         840
         844
         848
         852
         856
         860
         864
         868
         872
         876
         880
         884
         888
         892
         896
         900
         904
         908
         912
         916
         920
         924
         928
         932
         936
         940
         944
         948
         952
         956
         960
         964
         968
         972
         976
         980
         984
         988
         992
         996
        1000
        1004
        1008
        1012
        1016
        1020
        1024
        1028
        1032
        1036
        1040
        1044
        1048
        1052
        1056
        1060
        1064
        1068
        1072
        1076
        1080
        1084
        1088
        1092
        1096
        1100
        1104
        1108
        1112
        1116
        1120
        1124
        1128
        1132
        1136
        1140
        1144
        1148
        1152
        1156
        1160
        1164
        1168
        1172
        1176
        1180
        1184
        1188
        1192
        1196
        1200
        1204
        1208
        1212
        1216
        1220
        1224
        1228
        1232
        1236
        1240
        1244
        1248
        1252
        1256
        1260
        1264
        1268
        1272
        1276
        1280
        1284
        1288
        1292
        1296
        1300
        1304
        1308
        1312
        1316
        1320
        1324
        1328
        1332
        1336
        1340
        1344
        1348
        1352
        1356
        1360
        1364
        1368
        1372
        1376
        1380
        1384
        1388
        1392
        1396
        1400
        1404
        1408
        1412
        1416
        1420
        1424
        1428
        1432
        1436
        1440
        1444
        1448
        1452
        1456
        1460
        1464
        1468
        1472
        1476
        1480
        1484
        1488
        1492
        1496
        1500
        1504
        1508
        1512
        1516
        1520
        1524
        1528
        1532
        1536
        1540
        1544
        1548
        1552
        1556
        1560
        1564
        1568
        1572
        1576
        1580
        1584
        1588
        1592
        1596
        1600
        1604
        1608
        1612
        1616
        1620
        1624
        1628
        1632
        1636
        1640
        1644
        1648
        1652
        1656
        1660
        1664
        1668
        1672
        1676
        1680
        1684
        1688
        1692
        1696
        1700
        1704
        1708
        1712
        1716
        1720
        1724
        1728
        1732
        1736
        1740
        1744
        1748
        1752
        1756
        1760
        1764
        1768
        1772
        1776
        1780
        1784
        1788
        1792
        1796
        1800
        1804
        1808
        1812
        1816
        1820
        1824
        1828
        1832
        1836
        1840
        1844
        1848
        1852
        1856
        1860
        1864
        1868
        1872
        1876
        1880
        1884
        1888
        1892
        1896
        1900
        1904
        1908
        1912
        1916
        1920
        1924
        1928
        1932
        1936
        1940
        1944
        1948
        1952
        1956
        1960
        1964
        1968
        1972
        1976
        1980
        1984
        1988
        1992
        1996
        2000
        2004
        2008
        2012
        2016
        2020
        2024
        2028
        2032
        2036
        2040
        2044
        2048
        2052
        2056
        2060
        2064
        2068
        2072
        2076
        2080
        2084
        2088
        2092
        2096
        2100
        2104
        2108
        2112
        2116
        2120
        2124
        2128
        2132
        2136
        2140
        2144
        2148
        2152
        2156
        2160
        2164
        2168
        2172
        2176
        2180
        2184
        2188
        2192
        2196
        2200
        2204
        2208
        2212
        2216
        2220
        2224
        2228
        2232
        2236
        2240
        2244
        2248
        2252
        2256
        2260
        2264
        2268
        2272
        2276
        2280
        2284
        2288
        2292
        2296
        2300
        2304
        2308
        2312
        2316
        2320
        2324
        2328
        2332
        2336
        2340
        2344
        2348
        2352
        2356
        2360
        2364
        2368
        2372
        2376
        2380
        2384
        2388
        2392
        2396
        2400
        2404
        2408
        2412
        2416
        2420
        2424
        2428
        2432
        2436
        2440
        2444
        2448
        2452
        2456
        2460
        2464
        2468
        2472
        2476
        2480
        2484
        2488
        2492
        2496
        2500
        2504
        2508
        2512
        2516
        2520
        2524
        2528
        2532
        2536
        2540
        2544
        2548
        2552
        2556
        2560
        2564
        2568
        2572
        2576
        2580
        2584
        2588
        2592
        2596
        2600
        2604
        2608
        2612
        2616
        2620
        2624
        2628
        2632
        2636
        2640
        2644
        2648
        2652
        2656
        2660
        2664
        2668
        2672
        2676
        2680
        2684
        2688
        2692
        2696
        2700
        2704
        2708
        2712
        2716
        2720
        2724
        2728
        2732
        2736
        2740
        2744
        2748
        2752
        2756
        2760
        2764
        2768
        2772
        2776
        2780
        2784
        2788
        2792
        2796
        2800
        2804
        2808
        2812
        2816
        2820
        2824
        2828
        2832
        2836
        2840
        2844
        2848
        2852
        2856
        2860
        2864
        2868
        2872
        2876
        2880
        2884
        2888
        2892
        2896
        2900
        2904
        2908
        2912
        2916
        2920
        2924
        2928
        2932
        2936
        2940
        2944
        2948
        2952
        2956
        2960
        2964
        2968
        2972
        2976
        2980
        2984
        2988
        2992
        2996
        3000
        3004
        3008
        3012
        3016
        3020
        3024
        3028
        3032
        3036
        3040
        3044
        3048
        3052
        3056
        3060
        3064
        3068
        3072
        3076
        3080
        3084
        3088
        3092
        3096
        3100
        3104
        3108
        3112
        3116
        3120
        3124
        3128
        3132
        3136
        3140
        3144
        3148
        3152
        3156
        3160
        3164
        3168
        3172
        3176
        3180
        3184
        3188
        3192
        3196
        3200
        3204
        3208
        3212
        3216
        3220
        3224
        3228
        3232
        3236
        3240
        3244
        3248
        3252
        3256
        3260
        3264
        3268
        3272
        3276
        3280
        3284
        3288
        3292
        3296
        3300
        3304
        3308
        3312
        3316
        3320
        3324
        3328
        3332
        3336
        3340
        3344
        3348
        3352
        3356
        3360
        3364
        3368
        3372
        3376
        3380
        3384
        3388
        3392
        3396
        3400
        3404
        3408
        3412
        3416
        3420
        3424
        3428
        3432
        3436
        3440
        3444
        3448
        3452
        3456
        3460
        3464
        3468
        3472
        3476
        3480
        3484
        3488
        3492
        3496
        3500
        3504
        3508
        3512
        3516
        3520
        3524
        3528
        3532
        3536
        3540
        3544
        3548
        3552
        3556
        3560
        3564
        3568
        3572
        3576
        3580
        3584
        3588
        3592
        3596
        3600
        3604
        3608
        3612
        3616
        3620
        3624
        3628
        3632
        3636
        3640
        3644
        3648
        3652
        3656
        3660
        3664
        3668
        3672
        3676
        3680
        3684
        3688
        3692
        3696
        3700
        3704
        3708
        3712
        3716
        3720
        3724
        3728
        3732
        3736
        3740
        3744
        3748
        3752
        3756
        3760
        3764
        3768
        3772
        3776
        3780
        3784
        3788
        3792
        3796
        3800
        3804
        3808
        3812
        3816
        3820
        3824
        3828
        3832
        3836
        3840
        3844
        3848
        3852
        3856
        3860
        3864
        3868
        3872
        3876
        3880
        3884
        3888
        3892
        3896
        3900
        3904
        3908
        3912
        3916
        3920
        3924
        3928
        3932
        3936
        3940
        3944
        3948
        3952
        3956
        3960
        3964
        3968
        3972
        3976
        3980
        3984
        3988
        3992
        3996
        4000
        4004
        4008
        4012
        4016
        4020
        4024
        4028
        4032
        4036
        4040
        4044
        4048
        4052
        4056
        4060
        4064
        4068
        4072
        4076
        4080
        4084
        4088
        4092
        4096
 </DataArray>
 <DataArray  type="UInt8"  Name="types"  format="ascii">
 9
 9
 9
 9
 9
 9
 9
 9
 9
 9
 9
 9
 9
 9
 9
 9
 9
 9
 9
 9
 9
 9
 9
 9
 9
 9
 9
 9
 9
 9
 9
 9
 9
 9
 9
 9
 9
 9
 9
 9
 9
 9
 9
 9
 9
 9
 9
 9
 9
 9
 9
 9
 9
 9
 9
 9
 9
 9
 9
 9
 9
 9
 9
 9
 9
 9
 9
 9
 9
 9
 9
 9
 9
 9
 9
 9
 9
 9
 9
 9
 9
 9
 9
 9
 9
 9
 9
 9
 9
 9
 9
 9
 9
 9
 9
 9
 9
 9
 9
 9
 9
 9
 9
 9
 9
 9
 9
 9
 9
 9
 9
 9
 9
 9
 9
 9
 9
 9
 9
 9
 9
 9
 9
 9
 9
 9
 9
 9
 9
 9
 9
 9
 9
 9
 9
 9
 9
 9
 9
 9
 9
 9
 9
 9
 9
 9
 9
 9
 9
 9
 9
 9
 9
 9
 9
 9
 9
 9
 9
 9
 9
 9
 9
 9
 9
 9
 9
 9
 9
 9
 9
 9
 9
 9
 9
 9
 9
 9
 9
 9
 9
 9
 9
 9
 9
 9
 9
 9
 9
 9
 9
 9
 9
 9
 9
 9
 9
 9
 9
 9
 9
 9
 9
 9
 9
 9
 9
 9
 9
 9
 9
 9
 9
 9
 9
 9
 9
 9
 9
 9
 9
 9
 9
 9
 9
 9
 9
 9
 9
 9
 9
 9
 9
 9
 9
 9
 9
 9
 9
 9
 9
 9
 9
 9
 9
 9
 9
 9
 9
 9
 9
 9
 9
 9
 9
 9
 9
 9
 9
 9
 9
 9
 9
 9
 9
 9
 9
 9
 9
 9
 9
 9
 9
 9
 9
 9
 9
 9
 9
 9
 9
 9
 9
 9
 9
 9
 9
 9
 9
 9
 9
 9
 9
 9
 9
 9
 9
 9
 9
 9
 9
 9
 9
 9
 9
 9
 9
 9
 9
 9
 9
 9
 9
 9
 9
 9
 9
 9
 9
 9
 9
 9
 9
 9
 9
 9
 9
 9
 9
 9
 9
 9
 9
 9
 9
 9
 9
 9
 9
 9
 9
 9
 9
 9
 9
 9
 9
 9
 9
 9
 9
 9
 9
 9
 9
 9
 9
 9
 9
 9
 9
 9
 9
 9
 9
 9
 9
 9
 9
 9
 9
 9
 9
 9
 9
 9
 9
 9
 9
 9
 9
 9
 9
 9
 9
 9
 9
 9
 9
 9
 9
 9
 9
 9
 9
 9
 9
 9
 9
 9
 9
 9
 9
 9
 9
 9
 9
 9
 9
 9
 9
 9
 9
 9
 9
 9
 9
 9
 9
 9
 9
 9
 9
 9
 9
 9
 9
 9
 9
 9
 9
 9
 9
 9
 9
 9
 9
 9
 9
 9
 9
 9
 9
 9
 9
 9
 9
 9
 9
 9
 9
 9
 9
 9
 9
 9
 9
 9
 9
 9
 9
 9
 9
 9
 9
 9
 9
 9
 9
 9
 9
 9
 9
 9
 9
 9
 9
 9
 9
 9
 9
 9
 9
 9
 9
 9
 9
 9
 9
 9
 9
 9
 9
 9
 9
 9
 9
 9
 9
 9
 9
 9
 9
 9
 9
 9
 9
 9
 9
 9
 9
 9
 9
 9
 9
 9
 9
 9
 9
 9
 9
 9
 9
 9
 9
 9
 9
 9
 9
 9
 9
 9
 9
 9
 9
 9
 9
 9
 9
 9
 9
 9
 9
 9
 9
 9
 9
 9
 9
 9
 9
 9
 9
 9
 9
 9
 9
 9
 9
 9
 9
 9
 9
 9
 9
 9
 9
 9
 9
 9
 9
 9
 9
 9
 9
 9
 9
 9
 9
 9
 9
 9
 9
 9
 9
 9
 9
 9
 9
 9
 9
 9
 9
 9
 9
 9
 9
 9
 9
 9
 9
 9
 9
 9
 9
 9
 9
 9
 9
 9
 9
 9
 9
 9
 9
 9
 9
 9
 9
 9
 9
 9
 9
 9
 9
 9
 9
 9
 9
 9
 9
 9
 9
 9
 9
 9
 9
 9
 9
 9
 9
 9
 9
 9
 9
 9
 9
 9
 9
 9
 9
 9
 9
 9
 9
 9
 9
 9
 9
 9
 9
 9
 9
 9
 9
 9
 9
 9
 9
 9
 9
 9
 9
 9
 9
 9
 9
 9
 9
 9
 9
 9
 9
 9
 9
 9
 9
 9
 9
 9
 9
 9
 9
 9
 9
 9
 9
 9
 9
 9
 9
 9
 9
 9
 9
 9
 9
 9
 9
 9
 9
 9
 9
 9
 9
 9
 9
 9
 9
 9
 9
 9
 9
 9
 9
 9
 9
 9
 9
 9
 9
 9
 9
 9
 9
 9
 9
 9
 9
 9
 9
 9
 9
 9
 9
 9
 9
 9
 9
 9
 9
 9
 9
 9
 9
 9
 9
 9
 9
 9
 9
 9
 9
 9
 9
 9
 9
 9
 9
 9
 9
 9
 9
 9
 9
 9
 9
 9
 9
 9
 9
 9
 9
 9
 9
 9
 9
 9
 9
 9
 9
 9
 9
 9
 9
 9
 9
 9
 9
 9
 9
 9
 9
 9
 9
 9
 9
 9
 9
 9
 9
 9
 9
 9
 9
 9
 9
 9
 9
 9
 9
 9
 9
 9
 9
 9
 9
 9
 9
 9
 9
 9
 9
 9
 9
 9
 9
 9
 9
 9
 9
 9
 9
 9
 9
 9
 9
 9
 9
 9
 9
 9
 9
 9
 9
 9
 9
 9
 9
 9
 9
 9
 9
 9
 9
 9
 9
 9
 9
 9
 9
 9
 9
 9
 9
 9
 9
 9
 9
 9
 9
 9
 9
 9
 9
 9
 9
 9
 9
 9
 9
 9
 9
 9
 9
 9
 9
 9
 9
 9
 9
 9
 9
 9
 9
 9
 9
 9
 9
 9
 9
 9
 9
 9
 9
 9
 9
 9
 9
 9
 9
 9
 9
 9
 9
 9
 9
 9
 9
 9
 9
 9
 9
 9
 9
 9
 9
 9
 9
 9
 9
 9
 9
 9
 9
 9
 9
 9
 9
 9
 9
 9
 9
 9
 9
 9
 9
 9
 9
 9
 9
 9
 9
 9
 9
 9
 9
 9
 9
 9
 9
 9
 9
 9
 9
 9
 9
 9
 9
 9
 9
 9
 9
 9
 9
 9
 9
 9
 9
 9
 9
 9
 9
 9
 9
 9
 9
 9
 9
 9
 9
 9
 9
 9
 9
 9
 9
 9
 9
 9
 9
 9
 9
 9
 9
 9
 9
 9
 9
 9
 9
 9
 9
 9
 </DataArray>
 </Cells> 
 <PointData>
 <DataArray  type="Float64" Name="disp" NumberOfComponents="3" format="ascii">
   0.0000000000000000        0.0000000000000000        0.0000000000000000     
   6.0972708528294227E-003   3.7844773486153593E-003   0.0000000000000000     
   1.1671930013636769E-002   7.3115476010779919E-003   0.0000000000000000     
   1.6723977482422041E-002   1.0581210757387896E-002   0.0000000000000000     
   2.1253413259185241E-002   1.3593466817545075E-002   0.0000000000000000     
   0.0000000000000000        0.0000000000000000        0.0000000000000000     
   4.8948383903823665E-003   3.0146537833423189E-003   0.0000000000000000     
   9.5830322886029384E-003   6.0455569101749897E-003   0.0000000000000000     
   1.4064581694661717E-002   9.0927093804980142E-003   0.0000000000000000     
   1.8339486608558702E-002   1.2156111194311391E-002   0.0000000000000000     
   0.0000000000000000        0.0000000000000000        0.0000000000000000     
   3.9582541078043466E-003   2.4165598959394298E-003   0.0000000000000000     
   7.9209783181856952E-003   5.0461424946443749E-003   0.0000000000000000     
   1.1888172631144049E-002   7.8887477961148336E-003   0.0000000000000000     
   1.5859837046679405E-002   1.0944375800350809E-002   0.0000000000000000     
   0.0000000000000000        0.0000000000000000        0.0000000000000000     
   3.2875180050953631E-003   1.9901956864066938E-003   0.0000000000000000     
   6.6857681023850439E-003   4.3133043544861475E-003   0.0000000000000000     
   1.0194750291869040E-002   6.9693260042383602E-003   0.0000000000000000     
   1.3814464573547356E-002   9.9582606356633310E-003   0.0000000000000000     
   0.0000000000000000        0.0000000000000000        0.0000000000000000     
   2.8826300822554166E-003   1.7355611547441095E-003   0.0000000000000000     
   5.8774016412009803E-003   3.8470424897003065E-003   0.0000000000000000     
   8.9843146768366928E-003   6.3344440048685915E-003   0.0000000000000000     
   1.2203369189162551E-002   9.1977657002489631E-003   0.0000000000000000     
   2.1253413259185241E-002   1.3593466817545075E-002   0.0000000000000000     
   2.5472840113272714E-002   1.6580011088386800E-002   0.0000000000000000     
   2.9594860814030816E-002   1.9772538876750349E-002   0.0000000000000000     
   3.3619475361459546E-002   2.3171050182635721E-002   0.0000000000000000     
   3.7546683755558898E-002   2.6775545006042914E-002   0.0000000000000000     
   1.8339486608558702E-002   1.2156111194311391E-002   0.0000000000000000     
   2.2446297744808413E-002   1.5304698222229846E-002   0.0000000000000000     
   2.6423565817925383E-002   1.8607406334868116E-002   0.0000000000000000     
   3.0271290827909601E-002   2.2064235532226192E-002   0.0000000000000000     
   3.3989472774761081E-002   2.5675185814304079E-002   0.0000000000000000     
   1.5859837046679405E-002   1.0944375800350809E-002   0.0000000000000000     
   1.9764814896935892E-002   1.4172034148407066E-002   0.0000000000000000     
   2.3531949514057633E-002   1.7530730481338373E-002   0.0000000000000000     
   2.7161240898044631E-002   2.1020464799144729E-002   0.0000000000000000     
   3.0652689048896887E-002   2.4641237101826138E-002   0.0000000000000000     
   1.3814464573547356E-002   9.9582606356633310E-003   0.0000000000000000     
   1.7428391569655147E-002   1.3182018866918457E-002   0.0000000000000000     
   2.0920011902427576E-002   1.6542511316161124E-002   0.0000000000000000     
   2.4289325571864629E-002   2.0039737983391339E-002   0.0000000000000000     
   2.7536332577966328E-002   2.3673698868609087E-002   0.0000000000000000     
   1.2203369189162551E-002   9.1977657002489631E-003   0.0000000000000000     
   1.5437027762966179E-002   1.2334652377764021E-002   0.0000000000000000     
   1.8587752983035194E-002   1.5642748839336369E-002   0.0000000000000000     
   2.1655544849369601E-002   1.9122055084966005E-002   0.0000000000000000     
   2.4640403361969397E-002   2.2772571114652931E-002   0.0000000000000000     
   3.7546683755558898E-002   2.6775545006042914E-002   0.0000000000000000     
   4.1387564541994881E-002   3.0583016140417169E-002   0.0000000000000000     
   4.5153196266433479E-002   3.4590456379203723E-002   0.0000000000000000     
   4.8843578928874691E-002   3.8797865722402583E-002   0.0000000000000000     
   5.2458712529318531E-002   4.3205244170013743E-002   0.0000000000000000     
   3.3989472774761081E-002   2.5675185814304079E-002   0.0000000000000000     
   3.7604948100319988E-002   2.9471165676128525E-002   0.0000000000000000     
   4.1144553246426525E-002   3.3483083612726283E-002   0.0000000000000000     
   4.4608288213080688E-002   3.7710939624097342E-002   0.0000000000000000     
   4.7996153000282475E-002   4.2154733710241706E-002   0.0000000000000000     
   3.0652689048896887E-002   2.4641237101826138E-002   0.0000000000000000     
   3.4037114161953083E-002   2.8440086832796124E-002   0.0000000000000000     
   3.7345336432551918E-002   3.2464053435468224E-002   0.0000000000000000     
   4.0577355860693387E-002   3.6713136909842417E-002   0.0000000000000000     
   4.3733172446377477E-002   4.1187337255918714E-002   0.0000000000000000     
   2.7536332577966328E-002   2.3673698868609087E-002   0.0000000000000000     
   3.0684062726894164E-002   2.7489779610419963E-002   0.0000000000000000     
   3.3755545824809642E-002   3.1533365847429530E-002   0.0000000000000000     
   3.6750781871712768E-002   3.5804457579637801E-002   0.0000000000000000     
   3.9669770867603531E-002   4.0303054807044769E-002   0.0000000000000000     
   2.4640403361969397E-002   2.2772571114652931E-002   0.0000000000000000     
   2.7545793795143218E-002   2.6620244009000038E-002   0.0000000000000000     
   3.0375181423199702E-002   3.0691020848610227E-002   0.0000000000000000     
   3.3128566246138844E-002   3.4984901633483501E-002   0.0000000000000000     
   3.5805948263960656E-002   3.9501886363619856E-002   0.0000000000000000     
   5.2458712529318531E-002   4.3205244170013743E-002   0.0000000000000000     
   5.5996384596854860E-002   4.7833918618019937E-002   0.0000000000000000     
   5.9454382660573568E-002   5.2705215962403906E-002   0.0000000000000000     
   6.2832706720474654E-002   5.7819136203165658E-002   0.0000000000000000     
   6.6131356776558098E-002   6.3175679340305171E-002   0.0000000000000000     
   4.7996153000282475E-002   4.2154733710241706E-002   0.0000000000000000     
   5.1301924685258363E-002   4.6823918395510346E-002   0.0000000000000000     
   5.4519380345234812E-002   5.1727946204254194E-002   0.0000000000000000     
   5.7648519980211831E-002   5.6866817136473263E-002   0.0000000000000000     
   6.0689343590189432E-002   6.2240531192167561E-002   0.0000000000000000     
   4.3733172446377477E-002   4.1187337255918714E-002   0.0000000000000000     
   4.6805159987985991E-002   4.5888463745503087E-002   0.0000000000000000     
   4.9785692283900694E-002   5.0818325650401536E-002   0.0000000000000000     
   5.2674769334121609E-002   5.5976922970614011E-002   0.0000000000000000     
   5.5472391138648727E-002   6.1364255706140562E-002   0.0000000000000000     
   3.9669770867603531E-002   4.0303054807044769E-002   0.0000000000000000     
   4.2506090505037758E-002   4.5027554667998217E-002   0.0000000000000000     
   4.5253318476571242E-002   4.9976354300845925E-002   0.0000000000000000     
   4.7911454782203974E-002   5.5149453705587909E-002   0.0000000000000000     
   5.0480499421935970E-002   6.0546852882224160E-002   0.0000000000000000     
   3.5805948263960656E-002   3.9501886363619856E-002   0.0000000000000000     
   3.8404716236413665E-002   4.4241191162995686E-002   0.0000000000000000     
   4.0922258923246420E-002   4.9202032155587383E-002   0.0000000000000000     
   4.3358576324458921E-002   5.4384409341394942E-002   0.0000000000000000     
   4.5713668440051168E-002   5.9788322720418383E-002   0.0000000000000000     
   6.6131356776558098E-002   6.3175679340305171E-002   0.0000000000000000     
   6.9330270786680845E-002   6.8738979406041151E-002   0.0000000000000000     
   7.2409386708699841E-002   7.4473170432592245E-002   0.0000000000000000     
   7.5368704542615045E-002   8.0378252419958440E-002   0.0000000000000000     
   7.8208224288426498E-002   8.6454225368139792E-002   0.0000000000000000     
   6.0689343590189432E-002   6.2240531192167561E-002   0.0000000000000000     
   6.3635957361825313E-002   6.7818884382199768E-002   0.0000000000000000     
   6.6482467481777177E-002   7.3571672717432618E-002   0.0000000000000000     
   6.9228873950045039E-002   7.9498896197866070E-002   0.0000000000000000     
   7.1875176766628884E-002   8.5600554823500152E-002   0.0000000000000000     
   5.5472391138648727E-002   6.1364255706140562E-002   0.0000000000000000     
   5.8181560295920268E-002   6.6954222991155471E-002   0.0000000000000000     
   6.0805279404374496E-002   7.2720723959833089E-002   0.0000000000000000     
   6.3343548464011412E-002   7.8663758612173396E-002   0.0000000000000000     
   6.5796367474830988E-002   8.4783326948176418E-002   0.0000000000000000     
   5.0480499421935970E-002   6.0546852882224160E-002   0.0000000000000000     
   5.2967079588965738E-002   6.6144995232908232E-002   0.0000000000000000     
   5.5377822476491811E-002   7.1920324159793672E-002   0.0000000000000000     
   5.7712728084514164E-002   7.7872839662880444E-002   0.0000000000000000     
   5.9971796413032817E-002   8.4002541742168604E-002   0.0000000000000000     
   4.5713668440051168E-002   5.9788322720418383E-002   0.0000000000000000     
   4.7992515240961708E-002   6.5391201107458052E-002   0.0000000000000000     
   5.0200096698129089E-002   7.1170473317314326E-002   0.0000000000000000     
   5.2336412811553309E-002   7.7126139349987202E-002   0.0000000000000000     
   5.4401463581234363E-002   8.3258199205476696E-002   0.0000000000000000     
   7.8208224288426498E-002   8.6454225368139792E-002   0.0000000000000000     
   8.0959636698024973E-002   9.2707559873203865E-002   0.0000000000000000     
   8.3654632523301214E-002   9.9144726531218336E-002   0.0000000000000000     
   8.6293211764255251E-002  0.10576572534218318        0.0000000000000000     
   8.8875374420887082E-002  0.11257055630609838        0.0000000000000000     
   7.1875176766628884E-002   8.5600554823500152E-002   0.0000000000000000     
   7.4437683661300991E-002   9.1878482503739534E-002   0.0000000000000000     
   7.6932702363833608E-002   9.8334513147988967E-002   0.0000000000000000     
   7.9360232874226735E-002  0.10496864675624841        0.0000000000000000     
   8.1720275192480374E-002  0.11178088332851788        0.0000000000000000     
   6.5796367474830988E-002   8.4783326948176418E-002   0.0000000000000000     
   6.8169354227824996E-002   9.1078364251267349E-002   0.0000000000000000     
   7.0468126513985138E-002   9.7547805804871421E-002   0.0000000000000000     
   7.2692684333311441E-002  0.10419165160898859        0.0000000000000000     
   7.4843027685803906E-002  0.11100990166361892        0.0000000000000000     
   5.9971796413032817E-002   8.4002541742168604E-002   0.0000000000000000     
   6.2154648397596969E-002   9.0307205115787256E-002   0.0000000000000000     
   6.4260904973755834E-002   9.6784604501865656E-002   0.0000000000000000     
   6.6290566141509411E-002  0.10343473990040374        0.0000000000000000     
   6.8243631900857707E-002  0.11025761131140149        0.0000000000000000     
   5.4401463581234363E-002   8.3258199205476696E-002   0.0000000000000000     
   5.6393566170616936E-002   8.9565005097299324E-002   0.0000000000000000     
   5.8311037743145694E-002   9.6044909238971701E-002   0.0000000000000000     
   6.0153878298820622E-002  0.10269791163049380        0.0000000000000000     
   6.1922087837641741E-002  0.10952401227186565        0.0000000000000000     
   8.8875374420887082E-002  0.11257055630609838        0.0000000000000000     
   9.1432873075685067E-002  0.11959864733471878        0.0000000000000000     
   9.3997460311137607E-002  0.12688942633979919        0.0000000000000000     
   9.6569136127244673E-002  0.13444289332133955        0.0000000000000000     
   9.9147900524006280E-002  0.14225904827933994        0.0000000000000000     
   8.1720275192480374E-002  0.11178088332851788        0.0000000000000000     
   8.4022235118793670E-002  0.11881354789809201        0.0000000000000000     
   8.6275518453365743E-002  0.12610896549826542        0.0000000000000000     
   8.8480125196196635E-002  0.13366713612903808        0.0000000000000000     
   9.0636055347286304E-002  0.14148805979041001        0.0000000000000000     
   7.4843027685803906E-002  0.11100990166361892        0.0000000000000000     
   7.6914816961355478E-002  0.11804319553489705        0.0000000000000000     
   7.8903712549859145E-002  0.12533217278895767        0.0000000000000000     
   8.0809714451314851E-002  0.13287683342580076        0.0000000000000000     
   8.2632822665722652E-002  0.14067717744542632        0.0000000000000000     
   6.8243631900857707E-002  0.11025761131140149        0.0000000000000000     
   7.0110618603370548E-002  0.11728759024513394        0.0000000000000000     
   7.1882042600617743E-002  0.12455904821187599        0.0000000000000000     
   7.3557903892599363E-002  0.13207198521162763        0.0000000000000000     
   7.5138202479315339E-002  0.13982640124438889        0.0000000000000000     
   6.1922087837641741E-002  0.10952401227186565        0.0000000000000000     
   6.3609640044838808E-002  0.11654673202880264        0.0000000000000000     
   6.5210508605641593E-002  0.12378959176702034        0.0000000000000000     
   6.6724693520050102E-002  0.13125259148651866        0.0000000000000000     
   6.8152194788064335E-002  0.13893573118729766        0.0000000000000000     
   9.9147900524006280E-002  0.14225904827933994        0.0000000000000000     
  0.10180774275815130       0.15066588766205199        0.0000000000000000     
  0.10462265208640857       0.15999140791772748        0.0000000000000000     
  0.10759262850877815       0.17023560904636639        0.0000000000000000     
  0.11071767202525998       0.18139849104796871        0.0000000000000000     
   9.0636055347286304E-002  0.14148805979041001        0.0000000000000000     
   9.2788357836729798E-002  0.14981652410997778        0.0000000000000000     
   9.4982081594622209E-002  0.15889731671533794        0.0000000000000000     
   9.7217226620963493E-002  0.16873043760649042        0.0000000000000000     
   9.9493792915753665E-002  0.17931588678343532        0.0000000000000000     
   8.2632822665722652E-002  0.14067717744542632        0.0000000000000000     
   8.4401846484657289E-002  0.14890472213043587        0.0000000000000000     
   8.6145595199693503E-002  0.15773098476343081        0.0000000000000000     
   8.7864068810831322E-002  0.16715596534441118        0.0000000000000000     
   8.9557267318070732E-002  0.17717966387337700        0.0000000000000000     
   7.5138202479315339E-002  0.13982640124438889        0.0000000000000000     
   7.6648208701933701E-002  0.14793048172342624        0.0000000000000000     
   7.8113192901622469E-002  0.15649241206200615        0.0000000000000000     
   7.9533155078381643E-002  0.16551219226012870        0.0000000000000000     
   8.0908095232211222E-002  0.17498982231779378        0.0000000000000000     
   6.8152194788064335E-002  0.13893573118729766        0.0000000000000000     
   6.9527444488559076E-002  0.14689380288894890        0.0000000000000000     
   7.0884874700409106E-002  0.15518159861106395        0.0000000000000000     
   7.2224485423614454E-002  0.16379911835364289        0.0000000000000000     
   7.3546276658175092E-002  0.17274636211668559        0.0000000000000000     
   0.0000000000000000        0.0000000000000000        0.0000000000000000     
   2.8826300822554166E-003   1.7355611547441095E-003   0.0000000000000000     
   5.8774016412009803E-003   3.8470424897003065E-003   0.0000000000000000     
   8.9843146768366928E-003   6.3344440048685915E-003   0.0000000000000000     
   1.2203369189162551E-002   9.1977657002489631E-003   0.0000000000000000     
   0.0000000000000000        0.0000000000000000        0.0000000000000000     
   2.6105886276339718E-003   1.5801193260066174E-003   0.0000000000000000     
   5.2894792216223764E-003   3.5402500975255046E-003   0.0000000000000000     
   8.0366717819652118E-003   5.8803923145566619E-003   0.0000000000000000     
   1.0852166308662481E-002   8.6005459771000894E-003   0.0000000000000000     
   0.0000000000000000        0.0000000000000000        0.0000000000000000     
   2.3383919295804942E-003   1.4513332252491565E-003   0.0000000000000000     
   4.7156011306380974E-003   3.2858203752003930E-003   0.0000000000000000     
   7.1316276031728092E-003   5.5034614498537067E-003   0.0000000000000000     
   9.5864713471846292E-003   8.1042564492091011E-003   0.0000000000000000     
   0.0000000000000000        0.0000000000000000        0.0000000000000000     
   2.0660399880949826E-003   1.3492028524717270E-003   0.0000000000000000     
   4.1557673682481441E-003   3.0837533227249699E-003   0.0000000000000000     
   6.2691821404594842E-003   5.2036514107597267E-003   0.0000000000000000     
   8.4062843047290007E-003   7.7088971165760007E-003   0.0000000000000000     
   0.0000000000000000        0.0000000000000000        0.0000000000000000     
   1.7935328031774380E-003   1.2737282076743291E-003   0.0000000000000000     
   3.6099779344525166E-003   2.9340489400992366E-003   0.0000000000000000     
   5.4493353938252359E-003   4.9809621972747220E-003   0.0000000000000000     
   7.3116051812955945E-003   7.4144679792007848E-003   0.0000000000000000     
   1.2203369189162551E-002   9.1977657002489631E-003   0.0000000000000000     
   1.5437027762966179E-002   1.2334652377764021E-002   0.0000000000000000     
   1.8587752983035194E-002   1.5642748839336369E-002   0.0000000000000000     
   2.1655544849369601E-002   1.9122055084966005E-002   0.0000000000000000     
   2.4640403361969397E-002   2.2772571114652931E-002   0.0000000000000000     
   1.0852166308662481E-002   8.6005459771000894E-003   0.0000000000000000     
   1.3682358824956923E-002   1.1618081369110590E-002   0.0000000000000000     
   1.6473645354091286E-002   1.4850368774542969E-002   0.0000000000000000     
   1.9226025896065570E-002   1.8297408193397226E-002   0.0000000000000000     
   2.1939500450879772E-002   2.1959199625673363E-002   0.0000000000000000     
   9.5864713471846292E-003   8.1042564492091011E-003   0.0000000000000000     
   1.2056020103715316E-002   1.1020452529124990E-002   0.0000000000000000     
   1.4516161613806632E-002   1.4184296845459783E-002   0.0000000000000000     
   1.6966895877458567E-002   1.7595789398213487E-002   0.0000000000000000     
   1.9408222894671135E-002   2.1254930187386091E-002   0.0000000000000000     
   8.4062843047290007E-003   7.7088971165760007E-003   0.0000000000000000     
   1.0558011599241360E-002   1.0541765857807217E-002   0.0000000000000000     
   1.2715301762181230E-002   1.3644533052086811E-002   0.0000000000000000     
   1.4878154793548603E-002   1.7017198699414773E-002   0.0000000000000000     
   1.7046570693343480E-002   2.0659762799791117E-002   0.0000000000000000     
   7.3116051812955945E-003   7.4144679792007848E-003   0.0000000000000000     
   9.1883333115350546E-003   1.0182021355157278E-002   0.0000000000000000     
   1.1071065799215079E-002   1.3231077394424052E-002   0.0000000000000000     
   1.2959802644335662E-002   1.6561636097001103E-002   0.0000000000000000     
   1.4854543846896807E-002   2.0173697462888437E-002   0.0000000000000000     
   2.4640403361969397E-002   2.2772571114652931E-002   0.0000000000000000     
   2.7545793795143218E-002   2.6620244009000038E-002   0.0000000000000000     
   3.0375181423199702E-002   3.0691020848610227E-002   0.0000000000000000     
   3.3128566246138844E-002   3.4984901633483501E-002   0.0000000000000000     
   3.5805948263960656E-002   3.9501886363619856E-002   0.0000000000000000     
   2.1939500450879772E-002   2.1959199625673363E-002   0.0000000000000000     
   2.4596593780436552E-002   2.5837179880700858E-002   0.0000000000000000     
   2.7179830646638575E-002   2.9932785767809181E-002   0.0000000000000000     
   2.9689211049485829E-002   3.4246017286998338E-002   0.0000000000000000     
   3.2124734988978318E-002   3.8776874438268348E-002   0.0000000000000000     
   1.9408222894671135E-002   2.1254930187386091E-002   0.0000000000000000     
   2.1810749096510474E-002   2.5146287077686919E-002   0.0000000000000000     
   2.4145080914042730E-002   2.9254427933825281E-002   0.0000000000000000     
   2.6411218347267919E-002   3.3579352755801178E-002   0.0000000000000000     
   2.8609161396186026E-002   3.8121061543614609E-002   0.0000000000000000     
   1.7046570693343480E-002   2.0659762799791117E-002   0.0000000000000000     
   1.9188259743364969E-002   2.4547565599958229E-002   0.0000000000000000     
   2.1270932225412181E-002   2.8655947346658519E-002   0.0000000000000000     
   2.3294588139485119E-002   3.2984908039891972E-002   0.0000000000000000     
   2.5259227485583773E-002   3.7534447679658606E-002   0.0000000000000000     
   1.4854543846896807E-002   2.0173697462888437E-002   0.0000000000000000     
   1.6729125721000049E-002   2.4041015447514788E-002   0.0000000000000000     
   1.8557384580746926E-002   2.8137344006308896E-002   0.0000000000000000     
   2.0339320426137428E-002   3.2462683139270754E-002   0.0000000000000000     
   2.2074933257171560E-002   3.7017032846400379E-002   0.0000000000000000     
   3.5805948263960656E-002   3.9501886363619856E-002   0.0000000000000000     
   3.8404716236413665E-002   4.4241191162995686E-002   0.0000000000000000     
   4.0922258923246420E-002   4.9202032155587383E-002   0.0000000000000000     
   4.3358576324458921E-002   5.4384409341394942E-002   0.0000000000000000     
   4.5713668440051168E-002   5.9788322720418383E-002   0.0000000000000000     
   3.2124734988978318E-002   3.8776874438268348E-002   0.0000000000000000     
   3.4487668418446957E-002   4.3526150408907692E-002   0.0000000000000000     
   3.6779277291222642E-002   4.8494638386204873E-002   0.0000000000000000     
   3.8999561607305382E-002   5.3682338370159899E-002   0.0000000000000000     
   4.1148521366695175E-002   5.9089250360772769E-002   0.0000000000000000     
   2.8609161396186026E-002   3.8121061543614609E-002   0.0000000000000000     
   3.0741578287470879E-002   4.2879209584146392E-002   0.0000000000000000     
   3.2811137247796301E-002   4.7853452164277353E-002   0.0000000000000000     
   3.4817838277162290E-002   5.3043789284007520E-002   0.0000000000000000     
   3.6761681375568844E-002   5.8450220943336857E-002   0.0000000000000000     
   2.5259227485583773E-002   3.7534447679658606E-002   0.0000000000000000     
   2.7166445843485439E-002   4.2300368688711780E-002   0.0000000000000000     
   2.9017838792967390E-002   4.7278473489804844E-002   0.0000000000000000     
   3.0813406334029632E-002   5.2468762082937805E-002   0.0000000000000000     
   3.2553148466672170E-002   5.7871234468110655E-002   0.0000000000000000     
   2.2074933257171560E-002   3.7017032846400379E-002   0.0000000000000000     
   2.3762271086490625E-002   4.1789627722603855E-002   0.0000000000000000     
   2.5399381926735916E-002   4.6769702362787317E-002   0.0000000000000000     
   2.6986265777907418E-002   5.1957256766950746E-002   0.0000000000000000     
   2.8522922640005152E-002   5.7352290935094162E-002   0.0000000000000000     
   4.5713668440051168E-002   5.9788322720418383E-002   0.0000000000000000     
   4.7992515240961708E-002   6.5391201107458052E-002   0.0000000000000000     
   5.0200096698129089E-002   7.1170473317314326E-002   0.0000000000000000     
   5.2336412811553309E-002   7.7126139349987202E-002   0.0000000000000000     
   5.4401463581234363E-002   8.3258199205476696E-002   0.0000000000000000     
   4.1148521366695175E-002   5.9089250360772769E-002   0.0000000000000000     
   4.3227571293845038E-002   6.4693412079066329E-002   0.0000000000000000     
   4.5238126113207981E-002   7.0472861246063445E-002   0.0000000000000000     
   4.7180185824783998E-002   7.6427597861764118E-002   0.0000000000000000     
   4.9053750428573108E-002   8.2557621926168334E-002   0.0000000000000000     
   3.6761681375568844E-002   5.8450220943336857E-002   0.0000000000000000     
   3.8641951789552570E-002   6.4052199611994459E-002   0.0000000000000000     
   4.0457934765650100E-002   6.9829177759709371E-002   0.0000000000000000     
   4.2209630303861406E-002   7.5781155386481627E-002   0.0000000000000000     
   4.3897038404186503E-002   8.1908132492311186E-002   0.0000000000000000     
   3.2553148466672170E-002   5.7871234468110655E-002   0.0000000000000000     
   3.4235656728084332E-002   6.3467563706242430E-002   0.0000000000000000     
   3.5859522655455445E-002   6.9239422858252117E-002   0.0000000000000000     
   3.7424746248785529E-002   7.5186811924139715E-002   0.0000000000000000     
   3.8931327508074549E-002   8.1309730903905281E-002   0.0000000000000000     
   2.8522922640005152E-002   5.7352290935094162E-002   0.0000000000000000     
   3.0008686109440297E-002   6.2939504361810242E-002   0.0000000000000000     
   3.1442889782624030E-002   6.8703596541691669E-002   0.0000000000000000     
   3.2825533659556344E-002   7.4644567474738438E-002   0.0000000000000000     
   3.4156617740237254E-002   8.0762417160950561E-002   0.0000000000000000     
   5.4401463581234363E-002   8.3258199205476696E-002   0.0000000000000000     
   5.6393566170616936E-002   8.9565005097299324E-002   0.0000000000000000     
   5.8311037743145694E-002   9.6044909238971701E-002   0.0000000000000000     
   6.0153878298820622E-002  0.10269791163049380        0.0000000000000000     
   6.1922087837641741E-002  0.10952401227186565        0.0000000000000000     
   4.9053750428573108E-002   8.2557621926168334E-002   0.0000000000000000     
   5.0858031299171866E-002   8.8862025839165942E-002   0.0000000000000000     
   5.2592239811176861E-002   9.5339902000646765E-002   0.0000000000000000     
   5.4256375964588092E-002  0.10199125041061075        0.0000000000000000     
   5.5850439759405568E-002  0.10881607106905797        0.0000000000000000     
   4.3897038404186503E-002   8.1908132492311186E-002   0.0000000000000000     
   4.5519967535548760E-002   8.8208528984749499E-002   0.0000000000000000     
   4.7078226166871538E-002   9.4680764771347931E-002   0.0000000000000000     
   4.8571814298154846E-002  0.10132483985210651        0.0000000000000000     
   5.0000731929398683E-002  0.10814075422702521        0.0000000000000000     
   3.8931327508074549E-002   8.1309730903905281E-002   0.0000000000000000     
   4.0379374879747590E-002   8.7604514534050021E-002   0.0000000000000000     
   4.1768996810229705E-002   9.4067497551075283E-002   0.0000000000000000     
   4.3100193299520875E-002  0.10069867995498107        0.0000000000000000     
   4.4372964347621120E-002  0.10749806174576733        0.0000000000000000     
   3.4156617740237254E-002   8.0762417160950561E-002   0.0000000000000000     
   3.5436253331768391E-002   8.7049982487067551E-002   0.0000000000000000     
   3.6664551741251362E-002   9.3500100339828821E-002   0.0000000000000000     
   3.7841512968686195E-002  0.10011277071923441        0.0000000000000000     
   3.8967137014072874E-002  0.10688799362528435        0.0000000000000000     
   6.1922087837641741E-002  0.10952401227186565        0.0000000000000000     
   6.3609640044838808E-002  0.11654673202880264        0.0000000000000000     
   6.5210508605641593E-002  0.12378959176702034        0.0000000000000000     
   6.6724693520050102E-002  0.13125259148651866        0.0000000000000000     
   6.8152194788064335E-002  0.13893573118729766        0.0000000000000000     
   5.5850439759405568E-002  0.10881607106905797        0.0000000000000000     
   5.7375202095687847E-002  0.11582559830788954        0.0000000000000000     
   5.8831433873493530E-002  0.12303106645900647        0.0000000000000000     
   6.0219135092822638E-002  0.13043247552240880        0.0000000000000000     
   6.1538305753675138E-002  0.13802982549809659        0.0000000000000000     
   5.0000731929398683E-002  0.10814075422702521        0.0000000000000000     
   5.1370625565845159E-002  0.11512916650438083        0.0000000000000000     
   5.2687141712736411E-002  0.12229073529245010        0.0000000000000000     
   5.3950280370072413E-002  0.12962546059123303        0.0000000000000000     
   5.5160041537853192E-002  0.13713334240072961        0.0000000000000000     
   4.4372964347621120E-002  0.10749806174576733        0.0000000000000000     
   4.5595910455310799E-002  0.11445743661827656        0.0000000000000000     
   4.6777632123370244E-002  0.12156859826735122        0.0000000000000000     
   4.7918129351799489E-002  0.12883154669299124        0.0000000000000000     
   4.9017402140598500E-002  0.13624628189519669        0.0000000000000000     
   3.8967137014072874E-002  0.10688799362528435        0.0000000000000000     
   4.0051056764084714E-002  0.11381040864957677        0.0000000000000000     
   4.1102905105395028E-002  0.12086465538370983        0.0000000000000000     
   4.2122682038003810E-002  0.12805073382768353        0.0000000000000000     
   4.3110387561911073E-002  0.13536864398149784        0.0000000000000000     
   6.8152194788064335E-002  0.13893573118729766        0.0000000000000000     
   6.9527444488559076E-002  0.14689380288894890        0.0000000000000000     
   7.0884874700409106E-002  0.15518159861106395        0.0000000000000000     
   7.2224485423614454E-002  0.16379911835364289        0.0000000000000000     
   7.3546276658175092E-002  0.17274636211668559        0.0000000000000000     
   6.1538305753675138E-002  0.13802982549809659        0.0000000000000000     
   6.2835041156697941E-002  0.14583682032024206        0.0000000000000000     
   6.4155436602537919E-002  0.15386716392301752        0.0000000000000000     
   6.5499492091195086E-002  0.16212085630642301        0.0000000000000000     
   6.6867207622669442E-002  0.17059789747045842        0.0000000000000000     
   5.5160041537853192E-002  0.13713334240072961        0.0000000000000000     
   5.6366486018514815E-002  0.14480166871054395        0.0000000000000000     
   5.7619674614493382E-002  0.15261772751028022        0.0000000000000000     
   5.8919607325788909E-002  0.16058151879993821        0.0000000000000000     
   6.0266284152401359E-002  0.16869304257951817        0.0000000000000000     
   4.9017402140598500E-002  0.13624628189519669        0.0000000000000000     
   5.0121779074009713E-002  0.14378834805985455        0.0000000000000000     
   5.1277588736275498E-002  0.15143328937285186        0.0000000000000000     
   5.2484831127395881E-002  0.15918110583418862        0.0000000000000000     
   5.3743506247370842E-002  0.16703179744386482        0.0000000000000000     
   4.3110387561911073E-002  0.13536864398149784        0.0000000000000000     
   4.4100920323182621E-002  0.14279685836817388        0.0000000000000000     
   4.5129178967884279E-002  0.15031384951073265        0.0000000000000000     
   4.6195163496016045E-002  0.15791961740917412        0.0000000000000000     
   4.7298873907577907E-002  0.16561416206349835        0.0000000000000000     
   0.0000000000000000        0.0000000000000000        0.0000000000000000     
   1.7935328031774380E-003   1.2737282076743291E-003   0.0000000000000000     
   3.6099779344525166E-003   2.9340489400992366E-003   0.0000000000000000     
   5.4493353938252359E-003   4.9809621972747220E-003   0.0000000000000000     
   7.3116051812955945E-003   7.4144679792007848E-003   0.0000000000000000     
   0.0000000000000000        0.0000000000000000        0.0000000000000000     
   1.5292555365351134E-003   1.2174053830806496E-003   0.0000000000000000     
   3.0858605013153692E-003   2.8214671106179382E-003   0.0000000000000000     
   4.6698148943407659E-003   4.8121851826118667E-003   0.0000000000000000     
   6.2811187156113059E-003   7.1895595990624324E-003   0.0000000000000000     
   0.0000000000000000        0.0000000000000000        0.0000000000000000     
   1.2815933498752619E-003   1.1727304709143755E-003   0.0000000000000000     
   2.5910427409008546E-003   2.7307677175758202E-003   0.0000000000000000     
   3.9283481730767776E-003   4.6741117399843350E-003   0.0000000000000000     
   5.2935096464030301E-003   7.0027625381399198E-003   0.0000000000000000     
   0.0000000000000000        0.0000000000000000        0.0000000000000000     
   1.0505462431978840E-003   1.1397034711755063E-003   0.0000000000000000     
   2.1255246532089736E-003   2.6619507609728825E-003   0.0000000000000000     
   3.2249352300332684E-003   4.5667418693921286E-003   0.0000000000000000     
   4.3487779736707680E-003   6.8540767964332438E-003   0.0000000000000000     
   0.0000000000000000        0.0000000000000000        0.0000000000000000     
   8.3611421650297939E-004   1.1183243838640430E-003   0.0000000000000000     
   1.6893062382397259E-003   2.6150162408091252E-003   0.0000000000000000     
   2.5595760652102396E-003   4.4900755708352467E-003   0.0000000000000000     
   3.4469236974145204E-003   6.7435023739424067E-003   0.0000000000000000     
   7.3116051812955945E-003   7.4144679792007848E-003   0.0000000000000000     
   9.1883333115350546E-003   1.0182021355157278E-002   0.0000000000000000     
   1.1071065799215079E-002   1.3231077394424052E-002   0.0000000000000000     
   1.2959802644335662E-002   1.6561636097001103E-002   0.0000000000000000     
   1.4854543846896807E-002   2.0173697462888437E-002   0.0000000000000000     
   6.2811187156113059E-003   7.1895595990624324E-003   0.0000000000000000     
   7.9063447852826055E-003   9.9040864734010782E-003   0.0000000000000000     
   9.5320659235102849E-003   1.2906261919059237E-002   0.0000000000000000     
   1.1158282130294340E-002   1.6196085936036914E-002   0.0000000000000000     
   1.2784993405634775E-002   1.9773558524334104E-002   0.0000000000000000     
   5.2935096464030301E-003   7.0027625381399198E-003   0.0000000000000000     
   6.6714055651702206E-003   9.6708286647645240E-003   0.0000000000000000     
   8.0469143336689541E-003   1.2632418672580102E-002   0.0000000000000000     
   9.4200359518992263E-003   1.5887532561586652E-002   0.0000000000000000     
   1.0790770419861043E-002   1.9436170331784183E-002   0.0000000000000000     
   4.3487779736707680E-003   6.8540767964332438E-003   0.0000000000000000     
   5.4835156511978973E-003   9.4822479292476190E-003   0.0000000000000000     
   6.6156110296910807E-003   1.2409547654986645E-002   0.0000000000000000     
   7.7450641091503167E-003   1.5635975973650320E-002   0.0000000000000000     
   8.8718748895756042E-003   1.9161532885238652E-002   0.0000000000000000     
   3.4469236974145204E-003   6.7435023739424067E-003   0.0000000000000000     
   4.3426750433656408E-003   9.3383442668503631E-003   0.0000000000000000     
   5.2381560115766701E-003   1.2237648866278867E-002   0.0000000000000000     
   6.1333666020476118E-003   1.5441416172227921E-002   0.0000000000000000     
   7.0283068147784632E-003   1.8949646184697525E-002   0.0000000000000000     
   1.4854543846896807E-002   2.0173697462888437E-002   0.0000000000000000     
   1.6729125721000049E-002   2.4041015447514788E-002   0.0000000000000000     
   1.8557384580746926E-002   2.8137344006308896E-002   0.0000000000000000     
   2.0339320426137428E-002   3.2462683139270754E-002   0.0000000000000000     
   2.2074933257171560E-002   3.7017032846400379E-002   0.0000000000000000     
   1.2784993405634775E-002   1.9773558524334104E-002   0.0000000000000000     
   1.4395222752137511E-002   2.3614140905321719E-002   0.0000000000000000     
   1.5971993172408459E-002   2.7693294300370645E-002   0.0000000000000000     
   1.7515304666447625E-002   3.2011018709480893E-002   0.0000000000000000     
   1.9025157234255009E-002   3.6567314132652462E-002   0.0000000000000000     
   1.0790770419861043E-002   1.9436170331784183E-002   0.0000000000000000     
   1.2148426559499152E-002   2.3254446258344136E-002   0.0000000000000000     
   1.3482313192758302E-002   2.7318474616438000E-002   0.0000000000000000     
   1.4792430319638492E-002   3.1628255406065772E-002   0.0000000000000000     
   1.6078777940139722E-002   3.6183788627227438E-002   0.0000000000000000     
   8.8718748895756042E-003   1.9161532885238652E-002   0.0000000000000000     
   9.9887371430849720E-003   2.2961931506582055E-002   0.0000000000000000     
   1.1088344641796444E-002   2.7012884954510968E-002   0.0000000000000000     
   1.2170697385710024E-002   3.1314393229025385E-002   0.0000000000000000     
   1.3235795374825709E-002   3.5866456330125307E-002   0.0000000000000000     
   7.0283068147784632E-003   1.8949646184697525E-002   0.0000000000000000     
   7.9161545028949738E-003   2.2736596650035468E-002   0.0000000000000000     
   8.7900875195228954E-003   2.6776525314589541E-002   0.0000000000000000     
   9.6501058646622263E-003   3.1069432178359738E-002   0.0000000000000000     
   1.0496209538312963E-002   3.5615317241346069E-002   0.0000000000000000     
   2.2074933257171560E-002   3.7017032846400379E-002   0.0000000000000000     
   2.3762271086490625E-002   4.1789627722603855E-002   0.0000000000000000     
   2.5399381926735916E-002   4.6769702362787317E-002   0.0000000000000000     
   2.6986265777907418E-002   5.1957256766950746E-002   0.0000000000000000     
   2.8522922640005152E-002   5.7352290935094162E-002   0.0000000000000000     
   1.9025157234255009E-002   3.6567314132652462E-002   0.0000000000000000     
   2.0495804847670183E-002   4.1344411808686567E-002   0.0000000000000000     
   2.1921501478532727E-002   4.6324542976384407E-002   0.0000000000000000     
   2.3302247126842642E-002   5.1507707635746011E-002   0.0000000000000000     
   2.4638041792599926E-002   5.6893905786771344E-002   0.0000000000000000     
   1.6078777940139722E-002   3.6183788627227438E-002   0.0000000000000000     
   1.7333797958207841E-002   4.0962146069823818E-002   0.0000000000000000     
   1.8549932277788693E-002   4.5940399523755733E-002   0.0000000000000000     
   1.9727180898882285E-002   5.1118548989023183E-002   0.0000000000000000     
   2.0865543821488614E-002   5.6496594465626139E-002   0.0000000000000000     
   1.3235795374825709E-002   3.5866456330125307E-002   0.0000000000000000     
   1.4276250418103603E-002   4.0642830506015651E-002   0.0000000000000000     
   1.5284674324503818E-002   4.5617272004901295E-002   0.0000000000000000     
   1.6261067094026353E-002   5.0789780826782281E-002   0.0000000000000000     
   1.7205428726671215E-002   5.6160356971658568E-002   0.0000000000000000     
   1.0496209538312963E-002   3.5615317241346069E-002   0.0000000000000000     
   1.1323162227357467E-002   4.0386465117262016E-002   0.0000000000000000     
   1.2125727618678099E-002   4.5355160419821093E-002   0.0000000000000000     
   1.2903905712274850E-002   5.0521403149023293E-002   0.0000000000000000     
   1.3657696508147726E-002   5.5885193304868616E-002   0.0000000000000000     
   2.8522922640005152E-002   5.7352290935094162E-002   0.0000000000000000     
   3.0008686109440297E-002   6.2939504361810242E-002   0.0000000000000000     
   3.1442889782624030E-002   6.8703596541691669E-002   0.0000000000000000     
   3.2825533659556344E-002   7.4644567474738438E-002   0.0000000000000000     
   3.4156617740237254E-002   8.0762417160950561E-002   0.0000000000000000     
   2.4638041792599926E-002   5.6893905786771344E-002   0.0000000000000000     
   2.5929339563488665E-002   6.2470783950387694E-002   0.0000000000000000     
   2.7176594527192930E-002   6.8225988647522301E-002   0.0000000000000000     
   2.8379806683712726E-002   7.4159519878175206E-002   0.0000000000000000     
   2.9538976033048048E-002   8.0271377642346348E-002   0.0000000000000000     
   2.0865543821488614E-002   5.6496594465626139E-002   0.0000000000000000     
   2.1965916720097619E-002   6.2064164843664553E-002   0.0000000000000000     
   2.3029195269199245E-002   6.7810889013238285E-002   0.0000000000000000     
   2.4055379468793495E-002   7.3736766974347404E-002   0.0000000000000000     
   2.5044469318880359E-002   7.9841798726991847E-002   0.0000000000000000     
   1.7205428726671215E-002   5.6160356971658568E-002   0.0000000000000000     
   1.8118417579267160E-002   6.1719647041640818E-002   0.0000000000000000     
   1.9000692008642971E-002   6.7458297638839648E-002   0.0000000000000000     
   1.9852252014798646E-002   7.3376308763255071E-002   0.0000000000000000     
   2.0673097597734186E-002   7.9473680414887074E-002   0.0000000000000000     
   1.3657696508147726E-002   5.5885193304868616E-002   0.0000000000000000     
   1.4386842140997294E-002   6.1437230544316490E-002   0.0000000000000000     
   1.5091084745524118E-002   6.7168214524326350E-002   0.0000000000000000     
   1.5770424321728194E-002   7.3078145244898224E-002   0.0000000000000000     
   1.6424860869609530E-002   7.9167022706032070E-002   0.0000000000000000     
   3.4156617740237254E-002   8.0762417160950561E-002   0.0000000000000000     
   3.5436253331768391E-002   8.7049982487067551E-002   0.0000000000000000     
   3.6664551741251362E-002   9.3500100339828821E-002   0.0000000000000000     
   3.7841512968686195E-002  0.10011277071923441        0.0000000000000000     
   3.8967137014072874E-002  0.10688799362528435        0.0000000000000000     
   2.9538976033048048E-002   8.0271377642346348E-002   0.0000000000000000     
   3.0654165074700014E-002   8.6550578129641773E-002   0.0000000000000000     
   3.1725436308169708E-002   9.2986137529667445E-002   0.0000000000000000     
   3.2752789733457160E-002   9.9578055842423407E-002   0.0000000000000000     
   3.3736225350562345E-002  0.10632633306790959        0.0000000000000000     
   2.5044469318880359E-002   7.9841798726991847E-002   0.0000000000000000     
   2.5996672291631343E-002   8.6111946747612467E-002   0.0000000000000000     
   2.6912195859217936E-002   9.2533173512650113E-002   0.0000000000000000     
   2.7791040021640144E-002   9.9105479022104731E-002   0.0000000000000000     
   2.8633204778897959E-002  0.10582886327597638        0.0000000000000000     
   2.0673097597734186E-002   7.9473680414887074E-002   0.0000000000000000     
   2.1463774982562384E-002   8.5734088340979661E-002   0.0000000000000000     
   2.2224830394396034E-002   9.2141208288776810E-002   0.0000000000000000     
   2.2956263833235152E-002   9.8695040258278480E-002   0.0000000000000000     
   2.3658075299079713E-002  0.10539558424948470        0.0000000000000000     
   1.6424860869609530E-002   7.9167022706032070E-002   0.0000000000000000     
   1.7055473147493130E-002   8.5417002909743356E-002   0.0000000000000000     
   1.7663339913704012E-002   9.1810241858047537E-002   0.0000000000000000     
   1.8248461168242171E-002   9.8346739550944612E-002   0.0000000000000000     
   1.8810836911107610E-002  0.10502649598843458        0.0000000000000000     
   3.8967137014072874E-002  0.10688799362528435        0.0000000000000000     
   4.0051056764084714E-002  0.11381040864957677        0.0000000000000000     
   4.1102905105395028E-002  0.12086465538370983        0.0000000000000000     
   4.2122682038003810E-002  0.12805073382768353        0.0000000000000000     
   4.3110387561911073E-002  0.13536864398149784        0.0000000000000000     
   3.3736225350562345E-002  0.10632633306790959        0.0000000000000000     
   3.4685137853975041E-002  0.11320993008714147        0.0000000000000000     
   3.5608921938184997E-002  0.12020780778113448        0.0000000000000000     
   3.6507577603192225E-002  0.12731996614988855        0.0000000000000000     
   3.7381104848996725E-002  0.13454640519340377        0.0000000000000000     
   2.8633204778897959E-002  0.10582886327597638        0.0000000000000000     
   2.9447227086789887E-002  0.11267784841983079        0.0000000000000000     
   3.0241643901114414E-002  0.11962695659923370        0.0000000000000000     
   3.1016455221871554E-002  0.12667618781418519        0.0000000000000000     
   3.1771661049061296E-002  0.13382554206468514        0.0000000000000000     
   2.3658075299079713E-002  0.10539558424948470        0.0000000000000000     
   2.4337324462529255E-002  0.11221416364764467        0.0000000000000000     
   2.5001070994183274E-002  0.11912210183800752        0.0000000000000000     
   2.5649314894041784E-002  0.12611939882057330        0.0000000000000000     
   2.6282056162104772E-002  0.13320605459534193        0.0000000000000000     
   1.8810836911107610E-002  0.10502649598843458        0.0000000000000000     
   1.9355429981193141E-002  0.11181887577058314        0.0000000000000000     
   1.9887203217391580E-002  0.11869324349745591        0.0000000000000000     
   2.0406156619702919E-002  0.12564959916905291        0.0000000000000000     
   2.0912290188127167E-002  0.13268794278537419        0.0000000000000000     
   4.3110387561911073E-002  0.13536864398149784        0.0000000000000000     
   4.4100920323182621E-002  0.14279685836817388        0.0000000000000000     
   4.5129178967884279E-002  0.15031384951073265        0.0000000000000000     
   4.6195163496016045E-002  0.15791961740917412        0.0000000000000000     
   4.7298873907577907E-002  0.16561416206349835        0.0000000000000000     
   3.7381104848996725E-002  0.13454640519340377        0.0000000000000000     
   3.8251329772498892E-002  0.14187409444108673        0.0000000000000000     
   3.9140078470599138E-002  0.14929000342234411        0.0000000000000000     
   4.0047350943297456E-002  0.15679413213717586        0.0000000000000000     
   4.0973147190593862E-002  0.16438648058558203        0.0000000000000000     
   3.1771661049061296E-002  0.13382554206468514        0.0000000000000000     
   3.2520427428423870E-002  0.14106695108417794        0.0000000000000000     
   3.3275920405699516E-002  0.14839234660610781        0.0000000000000000     
   3.4038139980888234E-002  0.15580172863047481        0.0000000000000000     
   3.4807086153990023E-002  0.16329509715727900        0.0000000000000000     
   2.6282056162104772E-002  0.13320605459534193        0.0000000000000000     
   2.6908213290957550E-002  0.14037542829744745        0.0000000000000000     
   2.7536704773185417E-002  0.14762087906202387        0.0000000000000000     
   2.8167530608788367E-002  0.15494240688907121        0.0000000000000000     
   2.8800690797766409E-002  0.16234001177858931        0.0000000000000000     
   2.0912290188127167E-002  0.13268794278537419        0.0000000000000000     
   2.1414687360099931E-002  0.13979952608089538        0.0000000000000000     
   2.1922431573056827E-002  0.14697560079009228        0.0000000000000000     
   2.2435522826997852E-002  0.15421616691296477        0.0000000000000000     
   2.2953961121923008E-002  0.16152122444951295        0.0000000000000000     
   0.0000000000000000        0.0000000000000000        0.0000000000000000     
   8.3611421650297939E-004   1.1183243838640430E-003   0.0000000000000000     
   1.6893062382397259E-003   2.6150162408091252E-003   0.0000000000000000     
   2.5595760652102396E-003   4.4900755708352467E-003   0.0000000000000000     
   3.4469236974145204E-003   6.7435023739424067E-003   0.0000000000000000     
   0.0000000000000000        0.0000000000000000        0.0000000000000000     
   6.2926371294379528E-004   1.1047136441534975E-003   0.0000000000000000     
   1.2675481643938005E-003   2.5835221016079716E-003   0.0000000000000000     
   1.9148533543500157E-003   4.4364253723634213E-003   0.0000000000000000     
   2.5711792828124404E-003   6.6634234564198489E-003   0.0000000000000000     
   0.0000000000000000        0.0000000000000000        0.0000000000000000     
   4.2096117567357911E-004   1.0949916872173835E-003   0.0000000000000000     
   8.4541110007188623E-004   2.5610262878928459E-003   0.0000000000000000     
   1.2733497731949215E-003   4.3981038020263884E-003   0.0000000000000000     
   1.7047771950426845E-003   6.6062242296180095E-003   0.0000000000000000     
   0.0000000000000000        0.0000000000000000        0.0000000000000000     
   2.1120660469233098E-004   1.0891585130557008E-003   0.0000000000000000     
   4.2289504527398330E-004   2.5475287996637491E-003   0.0000000000000000     
   6.3506532174495704E-004   4.3751108598241448E-003   0.0000000000000000     
   8.4771743410525207E-004   6.5719046935368893E-003   0.0000000000000000     
   0.0000000000000000        0.0000000000000000        0.0000000000000000     
   5.0849081889570158E-017   1.0872141216684489E-003   0.0000000000000000     
   9.1669293683649400E-017   2.5430296369206799E-003   0.0000000000000000     
   1.2229800505636490E-016   4.3674465457566930E-003   0.0000000000000000     
   1.4308758171377445E-016   6.5604648481764885E-003   0.0000000000000000     
   3.4469236974145204E-003   6.7435023739424067E-003   0.0000000000000000     
   4.3426750433656408E-003   9.3383442668503631E-003   0.0000000000000000     
   5.2381560115766701E-003   1.2237648866278867E-002   0.0000000000000000     
   6.1333666020476118E-003   1.5441416172227921E-002   0.0000000000000000     
   7.0283068147784632E-003   1.8949646184697525E-002   0.0000000000000000     
   2.5711792828124404E-003   6.6634234564198489E-003   0.0000000000000000     
   3.2332708870836282E-003   9.2319747817426051E-003   0.0000000000000000     
   3.8978731044661298E-003   1.2109537776297042E-002   0.0000000000000000     
   4.5649859349599460E-003   1.5296112440083163E-002   0.0000000000000000     
   5.2346093785650772E-003   1.8791698773100968E-002   0.0000000000000000     
   1.7047771950426845E-003   6.6062242296180095E-003   0.0000000000000000     
   2.1396903277620437E-003   9.1559965780941988E-003   0.0000000000000000     
   2.5780861334998672E-003   1.2018029854881453E-002   0.0000000000000000     
   3.0199646122561555E-003   1.5192324059979763E-002   0.0000000000000000     
   3.4653257640309076E-003   1.8678879193389133E-002   0.0000000000000000     
   8.4771743410525207E-004   6.5719046935368893E-003   0.0000000000000000     
   1.0619333654008876E-003   9.1104096559051495E-003   0.0000000000000000     
   1.2787950986778835E-003   1.1963125102032091E-002   0.0000000000000000     
   1.4983026339362388E-003   1.5130051031917722E-002   0.0000000000000000     
   1.7204559711759544E-003   1.8611187445562026E-002   0.0000000000000000     
   1.4308758171377445E-016   6.5604648481764885E-003   0.0000000000000000     
   1.5937771935536915E-016   9.0952140151754485E-003   0.0000000000000000     
   1.7723317388348980E-016   1.1944823517748967E-002   0.0000000000000000     
   1.9653027848783727E-016   1.5109293355897032E-002   0.0000000000000000     
   2.1716569514884654E-016   1.8588623529619656E-002   0.0000000000000000     
   7.0283068147784632E-003   1.8949646184697525E-002   0.0000000000000000     
   7.9161545028949738E-003   2.2736596650035468E-002   0.0000000000000000     
   8.7900875195228954E-003   2.6776525314589541E-002   0.0000000000000000     
   9.6501058646622263E-003   3.1069432178359738E-002   0.0000000000000000     
   1.0496209538312963E-002   3.5615317241346069E-002   0.0000000000000000     
   5.2346093785650772E-003   1.8791698773100968E-002   0.0000000000000000     
   5.8996229074056222E-003   2.2568819854713977E-002   0.0000000000000000     
   6.5529059936056833E-003   2.6599998764285742E-002   0.0000000000000000     
   7.1944586371652562E-003   3.0885235501816242E-002   0.0000000000000000     
   7.8242808380843461E-003   3.5424530067305490E-002   0.0000000000000000     
   3.4653257640309076E-003   1.8678879193389133E-002   0.0000000000000000     
   3.9080866250933832E-003   2.2448979286627199E-002   0.0000000000000000     
   4.3421642317128433E-003   2.6473908371211590E-002   0.0000000000000000     
   4.7675585838892857E-003   3.0753666447142319E-002   0.0000000000000000     
   5.1842696816227114E-003   3.5288253514419367E-002   0.0000000000000000     
   1.7204559711759544E-003   1.8611187445562026E-002   0.0000000000000000     
   1.9415456559582571E-003   2.2377074945775118E-002   0.0000000000000000     
   2.1578622338443757E-003   2.6398254135367102E-002   0.0000000000000000     
   2.3694057048343096E-003   3.0674725014337954E-002   0.0000000000000000     
   2.5761760689280589E-003   3.5206487582687691E-002   0.0000000000000000     
   2.1716569514884654E-016   1.8588623529619656E-002   0.0000000000000000     
   2.4383706859198995E-016   2.2353106832157753E-002   0.0000000000000000     
   2.8197388000916757E-016   2.6373036056752258E-002   0.0000000000000000     
   3.3021410042119448E-016   3.0648411203403163E-002   0.0000000000000000     
   3.8922857992229609E-016   3.5179232272110478E-002   0.0000000000000000     
   1.0496209538312963E-002   3.5615317241346069E-002   0.0000000000000000     
   1.1323162227357467E-002   4.0386465117262016E-002   0.0000000000000000     
   1.2125727618678099E-002   4.5355160419821093E-002   0.0000000000000000     
   1.2903905712274850E-002   5.0521403149023293E-002   0.0000000000000000     
   1.3657696508147726E-002   5.5885193304868616E-002   0.0000000000000000     
   7.8242808380843461E-003   3.5424530067305490E-002   0.0000000000000000     
   8.4398207010973423E-003   4.0189686103688962E-002   0.0000000000000000     
   9.0385263309386375E-003   4.5152507253902151E-002   0.0000000000000000     
   9.6203977276082334E-003   5.0312993517945034E-002   0.0000000000000000     
   1.0185434891106127E-002   5.5671144895817620E-002   0.0000000000000000     
   5.1842696816227114E-003   3.5288253514419367E-002   0.0000000000000000     
   5.5915131544511283E-003   4.0049129665422505E-002   0.0000000000000000     
   5.9885046319125479E-003   4.5007754992531471E-002   0.0000000000000000     
   6.3752441140069683E-003   5.0164129495746286E-002   0.0000000000000000     
   6.7517316007343915E-003   5.5518253175066930E-002   0.0000000000000000     
   2.5761760689280589E-003   3.5206487582687691E-002   0.0000000000000000     
   2.7782395874188302E-003   3.9964795802462642E-002   0.0000000000000000     
   2.9756625215998293E-003   4.4920903635709102E-002   0.0000000000000000     
   3.1684448714710575E-003   5.0074811082427069E-002   0.0000000000000000     
   3.3565866370325144E-003   5.5426518142616545E-002   0.0000000000000000     
   3.8922857992229609E-016   3.5179232272110478E-002   0.0000000000000000     
   4.4452289071905682E-016   3.9936684514809362E-002   0.0000000000000000     
   4.8095208371456977E-016   4.4891953183434988E-002   0.0000000000000000     
   4.9960036108132044E-016   5.0045038277987355E-002   0.0000000000000000     
   4.9981720151581754E-016   5.5395939798466458E-002   0.0000000000000000     
   1.3657696508147726E-002   5.5885193304868616E-002   0.0000000000000000     
   1.4386842140997294E-002   6.1437230544316490E-002   0.0000000000000000     
   1.5091084745524118E-002   6.7168214524326350E-002   0.0000000000000000     
   1.5770424321728194E-002   7.3078145244898224E-002   0.0000000000000000     
   1.6424860869609530E-002   7.9167022706032070E-002   0.0000000000000000     
   1.0185434891106127E-002   5.5671144895817620E-002   0.0000000000000000     
   1.0732454316942815E-002   6.1217285429963707E-002   0.0000000000000000     
   1.1260272500628776E-002   6.6941739162827071E-002   0.0000000000000000     
   1.1768889442164022E-002   7.2844506094407735E-002   0.0000000000000000     
   1.2258305141548543E-002   7.8925586224705691E-002   0.0000000000000000     
   6.7517316007343915E-003   5.5518253175066930E-002   0.0000000000000000     
   7.1165180187585195E-003   6.1060181776854600E-002   0.0000000000000000     
   7.4681542947430601E-003   6.6779971047470493E-002   0.0000000000000000     
   7.8066404286880140E-003   7.2677620986914590E-002   0.0000000000000000     
   8.1319764205933787E-003   7.8753131595186890E-002   0.0000000000000000     
   3.3565866370325144E-003   5.5426518142616545E-002   0.0000000000000000     
   3.5390332464444131E-003   6.0965919584989176E-002   0.0000000000000000     
   3.7147301278669669E-003   6.6682910178256546E-002   0.0000000000000000     
   3.8836772813001762E-003   7.2577489922418748E-002   0.0000000000000000     
   4.0458747067440405E-003   7.8649658817475668E-002   0.0000000000000000     
   4.9981720151581754E-016   5.5395939798466458E-002   0.0000000000000000     
   4.9461303108788712E-016   6.0934498854367414E-002   0.0000000000000000     
   4.9770300727947081E-016   6.6650556555185314E-002   0.0000000000000000     
   5.0747437935899642E-016   7.2544112900920180E-002   0.0000000000000000     
   5.2562121322097255E-016   7.8615167891572010E-002   0.0000000000000000     
   1.6424860869609530E-002   7.9167022706032070E-002   0.0000000000000000     
   1.7055473147493130E-002   8.5417002909743356E-002   0.0000000000000000     
   1.7663339913704012E-002   9.1810241858047537E-002   0.0000000000000000     
   1.8248461168242171E-002   9.8346739550944612E-002   0.0000000000000000     
   1.8810836911107610E-002  0.10502649598843458        0.0000000000000000     
   1.2258305141548543E-002   7.8925586224705691E-002   0.0000000000000000     
   1.2730003002222797E-002   8.5166141334147558E-002   0.0000000000000000     
   1.3185466427627232E-002   9.1547333203159956E-002   0.0000000000000000     
   1.3624695417761847E-002   9.8069161831742940E-002   0.0000000000000000     
   1.4047689972626646E-002  0.10473162721989646        0.0000000000000000     
   8.1319764205933787E-003   7.8753131595186890E-002   0.0000000000000000     
   8.4456007625505862E-003   8.4986954494436315E-002   0.0000000000000000     
   8.7489519466510610E-003   9.1359541306811759E-002   0.0000000000000000     
   9.0420299728948012E-003   9.7870892032313236E-002   0.0000000000000000     
   9.3248348412818122E-003  0.10452100667094072        0.0000000000000000     
   4.0458747067440405E-003   7.8649658817475668E-002   0.0000000000000000     
   4.2022664284765013E-003   8.4879442390609627E-002   0.0000000000000000     
   4.3537964707755002E-003   9.1246866169002919E-002   0.0000000000000000     
   4.5004648336410373E-003   9.7751930152655500E-002   0.0000000000000000     
   4.6422715170731125E-003  0.10439463434156739        0.0000000000000000     
   5.2562121322097255E-016   7.8615167891572010E-002   0.0000000000000000     
   5.4383580971872902E-016   8.4843605022667523E-002   0.0000000000000000     
   5.5261784731586161E-016   9.1209307789733407E-002   0.0000000000000000     
   5.5318705345641650E-016   9.7712276192769745E-002   0.0000000000000000     
   5.4643789493269423E-016  0.10435251023177645        0.0000000000000000     
   1.8810836911107610E-002  0.10502649598843458        0.0000000000000000     
   1.9355429981193141E-002  0.11181887577058314        0.0000000000000000     
   1.9887203217391580E-002  0.11869324349745591        0.0000000000000000     
   2.0406156619702919E-002  0.12564959916905291        0.0000000000000000     
   2.0912290188127167E-002  0.13268794278537419        0.0000000000000000     
   1.4047689972626646E-002  0.10473162721989646        0.0000000000000000     
   1.4457297799963216E-002  0.11150292251977133        0.0000000000000000     
   1.4856366607513155E-002  0.11835124088351842        0.0000000000000000     
   1.5244896395276460E-002  0.12527658231113772        0.0000000000000000     
   1.5622887163253132E-002  0.13227894680262922        0.0000000000000000     
   9.3248348412818122E-003  0.10452100667094072        0.0000000000000000     
   9.5986820760211380E-003  0.11127724162633444        0.0000000000000000     
   9.8648872013218317E-003  0.11810695330213464        0.0000000000000000     
   1.0123450217183892E-002  0.12501014169834129        0.0000000000000000     
   1.0374371123607319E-002  0.13198680681495439        0.0000000000000000     
   4.6422715170731125E-003  0.10439463434156739        0.0000000000000000     
   4.7795828093669087E-003  0.11114183309027242        0.0000000000000000     
   4.9127649988176111E-003  0.11796038075330449        0.0000000000000000     
   5.0418180854252190E-003  0.12485027733066362        0.0000000000000000     
   5.1667420691897331E-003  0.13181152282234973        0.0000000000000000     
   5.4643789493269423E-016  0.10435251023177645        0.0000000000000000     
   5.2627173452446385E-016  0.11109669691158532        0.0000000000000000     
   4.9168568522217626E-016  0.11791152323702807        0.0000000000000000     
   4.4015897697480266E-016  0.12479698920810468        0.0000000000000000     
   3.7426658994199613E-016  0.13175309482481518        0.0000000000000000     
   2.0912290188127167E-002  0.13268794278537419        0.0000000000000000     
   2.1414687360099931E-002  0.13979952608089538        0.0000000000000000     
   2.1922431573056827E-002  0.14697560079009228        0.0000000000000000     
   2.2435522826997852E-002  0.15421616691296477        0.0000000000000000     
   2.2953961121923008E-002  0.16152122444951295        0.0000000000000000     
   1.5622887163253132E-002  0.13227894680262922        0.0000000000000000     
   1.6000633029428751E-002  0.13934619564086542        0.0000000000000000     
   1.6388428111788915E-002  0.14646619010871878        0.0000000000000000     
   1.6786272410333612E-002  0.15363893020618932        0.0000000000000000     
   1.7194165925062850E-002  0.16086441593327705        0.0000000000000000     
   1.0374371123607319E-002  0.13198680681495439        0.0000000000000000     
   1.0626833692521754E-002  0.13902238818370130        0.0000000000000000     
   1.0890021695856837E-002  0.14610232533630935        0.0000000000000000     
   1.1163935133612570E-002  0.15322661827277856        0.0000000000000000     
   1.1448574005788952E-002  0.16039526699310885        0.0000000000000000     
   5.1667420691897331E-003  0.13181152282234973        0.0000000000000000     
   5.2932893493789334E-003  0.13882810370940310        0.0000000000000000     
   5.4272123252605969E-003  0.14588400647286398        0.0000000000000000     
   5.5685109968347237E-003  0.15297923111273237        0.0000000000000000     
   5.7171853641013147E-003  0.16011377762900827        0.0000000000000000     
   3.7426658994199613E-016  0.13175309482481518        0.0000000000000000     
   2.9208406526759489E-016  0.13876334221797076        0.0000000000000000     
   1.9179536431268573E-016  0.14581123351838265        0.0000000000000000     
   7.4620214521314843E-017  0.15289676872605085        0.0000000000000000     
  -6.0715321659188248E-017  0.16001994784097534        0.0000000000000000     
   0.0000000000000000        0.0000000000000000        0.0000000000000000     
   5.0849081889570158E-017   1.0872141216684489E-003   0.0000000000000000     
   9.1669293683649400E-017   2.5430296369206799E-003   0.0000000000000000     
   1.2229800505636490E-016   4.3674465457566930E-003   0.0000000000000000     
   1.4308758171377445E-016   6.5604648481764885E-003   0.0000000000000000     
   0.0000000000000000        0.0000000000000000        0.0000000000000000     
  -2.1120660469223283E-004   1.0891585130556407E-003   0.0000000000000000     
  -4.2289504527380658E-004   2.5475287996636568E-003   0.0000000000000000     
  -6.3506532174472080E-004   4.3751108598240485E-003   0.0000000000000000     
  -8.4771743410497614E-004   6.5719046935368156E-003   0.0000000000000000     
   0.0000000000000000        0.0000000000000000        0.0000000000000000     
  -4.2096117567349167E-004   1.0949916872172872E-003   0.0000000000000000     
  -8.4541110007172880E-004   2.5610262878926972E-003   0.0000000000000000     
  -1.2733497731947112E-003   4.3981038020262297E-003   0.0000000000000000     
  -1.7047771950424394E-003   6.6062242296178863E-003   0.0000000000000000     
   0.0000000000000000        0.0000000000000000        0.0000000000000000     
  -6.2926371294372578E-004   1.1047136441533888E-003   0.0000000000000000     
  -1.2675481643936754E-003   2.5835221016078016E-003   0.0000000000000000     
  -1.9148533543498487E-003   4.4364253723632365E-003   0.0000000000000000     
  -2.5711792828122461E-003   6.6634234564196962E-003   0.0000000000000000     
   0.0000000000000000        0.0000000000000000        0.0000000000000000     
  -8.3611421650293472E-004   1.1183243838639458E-003   0.0000000000000000     
  -1.6893062382396461E-003   2.6150162408089691E-003   0.0000000000000000     
  -2.5595760652101333E-003   4.4900755708350698E-003   0.0000000000000000     
  -3.4469236974143972E-003   6.7435023739422489E-003   0.0000000000000000     
   1.4308758171377445E-016   6.5604648481764885E-003   0.0000000000000000     
   1.5937771935536915E-016   9.0952140151754485E-003   0.0000000000000000     
   1.7723317388348980E-016   1.1944823517748967E-002   0.0000000000000000     
   1.9653027848783727E-016   1.5109293355897032E-002   0.0000000000000000     
   2.1716569514884654E-016   1.8588623529619656E-002   0.0000000000000000     
  -8.4771743410497614E-004   6.5719046935368156E-003   0.0000000000000000     
  -1.0619333654005800E-003   9.1104096559051061E-003   0.0000000000000000     
  -1.2787950986775404E-003   1.1963125102032072E-002   0.0000000000000000     
  -1.4983026339358571E-003   1.5130051031917703E-002   0.0000000000000000     
  -1.7204559711755307E-003   1.8611187445562005E-002   0.0000000000000000     
  -1.7047771950424394E-003   6.6062242296178863E-003   0.0000000000000000     
  -2.1396903277617692E-003   9.1559965780941242E-003   0.0000000000000000     
  -2.5780861334995585E-003   1.2018029854881403E-002   0.0000000000000000     
  -3.0199646122558072E-003   1.5192324059979724E-002   0.0000000000000000     
  -3.4653257640305159E-003   1.8678879193389088E-002   0.0000000000000000     
  -2.5711792828122461E-003   6.6634234564196962E-003   0.0000000000000000     
  -3.2332708870834092E-003   9.2319747817424976E-003   0.0000000000000000     
  -3.8978731044658787E-003   1.2109537776296968E-002   0.0000000000000000     
  -4.5649859349596554E-003   1.5296112440083099E-002   0.0000000000000000     
  -5.2346093785647406E-003   1.8791698773100895E-002   0.0000000000000000     
  -3.4469236974143972E-003   6.7435023739422489E-003   0.0000000000000000     
  -4.3426750433654985E-003   9.3383442668502330E-003   0.0000000000000000     
  -5.2381560115764992E-003   1.2237648866278761E-002   0.0000000000000000     
  -6.1333666020474001E-003   1.5441416172227825E-002   0.0000000000000000     
  -7.0283068147782022E-003   1.8949646184697432E-002   0.0000000000000000     
   2.1716569514884654E-016   1.8588623529619656E-002   0.0000000000000000     
   2.4383706859198995E-016   2.2353106832157753E-002   0.0000000000000000     
   2.8197388000916757E-016   2.6373036056752258E-002   0.0000000000000000     
   3.3021410042119448E-016   3.0648411203403163E-002   0.0000000000000000     
   3.8922857992229609E-016   3.5179232272110478E-002   0.0000000000000000     
  -1.7204559711755307E-003   1.8611187445562005E-002   0.0000000000000000     
  -1.9415456559577801E-003   2.2377074945775090E-002   0.0000000000000000     
  -2.1578622338438241E-003   2.6398254135367071E-002   0.0000000000000000     
  -2.3694057048336626E-003   3.0674725014337940E-002   0.0000000000000000     
  -2.5761760689272952E-003   3.5206487582687705E-002   0.0000000000000000     
  -3.4653257640305159E-003   1.8678879193389088E-002   0.0000000000000000     
  -3.9080866250929373E-003   2.2448979286627143E-002   0.0000000000000000     
  -4.3421642317123246E-003   2.6473908371211545E-002   0.0000000000000000     
  -4.7675585838886760E-003   3.0753666447142291E-002   0.0000000000000000     
  -5.1842696816219941E-003   3.5288253514419388E-002   0.0000000000000000     
  -5.2346093785647406E-003   1.8791698773100895E-002   0.0000000000000000     
  -5.8996229074052293E-003   2.2568819854713904E-002   0.0000000000000000     
  -6.5529059936052193E-003   2.6599998764285676E-002   0.0000000000000000     
  -7.1944586371647115E-003   3.0885235501816211E-002   0.0000000000000000     
  -7.8242808380837043E-003   3.5424530067305504E-002   0.0000000000000000     
  -7.0283068147782022E-003   1.8949646184697432E-002   0.0000000000000000     
  -7.9161545028946564E-003   2.2736596650035377E-002   0.0000000000000000     
  -8.7900875195225103E-003   2.6776525314589468E-002   0.0000000000000000     
  -9.6501058646617684E-003   3.1069432178359696E-002   0.0000000000000000     
  -1.0496209538312430E-002   3.5615317241346076E-002   0.0000000000000000     
   3.8922857992229609E-016   3.5179232272110478E-002   0.0000000000000000     
   4.4452289071905682E-016   3.9936684514809362E-002   0.0000000000000000     
   4.8095208371456977E-016   4.4891953183434988E-002   0.0000000000000000     
   4.9960036108132044E-016   5.0045038277987355E-002   0.0000000000000000     
   4.9981720151581754E-016   5.5395939798466458E-002   0.0000000000000000     
  -2.5761760689272952E-003   3.5206487582687705E-002   0.0000000000000000     
  -2.7782395874179581E-003   3.9964795802462670E-002   0.0000000000000000     
  -2.9756625215988852E-003   4.4920903635709150E-002   0.0000000000000000     
  -3.1684448714700757E-003   5.0074811082427138E-002   0.0000000000000000     
  -3.3565866370315299E-003   5.5426518142616663E-002   0.0000000000000000     
  -5.1842696816219941E-003   3.5288253514419388E-002   0.0000000000000000     
  -5.5915131544503113E-003   4.0049129665422560E-002   0.0000000000000000     
  -5.9885046319116588E-003   4.5007754992531589E-002   0.0000000000000000     
  -6.3752441140060411E-003   5.0164129495746460E-002   0.0000000000000000     
  -6.7517316007334538E-003   5.5518253175067159E-002   0.0000000000000000     
  -7.8242808380837043E-003   3.5424530067305504E-002   0.0000000000000000     
  -8.4398207010966120E-003   4.0189686103689025E-002   0.0000000000000000     
  -9.0385263309378412E-003   4.5152507253902283E-002   0.0000000000000000     
  -9.6203977276073955E-003   5.0312993517945243E-002   0.0000000000000000     
  -1.0185434891105268E-002   5.5671144895817926E-002   0.0000000000000000     
  -1.0496209538312430E-002   3.5615317241346076E-002   0.0000000000000000     
  -1.1323162227356862E-002   4.0386465117262085E-002   0.0000000000000000     
  -1.2125727618677430E-002   4.5355160419821253E-002   0.0000000000000000     
  -1.2903905712274136E-002   5.0521403149023536E-002   0.0000000000000000     
  -1.3657696508146975E-002   5.5885193304868991E-002   0.0000000000000000     
   4.9981720151581754E-016   5.5395939798466458E-002   0.0000000000000000     
   4.9461303108788712E-016   6.0934498854367414E-002   0.0000000000000000     
   4.9770300727947081E-016   6.6650556555185314E-002   0.0000000000000000     
   5.0747437935899642E-016   7.2544112900920180E-002   0.0000000000000000     
   5.2562121322097255E-016   7.8615167891572010E-002   0.0000000000000000     
  -3.3565866370315299E-003   5.5426518142616663E-002   0.0000000000000000     
  -3.5390332464434382E-003   6.0965919584989314E-002   0.0000000000000000     
  -3.7147301278659854E-003   6.6682910178256755E-002   0.0000000000000000     
  -3.8836772812991735E-003   7.2577489922418942E-002   0.0000000000000000     
  -4.0458747067430040E-003   7.8649658817475931E-002   0.0000000000000000     
  -6.7517316007334538E-003   5.5518253175067159E-002   0.0000000000000000     
  -7.1165180187575828E-003   6.1060181776854891E-002   0.0000000000000000     
  -7.4681542947421147E-003   6.6779971047470840E-002   0.0000000000000000     
  -7.8066404286870495E-003   7.2677620986915020E-002   0.0000000000000000     
  -8.1319764205923847E-003   7.8753131595187403E-002   0.0000000000000000     
  -1.0185434891105268E-002   5.5671144895817926E-002   0.0000000000000000     
  -1.0732454316941942E-002   6.1217285429964116E-002   0.0000000000000000     
  -1.1260272500627892E-002   6.6941739162827599E-002   0.0000000000000000     
  -1.1768889442163120E-002   7.2844506094408373E-002   0.0000000000000000     
  -1.2258305141547620E-002   7.8925586224706454E-002   0.0000000000000000     
  -1.3657696508146975E-002   5.5885193304868991E-002   0.0000000000000000     
  -1.4386842140996515E-002   6.1437230544317011E-002   0.0000000000000000     
  -1.5091084745523318E-002   6.7168214524327016E-002   0.0000000000000000     
  -1.5770424321727382E-002   7.3078145244899029E-002   0.0000000000000000     
  -1.6424860869608711E-002   7.9167022706033041E-002   0.0000000000000000     
   5.2562121322097255E-016   7.8615167891572010E-002   0.0000000000000000     
   5.4383580971872902E-016   8.4843605022667523E-002   0.0000000000000000     
   5.5261784731586161E-016   9.1209307789733407E-002   0.0000000000000000     
   5.5318705345641650E-016   9.7712276192769745E-002   0.0000000000000000     
   5.4643789493269423E-016  0.10435251023177645        0.0000000000000000     
  -4.0458747067430040E-003   7.8649658817475931E-002   0.0000000000000000     
  -4.2022664284754319E-003   8.4879442390609947E-002   0.0000000000000000     
  -4.3537964707744134E-003   9.1246866169003293E-002   0.0000000000000000     
  -4.5004648336399488E-003   9.7751930152655944E-002   0.0000000000000000     
  -4.6422715170720422E-003  0.10439463434156795        0.0000000000000000     
  -8.1319764205923847E-003   7.8753131595187403E-002   0.0000000000000000     
  -8.4456007625495644E-003   8.4986954494436925E-002   0.0000000000000000     
  -8.7489519466500288E-003   9.1359541306812508E-002   0.0000000000000000     
  -9.0420299728937760E-003   9.7870892032314138E-002   0.0000000000000000     
  -9.3248348412808026E-003  0.10452100667094183        0.0000000000000000     
  -1.2258305141547620E-002   7.8925586224706454E-002   0.0000000000000000     
  -1.2730003002221858E-002   8.5166141334148446E-002   0.0000000000000000     
  -1.3185466427626290E-002   9.1547333203161094E-002   0.0000000000000000     
  -1.3624695417760917E-002   9.8069161831744286E-002   0.0000000000000000     
  -1.4047689972625739E-002  0.10473162721989811        0.0000000000000000     
  -1.6424860869608711E-002   7.9167022706033041E-002   0.0000000000000000     
  -1.7055473147492312E-002   8.5417002909744535E-002   0.0000000000000000     
  -1.7663339913703203E-002   9.1810241858048980E-002   0.0000000000000000     
  -1.8248461168241383E-002   9.8346739550946402E-002   0.0000000000000000     
  -1.8810836911106854E-002  0.10502649598843676        0.0000000000000000     
   5.4643789493269423E-016  0.10435251023177645        0.0000000000000000     
   5.2627173452446385E-016  0.11109669691158532        0.0000000000000000     
   4.9168568522217626E-016  0.11791152323702807        0.0000000000000000     
   4.4015897697480266E-016  0.12479698920810468        0.0000000000000000     
   3.7426658994199613E-016  0.13175309482481518        0.0000000000000000     
  -4.6422715170720422E-003  0.10439463434156795        0.0000000000000000     
  -4.7795828093658765E-003  0.11114183309027310        0.0000000000000000     
  -4.9127649988166527E-003  0.11796038075330530        0.0000000000000000     
  -5.0418180854243655E-003  0.12485027733066453        0.0000000000000000     
  -5.1667420691890176E-003  0.13181152282235079        0.0000000000000000     
  -9.3248348412808026E-003  0.10452100667094183        0.0000000000000000     
  -9.5986820760201735E-003  0.11127724162633577        0.0000000000000000     
  -9.8648872013209488E-003  0.11810695330213621        0.0000000000000000     
  -1.0123450217183121E-002  0.12501014169834310        0.0000000000000000     
  -1.0374371123606698E-002  0.13198680681495645        0.0000000000000000     
  -1.4047689972625739E-002  0.10473162721989811        0.0000000000000000     
  -1.4457297799962365E-002  0.11150292251977330        0.0000000000000000     
  -1.4856366607512392E-002  0.11835124088352075        0.0000000000000000     
  -1.5244896395275830E-002  0.12527658231114042        0.0000000000000000     
  -1.5622887163252675E-002  0.13227894680263230        0.0000000000000000     
  -1.8810836911106854E-002  0.10502649598843676        0.0000000000000000     
  -1.9355429981192444E-002  0.11181887577058573        0.0000000000000000     
  -1.9887203217390986E-002  0.11869324349745897        0.0000000000000000     
  -2.0406156619702489E-002  0.12564959916905646        0.0000000000000000     
  -2.0912290188126941E-002  0.13268794278537821        0.0000000000000000     
   3.7426658994199613E-016  0.13175309482481518        0.0000000000000000     
   2.9208406526759489E-016  0.13876334221797076        0.0000000000000000     
   1.9179536431268573E-016  0.14581123351838265        0.0000000000000000     
   7.4620214521314843E-017  0.15289676872605085        0.0000000000000000     
  -6.0715321659188248E-017  0.16001994784097534        0.0000000000000000     
  -5.1667420691890176E-003  0.13181152282235079        0.0000000000000000     
  -5.2932893493783887E-003  0.13882810370940429        0.0000000000000000     
  -5.4272123252602639E-003  0.14588400647286534        0.0000000000000000     
  -5.5685109968346439E-003  0.15297923111273393        0.0000000000000000     
  -5.7171853641015272E-003  0.16011377762901002        0.0000000000000000     
  -1.0374371123606698E-002  0.13198680681495645        0.0000000000000000     
  -1.0626833692521331E-002  0.13902238818370366        0.0000000000000000     
  -1.0890021695856665E-002  0.14610232533631207        0.0000000000000000     
  -1.1163935133612699E-002  0.15322661827278158        0.0000000000000000     
  -1.1448574005789441E-002  0.16039526699311232        0.0000000000000000     
  -1.5622887163252675E-002  0.13227894680263230        0.0000000000000000     
  -1.6000633029428529E-002  0.13934619564086889        0.0000000000000000     
  -1.6388428111789005E-002  0.14646619010872275        0.0000000000000000     
  -1.6786272410334094E-002  0.15363893020619385        0.0000000000000000     
  -1.7194165925063797E-002  0.16086441593328221        0.0000000000000000     
  -2.0912290188126941E-002  0.13268794278537821        0.0000000000000000     
  -2.1414687360099993E-002  0.13979952608089996        0.0000000000000000     
  -2.1922431573057288E-002  0.14697560079009744        0.0000000000000000     
  -2.2435522826998826E-002  0.15421616691297071        0.0000000000000000     
  -2.2953961121924604E-002  0.16152122444951972        0.0000000000000000     
   0.0000000000000000        0.0000000000000000        0.0000000000000000     
  -8.3611421650293472E-004   1.1183243838639458E-003   0.0000000000000000     
  -1.6893062382396461E-003   2.6150162408089691E-003   0.0000000000000000     
  -2.5595760652101333E-003   4.4900755708350698E-003   0.0000000000000000     
  -3.4469236974143972E-003   6.7435023739422489E-003   0.0000000000000000     
   0.0000000000000000        0.0000000000000000        0.0000000000000000     
  -1.0505462431978638E-003   1.1397034711754300E-003   0.0000000000000000     
  -2.1255246532089381E-003   2.6619507609727555E-003   0.0000000000000000     
  -3.2249352300332233E-003   4.5667418693919760E-003   0.0000000000000000     
  -4.3487779736707194E-003   6.8540767964330911E-003   0.0000000000000000     
   0.0000000000000000        0.0000000000000000        0.0000000000000000     
  -1.2815933498752569E-003   1.1727304709143144E-003   0.0000000000000000     
  -2.5910427409008489E-003   2.7307677175757153E-003   0.0000000000000000     
  -3.9283481730767768E-003   4.6741117399842023E-003   0.0000000000000000     
  -5.2935096464030405E-003   7.0027625381397750E-003   0.0000000000000000     
   0.0000000000000000        0.0000000000000000        0.0000000000000000     
  -1.5292555365351143E-003   1.2174053830805987E-003   0.0000000000000000     
  -3.0858605013153791E-003   2.8214671106178485E-003   0.0000000000000000     
  -4.6698148943407937E-003   4.8121851826117496E-003   0.0000000000000000     
  -6.2811187156113588E-003   7.1895595990623005E-003   0.0000000000000000     
   0.0000000000000000        0.0000000000000000        0.0000000000000000     
  -1.7935328031774365E-003   1.2737282076742827E-003   0.0000000000000000     
  -3.6099779344525278E-003   2.9340489400991546E-003   0.0000000000000000     
  -5.4493353938252758E-003   4.9809621972746162E-003   0.0000000000000000     
  -7.3116051812956787E-003   7.4144679792006660E-003   0.0000000000000000     
  -3.4469236974143972E-003   6.7435023739422489E-003   0.0000000000000000     
  -4.3426750433654985E-003   9.3383442668502330E-003   0.0000000000000000     
  -5.2381560115764992E-003   1.2237648866278761E-002   0.0000000000000000     
  -6.1333666020474001E-003   1.5441416172227825E-002   0.0000000000000000     
  -7.0283068147782022E-003   1.8949646184697432E-002   0.0000000000000000     
  -4.3487779736707194E-003   6.8540767964330911E-003   0.0000000000000000     
  -5.4835156511978400E-003   9.4822479292474785E-003   0.0000000000000000     
  -6.6156110296909992E-003   1.2409547654986513E-002   0.0000000000000000     
  -7.7450641091501970E-003   1.5635975973650202E-002   0.0000000000000000     
  -8.8718748895754360E-003   1.9161532885238530E-002   0.0000000000000000     
  -5.2935096464030405E-003   7.0027625381397750E-003   0.0000000000000000     
  -6.6714055651702336E-003   9.6708286647643766E-003   0.0000000000000000     
  -8.0469143336689541E-003   1.2632418672579958E-002   0.0000000000000000     
  -9.4200359518991968E-003   1.5887532561586513E-002   0.0000000000000000     
  -1.0790770419860967E-002   1.9436170331784037E-002   0.0000000000000000     
  -6.2811187156113588E-003   7.1895595990623005E-003   0.0000000000000000     
  -7.9063447852826801E-003   9.9040864734009377E-003   0.0000000000000000     
  -9.5320659235103612E-003   1.2906261919059086E-002   0.0000000000000000     
  -1.1158282130294404E-002   1.6196085936036761E-002   0.0000000000000000     
  -1.2784993405634803E-002   1.9773558524333944E-002   0.0000000000000000     
  -7.3116051812956787E-003   7.4144679792006660E-003   0.0000000000000000     
  -9.1883333115351795E-003   1.0182021355157148E-002   0.0000000000000000     
  -1.1071065799215225E-002   1.3231077394423909E-002   0.0000000000000000     
  -1.2959802644335812E-002   1.6561636097000943E-002   0.0000000000000000     
  -1.4854543846896943E-002   2.0173697462888256E-002   0.0000000000000000     
  -7.0283068147782022E-003   1.8949646184697432E-002   0.0000000000000000     
  -7.9161545028946564E-003   2.2736596650035377E-002   0.0000000000000000     
  -8.7900875195225103E-003   2.6776525314589468E-002   0.0000000000000000     
  -9.6501058646617684E-003   3.1069432178359696E-002   0.0000000000000000     
  -1.0496209538312430E-002   3.5615317241346076E-002   0.0000000000000000     
  -8.8718748895754360E-003   1.9161532885238530E-002   0.0000000000000000     
  -9.9887371430847447E-003   2.2961931506581951E-002   0.0000000000000000     
  -1.1088344641796158E-002   2.7012884954510884E-002   0.0000000000000000     
  -1.2170697385709679E-002   3.1314393229025336E-002   0.0000000000000000     
  -1.3235795374825306E-002   3.5866456330125307E-002   0.0000000000000000     
  -1.0790770419860967E-002   1.9436170331784037E-002   0.0000000000000000     
  -1.2148426559499026E-002   2.3254446258344011E-002   0.0000000000000000     
  -1.3482313192758125E-002   2.7318474616437900E-002   0.0000000000000000     
  -1.4792430319638271E-002   3.1628255406065703E-002   0.0000000000000000     
  -1.6078777940139462E-002   3.6183788627227424E-002   0.0000000000000000     
  -1.2784993405634803E-002   1.9773558524333944E-002   0.0000000000000000     
  -1.4395222752137499E-002   2.3614140905321560E-002   0.0000000000000000     
  -1.5971993172408411E-002   2.7693294300370506E-002   0.0000000000000000     
  -1.7515304666447549E-002   3.2011018709480796E-002   0.0000000000000000     
  -1.9025157234254905E-002   3.6567314132652420E-002   0.0000000000000000     
  -1.4854543846896943E-002   2.0173697462888256E-002   0.0000000000000000     
  -1.6729125721000163E-002   2.4041015447514594E-002   0.0000000000000000     
  -1.8557384580747016E-002   2.8137344006308716E-002   0.0000000000000000     
  -2.0339320426137508E-002   3.2462683139270622E-002   0.0000000000000000     
  -2.2074933257171629E-002   3.7017032846400302E-002   0.0000000000000000     
  -1.0496209538312430E-002   3.5615317241346076E-002   0.0000000000000000     
  -1.1323162227356862E-002   4.0386465117262085E-002   0.0000000000000000     
  -1.2125727618677430E-002   4.5355160419821253E-002   0.0000000000000000     
  -1.2903905712274136E-002   5.0521403149023536E-002   0.0000000000000000     
  -1.3657696508146975E-002   5.5885193304868991E-002   0.0000000000000000     
  -1.3235795374825306E-002   3.5866456330125307E-002   0.0000000000000000     
  -1.4276250418103145E-002   4.0642830506015706E-002   0.0000000000000000     
  -1.5284674324503308E-002   4.5617272004901455E-002   0.0000000000000000     
  -1.6261067094025795E-002   5.0789780826782545E-002   0.0000000000000000     
  -1.7205428726670604E-002   5.6160356971659005E-002   0.0000000000000000     
  -1.6078777940139462E-002   3.6183788627227424E-002   0.0000000000000000     
  -1.7333797958207546E-002   4.0962146069823881E-002   0.0000000000000000     
  -1.8549932277788356E-002   4.5940399523755900E-002   0.0000000000000000     
  -1.9727180898881900E-002   5.1118548989023495E-002   0.0000000000000000     
  -2.0865543821488180E-002   5.6496594465626632E-002   0.0000000000000000     
  -1.9025157234254905E-002   3.6567314132652420E-002   0.0000000000000000     
  -2.0495804847670055E-002   4.1344411808686601E-002   0.0000000000000000     
  -2.1921501478532578E-002   4.6324542976384595E-002   0.0000000000000000     
  -2.3302247126842458E-002   5.1507707635746337E-002   0.0000000000000000     
  -2.4638041792599711E-002   5.6893905786771899E-002   0.0000000000000000     
  -2.2074933257171629E-002   3.7017032846400302E-002   0.0000000000000000     
  -2.3762271086490688E-002   4.1789627722603889E-002   0.0000000000000000     
  -2.5399381926735961E-002   4.6769702362787505E-002   0.0000000000000000     
  -2.6986265777907460E-002   5.1957256766951121E-002   0.0000000000000000     
  -2.8522922640005190E-002   5.7352290935094766E-002   0.0000000000000000     
  -1.3657696508146975E-002   5.5885193304868991E-002   0.0000000000000000     
  -1.4386842140996515E-002   6.1437230544317011E-002   0.0000000000000000     
  -1.5091084745523318E-002   6.7168214524327016E-002   0.0000000000000000     
  -1.5770424321727382E-002   7.3078145244899029E-002   0.0000000000000000     
  -1.6424860869608711E-002   7.9167022706033041E-002   0.0000000000000000     
  -1.7205428726670604E-002   5.6160356971659005E-002   0.0000000000000000     
  -1.8118417579266518E-002   6.1719647041641429E-002   0.0000000000000000     
  -1.9000692008642302E-002   6.7458297638840453E-002   0.0000000000000000     
  -1.9852252014797973E-002   7.3376308763256071E-002   0.0000000000000000     
  -2.0673097597733510E-002   7.9473680414888295E-002   0.0000000000000000     
  -2.0865543821488180E-002   5.6496594465626632E-002   0.0000000000000000     
  -2.1965916720097147E-002   6.2064164843665254E-002   0.0000000000000000     
  -2.3029195269198752E-002   6.7810889013239228E-002   0.0000000000000000     
  -2.4055379468793003E-002   7.3736766974348583E-002   0.0000000000000000     
  -2.5044469318879888E-002   7.9841798726993277E-002   0.0000000000000000     
  -2.4638041792599711E-002   5.6893905786771899E-002   0.0000000000000000     
  -2.5929339563488422E-002   6.2470783950388478E-002   0.0000000000000000     
  -2.7176594527192680E-002   6.8225988647523356E-002   0.0000000000000000     
  -2.8379806683712486E-002   7.4159519878176525E-002   0.0000000000000000     
  -2.9538976033047844E-002   8.0271377642347985E-002   0.0000000000000000     
  -2.8522922640005190E-002   5.7352290935094766E-002   0.0000000000000000     
  -3.0008686109440328E-002   6.2939504361811116E-002   0.0000000000000000     
  -3.1442889782624071E-002   6.8703596541692835E-002   0.0000000000000000     
  -3.2825533659556420E-002   7.4644567474739951E-002   0.0000000000000000     
  -3.4156617740237379E-002   8.0762417160952421E-002   0.0000000000000000     
  -1.6424860869608711E-002   7.9167022706033041E-002   0.0000000000000000     
  -1.7055473147492312E-002   8.5417002909744535E-002   0.0000000000000000     
  -1.7663339913703203E-002   9.1810241858048980E-002   0.0000000000000000     
  -1.8248461168241383E-002   9.8346739550946402E-002   0.0000000000000000     
  -1.8810836911106854E-002  0.10502649598843676        0.0000000000000000     
  -2.0673097597733510E-002   7.9473680414888295E-002   0.0000000000000000     
  -2.1463774982561724E-002   8.5734088340981132E-002   0.0000000000000000     
  -2.2224830394395403E-002   9.2141208288778587E-002   0.0000000000000000     
  -2.2956263833234545E-002   9.8695040258280686E-002   0.0000000000000000     
  -2.3658075299079151E-002  0.10539558424948739        0.0000000000000000     
  -2.5044469318879888E-002   7.9841798726993277E-002   0.0000000000000000     
  -2.5996672291630902E-002   8.6111946747614215E-002   0.0000000000000000     
  -2.6912195859217537E-002   9.2533173512652236E-002   0.0000000000000000     
  -2.7791040021639790E-002   9.9105479022107354E-002   0.0000000000000000     
  -2.8633204778897650E-002  0.10582886327597954        0.0000000000000000     
  -2.9538976033047844E-002   8.0271377642347985E-002   0.0000000000000000     
  -3.0654165074699848E-002   8.6550578129643757E-002   0.0000000000000000     
  -3.1725436308169604E-002   9.2986137529669888E-002   0.0000000000000000     
  -3.2752789733457105E-002   9.9578055842426377E-002   0.0000000000000000     
  -3.3736225350562352E-002  0.10632633306791320        0.0000000000000000     
  -3.4156617740237379E-002   8.0762417160952421E-002   0.0000000000000000     
  -3.5436253331768565E-002   8.7049982487069785E-002   0.0000000000000000     
  -3.6664551741251605E-002   9.3500100339831596E-002   0.0000000000000000     
  -3.7841512968686500E-002  0.10011277071923778        0.0000000000000000     
  -3.8967137014073262E-002  0.10688799362528839        0.0000000000000000     
  -1.8810836911106854E-002  0.10502649598843676        0.0000000000000000     
  -1.9355429981192444E-002  0.11181887577058573        0.0000000000000000     
  -1.9887203217390986E-002  0.11869324349745897        0.0000000000000000     
  -2.0406156619702489E-002  0.12564959916905646        0.0000000000000000     
  -2.0912290188126941E-002  0.13268794278537821        0.0000000000000000     
  -2.3658075299079151E-002  0.10539558424948739        0.0000000000000000     
  -2.4337324462528759E-002  0.11221416364764787        0.0000000000000000     
  -2.5001070994182903E-002  0.11912210183801131        0.0000000000000000     
  -2.5649314894041580E-002  0.12611939882057763        0.0000000000000000     
  -2.6282056162104796E-002  0.13320605459534690        0.0000000000000000     
  -2.8633204778897650E-002  0.10582886327597954        0.0000000000000000     
  -2.9447227086789655E-002  0.11267784841983457        0.0000000000000000     
  -3.0241643901114296E-002  0.11962695659923815        0.0000000000000000     
  -3.1016455221871596E-002  0.12667618781419032        0.0000000000000000     
  -3.1771661049061539E-002  0.13382554206469102        0.0000000000000000     
  -3.3736225350562352E-002  0.10632633306791320        0.0000000000000000     
  -3.4685137853975125E-002  0.11320993008714582        0.0000000000000000     
  -3.5608921938185184E-002  0.12020780778113957        0.0000000000000000     
  -3.6507577603192537E-002  0.12731996614989452        0.0000000000000000     
  -3.7381104848997170E-002  0.13454640519341060        0.0000000000000000     
  -3.8967137014073262E-002  0.10688799362528839        0.0000000000000000     
  -4.0051056764085179E-002  0.11381040864958158        0.0000000000000000     
  -4.1102905105395555E-002  0.12086465538371552        0.0000000000000000     
  -4.2122682038004393E-002  0.12805073382769017        0.0000000000000000     
  -4.3110387561911698E-002  0.13536864398150561        0.0000000000000000     
  -2.0912290188126941E-002  0.13268794278537821        0.0000000000000000     
  -2.1414687360099993E-002  0.13979952608089996        0.0000000000000000     
  -2.1922431573057288E-002  0.14697560079009744        0.0000000000000000     
  -2.2435522826998826E-002  0.15421616691297071        0.0000000000000000     
  -2.2953961121924604E-002  0.16152122444951972        0.0000000000000000     
  -2.6282056162104796E-002  0.13320605459534690        0.0000000000000000     
  -2.6908213290957900E-002  0.14037542829745311        0.0000000000000000     
  -2.7536704773186226E-002  0.14762087906203031        0.0000000000000000     
  -2.8167530608789772E-002  0.15494240688907851        0.0000000000000000     
  -2.8800690797768563E-002  0.16234001177859764        0.0000000000000000     
  -3.1771661049061539E-002  0.13382554206469102        0.0000000000000000     
  -3.2520427428424412E-002  0.14106695108418466        0.0000000000000000     
  -3.3275920405700508E-002  0.14839234660611547        0.0000000000000000     
  -3.4038139980889837E-002  0.15580172863048353        0.0000000000000000     
  -3.4807086153992368E-002  0.16329509715728879        0.0000000000000000     
  -3.7381104848997170E-002  0.13454640519341060        0.0000000000000000     
  -3.8251329772499572E-002  0.14187409444109456        0.0000000000000000     
  -3.9140078470600179E-002  0.14929000342235296        0.0000000000000000     
  -4.0047350943299004E-002  0.15679413213718582        0.0000000000000000     
  -4.0973147190596047E-002  0.16438648058559319        0.0000000000000000     
  -4.3110387561911698E-002  0.13536864398150561        0.0000000000000000     
  -4.4100920323183329E-002  0.14279685836818279        0.0000000000000000     
  -4.5129178967885195E-002  0.15031384951074270        0.0000000000000000     
  -4.6195163496017273E-002  0.15791961740918539        0.0000000000000000     
  -4.7298873907579572E-002  0.16561416206351082        0.0000000000000000     
   0.0000000000000000        0.0000000000000000        0.0000000000000000     
  -1.7935328031774365E-003   1.2737282076742827E-003   0.0000000000000000     
  -3.6099779344525278E-003   2.9340489400991546E-003   0.0000000000000000     
  -5.4493353938252758E-003   4.9809621972746162E-003   0.0000000000000000     
  -7.3116051812956787E-003   7.4144679792006660E-003   0.0000000000000000     
   0.0000000000000000        0.0000000000000000        0.0000000000000000     
  -2.0660399880949800E-003   1.3492028524716801E-003   0.0000000000000000     
  -4.1557673682481580E-003   3.0837533227248888E-003   0.0000000000000000     
  -6.2691821404595371E-003   5.2036514107596261E-003   0.0000000000000000     
  -8.4062843047291134E-003   7.7088971165758906E-003   0.0000000000000000     
   0.0000000000000000        0.0000000000000000        0.0000000000000000     
  -2.3383919295805015E-003   1.4513332252491038E-003   0.0000000000000000     
  -4.7156011306381329E-003   3.2858203752003032E-003   0.0000000000000000     
  -7.1316276031728925E-003   5.5034614498535991E-003   0.0000000000000000     
  -9.5864713471847801E-003   8.1042564492089918E-003   0.0000000000000000     
   0.0000000000000000        0.0000000000000000        0.0000000000000000     
  -2.6105886276340017E-003   1.5801193260065538E-003   0.0000000000000000     
  -5.2894792216224484E-003   3.5402500975253983E-003   0.0000000000000000     
  -8.0366717819653419E-003   5.8803923145565352E-003   0.0000000000000000     
  -1.0852166308662679E-002   8.6005459770999645E-003   0.0000000000000000     
   0.0000000000000000        0.0000000000000000        0.0000000000000000     
  -2.8826300822554808E-003   1.7355611547440297E-003   0.0000000000000000     
  -5.8774016412011104E-003   3.8470424897001755E-003   0.0000000000000000     
  -8.9843146768368853E-003   6.3344440048684362E-003   0.0000000000000000     
  -1.2203369189162809E-002   9.1977657002488139E-003   0.0000000000000000     
  -7.3116051812956787E-003   7.4144679792006660E-003   0.0000000000000000     
  -9.1883333115351795E-003   1.0182021355157148E-002   0.0000000000000000     
  -1.1071065799215225E-002   1.3231077394423909E-002   0.0000000000000000     
  -1.2959802644335812E-002   1.6561636097000943E-002   0.0000000000000000     
  -1.4854543846896943E-002   2.0173697462888256E-002   0.0000000000000000     
  -8.4062843047291134E-003   7.7088971165758906E-003   0.0000000000000000     
  -1.0558011599241534E-002   1.0541765857807103E-002   0.0000000000000000     
  -1.2715301762181441E-002   1.3644533052086677E-002   0.0000000000000000     
  -1.4878154793548839E-002   1.7017198699414617E-002   0.0000000000000000     
  -1.7046570693343723E-002   2.0659762799790916E-002   0.0000000000000000     
  -9.5864713471847801E-003   8.1042564492089918E-003   0.0000000000000000     
  -1.2056020103715539E-002   1.1020452529124876E-002   0.0000000000000000     
  -1.4516161613806909E-002   1.4184296845459653E-002   0.0000000000000000     
  -1.6966895877458893E-002   1.7595789398213321E-002   0.0000000000000000     
  -1.9408222894671482E-002   2.1254930187385879E-002   0.0000000000000000     
  -1.0852166308662679E-002   8.6005459770999645E-003   0.0000000000000000     
  -1.3682358824957195E-002   1.1618081369110470E-002   0.0000000000000000     
  -1.6473645354091630E-002   1.4850368774542834E-002   0.0000000000000000     
  -1.9226025896065969E-002   1.8297408193397060E-002   0.0000000000000000     
  -2.1939500450880226E-002   2.1959199625673147E-002   0.0000000000000000     
  -1.2203369189162809E-002   9.1977657002488139E-003   0.0000000000000000     
  -1.5437027762966505E-002   1.2334652377763882E-002   0.0000000000000000     
  -1.8587752983035593E-002   1.5642748839336224E-002   0.0000000000000000     
  -2.1655544849370077E-002   1.9122055084965832E-002   0.0000000000000000     
  -2.4640403361969952E-002   2.2772571114652716E-002   0.0000000000000000     
  -1.4854543846896943E-002   2.0173697462888256E-002   0.0000000000000000     
  -1.6729125721000163E-002   2.4041015447514594E-002   0.0000000000000000     
  -1.8557384580747016E-002   2.8137344006308716E-002   0.0000000000000000     
  -2.0339320426137508E-002   3.2462683139270622E-002   0.0000000000000000     
  -2.2074933257171629E-002   3.7017032846400302E-002   0.0000000000000000     
  -1.7046570693343723E-002   2.0659762799790916E-002   0.0000000000000000     
  -1.9188259743365216E-002   2.4547565599958004E-002   0.0000000000000000     
  -2.1270932225412424E-002   2.8655947346658297E-002   0.0000000000000000     
  -2.3294588139485369E-002   3.2984908039891805E-002   0.0000000000000000     
  -2.5259227485584030E-002   3.7534447679658522E-002   0.0000000000000000     
  -1.9408222894671482E-002   2.1254930187385879E-002   0.0000000000000000     
  -2.1810749096510845E-002   2.5146287077686673E-002   0.0000000000000000     
  -2.4145080914043136E-002   2.9254427933825041E-002   0.0000000000000000     
  -2.6411218347268350E-002   3.3579352755800984E-002   0.0000000000000000     
  -2.8609161396186484E-002   3.8121061543614505E-002   0.0000000000000000     
  -2.1939500450880226E-002   2.1959199625673147E-002   0.0000000000000000     
  -2.4596593780437062E-002   2.5837179880700605E-002   0.0000000000000000     
  -2.7179830646639133E-002   2.9932785767808938E-002   0.0000000000000000     
  -2.9689211049486453E-002   3.4246017286998158E-002   0.0000000000000000     
  -3.2124734988979012E-002   3.8776874438268251E-002   0.0000000000000000     
  -2.4640403361969952E-002   2.2772571114652716E-002   0.0000000000000000     
  -2.7545793795143863E-002   2.6620244008999792E-002   0.0000000000000000     
  -3.0375181423200431E-002   3.0691020848609998E-002   0.0000000000000000     
  -3.3128566246139676E-002   3.4984901633483320E-002   0.0000000000000000     
  -3.5805948263961586E-002   3.9501886363619773E-002   0.0000000000000000     
  -2.2074933257171629E-002   3.7017032846400302E-002   0.0000000000000000     
  -2.3762271086490688E-002   4.1789627722603889E-002   0.0000000000000000     
  -2.5399381926735961E-002   4.6769702362787505E-002   0.0000000000000000     
  -2.6986265777907460E-002   5.1957256766951121E-002   0.0000000000000000     
  -2.8522922640005190E-002   5.7352290935094766E-002   0.0000000000000000     
  -2.5259227485584030E-002   3.7534447679658522E-002   0.0000000000000000     
  -2.7166445843485702E-002   4.2300368688711808E-002   0.0000000000000000     
  -2.9017838792967671E-002   4.7278473489805038E-002   0.0000000000000000     
  -3.0813406334029937E-002   5.2468762082938207E-002   0.0000000000000000     
  -3.2553148466672496E-002   5.7871234468111321E-002   0.0000000000000000     
  -2.8609161396186484E-002   3.8121061543614505E-002   0.0000000000000000     
  -3.0741578287471382E-002   4.2879209584146434E-002   0.0000000000000000     
  -3.2811137247796843E-002   4.7853452164277568E-002   0.0000000000000000     
  -3.4817838277162880E-002   5.3043789284007957E-002   0.0000000000000000     
  -3.6761681375569497E-002   5.8450220943337565E-002   0.0000000000000000     
  -3.2124734988979012E-002   3.8776874438268251E-002   0.0000000000000000     
  -3.4487668418447713E-002   4.3526150408907734E-002   0.0000000000000000     
  -3.6779277291223475E-002   4.8494638386205116E-002   0.0000000000000000     
  -3.8999561607306305E-002   5.3682338370160378E-002   0.0000000000000000     
  -4.1148521366696188E-002   5.9089250360773511E-002   0.0000000000000000     
  -3.5805948263961586E-002   3.9501886363619773E-002   0.0000000000000000     
  -3.8404716236414706E-002   4.4241191162995755E-002   0.0000000000000000     
  -4.0922258923247579E-002   4.9202032155587640E-002   0.0000000000000000     
  -4.3358576324460205E-002   5.4384409341395462E-002   0.0000000000000000     
  -4.5713668440052584E-002   5.9788322720419187E-002   0.0000000000000000     
  -2.8522922640005190E-002   5.7352290935094766E-002   0.0000000000000000     
  -3.0008686109440328E-002   6.2939504361811116E-002   0.0000000000000000     
  -3.1442889782624071E-002   6.8703596541692835E-002   0.0000000000000000     
  -3.2825533659556420E-002   7.4644567474739951E-002   0.0000000000000000     
  -3.4156617740237379E-002   8.0762417160952421E-002   0.0000000000000000     
  -3.2553148466672496E-002   5.7871234468111321E-002   0.0000000000000000     
  -3.4235656728084679E-002   6.3467563706243360E-002   0.0000000000000000     
  -3.5859522655455840E-002   6.9239422858253408E-002   0.0000000000000000     
  -3.7424746248785959E-002   7.5186811924141367E-002   0.0000000000000000     
  -3.8931327508075049E-002   8.1309730903907321E-002   0.0000000000000000     
  -3.6761681375569497E-002   5.8450220943337565E-002   0.0000000000000000     
  -3.8641951789553292E-002   6.4052199611995486E-002   0.0000000000000000     
  -4.0457934765650877E-002   6.9829177759710759E-002   0.0000000000000000     
  -4.2209630303862253E-002   7.5781155386483404E-002   0.0000000000000000     
  -4.3897038404187426E-002   8.1908132492313449E-002   0.0000000000000000     
  -4.1148521366696188E-002   5.9089250360773511E-002   0.0000000000000000     
  -4.3227571293846148E-002   6.4693412079067411E-002   0.0000000000000000     
  -4.5238126113209175E-002   7.0472861246064944E-002   0.0000000000000000     
  -4.7180185824785295E-002   7.6427597861766047E-002   0.0000000000000000     
  -4.9053750428574495E-002   8.2557621926170763E-002   0.0000000000000000     
  -4.5713668440052584E-002   5.9788322720419187E-002   0.0000000000000000     
  -4.7992515240963256E-002   6.5391201107459218E-002   0.0000000000000000     
  -5.0200096698130761E-002   7.1170473317315908E-002   0.0000000000000000     
  -5.2336412811555093E-002   7.7126139349989270E-002   0.0000000000000000     
  -5.4401463581236272E-002   8.3258199205479319E-002   0.0000000000000000     
  -3.4156617740237379E-002   8.0762417160952421E-002   0.0000000000000000     
  -3.5436253331768565E-002   8.7049982487069785E-002   0.0000000000000000     
  -3.6664551741251605E-002   9.3500100339831596E-002   0.0000000000000000     
  -3.7841512968686500E-002  0.10011277071923778        0.0000000000000000     
  -3.8967137014073262E-002  0.10688799362528839        0.0000000000000000     
  -3.8931327508075049E-002   8.1309730903907321E-002   0.0000000000000000     
  -4.0379374879748159E-002   8.7604514534052547E-002   0.0000000000000000     
  -4.1768996810230337E-002   9.4067497551078363E-002   0.0000000000000000     
  -4.3100193299521611E-002  0.10069867995498476        0.0000000000000000     
  -4.4372964347621953E-002  0.10749806174577176        0.0000000000000000     
  -4.3897038404187426E-002   8.1908132492313449E-002   0.0000000000000000     
  -4.5519967535549759E-002   8.8208528984752260E-002   0.0000000000000000     
  -4.7078226166872635E-002   9.4680764771351275E-002   0.0000000000000000     
  -4.8571814298156060E-002  0.10132483985211053        0.0000000000000000     
  -5.0000731929400029E-002  0.10814075422702998        0.0000000000000000     
  -4.9053750428574495E-002   8.2557621926170763E-002   0.0000000000000000     
  -5.0858031299173365E-002   8.8862025839168940E-002   0.0000000000000000     
  -5.2592239811178484E-002   9.5339902000650359E-002   0.0000000000000000     
  -5.4256375964589862E-002  0.10199125041061508        0.0000000000000000     
  -5.5850439759407483E-002  0.10881607106906303        0.0000000000000000     
  -5.4401463581236272E-002   8.3258199205479319E-002   0.0000000000000000     
  -5.6393566170618969E-002   8.9565005097302572E-002   0.0000000000000000     
  -5.8311037743147887E-002   9.6044909238975587E-002   0.0000000000000000     
  -6.0153878298822995E-002  0.10269791163049839        0.0000000000000000     
  -6.1922087837644323E-002  0.10952401227187095        0.0000000000000000     
  -3.8967137014073262E-002  0.10688799362528839        0.0000000000000000     
  -4.0051056764085179E-002  0.11381040864958158        0.0000000000000000     
  -4.1102905105395555E-002  0.12086465538371552        0.0000000000000000     
  -4.2122682038004393E-002  0.12805073382769017        0.0000000000000000     
  -4.3110387561911698E-002  0.13536864398150561        0.0000000000000000     
  -4.4372964347621953E-002  0.10749806174577176        0.0000000000000000     
  -4.5595910455311701E-002  0.11445743661828180        0.0000000000000000     
  -4.6777632123371195E-002  0.12156859826735743        0.0000000000000000     
  -4.7918129351800419E-002  0.12883154669299859        0.0000000000000000     
  -4.9017402140599381E-002  0.13624628189520527        0.0000000000000000     
  -5.0000731929400029E-002  0.10814075422702998        0.0000000000000000     
  -5.1370625565846616E-002  0.11512916650438644        0.0000000000000000     
  -5.2687141712737896E-002  0.12229073529245676        0.0000000000000000     
  -5.3950280370073864E-002  0.12962546059124086        0.0000000000000000     
  -5.5160041537854511E-002  0.13713334240073885        0.0000000000000000     
  -5.5850439759407483E-002  0.10881607106906303        0.0000000000000000     
  -5.7375202095689914E-002  0.11582559830789545        0.0000000000000000     
  -5.8831433873495646E-002  0.12303106645901345        0.0000000000000000     
  -6.0219135092824713E-002  0.13043247552241707        0.0000000000000000     
  -6.1538305753677087E-002  0.13802982549810630        0.0000000000000000     
  -6.1922087837644323E-002  0.10952401227187095        0.0000000000000000     
  -6.3609640044841570E-002  0.11654673202880883        0.0000000000000000     
  -6.5210508605644465E-002  0.12378959176702758        0.0000000000000000     
  -6.6724693520052974E-002  0.13125259148652715        0.0000000000000000     
  -6.8152194788067125E-002  0.13893573118730765        0.0000000000000000     
  -4.3110387561911698E-002  0.13536864398150561        0.0000000000000000     
  -4.4100920323183329E-002  0.14279685836818279        0.0000000000000000     
  -4.5129178967885195E-002  0.15031384951074270        0.0000000000000000     
  -4.6195163496017273E-002  0.15791961740918539        0.0000000000000000     
  -4.7298873907579572E-002  0.16561416206351082        0.0000000000000000     
  -4.9017402140599381E-002  0.13624628189520527        0.0000000000000000     
  -5.0121779074010546E-002  0.14378834805986446        0.0000000000000000     
  -5.1277588736276358E-002  0.15143328937286310        0.0000000000000000     
  -5.2484831127396867E-002  0.15918110583420125        0.0000000000000000     
  -5.3743506247372008E-002  0.16703179744387880        0.0000000000000000     
  -5.5160041537854511E-002  0.13713334240073885        0.0000000000000000     
  -5.6366486018516009E-002  0.14480166871055467        0.0000000000000000     
  -5.7619674614494493E-002  0.15261772751029257        0.0000000000000000     
  -5.8919607325789956E-002  0.16058151879995242        0.0000000000000000     
  -6.0266284152402413E-002  0.16869304257953424        0.0000000000000000     
  -6.1538305753677087E-002  0.13802982549810630        0.0000000000000000     
  -6.2835041156699731E-002  0.14583682032025350        0.0000000000000000     
  -6.4155436602539556E-002  0.15386716392303101        0.0000000000000000     
  -6.5499492091196557E-002  0.16212085630643891        0.0000000000000000     
  -6.6867207622670760E-002  0.17059789747047716        0.0000000000000000     
  -6.8152194788067125E-002  0.13893573118730765        0.0000000000000000     
  -6.9527444488561713E-002  0.14689380288896081        0.0000000000000000     
  -7.0884874700411576E-002  0.15518159861107853        0.0000000000000000     
  -7.2224485423616674E-002  0.16379911835366073        0.0000000000000000     
  -7.3546276658177062E-002  0.17274636211670752        0.0000000000000000     
   0.0000000000000000        0.0000000000000000        0.0000000000000000     
  -2.8826300822554808E-003   1.7355611547440297E-003   0.0000000000000000     
  -5.8774016412011104E-003   3.8470424897001755E-003   0.0000000000000000     
  -8.9843146768368853E-003   6.3344440048684362E-003   0.0000000000000000     
  -1.2203369189162809E-002   9.1977657002488139E-003   0.0000000000000000     
   0.0000000000000000        0.0000000000000000        0.0000000000000000     
  -3.2875180050954589E-003   1.9901956864066049E-003   0.0000000000000000     
  -6.6857681023852243E-003   4.3133043544860009E-003   0.0000000000000000     
  -1.0194750291869297E-002   6.9693260042381867E-003   0.0000000000000000     
  -1.3814464573547678E-002   9.9582606356631645E-003   0.0000000000000000     
   0.0000000000000000        0.0000000000000000        0.0000000000000000     
  -3.9582541078044551E-003   2.4165598959393513E-003   0.0000000000000000     
  -7.9209783181859051E-003   5.0461424946442405E-003   0.0000000000000000     
  -1.1888172631144349E-002   7.8887477961146705E-003   0.0000000000000000     
  -1.5859837046679790E-002   1.0944375800350639E-002   0.0000000000000000     
   0.0000000000000000        0.0000000000000000        0.0000000000000000     
  -4.8948383903824706E-003   3.0146537833422686E-003   0.0000000000000000     
  -9.5830322886031501E-003   6.0455569101748987E-003   0.0000000000000000     
  -1.4064581694662039E-002   9.0927093804978893E-003   0.0000000000000000     
  -1.8339486608559143E-002   1.2156111194311241E-002   0.0000000000000000     
   0.0000000000000000        0.0000000000000000        0.0000000000000000     
  -6.0972708528295051E-003   3.7844773486153580E-003   0.0000000000000000     
  -1.1671930013636962E-002   7.3115476010779720E-003   0.0000000000000000     
  -1.6723977482422370E-002   1.0581210757387844E-002   0.0000000000000000     
  -2.1253413259185731E-002   1.3593466817544969E-002   0.0000000000000000     
  -1.2203369189162809E-002   9.1977657002488139E-003   0.0000000000000000     
  -1.5437027762966505E-002   1.2334652377763882E-002   0.0000000000000000     
  -1.8587752983035593E-002   1.5642748839336224E-002   0.0000000000000000     
  -2.1655544849370077E-002   1.9122055084965832E-002   0.0000000000000000     
  -2.4640403361969952E-002   2.2772571114652716E-002   0.0000000000000000     
  -1.3814464573547678E-002   9.9582606356631645E-003   0.0000000000000000     
  -1.7428391569655539E-002   1.3182018866918301E-002   0.0000000000000000     
  -2.0920011902428044E-002   1.6542511316160968E-002   0.0000000000000000     
  -2.4289325571865191E-002   2.0039737983391159E-002   0.0000000000000000     
  -2.7536332577966987E-002   2.3673698868608883E-002   0.0000000000000000     
  -1.5859837046679790E-002   1.0944375800350639E-002   0.0000000000000000     
  -1.9764814896936354E-002   1.4172034148406900E-002   0.0000000000000000     
  -2.3531949514058195E-002   1.7530730481338207E-002   0.0000000000000000     
  -2.7161240898045304E-002   2.1020464799144562E-002   0.0000000000000000     
  -3.0652689048897671E-002   2.4641237101825961E-002   0.0000000000000000     
  -1.8339486608559143E-002   1.2156111194311241E-002   0.0000000000000000     
  -2.2446297744808972E-002   1.5304698222229683E-002   0.0000000000000000     
  -2.6423565817926056E-002   1.8607406334867946E-002   0.0000000000000000     
  -3.0271290827910396E-002   2.2064235532226025E-002   0.0000000000000000     
  -3.3989472774761997E-002   2.5675185814303933E-002   0.0000000000000000     
  -2.1253413259185731E-002   1.3593466817544969E-002   0.0000000000000000     
  -2.5472840113273370E-002   1.6580011088386651E-002   0.0000000000000000     
  -2.9594860814031627E-002   1.9772538876750186E-002   0.0000000000000000     
  -3.3619475361460489E-002   2.3171050182635568E-002   0.0000000000000000     
  -3.7546683755559959E-002   2.6775545006042810E-002   0.0000000000000000     
  -2.4640403361969952E-002   2.2772571114652716E-002   0.0000000000000000     
  -2.7545793795143863E-002   2.6620244008999792E-002   0.0000000000000000     
  -3.0375181423200431E-002   3.0691020848609998E-002   0.0000000000000000     
  -3.3128566246139676E-002   3.4984901633483320E-002   0.0000000000000000     
  -3.5805948263961586E-002   3.9501886363619773E-002   0.0000000000000000     
  -2.7536332577966987E-002   2.3673698868608883E-002   0.0000000000000000     
  -3.0684062726894942E-002   2.7489779610419741E-002   0.0000000000000000     
  -3.3755545824810544E-002   3.1533365847429329E-002   0.0000000000000000     
  -3.6750781871713795E-002   3.5804457579637648E-002   0.0000000000000000     
  -3.9669770867604703E-002   4.0303054807044714E-002   0.0000000000000000     
  -3.0652689048897671E-002   2.4641237101825961E-002   0.0000000000000000     
  -3.4037114161953999E-002   2.8440086832795950E-002   0.0000000000000000     
  -3.7345336432552959E-002   3.2464053435468064E-002   0.0000000000000000     
  -4.0577355860694567E-002   3.6713136909842313E-002   0.0000000000000000     
  -4.3733172446378824E-002   4.1187337255918700E-002   0.0000000000000000     
  -3.3989472774761997E-002   2.5675185814303933E-002   0.0000000000000000     
  -3.7604948100321028E-002   2.9471165676128411E-002   0.0000000000000000     
  -4.1144553246427712E-002   3.3483083612726193E-002   0.0000000000000000     
  -4.4608288213082020E-002   3.7710939624097314E-002   0.0000000000000000     
  -4.7996153000283960E-002   4.2154733710241733E-002   0.0000000000000000     
  -3.7546683755559959E-002   2.6775545006042810E-002   0.0000000000000000     
  -4.1387564541996061E-002   3.0583016140417120E-002   0.0000000000000000     
  -4.5153196266434777E-002   3.4590456379203730E-002   0.0000000000000000     
  -4.8843578928876127E-002   3.8797865722402632E-002   0.0000000000000000     
  -5.2458712529320106E-002   4.3205244170013826E-002   0.0000000000000000     
  -3.5805948263961586E-002   3.9501886363619773E-002   0.0000000000000000     
  -3.8404716236414706E-002   4.4241191162995755E-002   0.0000000000000000     
  -4.0922258923247579E-002   4.9202032155587640E-002   0.0000000000000000     
  -4.3358576324460205E-002   5.4384409341395462E-002   0.0000000000000000     
  -4.5713668440052584E-002   5.9788322720419187E-002   0.0000000000000000     
  -3.9669770867604703E-002   4.0303054807044714E-002   0.0000000000000000     
  -4.2506090505039069E-002   4.5027554667998300E-002   0.0000000000000000     
  -4.5253318476572706E-002   4.9976354300846203E-002   0.0000000000000000     
  -4.7911454782205612E-002   5.5149453705588457E-002   0.0000000000000000     
  -5.0480499421937788E-002   6.0546852882225007E-002   0.0000000000000000     
  -4.3733172446378824E-002   4.1187337255918700E-002   0.0000000000000000     
  -4.6805159987987510E-002   4.5888463745503198E-002   0.0000000000000000     
  -4.9785692283902415E-002   5.0818325650401827E-002   0.0000000000000000     
  -5.2674769334123558E-002   5.5976922970614566E-002   0.0000000000000000     
  -5.5472391138650913E-002   6.1364255706141436E-002   0.0000000000000000     
  -4.7996153000283960E-002   4.2154733710241733E-002   0.0000000000000000     
  -5.1301924685260042E-002   4.6823918395510471E-002   0.0000000000000000     
  -5.4519380345236720E-002   5.1727946204254506E-002   0.0000000000000000     
  -5.7648519980214030E-002   5.6866817136473839E-002   0.0000000000000000     
  -6.0689343590191965E-002   6.2240531192168470E-002   0.0000000000000000     
  -5.2458712529320106E-002   4.3205244170013826E-002   0.0000000000000000     
  -5.5996384596856637E-002   4.7833918618020103E-002   0.0000000000000000     
  -5.9454382660575615E-002   5.2705215962404239E-002   0.0000000000000000     
  -6.2832706720477055E-002   5.7819136203166241E-002   0.0000000000000000     
  -6.6131356776560943E-002   6.3175679340306101E-002   0.0000000000000000     
  -4.5713668440052584E-002   5.9788322720419187E-002   0.0000000000000000     
  -4.7992515240963256E-002   6.5391201107459218E-002   0.0000000000000000     
  -5.0200096698130761E-002   7.1170473317315908E-002   0.0000000000000000     
  -5.2336412811555093E-002   7.7126139349989270E-002   0.0000000000000000     
  -5.4401463581236272E-002   8.3258199205479319E-002   0.0000000000000000     
  -5.0480499421937788E-002   6.0546852882225007E-002   0.0000000000000000     
  -5.2967079588967736E-002   6.6144995232909454E-002   0.0000000000000000     
  -5.5377822476493969E-002   7.1920324159795351E-002   0.0000000000000000     
  -5.7712728084516482E-002   7.7872839662882651E-002   0.0000000000000000     
  -5.9971796413035280E-002   8.4002541742171408E-002   0.0000000000000000     
  -5.5472391138650913E-002   6.1364255706141436E-002   0.0000000000000000     
  -5.8181560295922703E-002   6.6954222991156748E-002   0.0000000000000000     
  -6.0805279404377167E-002   7.2720723959834824E-002   0.0000000000000000     
  -6.3343548464014271E-002   7.8663758612175699E-002   0.0000000000000000     
  -6.5796367474834055E-002   8.4783326948179347E-002   0.0000000000000000     
  -6.0689343590191965E-002   6.2240531192168470E-002   0.0000000000000000     
  -6.3635957361828185E-002   6.7818884382201100E-002   0.0000000000000000     
  -6.6482467481780355E-002   7.3571672717434436E-002   0.0000000000000000     
  -6.9228873950048495E-002   7.9498896197868443E-002   0.0000000000000000     
  -7.1875176766632576E-002   8.5600554823503164E-002   0.0000000000000000     
  -6.6131356776560943E-002   6.3175679340306101E-002   0.0000000000000000     
  -6.9330270786684148E-002   6.8738979406042497E-002   0.0000000000000000     
  -7.2409386708703560E-002   7.4473170432594077E-002   0.0000000000000000     
  -7.5368704542619111E-002   8.0378252419960869E-002   0.0000000000000000     
  -7.8208224288430855E-002   8.6454225368142845E-002   0.0000000000000000     
  -5.4401463581236272E-002   8.3258199205479319E-002   0.0000000000000000     
  -5.6393566170618969E-002   8.9565005097302572E-002   0.0000000000000000     
  -5.8311037743147887E-002   9.6044909238975587E-002   0.0000000000000000     
  -6.0153878298822995E-002  0.10269791163049839        0.0000000000000000     
  -6.1922087837644323E-002  0.10952401227187095        0.0000000000000000     
  -5.9971796413035280E-002   8.4002541742171408E-002   0.0000000000000000     
  -6.2154648397599592E-002   9.0307205115790726E-002   0.0000000000000000     
  -6.4260904973758651E-002   9.6784604501869792E-002   0.0000000000000000     
  -6.6290566141512464E-002  0.10343473990040855        0.0000000000000000     
  -6.8243631900861010E-002  0.11025761131140704        0.0000000000000000     
  -6.5796367474834055E-002   8.4783326948179347E-002   0.0000000000000000     
  -6.8169354227828258E-002   9.1078364251270971E-002   0.0000000000000000     
  -7.0468126513988635E-002   9.7547805804875737E-002   0.0000000000000000     
  -7.2692684333315244E-002  0.10419165160899362        0.0000000000000000     
  -7.4843027685808042E-002  0.11100990166362468        0.0000000000000000     
  -7.1875176766632576E-002   8.5600554823503164E-002   0.0000000000000000     
  -7.4437683661304904E-002   9.1878482503743267E-002   0.0000000000000000     
  -7.6932702363837840E-002   9.8334513147993394E-002   0.0000000000000000     
  -7.9360232874231329E-002  0.10496864675625359        0.0000000000000000     
  -8.1720275192485356E-002  0.11178088332852383        0.0000000000000000     
  -7.8208224288430855E-002   8.6454225368142845E-002   0.0000000000000000     
  -8.0959636698029636E-002   9.2707559873207640E-002   0.0000000000000000     
  -8.3654632523306238E-002   9.9144726531222846E-002   0.0000000000000000     
  -8.6293211764260719E-002  0.10576572534218846        0.0000000000000000     
  -8.8875374420893036E-002  0.11257055630610449        0.0000000000000000     
  -6.1922087837644323E-002  0.10952401227187095        0.0000000000000000     
  -6.3609640044841570E-002  0.11654673202880883        0.0000000000000000     
  -6.5210508605644465E-002  0.12378959176702758        0.0000000000000000     
  -6.6724693520052974E-002  0.13125259148652715        0.0000000000000000     
  -6.8152194788067125E-002  0.13893573118730765        0.0000000000000000     
  -6.8243631900861010E-002  0.11025761131140704        0.0000000000000000     
  -7.0110618603374086E-002  0.11728759024514034        0.0000000000000000     
  -7.1882042600621476E-002  0.12455904821188343        0.0000000000000000     
  -7.3557903892603166E-002  0.13207198521163635        0.0000000000000000     
  -7.5138202479319197E-002  0.13982640124439910        0.0000000000000000     
  -7.4843027685808042E-002  0.11100990166362468        0.0000000000000000     
  -7.6914816961359933E-002  0.11804319553490365        0.0000000000000000     
  -7.8903712549863891E-002  0.12533217278896533        0.0000000000000000     
  -8.0809714451319903E-002  0.13287683342580978        0.0000000000000000     
  -8.2632822665727926E-002  0.14067717744543690        0.0000000000000000     
  -8.1720275192485356E-002  0.11178088332852383        0.0000000000000000     
  -8.4022235118799110E-002  0.11881354789809885        0.0000000000000000     
  -8.6275518453371683E-002  0.12610896549827338        0.0000000000000000     
  -8.8480125196203088E-002  0.13366713612904743        0.0000000000000000     
  -9.0636055347293312E-002  0.14148805979042103        0.0000000000000000     
  -8.8875374420893036E-002  0.11257055630610449        0.0000000000000000     
  -9.1432873075691617E-002  0.11959864733472585        0.0000000000000000     
  -9.3997460311144865E-002  0.12688942633980749        0.0000000000000000     
  -9.6569136127252778E-002  0.13444289332134934        0.0000000000000000     
  -9.9147900524015342E-002  0.14225904827935149        0.0000000000000000     
  -6.8152194788067125E-002  0.13893573118730765        0.0000000000000000     
  -6.9527444488561713E-002  0.14689380288896081        0.0000000000000000     
  -7.0884874700411576E-002  0.15518159861107853        0.0000000000000000     
  -7.2224485423616674E-002  0.16379911835366073        0.0000000000000000     
  -7.3546276658177062E-002  0.17274636211670752        0.0000000000000000     
  -7.5138202479319197E-002  0.13982640124439910        0.0000000000000000     
  -7.6648208701937531E-002  0.14793048172343856        0.0000000000000000     
  -7.8113192901626230E-002  0.15649241206202164        0.0000000000000000     
  -7.9533155078385265E-002  0.16551219226014835        0.0000000000000000     
  -8.0908095232214663E-002  0.17498982231781865        0.0000000000000000     
  -8.2632822665727926E-002  0.14067717744543690        0.0000000000000000     
  -8.4401846484662785E-002  0.14890472213044870        0.0000000000000000     
  -8.6145595199699221E-002  0.15773098476344710        0.0000000000000000     
  -8.7864068810837290E-002  0.16715596534443214        0.0000000000000000     
  -8.9557267318076922E-002  0.17717966387340384        0.0000000000000000     
  -9.0636055347293312E-002  0.14148805979042103        0.0000000000000000     
  -9.2788357836737445E-002  0.14981652410999116        0.0000000000000000     
  -9.4982081594630577E-002  0.15889731671535487        0.0000000000000000     
  -9.7217226620972694E-002  0.16873043760651218        0.0000000000000000     
  -9.9493792915763823E-002  0.17931588678346305        0.0000000000000000     
  -9.9147900524015342E-002  0.14225904827935149        0.0000000000000000     
 -0.10180774275816153       0.15066588766206598        0.0000000000000000     
 -0.10462265208642026       0.15999140791774497        0.0000000000000000     
 -0.10759262850879155       0.17023560904638843        0.0000000000000000     
 -0.11071767202527537       0.18139849104799635        0.0000000000000000     
 </DataArray>
 <DataArray  type="Float64" Name="stress" NumberOfComponents="3" format="ascii">
   13415898089.861189        4024769426.9583569        2889733585.2492723     
   11771622299.194969        1888564953.6789062        1713538890.9470186     
   10324894240.814878        410852921.35320854        809388629.20182824     
   9075713914.7209091       -408366670.01874113        177282800.01369992     
   8024081320.9130650       -569093820.43693876       -182778596.61736491     
   10545569694.515896        3163670908.3547688        2220206113.1794281     
   9676649198.5584106        1589794004.9986308        1442414830.2091985     
   8956611979.6212025        512194691.71008873        859238363.70632088     
   8385458037.7042732       -69127031.510859013        470676713.67079604     
   7963187372.8076248       -154171164.66420889        276729880.10262179     
   8346765481.8795843        2504029644.5638752        1705882002.1341581     
   8031972806.0887995        1426112068.7684395        1269718932.6857986     
   7817398952.0524483        682257232.15444565        950741063.61508095     
   7703043919.7705297        272465134.72189188        748948394.92200279     
   7688907709.2430401        196735776.47077799        664340926.60656631     
   6819485451.9522562        2045845635.5856769        1346761252.1134627     
   6837593121.7861433        1397519144.9883351        1195451198.3768187     
   6907255158.1086149        921040542.68627882        1083896728.9281054     
   7028471560.9196730        616409828.67950821        1012097843.7673217     
   7201242330.2193146        483627002.96802330        980054542.89446819     
   5963729604.7339106        1789118881.4201732        1142843863.1173413     
   6093510145.6504364        1504015233.6583154        1219611627.2822587     
   6226180597.7897005        1228544623.3055880        1258705359.6453950     
   6361740961.1517048        962707050.36199141        1260125060.2067511     
   6500191235.7364473        706502514.82752514        1223870728.9663265     
   8024081320.9130650       -569093820.43693876       -182778596.61736491     
   7947391856.6517630       -201325986.66663122       -80888196.300962508     
   7828766997.6809549        26657198.071997643       -11530925.612173187     
   7668206744.0006447        114855733.77895403        25293215.449000336     
   7465711095.6108341        63269620.454235077        29584226.882561263     
   7963187372.8076248       -154171164.66420889        276729880.10262179     
   7766174376.1295061        18194450.458305359        274438125.86580873     
   7545442353.7346077        111496646.52488518        257215757.54701385     
   7300991305.6229286        125735423.53552914        225062775.14623612     
   7032821231.7944670        60910781.490235806        177979178.66347367     
   7688907709.2430401        196735776.47077799        664340926.60656631     
   7421864081.7070532        188787043.41318178        579119448.30804694     
   7149317797.4470110        162496121.27539253        496569871.47317618     
   6871268856.4629059        117863010.05740857        416692196.10195518     
   6587717258.7547474        54887709.759232283        339486422.19438136     
   7201242330.2193146        483627002.96802330        980054542.89446819     
   6914460973.3844090        310451792.19800186        833155771.02575290     
   6640393328.8181648        179655622.32352781        706531416.16631579     
   6379039396.5205851        91238493.344599962        600181478.31616104     
   6130399176.4916706        45200405.261218071        514105957.47528368     
   6500191235.7364473        706502514.82752514        1223870728.9663265     
   6243965051.1615667        383188696.81276274        1036547094.0189223     
   6018668947.8480721        162975149.66928720        887100391.62643039     
   5824302925.7959633        45861873.397101879        775530621.78884971     
   5660866985.0052423        31848867.996201515        701837784.50617957     
   7465711095.6108341        63269620.454235077        29584226.882561263     
   7295125182.6087236       -23756092.769565105        12884671.939591654     
   7136796079.3609171       -69925773.479020596       -4380060.6132219024     
   6990723785.8674097       -75239421.674142838       -22209970.775884207     
   6856908302.1282034       -39697037.354928493       -40605058.548389181     
   7032821231.7944670        60910781.490235806        177979178.66347367     
   6870014958.4659042        3792352.2235660553        168903662.17122859     
   6715167538.9609280       -26796564.297807693        159475980.58606407     
   6568278973.2795343       -30855968.073905468        149696133.90798214     
   6429349261.4217319       -8385859.1047079563        139564122.13697952     
   6587717258.7547474        54887709.759232283        339486422.19438136     
   6433299232.2909470        27859146.607060909        333020662.23369360     
   6282542103.7200203        13033576.431127548        326415749.69700837     
   6135445873.0419645        10410999.231429815        319671684.58433455     
   5992010540.2567778        19991415.007967949        312788466.89566708     
   6130399176.4916706        45200405.261218071        514105957.47528368     
   5984978004.0838566        48444290.380912066        505235672.12698096     
   5838919773.6381989        49564648.707791328        496439246.71961582     
   5692224485.1546926        48561480.241852999        487716681.25317919     
   5544892138.6333456        45434784.983100176        479067975.72768188     
   5660866985.0052423        31848867.996201515        701837784.50617957     
   5525051273.8446312        65547783.545123816        685548691.85109794     
   5384300548.7154551        82796652.532175779        669546471.65387642     
   5238614809.6177225        83595474.957363844        653831123.91451502     
   5087994056.5514297        67944250.820687532        638402648.63301659     
   6856908302.1282034       -39697037.354928493       -40605058.548389181     
   6717158321.9325581        4383319.7590651512       -31991352.046886958     
   6571954821.0364828        30285274.538301945       -31791249.059610788     
   6421297799.4399815        38008826.982782125       -40004749.586566105     
   6265187257.1430540        27553977.092508554       -56631853.627741717     
   6429349261.4217319       -8385859.1047079563        139564122.13697952     
   6265942030.6257048        12145931.571540594        141041680.66840783     
   6098139640.9875317        18027192.773975611        138169242.19940737     
   5925942092.5072145        9257924.5025887489        130946806.72996984     
   5749349385.1847553       -14161873.242604733        119374374.26010226     
   5992010540.2567778        19991415.007967949        312788466.89566708     
   5816556363.1854954        20457730.544007063        308364632.95835888     
   5637765389.1303501        9801389.4671692848        303654408.53440595     
   5455637618.0913410       -11977608.222540140        298657793.62381315     
   5270173050.0684729       -44879262.525118351        293374788.22658592     
   5544892138.6333456        45434784.983100176        479067975.72768188     
   5369001319.6119356        29318716.676469326        469977504.82295448     
   5190832065.4649382        5607864.6179027557        464664249.94538498     
   5010384376.1923676       -25697771.192587376        463128211.09497339     
   4827658251.7942142       -64598190.755023956        465369388.27171332     
   5087994056.5514297        67944250.820687532        638402648.63301659     
   4923276899.9050140        38728889.968924522        625880296.26220894     
   4757339669.9912987        5446618.2261674404        621198766.43234825     
   4590182366.8102856       -31902564.407579422        624358059.14343941     
   4421804990.3619766       -73318657.932319880        635358174.39547861     
   6265187257.1430540        27553977.092508554       -56631853.627741717     
   6023042983.3822994       -12885838.245901346       -122234627.58443797     
   5783599584.6017466       -44322736.983628273       -171432586.87310204     
   5546857060.8013992       -66756719.120670319       -204225731.49372816     
   5312815411.9812717       -80187784.656989813       -220614061.44633877     
   5749349385.1847553       -14161873.242604733        119374374.26010226     
   5546581415.8650141       -49391733.530740261        67359151.201655850     
   5345599275.3146172       -78668831.254393578        28026281.110505719     
   5146402963.5335636       -101993166.41358113        1375763.9866649974     
   4948992480.5218534       -119364739.00827932       -12592400.169870475     
   5270173050.0684729       -44879262.525118351        293374788.22658592     
   5096145780.3305311       -78089849.220724583        253879562.15371194     
   4922989293.1510658       -108397827.38807511        223344227.34740686     
   4750703588.5300751       -135803197.02717423        201768783.80767891     
   4579288666.4675646       -160305958.13801336        189153231.53452191     
   4827658251.7942142       -64598190.755023956        465369388.27171332     
   4671736076.7788429       -98980185.315870523        437326605.27172625     
   4515769638.1110792       -133509725.38468933        414521251.83758813     
   4359758935.7909279       -168186810.96147180        396953327.96929550     
   4203703969.8183808       -203011442.04623055        384622833.66684192     
   4421804990.3619766       -73318657.932319880        635358174.39547861     
   4273352305.2099500       -112062741.81617475        617700280.55571103     
   4123940310.1946664       -154004525.24422598        601557354.58105767     
   3973569005.3161216       -199144008.21647668        586929396.47152054     
   3822238390.5743237       -247481190.73291039        573816406.22709560     
   5312815411.9812717       -80187784.656989813       -220614061.44633877     
   5211717708.7632322       -56113989.054975033       -224133605.02796093     
   5106351005.8118286       -46270192.564159870       -237433535.84310335     
   4996715303.1270628       -50656395.184566736       -260513853.89177889     
   4882810600.7089329       -69272596.916175127       -293374559.17397732     
   4948992480.5218534       -119364739.00827932       -12592400.169870475     
   4819798059.5591335       -118088379.19131184       -20796607.647198219     
   4687619862.8800011       -126757938.42904234       -35572340.974967442     
   4552457890.4844627       -145373416.72145081       -56919600.153189681     
   4414312142.3725224       -173934814.06854486       -84838385.181862369     
   4579288666.4675646       -160305958.13801336        189153231.53452191     
   4431165703.1403637       -179076581.49207377        177763788.18127912     
   4281344188.1137180       -203509043.84426737        163011680.36067429     
   4129824121.3876357       -233603345.19460940        144896908.07268614     
   3976605502.9621043       -269359485.54308724        123419471.31733434     
   4203703969.8183808       -203011442.04623055        384622833.66684192     
   4045820639.5069299       -239078595.95721984        371547582.45747644     
   3887523981.5129957       -276523508.80982113        358318528.16381723     
   3728813995.8365803       -315346180.60402703        344935670.78585559     
   3569690682.4776793       -355546611.33985305        331399010.32360119     
   3822238390.5743237       -247481190.73291039        573816406.22709560     
   3663762868.6588387       -298094422.58676124        560554775.18139112     
   3506159243.0778236       -345801333.32571507        550348202.43446112     
   3349427513.8312931       -390601922.94972181        543196687.98631012     
   3193567680.9192309       -432496191.45882940        539100231.83693862     
   4882810600.7089329       -69272596.916175127       -293374559.17397732     
   4901909914.2803354       -50975134.533890724       -297461789.36686474     
   4923308420.5413809       -25013696.519444942       -350685667.63871413     
   4947006119.4920769        8611717.1271533966       -453046193.98951006     
   4973003011.1324148        49901106.405900478       -604543368.41928840     
   4414312142.3725224       -173934814.06854486       -84838385.181862369     
   4313256496.8146219       -199256778.78448653       -70144225.691845745     
   4209984012.8181262       -231968204.96240616       -88674288.122734770     
   4104494690.3830261       -272069092.60232735       -140428572.47453746     
   3996788529.5093341       -319559441.70425296       -225407078.74725541     
   3976605502.9621043       -269359485.54308724        123419471.31733434     
   3800858973.0121875       -324661654.93609500        151626317.50729993     
   3618379573.4954324       -402406722.88521147        162521367.93441164     
   3429167304.4118347       -502594689.39048314        156104622.59866709     
   3233222165.7613978       -625225554.45186973        132376081.50005485     
   3569690682.4776793       -355546611.33985305        331399010.32360119     
   3364717342.8730364       -427189762.98871374        367849840.23056829     
   3148495102.5733118       -536329250.28783870        402901300.53273165     
   2921023961.5785003       -682965073.23725879        436553391.23008662     
   2682303919.8886099       -867097231.83693874        468806112.32263219     
   3193567680.9192309       -432496191.45882940        539100231.83693862     
   3004831606.3971577       -506841102.94236052        578526342.47795975     
   2800330600.0517569       -633735787.17030418        632465509.67222047     
   2580064661.8830309       -813180244.14266860        700917733.41973138     
   2344033791.8909779       -1045174473.8594643        783883013.72048044     
   4973003011.1324148        49901106.405900478       -604543368.41928840     
   5257703693.4309425        6473978.4157865047       -346812470.32776368     
   5433075960.3147717       -401381200.95667577       -190339826.25822771     
   5499119811.7838917       -1173664431.7115226       -135125436.21066380     
   5455835247.8382998       -2310375713.8486857       -181169300.18509883     
   3996788529.5093341       -319559441.70425296       -225407078.74725541     
   4027439037.7329893       -482487199.03159618        1240855.9140518152     
   3956826554.3152676       -982958261.83021784        161300902.07910383     
   3784951079.2561560       -1820972630.1001394        254773059.74790385     
   3511812612.5556526       -2996530303.8413458        281657328.92045510     
   3233222165.7613978       -625225554.45186973        132376081.50005485     
   3108880687.1265645       -877936484.95151401        337350713.80001158     
   2891341640.6236639       -1441305975.0113900        510407823.12946194     
   2580605026.2527084       -2315334024.6314697        651547409.48838484     
   2176670844.0136662       -3500020633.8117952        760769472.87678349     
   2682303919.8886099       -867097231.83693874        468806112.32263219     
   2502028641.6116633       -1179873879.3439846        661517103.33011925     
   2236621219.2399693       -1776424340.5001755        856980936.89282060     
   1886081652.7735252       -2656748615.3055406        1055197613.0107329     
   1450409942.2123380       -3820846703.7600470        1256167131.6838608     
   2344033791.8909779       -1045174473.8594643        783883013.72048044     
   2206882901.1882954       -1388299382.2089756        973740024.50437272     
   1992665290.1641769       -1988313358.2966037        1201020243.3691995     
   1701380958.8186340       -2845216402.1223125        1465723670.3149807     
   1333029907.1516721       -3959008513.6861000        1767850305.3417072     
   5963729604.7339106        1789118881.4201732        1142843863.1173413     
   6093510145.6504364        1504015233.6583154        1219611627.2822587     
   6226180597.7897005        1228544623.3055880        1258705359.6453950     
   6361740961.1517048        962707050.36199141        1260125060.2067511     
   6500191235.7364473        706502514.82752514        1223870728.9663265     
   5436000304.7878809        1630800091.4363644        1026545430.0926640     
   5490156493.4757519        1374188135.7275708        1106219795.0217533     
   5546602043.0571594        1125207382.9972301        1158820607.2567976     
   5605336953.5321007        883857833.24534190        1184347866.7977977     
   5666361224.9005804        650139486.47190690        1182801573.6447520     
   4892799916.6774988        1467839975.0032496        930281547.98630178     
   4901618836.3016758        1248805836.2970080        1012161871.6288258     
   4912126566.4901838        1035401066.1385415        1077569121.6850410     
   4924323107.2430267        827625664.52785039        1126503298.1549466     
   4938208458.5602016        625479631.46493542        1158964401.0385442     
   4334128440.4027643        1300238532.1208293        854052216.79825437     
   4327897174.1282063        1127868335.3666277        937437857.10347605     
   4322754168.0887766        959125672.72952366        1014950902.9301243     
   4318699422.2844791        794010544.20951748        1086591354.2781994     
   4315732936.7153101        632522949.80660999        1152359211.1477017     
   3759985875.9636769        1127995762.7891030        797857436.52852201     
   3768991506.9553447        1011375632.9364296        882047751.44570374     
   3778484847.8529382        896381202.77017593        970965950.99204826     
   3788465898.6564584        783012472.29034257        1064612035.1675558     
   3798934659.3659039        671269441.49692941        1162986003.9722264     
   6500191235.7364473        706502514.82752514        1223870728.9663265     
   6243965051.1615667        383188696.81276274        1036547094.0189223     
   6018668947.8480721        162975149.66928720        887100391.62643039     
   5824302925.7959633        45861873.397101879        775530621.78884971     
   5660866985.0052423        31848867.996201515        701837784.50617957     
   5666361224.9005804        650139486.47190690        1182801573.6447520     
   5514428930.9929800        392696824.60442162        1059254820.2555164     
   5386688147.2833452        215892530.06348085        962856168.02144206     
   5283138873.7716713        119726602.84908104        893605616.94253421     
   5203781110.4579601        104199042.96122408        851503167.01878917     
   4938208458.5602016        625479631.46493542        1158964401.0385442     
   4859916251.3206043        424711984.54494405        1091332862.9668140     
   4799076983.2155485        282120801.40675163        1040120594.6504997     
   4755690654.2450285        197706082.05035591        1005327596.0896028     
   4729757264.4090519        171467826.47575998        986953867.28412127     
   4315732936.7153101        632522949.80660999        1152359211.1477017     
   4280427012.1444354        479234176.63432848        1132781222.1528172     
   4255835455.6446791        361659963.69910109        1118893671.5136018     
   4241958267.2160382        279800311.00092649        1110696559.2300546     
   4238795446.8585138        233655218.53980637        1108189885.3021777     
   3798934659.3659039        671269441.49692941        1162986003.9722264     
   3775961213.4644761        556263400.87257576        1183599897.8135271     
   3756963564.5707412        454510016.94052994        1199175398.6107481     
   3741941712.6846991        366009289.70079219        1209712506.3638923     
   3730895657.8063488        290761219.15336370        1215211221.0729570     
   5660866985.0052423        31848867.996201515        701837784.50617957     
   5525051273.8446312        65547783.545123816        685548691.85109794     
   5384300548.7154551        82796652.532175779        669546471.65387642     
   5238614809.6177225        83595474.957363844        653831123.91451502     
   5087994056.5514297        67944250.820687532        638402648.63301659     
   5203781110.4579601        104199042.96122408        851503167.01878917     
   5061777353.5277691        103534551.99773717        826538379.13959646     
   4917773427.2848768        96202829.991914749        804456700.48265660     
   4771769331.7292814        82203876.943748474        785258131.04796636     
   4623765066.8609858        61537692.853250265        768942670.83552337     
   4729757264.4090519        171467826.47575998        986953867.28412127     
   4588983281.0361090        138665274.79791331        956737369.61265421     
   4449143973.0063257        108978307.59725857        932000217.92782712     
   4310239340.3196983        82406924.873791218        912742412.22964025     
   4172269382.9762278        58951126.627517462        898963952.51809514     
   4238795446.8585138        233655218.53980637        1108189885.3021777     
   4106669056.3696508        170939951.94564891        1076145663.2702694     
   3978412185.8798056        121123085.34821105        1052177023.9893926     
   3854024835.3889742        84204618.747492313        1036283967.4595447     
   3733507004.8971577        60184552.143490791        1028466493.6807292     
   3730895657.8063488        290761219.15336370        1215211221.0729570     
   3614834679.5283942        200358583.44094503        1184763260.1124418     
   3505578065.9053149        132637163.24477649        1164987118.6673498     
   3403125816.9371090        87596958.564847946        1155882796.7376781     
   3307477932.6237760        65237969.401172519        1157450294.3234260     
   5087994056.5514297        67944250.820687532        638402648.63301659     
   4923276899.9050140        38728889.968924522        625880296.26220894     
   4757339669.9912987        5446618.2261674404        621198766.43234825     
   4590182366.8102856       -31902564.407579422        624358059.14343941     
   4421804990.3619766       -73318657.932319880        635358174.39547861     
   4623765066.8609858        61537692.853250265        768942670.83552337     
   4479241665.3252211        36270183.902236938        758631138.08999574     
   4332996070.1173677        5262029.3775808811        755101397.83461773     
   4185028281.2374172       -31486770.720716715        758353450.06938803     
   4035338298.6853757       -73976216.392658234        768387294.79430699     
   4172269382.9762278        58951126.627517462        898963952.51809514     
   4044913936.4059792        36723729.533717155        890277432.25891840     
   3915334175.7588401        7081952.1836204529        887313674.43909085     
   3783530101.0348101       -29974205.422772884        890072679.05861461     
   3649501712.2338943       -74444743.285457611        898554446.11748779     
   3733507004.8971577        60184552.143490791        1028466493.6807292     
   3620293713.1472774        40089526.863356352        1020819178.7689753     
   3504353986.9157133        10906386.644276142        1017835596.2457708     
   3385687826.2024655       -27364868.513748407        1019515746.1111217     
   3264295231.0075326       -74724238.610724926        1025859628.3650196     
   3307477932.6237760        65237969.401172519        1157450294.3234260     
   3205380995.5491238        46367575.891161561        1150256377.6201670     
   3100055503.5879917        16735332.759553671        1146667163.2546601     
   2991501456.7403789       -23658759.993650079        1146682651.2269030     
   2879718855.0062881       -74814702.368454099        1150302841.5368991     
   4421804990.3619766       -73318657.932319880        635358174.39547861     
   4273352305.2099500       -112062741.81617475        617700280.55571103     
   4123940310.1946664       -154004525.24422598        601557354.58105767     
   3973569005.3161216       -199144008.21647668        586929396.47152054     
   3822238390.5743237       -247481190.73291039        573816406.22709560     
   4035338298.6853757       -73976216.392658234        768387294.79430699     
   3890536402.1524963       -118280514.99930811        750663667.89472365     
   3745293218.8034973       -164055769.65970254        735516498.54232323     
   3599608748.6383681       -211301980.37384796        722945786.73710179     
   3453482991.6571174       -260019147.14173579        712951532.47906208     
   3649501712.2338943       -74444743.285457611        898554446.11748779     
   3511383431.9832091       -123399408.31598639        881369446.37974620     
   3373341887.9635286       -172098285.90981722        867822393.87125146     
   3235377080.1748614       -220541376.06694651        857913288.59200084     
   3097489008.6172051       -268728678.78737319        851642130.54199994     
   3264295231.0075326       -74724238.610724926        1025859628.3650196     
   3135893394.7020807       -127419421.76622045        1009817616.0107757     
   3008086317.6747737       -178132073.99456680        998475040.56784284     
   2880873999.9256077       -226862195.29576862        991831902.03622329     
   2754256441.4545894       -273609785.66982651        989888200.41591370     
   2879718855.0062881       -74814702.368454099        1150302841.5368991     
   2764066290.3091173       -130340555.35000086        1136008176.7878103     
   2649526507.9372211       -182157133.91395783        1127474438.6320968     
   2536099507.8906050       -230264438.06031799        1124701627.0697594     
   2423785290.1692672       -274662467.78908515        1127689742.1008031     
   3822238390.5743237       -247481190.73291039        573816406.22709560     
   3663762868.6588387       -298094422.58676124        560554775.18139112     
   3506159243.0778236       -345801333.32571507        550348202.43446112     
   3349427513.8312931       -390601922.94972181        543196687.98631012     
   3193567680.9192309       -432496191.45882940        539100231.83693862     
   3453482991.6571174       -260019147.14173579        712951532.47906208     
   3303609546.0277510       -311134204.23951745        704743916.08992827     
   3153337661.6746502       -363577390.41641855        700214028.98609483     
   3002667338.5978026       -417348705.67247212        699361871.16755342     
   2851598576.7972174       -472448150.00764275        702187442.63431215     
   3097489008.6172051       -268728678.78737319        851642130.54199994     
   2957996699.2354445       -319811843.14062715        847006471.24152684     
   2816835616.0717263       -376457586.76707077        846671212.21286714     
   2674005759.1260586       -438665909.66668546        850636353.45602524     
   2529507128.3984318       -506436811.83948576        858901894.97100008     
   2754256441.4545894       -273609785.66982651        989888200.41591370     
   2626924328.2819138       -324127339.29010856        987342440.63618028     
   2496653106.2690659       -384441922.37762880        989719752.11478055     
   2363442775.4160480       -454553534.93238389        997020134.85171390     
   2227293335.7228599       -534462176.95436752        1009243588.8469834     
   2423785290.1692672       -274662467.78908515        1127689742.1008031     
   2310392433.1671557       -324080692.68796313        1125751824.2738929     
   2192790132.2666597       -387530397.24811912        1129359648.6918359     
   2070978387.4677777       -465011581.46956193        1138513215.3546281     
   1944957198.7705128       -556524245.35228157        1153212524.2622750     
   3193567680.9192309       -432496191.45882940        539100231.83693862     
   3004831606.3971577       -506841102.94236052        578526342.47795975     
   2800330600.0517569       -633735787.17030418        632465509.67222047     
   2580064661.8830309       -813180244.14266860        700917733.41973138     
   2344033791.8909779       -1045174473.8594643        783883013.72048044     
   2851598576.7972174       -472448150.00764275        702187442.63431215     
   2696148877.4626007       -552018240.20618474        729592951.73717225     
   2525829684.1463385       -681153310.34352767        769296118.74983180     
   2340640996.8484292       -859853360.41970110        821296943.67228746     
   2140582815.5688839       -1088118390.4346650        885595426.50454760     
   2529507128.3984318       -506436811.83948576        858901894.97100008     
   2401014093.8414216       -593130993.87600040        875331480.01765668     
   2258547003.1444516       -726405363.04570735        901843324.33067369     
   2102105856.3075209       -906259919.34861541        938437427.91004300     
   1931690653.3306298       -1132694662.7847188        985113790.75576746     
   2227293335.7228599       -534462176.95436752        1009243588.8469834     
   2119427255.5336206       -630179363.95178998        1015741927.3194089     
   1998482557.0460908       -769491945.27683473        1030107126.4147495     
   1864459240.2603018       -952399920.92941761        1052339186.1329995     
   1717357305.1762290       -1178903290.9096141        1082438106.4741564     
   1944957198.7705128       -556524245.35228157        1153212524.2622750     
   1851388362.5391912       -663163350.43359005        1150824293.6424341     
   1745636345.8512745       -810413057.03687453        1154087525.0020609     
   1627701148.7067666       -998273365.16213262        1163002218.3411536     
   1497582771.1056685       -1226744274.8093572        1177568373.6597054     
   2344033791.8909779       -1045174473.8594643        783883013.72048044     
   2206882901.1882954       -1388299382.2089756        973740024.50437272     
   1992665290.1641769       -1988313358.2966037        1201020243.3691995     
   1701380958.8186340       -2845216402.1223125        1465723670.3149807     
   1333029907.1516721       -3959008513.6861000        1767850305.3417072     
   2140582815.5688839       -1088118390.4346650        885595426.50454760     
   2098803265.4150026       -1378807831.6442409        988201829.49292958     
   1999426395.7049785       -1861488338.0409522        1114647101.6363778     
   1842452206.4388189       -2536159909.6248088        1264931242.9348967     
   1627880697.6165135       -3402822546.3957834        1439054253.3884933     
   1931690653.3306298       -1132694662.7847188        985113790.75576746     
   1946470046.7944884       -1382592355.9336624        1023183886.8414762     
   1923121521.4674845       -1759583111.7187929        1071508513.1563780     
   1861645077.3496218       -2263666930.1401138        1130087669.7004728     
   1762040714.4409215       -2894843811.1976042        1198921356.4737661     
   1717357305.1762290       -1178903290.9096141        1082438106.4741564     
   1749883245.3267436       -1399652955.0772595        1078686196.5500257     
   1763750667.4516869       -1682597679.3301299        1071604477.9292194     
   1758959571.5510688       -2027737463.6682317        1061192950.6117191     
   1735509957.6248713       -2435072308.0915623        1047451614.5975547     
   1497582771.1056685       -1226744274.8093572        1177568373.6597054     
   1509042861.0117724       -1429989629.0750220        1154708758.6185701     
   1521313833.6575980       -1630532040.8749425        1114934995.9548767     
   1534395689.0431354       -1828371510.2091610        1058247085.6686262     
   1548288427.1683936       -2023508037.0776415        984645027.75983572     
   3759985875.9636769        1127995762.7891030        797857436.52852201     
   3768991506.9553447        1011375632.9364296        882047751.44570374     
   3778484847.8529382        896381202.77017593        970965950.99204826     
   3788465898.6564584        783012472.29034257        1064612035.1675558     
   3798934659.3659039        671269441.49692941        1162986003.9722264     
   3197708987.9473424        959312696.38420272        756241632.62941301     
   3223449157.2262502        870076919.87831938        852748673.47043538     
   3248782408.1392121        779484748.81928408        951081085.28475845     
   3273708740.6862288        687536183.20709729        1051238868.0723829     
   3298228154.8672996        594231223.04175854        1153222021.8333075     
   2674634540.9408641        802390362.28225923        723749230.55323625     
   2708816352.3474054        738051070.27528429        831529264.33424902     
   2741696617.1161304        669373289.47558546        938232155.43270063     
   2773275335.2470379        596357019.88316333        1043857903.8485909     
   2803552506.7401280        519002261.49801683        1148406509.5819204     
   2190762534.9442420        657228760.48327267        700380230.29999137     
   2225093092.3188119        615298084.12732434        818389524.03714454     
   2257227474.7836924        566046824.73908019        932419161.43587458     
   2287165682.3388853        509474982.31854063        1042469142.4961807     
   2314907714.9843888        445582556.86570495        1148539467.2180641     
   1746092969.9574769        523827890.98724306        686134631.86967874     
   1772279377.1404688        501817961.43443972        813329452.57912207     
   1795374981.1419003        469505354.60976851        933642103.29427993     
   1815379781.9617720        426890070.51323009        1047072584.0151523     
   1832293779.6000824        373972109.14482307        1153620894.7417395     
   3798934659.3659039        671269441.49692941        1162986003.9722264     
   3775961213.4644761        556263400.87257576        1183599897.8135271     
   3756963564.5707412        454510016.94052994        1199175398.6107481     
   3741941712.6846991        366009289.70079219        1209712506.3638923     
   3730895657.8063488        290761219.15336370        1215211221.0729570     
   3298228154.8672996        594231223.04175854        1153222021.8333075     
   3267786620.6042924        489591003.40424454        1181455227.1871886     
   3241149603.6485815        397632508.12438416        1206590029.6946628     
   3218317104.0001664        318355737.20217776        1228626429.3557303     
   3199289121.6590481        251760690.63762510        1247564426.1703887     
   2803552506.7401280        519002261.49801683        1148406509.5819204     
   2771185713.2517462        426390711.58820409        1184059200.1312525     
   2742452157.3702631        345889953.70139021        1218553478.0318499     
   2717351839.0956802        277499987.83757639        1251889343.2837107     
   2695884758.4279971        221220813.99676132        1284066795.8868363     
   2314907714.9843888        445582556.86570495        1148539467.2180641     
   2286158491.4068360        366662525.42445511        1191411816.6457193     
   2260871225.7357864        299282353.67154944        1235065743.6223094     
   2239045917.9712396        243442041.60698938        1279501248.1478360     
   2220682568.1131968        199141589.23077250        1324718330.2222993     
   1832293779.6000824        373972109.14482307        1153620894.7417395     
   1812704955.0695632        310406444.91299701        1203513076.7305875     
   1796406808.7451506        257809708.03486019        1256126826.4660428     
   1783399340.6268454        216181898.51041502        1311462143.9481065     
   1773682550.7146471        185523016.33965939        1369519029.1767764     
   3730895657.8063488        290761219.15336370        1215211221.0729570     
   3614834679.5283942        200358583.44094503        1184763260.1124418     
   3505578065.9053149        132637163.24477649        1164987118.6673498     
   3403125816.9371090        87596958.564847946        1155882796.7376781     
   3307477932.6237760        65237969.401172519        1157450294.3234260     
   3199289121.6590481        251760690.63762510        1247564426.1703887     
   3113173461.1226244        178845616.73296678        1232875057.6746988     
   3032356322.4779053        123592282.46731782        1226513138.2783597     
   2956837705.7248893        86000687.840681076        1228478667.9813719     
   2886617610.8635769        66070832.853056788        1238771646.7837353     
   2695884758.4279971        221220813.99676132        1284066795.8868363     
   2633016214.4443355        163783841.54322708        1283379203.2989378     
   2573940349.5892072        118989132.85147166        1288674689.3943205     
   2518657163.8626108        86836687.921493411        1299953254.1729860     
   2467166657.2645516        67326506.753296733        1317214897.6349325     
   2220682568.1131968        199141589.23077250        1324718330.2222993     
   2174362939.4935284        155173257.87173581        1336275696.9851587     
   2130330147.2392201        118827714.39723933        1351471772.0152333     
   2088584191.3502784        90104958.807292461        1370306555.3125203     
   2049125071.8266983        69004991.101886392        1392780046.8770201     
   1773682550.7146471        185523016.33965939        1369519029.1767764     
   1737213636.2702003        153013865.71848601        1391564538.7333648     
   1701525715.4279463        123108027.10462064        1414904386.1410978     
   1666618788.1878865        95805500.498069406        1439538571.3999732     
   1632492854.5500195        71106285.898829460        1465467094.5099933     
   3307477932.6237760        65237969.401172519        1157450294.3234260     
   3205380995.5491238        46367575.891161561        1150256377.6201670     
   3100055503.5879917        16735332.759553671        1146667163.2546601     
   2991501456.7403789       -23658759.993650079        1146682651.2269030     
   2879718855.0062881       -74814702.368454099        1150302841.5368991     
   2886617610.8635769        66070832.853056788        1238771646.7837353     
   2793599734.6219373        43697533.717753291        1229079033.3966141     
   2698181725.6752386        13323792.232255220        1223573973.4568210     
   2600363584.0234861       -25050391.603427052        1222256466.9643543     
   2500145309.6666751       -71425017.789301276        1225126513.9192176     
   2467166657.2645516        67326506.753296733        1317214897.6349325     
   2384893130.7404280        41949888.658045173        1305990080.1089425     
   2301047893.6926723        11334235.484012604        1299535667.1398556     
   2215630946.1212826       -24520452.768796325        1297851658.7276742     
   2128642288.0262554       -65614176.100389481        1300938054.8723962     
   2049125071.8266983        69004991.101886392        1392780046.8770201     
   1979261183.9046001        41124640.712041855        1380989517.7571516     
   1908654007.6402910        10766662.514825583        1374552244.3037641     
   1837303543.0337698       -22068943.489760637        1373468226.5168614     
   1765209790.0850372       -57382177.301718712        1377737464.3964376     
   1632492854.5500195        71106285.898829460        1465467094.5099933     
   1576703894.1144524        41221789.879745841        1454077346.3412411     
   1521000067.5180955        11621073.324694812        1448623704.9485478     
   1465381374.7609501       -17695863.766314983        1449106170.3319125     
   1409847815.8430154       -46729021.393288851        1455524742.4913378     
   2879718855.0062881       -74814702.368454099        1150302841.5368991     
   2764066290.3091173       -130340555.35000086        1136008176.7878103     
   2649526507.9372211       -182157133.91395783        1127474438.6320968     
   2536099507.8906050       -230264438.06031799        1124701627.0697594     
   2423785290.1692672       -274662467.78908515        1127689742.1008031     
   2500145309.6666751       -71425017.789301276        1225126513.9192176     
   2401003125.2563968       -120024999.84294903        1214515743.2892120     
   2302580952.9895916       -166224941.41835773        1209246060.6877716     
   2204878792.8662572       -210024842.51552832        1209317466.1148992     
   2107896644.8863981       -251424703.13445115        1214729959.5705888     
   2128642288.0262554       -65614176.100389481        1300938054.8723962     
   2044810945.1462710       -107648148.85311818        1293552946.4827023     
   1961306844.2279491       -148591315.06696439        1291089087.5567617     
   1878129985.2712946       -188443674.74191904        1293546478.0945756     
   1795280368.2763050       -227205227.87799287        1300925118.0961428     
   1765209790.0850372       -57382177.301718712        1377737464.3964376     
   1695489749.9787354       -93210002.380514026        1373119786.3682814     
   1625704181.6522958       -129256254.85977149        1373003519.2390652     
   1555853085.1057138       -165520934.73950076        1377388663.0087900     
   1485936460.3389912       -202004042.01969820        1386275217.6774573     
   1409847815.8430154       -46729021.393288851        1455524742.4913378     
   1353039539.7537961       -76710560.425125182        1453216262.9459438     
   1295772965.2626295       -108219760.79678512        1454989355.7346785     
   1238048092.3695183       -141256622.50826168        1460844020.8575466     
   1179864921.0744581       -175821145.55956602        1470780258.3145430     
   2423785290.1692672       -274662467.78908515        1127689742.1008031     
   2310392433.1671557       -324080692.68796313        1125751824.2738929     
   2192790132.2666597       -387530397.24811912        1129359648.6918359     
   2070978387.4677777       -465011581.46956193        1138513215.3546281     
   1944957198.7705128       -556524245.35228157        1153212524.2622750     
   2107896644.8863981       -251424703.13445115        1214729959.5705888     
   2009722605.6634502       -297597528.17782235        1209296805.1141148     
   1907917303.4938359       -355874563.04342127        1209275752.8916433     
   1802480738.3775549       -426255807.73123789        1214666802.9031770     
   1693412910.3146043       -508741262.24128306        1225469955.1487119     
   1795280368.2763050       -227205227.87799287        1300925118.0961428     
   1711943318.2301023       -270247201.64657712        1292671271.4537706     
   1625553186.1889505       -323466115.39832854        1289695887.0345571     
   1536109972.1528435       -386861969.13325703        1291998964.8384960     
   1443613676.1217878       -460434762.85135543        1299580504.8655956     
   1485936460.3389912       -202004042.01969820        1386275217.6774573     
   1417054570.8671091       -242029713.09422898        1375875223.2928617     
   1345697780.3519940       -290305054.31286746        1370620051.1205719     
   1271866088.7936430       -346830065.67562622        1370509701.1605916     
   1195559496.1920583       -411604747.18249744        1375544173.4129181     
   1179864921.0744581       -175821145.55956602        1470780258.3145430     
   1125056363.5744748       -212945062.52076346        1458908660.6313882     
   1068351085.9829738       -256391379.78701776        1452048245.1496933     
   1009749088.2999539       -306160097.35834008        1450199011.8694608     
   949250370.52541292       -362251215.23472750        1453360960.7906864     
   1944957198.7705128       -556524245.35228157        1153212524.2622750     
   1851388362.5391912       -663163350.43359005        1150824293.6424341     
   1745636345.8512745       -810413057.03687453        1154087525.0020609     
   1627701148.7067666       -998273365.16213262        1163002218.3411536     
   1497582771.1056685       -1226744274.8093572        1177568373.6597054     
   1693412910.3146043       -508741262.24128306        1225469955.1487119     
   1617155360.3856072       -602111212.44046569        1210207397.8818710     
   1530862537.7136059       -728932071.78299034        1199547640.0491614     
   1434534442.2986078       -889203840.26883566        1193490681.6505959     
   1328171074.1406047       -1082926517.8980308        1192036522.6861753     
   1443613676.1217878       -460434762.85135543        1299580504.8655956     
   1381671233.7941911       -541434411.77869022        1273949513.2842615     
   1311841426.4371817       -648725277.47072601        1251872658.5917487     
   1234124254.0507667       -782307359.92745376        1233349940.7880530     
   1148519716.6349421       -942180659.14887726        1218381359.8731732     
   1195559496.1920583       -411604747.18249744        1375544173.4129181     
   1144935982.7649391       -481132948.44826263        1342050639.8496211     
   1088573012.0220017       -569792674.10008717        1311062580.6298275     
   1026470583.9632480       -677583924.13796473        1282579995.7535224     
   958628698.58867526       -804506698.56190848        1256602885.2207136     
   949250370.52541292       -362251215.23472750        1453360960.7906864     
   906949607.29785049       -421206822.44919437        1414510777.5779517     
   861057294.46806097       -492134261.67108536        1377117406.1633894     
   811573432.03604770       -575033532.90038693        1341180846.5469999     
   758498020.00180483       -669904636.13712049        1306701098.7287838     
   1497582771.1056685       -1226744274.8093572        1177568373.6597054     
   1509042861.0117724       -1429989629.0750220        1154708758.6185701     
   1521313833.6575980       -1630532040.8749425        1114934995.9548767     
   1534395689.0431354       -1828371510.2091610        1058247085.6686262     
   1548288427.1683936       -2023508037.0776415        984645027.75983572     
   1328171074.1406047       -1082926517.8980308        1192036522.6861753     
   1308133383.4587770       -1268270977.5984716        1167915815.6978076     
   1286579656.5216289       -1458668891.4833150        1132349218.6723793     
   1263509893.3291643       -1654120259.5525427        1085336731.6098979     
   1238924093.8813841       -1854625081.8061562        1026878354.5103470     
   1148519716.6349421       -942180659.14887726        1218381359.8731732     
   1112607838.4665875       -1104937146.3536961        1190284822.1100390     
   1072853005.0478849       -1280503484.3930190        1156210651.8953369     
   1029255216.3788317       -1468879673.2668328        1116158849.2290723     
   981814472.45942545       -1670065712.9751687        1070129414.1112388     
   958628698.58867526       -804506698.56190848        1256602885.2207136     
   922466226.03521574       -939988135.34066534        1221815777.8552670     
   880133879.23637033       -1096035819.6040480        1186519295.6237552     
   831631658.19213915       -1272649751.3520441        1150713438.5261700     
   776959562.90252435       -1469829930.5846539        1114398206.5625165     
   758498020.00180483       -669904636.13712049        1306701098.7287838     
   737708546.16465664       -773423944.55938745        1262508682.9334896     
   708422279.08707571       -905265897.11642599        1223275149.8576193     
   670639218.76909089       -1065430493.8081462        1189000499.5011764     
   624359365.21067905       -1253917734.6346290        1159684731.8641565     
   1746092969.9574769        523827890.98724306        686134631.86967874     
   1772279377.1404688        501817961.43443972        813329452.57912207     
   1795374981.1419003        469505354.60976851        933642103.29427993     
   1815379781.9617720        426890070.51323009        1047072584.0151523     
   1832293779.6000824        373972109.14482307        1153620894.7417395     
   1318160900.9737642        395448270.29212922        677661221.54068387     
   1329809254.0481436        376543387.43365002        800628576.28747249     
   1339139504.7363551        349911496.62127888        918578433.24630833     
   1346151653.0383995        315552597.85501611        1031510792.4171911     
   1350845698.9542761        273466691.13486123        1139425653.8001208     
   884501382.98629999        265350414.89589000        671608785.59139240     
   886939316.82730246        251148869.19430569        791250158.63681793     
   887831849.07753015        231795984.85680538        907738706.10062313     
   887178979.73698318        207291761.88338923        1021074427.9828080     
   884980708.80566108        177636200.27405709        1131257324.2833722     
   445114415.99508464        133534324.79852539        667977324.02180445     
   443669565.47794592        125634406.71640661        785194199.62715840     
   441452014.16542542        115158819.31634802        901122921.85722470     
   438461762.05752271        102107562.59834909        1015763490.7120028     
   434698809.15423805        86480636.562410533        1129115906.1914930     
   1.1786588188972086E-004   3.5359764566916260E-005   666766836.83191979     
   7.3904938945214103E-005  -4.6991943303631067E-005   782460699.25849390     
   4.0612545377964710E-005  -9.3564979482156733E-005   898731080.51611269     
   1.8050179025445488E-005  -1.0439294232169825E-004   1015577980.6047761     
   6.3651007541610542E-006  -7.8963278223790424E-005   1133001399.5244837     
   1832293779.6000824        373972109.14482307        1153620894.7417395     
   1812704955.0695632        310406444.91299701        1203513076.7305875     
   1796406808.7451506        257809708.03486019        1256126826.4660428     
   1783399340.6268454        216181898.51041502        1311462143.9481065     
   1773682550.7146471        185523016.33965939        1369519029.1767764     
   1350845698.9542761        273466691.13486123        1139425653.8001208     
   1341879048.8195240        227509933.43994227        1197463238.5010204     
   1335380407.3393517        189779871.26028731        1256886565.0204635     
   1331349774.5137577        160276504.59589443        1317695633.3584492     
   1329787150.3427432        138999833.44676608        1379890443.5149775     
   884980708.80566108        177636200.27405709        1131257324.2833722     
   882819587.55792117        148143355.46341872        1196480530.5528743     
   882303805.41323209        124134974.32961711        1261753652.7128549     
   883433362.37159431        105611056.87265232        1327076690.7633135     
   886208258.43300700        92571603.092523932        1392449644.7042506     
   434698809.15423805        86480636.562410533        1129115906.1914930     
   435526571.28475362        72306710.983425647        1200564952.8861480     
   437177002.96679235        60875017.242851034        1270728089.5432172     
   439650104.20035404        52185555.340686321        1339605316.1626992     
   442945874.98543894        46238325.276932582        1407196632.7445965     
   6.3651007541610542E-006  -7.8963278223790424E-005   1133001399.5244837     
   2.1857515797307769E-005  -3.6429192995512949E-005   1209716505.5008426     
   3.2557518951876799E-005  -1.0346863018388040E-005   1283809875.5115504     
   3.8101247203058174E-005  -1.3003277484073402E-006   1355281509.5566075     
   3.8156291313353592E-005  -1.0202461586184475E-005   1424131407.6360140     
   1773682550.7146471        185523016.33965939        1369519029.1767764     
   1737213636.2702003        153013865.71848601        1391564538.7333648     
   1701525715.4279463        123108027.10462064        1414904386.1410978     
   1666618788.1878865        95805500.498069406        1439538571.3999732     
   1632492854.5500195        71106285.898829460        1465467094.5099933     
   1329787150.3427432        138999833.44676608        1379890443.5149775     
   1299704340.4147236        113798633.25247663        1403162626.4799452     
   1270207275.6883521        90549917.063676417        1428366409.5848162     
   1241295956.1636257        69253684.880361974        1455501792.8295929     
   1212970381.8405447        49909936.702534676        1484568776.2142720     
   886208258.43300700        92571603.092523932        1392449644.7042506     
   864332302.41787577        75224578.144059896        1416720711.2769580     
   842846843.20384264        59179209.199257046        1443560640.2783298     
   821751880.79090917        44435496.258117795        1472969431.7083671     
   801047415.17907405        30993439.320640683        1504947085.5670700     
   442945874.98543894        46238325.276932582        1407196632.7445965     
   431097522.27965397        37291700.393231049        1432238793.1244047     
   419444417.97441930        28995903.511363730        1460487078.2216392     
   407986562.06973678        21350934.631336913        1491941488.0362992     
   396723954.56560475        14356793.753145665        1526602022.5683839     
   3.8156291313353592E-005  -1.0202461586184475E-005   1424131407.6360140     
   5.7772010618629797E-005  -1.3685252564876370E-005   1449716872.0222855     
   8.1162183201306074E-005  -4.5865326189013146E-006   1479145723.4147429     
   1.0852125059385459E-004   1.7828572867113280E-005   1512417961.8133867     
   1.4022665812401530E-004   5.4558006464237608E-005   1549533587.2182169     
   1632492854.5500195        71106285.898829460        1465467094.5099933     
   1576703894.1144524        41221789.879745841        1454077346.3412411     
   1521000067.5180955        11621073.324694812        1448623704.9485478     
   1465381374.7609501       -17695863.766314983        1449106170.3319125     
   1409847815.8430154       -46729021.393288851        1455524742.4913378     
   1212970381.8405447        49909936.702534676        1484568776.2142720     
   1174201168.1432312        28418316.677036822        1475567303.5164235     
   1135495804.8253253        7139531.2495672107        1471785019.3811142     
   1096854291.8868294       -13926419.579874218        1473221923.8083420     
   1058276629.3277400       -34779535.811288595        1479878016.7981124     
   801047415.17907405        30993439.320640683        1504947085.5670700     
   777249610.46710074        17280193.962855220        1498309057.6370199     
   753494372.67473292        3708838.3370879889        1496173300.0559897     
   729781701.80197012       -9720627.5566606820        1498539812.8239806     
   706111597.84881449       -23008203.718389153        1505408595.9409900     
   396723954.56560475        14356793.753145665        1526602022.5683839     
   385849221.08606052        7807421.7372023016        1522302608.7030308     
   374995771.06631798        1328994.5872644186        1521788546.9731784     
   364163604.50637853       -5078487.6966640055        1525059837.3788264     
   353352721.40624219       -11415025.114579976        1532116479.9199729     
   1.4022665812401530E-004   5.4558006464237608E-005   1549533587.2182169     
   1.1135780942050677E-004   7.6289707152298701E-005   1547547956.7144558     
   8.1185058675714572E-005   9.3675067702747583E-005   1548630760.1326761     
   5.1624226871349349E-005   1.1275321335942439E-004   1552781997.4728777     
   2.1731700688061096E-005   1.3141960047674845E-004   1560001668.7350590     
   1409847815.8430154       -46729021.393288851        1455524742.4913378     
   1353039539.7537961       -76710560.425125182        1453216262.9459438     
   1295772965.2626295       -108219760.79678512        1454989355.7346785     
   1238048092.3695183       -141256622.50826168        1460844020.8575466     
   1179864921.0744581       -175821145.55956602        1470780258.3145430     
   1058276629.3277400       -34779535.811288595        1479878016.7981124     
   1014564901.2227691       -57597346.396580040        1477022822.6845622     
   970509449.31633973       -81560902.986731827        1478507155.8140228     
   926110273.60844934       -106670205.58175308        1484331016.1864951     
   881367374.09910357       -132925254.18162823        1494494403.8019769     
   706111597.84881449       -23008203.718389153        1505408595.9409900     
   676233431.75346732       -38441181.649518490        1502140357.6265197     
   646126116.45714998       -54637990.250548750        1503469601.4639404     
   615789651.95985830       -71598629.521494508        1509396327.4532535     
   585224038.26159382       -89323099.462347001        1519920535.5944591     
   353352721.40624219       -11415025.114579976        1532116479.9199729     
   338045131.34589398       -19242066.183934569        1528568867.7718148     
   322622966.68506104       -27451022.588238612        1529876692.6844289     
   307086227.42374176       -36041894.327496886        1536039954.6578183     
   291434913.56193715       -45014681.401706517        1547058653.6919792     
   2.1731700688061096E-005   1.3141960047674845E-004   1560001668.7350590     
   4.5567945021702852E-005   1.6021982275703150E-004   1556308353.1204488     
   7.5786446715312022E-005   2.1133507032279207E-004   1557728429.4754920     
   1.0113247235991382E-004   2.4568831401573500E-004   1564261897.8001919     
   1.3011569843546477E-004   2.9216555914517509E-004   1575908758.0945442     
   1179864921.0744581       -175821145.55956602        1470780258.3145430     
   1125056363.5744748       -212945062.52076346        1458908660.6313882     
   1068351085.9829738       -256391379.78701776        1452048245.1496933     
   1009749088.2999539       -306160097.35834008        1450199011.8694608     
   949250370.52541292       -362251215.23472750        1453360960.7906864     
   881367374.09910357       -132925254.18162823        1494494403.8019769     
   842000979.15067565       -160246184.94955009        1481307542.2197175     
   801212044.13360763       -192308915.94627166        1472725857.4310486     
   759000569.04790902       -229113447.17176205        1468749349.4359791     
   715366553.89356971       -270659778.62605363        1469378018.2344995     
   585224038.26159382       -89323099.462347001        1519920535.5944591     
   560139790.41368365       -107189048.67229789        1505971620.1397810     
   534107182.52001625       -128216198.03477022        1496221876.0708349     
   507126214.58059317       -152404547.54976207        1490671303.3876209     
   479196886.59541291       -179754097.21727875        1489319902.0901377     
   291434913.56193715       -45014681.401706517        1547058653.6919792     
   279472797.36350203       -53773653.688997701        1532900894.3915827     
   267036501.14218891       -64113226.052551016        1522536301.0690532     
   254126024.89800417       -76033398.492342263        1515964873.7243886     
   240741368.63093886       -89534171.008401543        1513186612.3575959     
   1.3011569843546477E-004   2.9216555914517509E-004   1575908758.0945442     
   1.2718763771117864E-004   3.3791650796214582E-004   1562095364.9751220     
   1.2961243799847810E-004   3.9942865864656303E-004   1551669132.4256999     
   1.3967764673821168E-004   4.8675578220095593E-004   1544630060.4462831     
   1.5381468992265563E-004   5.8904346601849824E-004   1540978149.0368671     
   949250370.52541292       -362251215.23472750        1453360960.7906864     
   906949607.29785049       -421206822.44919437        1414510777.5779517     
   861057294.46806097       -492134261.67108536        1377117406.1633894     
   811573432.03604770       -575033532.90038693        1341180846.5469999     
   758498020.00180483       -669904636.13712049        1306701098.7287838     
   715366553.89356971       -270659778.62605363        1469378018.2344995     
   681691138.40376186       -315461436.95762575        1426288895.4276848     
   645322060.71229029       -369241969.29474068        1385111547.8018367     
   606259320.81914449       -432001375.63743770        1345845975.3569632     
   564502918.72432983       -503739655.98569441        1308492178.0930543     
   479196886.59541291       -179754097.21727875        1489319902.0901377     
   455446714.22278583       -210011838.05211258        1443039374.9898870     
   429900767.04904681       -246255494.89065474        1399125586.4534035     
   402559045.07419819       -288485067.73289484        1357578536.4806902     
   373421548.29823327       -336700556.57885468        1318398225.0717456     
   240741368.63093886       -89534171.008401543        1513186612.3575959     
   228216334.75491673       -104858025.73267440        1464762216.2645590     
   214793413.47834033       -123174838.45879260        1419159522.1180904     
   200472604.80120766       -144484609.18676686        1376378529.9181941     
   185253908.72351688       -168787337.91660103        1336419239.6648562     
   1.5381468992265563E-004   5.8904346601849824E-004   1540978149.0368671     
   1.5646824495403990E-004   6.9642094289192860E-004   1491457419.2517016     
   1.6191260786325941E-004   8.1379500208186698E-004   1445213354.7958982     
   1.7046803529203295E-004   9.4188622103218080E-004   1402245955.6694582     
   1.7824569659091800E-004   1.0659971074354182E-003   1362555221.8723874     
   758498020.00180483       -669904636.13712049        1306701098.7287838     
   737708546.16465664       -773423944.55938745        1262508682.9334896     
   708422279.08707571       -905265897.11642599        1223275149.8576193     
   670639218.76909089       -1065430493.8081462        1189000499.5011764     
   624359365.21067905       -1253917734.6346290        1159684731.8641565     
   564502918.72432983       -503739655.98569441        1308492178.0930543     
   561652303.51918817       -577556690.25054538        1255159251.1426620     
   552429093.38372898       -672615707.61645687        1203812192.5380695     
   536833288.31796306       -788916708.08338833        1154451002.2792642     
   514864888.32187885       -926459691.65137792        1107075680.3662472     
   373421548.29823327       -336700556.57885468        1318398225.0717456     
   380015464.94328940       -383363614.72082591        1258403018.3280511     
   382360984.96813369       -444187994.93016815        1197420665.5565181     
   380458108.37277472       -519173697.20685172        1135451166.7571387     
   374306835.15721053       -608320721.55089390        1072494521.9299201     
   185253908.72351688       -168787337.91660103        1336419239.6648562     
   192798030.43695575       -190844717.97024006        1272239984.4896500     
   198217953.84029180       -219982759.05755708        1204100568.9129701     
   201513678.93353191       -256201461.17852637        1132000992.9348185     
   202685205.71667060       -299500824.33316803        1055941256.5551747     
   1.7824569659091800E-004   1.0659971074354182E-003   1362555221.8723874     
   1.9233698882654496E-004   1.2267659415782532E-003   1296670149.6274586     
   2.0976810032581083E-004   1.3951980596479312E-003   1223851902.6074245     
   2.3321546159450833E-004   1.5854190670916912E-003   1144100480.8122771     
   2.6279345000467988E-004   1.7974632771211464E-003   1057415884.2420104     
   1.1786588188972086E-004   3.5359764566916260E-005   666766836.83191979     
   7.3904938945214103E-005  -4.6991943303631067E-005   782460699.25849390     
   4.0612545377964710E-005  -9.3564979482156733E-005   898731080.51611269     
   1.8050179025445488E-005  -1.0439294232169825E-004   1015577980.6047761     
   6.3651007541610542E-006  -7.8963278223790424E-005   1133001399.5244837     
  -445114415.99485725       -133534324.79845716        667977324.02174973     
  -443669565.47779000       -125634406.71645230        785194199.62711906     
  -441452014.16532701       -115158819.31646150        901122921.85720146     
  -438461762.05746824       -102107562.59848483        1015763490.7119973     
  -434698809.15421361       -86480636.562521785        1129115906.1915057     
  -884501382.98609734       -265350414.89582920        671608785.59130514     
  -886939316.82715178       -251148869.19430706        791250158.63675237     
  -887831849.07742560       -231795984.85684884        907738706.10058129     
  -887178979.73691833       -207291761.88345456        1021074427.9827913     
  -884980708.80563009       -177636200.27412391        1131257324.2833838     
  -1318160900.9736025       -395448270.29208082        677661221.54058623     
  -1329809254.0480118       -376543387.43361127        800628576.28739405     
  -1339139504.7362547       -349911496.62125534        918578433.24625146     
  -1346151653.0383315       -315552597.85501325        1031510792.4171593     
  -1350845698.9542434       -273466691.13488507        1139425653.8001170     
  -1746092969.9573734       -523827890.98721206        686134631.86959291     
  -1772279377.1403697       -501817961.43436480        813329452.57904339     
  -1795374981.1418152       -469505354.60968125        933642103.29421234     
  -1815379781.9617090       -426890070.51316112        1047072584.0151002     
  -1832293779.6000524       -373972109.14480448        1153620894.7417066     
   6.3651007541610542E-006  -7.8963278223790424E-005   1133001399.5244837     
   2.1857515797307769E-005  -3.6429192995512949E-005   1209716505.5008426     
   3.2557518951876799E-005  -1.0346863018388040E-005   1283809875.5115504     
   3.8101247203058174E-005  -1.3003277484073402E-006   1355281509.5566075     
   3.8156291313353592E-005  -1.0202461586184475E-005   1424131407.6360140     
  -434698809.15421361       -86480636.562521785        1129115906.1915057     
  -435526571.28470749       -72306710.983485967        1200564952.8861504     
  -437177002.96672952       -60875017.242877856        1270728089.5432096     
  -439650104.20028073       -52185555.340700626        1339605316.1626832     
  -442945874.98536074       -46238325.276952028        1407196632.7445717     
  -884980708.80563009       -177636200.27412391        1131257324.2833838     
  -882819587.55787504       -148143355.46346575        1196480530.5528696     
  -882303805.41317189       -124134974.32964945        1261753652.7128353     
  -883433362.37152159       -105611056.87267530        1327076690.7632804     
  -886208258.43292427       -92571603.092544079        1392449644.7042060     
  -1350845698.9542434       -273466691.13488507        1139425653.8001170     
  -1341879048.8194804       -227509933.43997711        1197463238.5010002     
  -1335380407.3392947       -189779871.26032436        1256886565.0204279     
  -1331349774.5136850       -160276504.59592730        1317695633.3584011     
  -1329787150.3426516       -138999833.44678402        1379890443.5149188     
  -1832293779.6000524       -373972109.14480448        1153620894.7417066     
  -1812704955.0695252       -310406444.91302061        1203513076.7305417     
  -1796406808.7450981       -257809708.03490472        1256126826.4659870     
  -1783399340.6267710       -216181898.51045561        1311462143.9480433     
  -1773682550.7145448       -185523016.33967584        1369519029.1767094     
   3.8156291313353592E-005  -1.0202461586184475E-005   1424131407.6360140     
   5.7772010618629797E-005  -1.3685252564876370E-005   1449716872.0222855     
   8.1162183201306074E-005  -4.5865326189013146E-006   1479145723.4147429     
   1.0852125059385459E-004   1.7828572867113280E-005   1512417961.8133867     
   1.4022665812401530E-004   5.4558006464237608E-005   1549533587.2182169     
  -442945874.98536074       -46238325.276952028        1407196632.7445717     
  -431097522.27953470       -37291700.393244818        1432238793.1243873     
  -419444417.97425568       -28995903.511361361        1460487078.2216280     
  -407986562.06952214       -21350934.631295934        1491941488.0362933     
  -396723954.56533509       -14356793.753052071        1526602022.5683825     
  -886208258.43292427       -92571603.092544079        1392449644.7042060     
  -864332302.41775525       -75224578.144066721        1416720711.2769260     
  -842846843.20368242       -59179209.199244320        1443560640.2783084     
  -821751880.79070628       -44435496.258076608        1472969431.7083516     
  -801047415.17882633       -30993439.320563018        1504947085.5670583     
  -1329787150.3426516       -138999833.44678402        1379890443.5149188     
  -1299704340.4146028       -113798633.25247598        1403162626.4798999     
  -1270207275.6881995       -90549917.063654780        1428366409.5847816     
  -1241295956.1634433       -69253684.880323648        1455501792.8295627     
  -1212970381.8403327       -49909936.702476203        1484568776.2142432     
  -1773682550.7145448       -185523016.33967584        1369519029.1767094     
  -1737213636.2700779       -153013865.71847290        1391564538.7333097     
  -1701525715.4278073       -123108027.10459256        1414904386.1410494     
  -1666618788.1877337       -95805500.498034835        1439538571.3999267     
  -1632492854.5498562       -71106285.898797929        1465467094.5099418     
   1.4022665812401530E-004   5.4558006464237608E-005   1549533587.2182169     
   1.1135780942050677E-004   7.6289707152298701E-005   1547547956.7144558     
   8.1185058675714572E-005   9.3675067702747583E-005   1548630760.1326761     
   5.1624226871349349E-005   1.1275321335942439E-004   1552781997.4728777     
   2.1731700688061096E-005   1.3141960047674845E-004   1560001668.7350590     
  -396723954.56533509       -14356793.753052071        1526602022.5683825     
  -385849221.08585024       -7807421.7370806336        1522302608.7030251     
  -374995771.06616521       -1328994.5871089399        1521788546.9731710     
  -364163604.50628507        5078487.6968479007        1525059837.3788207     
  -353352721.40620345        11415025.114808500        1532116479.9199705     
  -801047415.17882633       -30993439.320563018        1504947085.5670583     
  -777249610.46690798       -17280193.962763667        1498309057.6370046     
  -753494372.67459226       -3708838.3369724751        1496173300.0559750     
  -729781701.80187953        9720627.5568081737        1498539812.8239694     
  -706111597.84876812        23008203.718584567        1505408595.9409895     
  -1212970381.8403327       -49909936.702476203        1484568776.2142432     
  -1174201168.1430626       -28418316.676975429        1475567303.5163918     
  -1135495804.8251958       -7139531.2494872808        1471785019.3810863     
  -1096854291.8867323        13926419.579992175        1473221923.8083274     
  -1058276629.3276718        34779535.811461031        1479878016.7981133     
  -1632492854.5498562       -71106285.898797929        1465467094.5099418     
  -1576703894.1143148       -41221789.879719019        1454077346.3411908     
  -1521000067.5179770       -11621073.324652851        1448623704.9485080     
  -1465381374.7608454        17695863.766395509        1449106170.3318925     
  -1409847815.8429165        46729021.393431842        1455524742.4913447     
   2.1731700688061096E-005   1.3141960047674845E-004   1560001668.7350590     
   4.5567945021702852E-005   1.6021982275703150E-004   1556308353.1204488     
   7.5786446715312022E-005   2.1133507032279207E-004   1557728429.4754920     
   1.0113247235991382E-004   2.4568831401573500E-004   1564261897.8001919     
   1.3011569843546477E-004   2.9216555914517509E-004   1575908758.0945442     
  -353352721.40620345        11415025.114808500        1532116479.9199705     
  -338045131.34580463        19242066.184239268        1528568867.7718179     
  -322622966.68492049        27451022.588622287        1529876692.6844380     
  -307086227.42354864        36041894.327964932        1536039954.6578279     
  -291434913.56168741        45014681.402271077        1547058653.6919916     
  -706111597.84876812        23008203.718584567        1505408595.9409895     
  -676233431.75337875        38441181.649791151        1502140357.6265292     
  -646126116.45701349        54637990.250913978        1503469601.4639561     
  -615789651.95967793        71598629.521941960        1509396327.4532723     
  -585224038.26136613        89323099.462888241        1519920535.5944777     
  -1058276629.3276718        34779535.811461031        1479878016.7981133     
  -1014564901.2226701        57597346.396832108        1477022822.6845798     
  -970509449.31620955        81560902.987068295        1478507155.8140514     
  -926110273.60828638        106670205.58217609        1484331016.1865284     
  -881367374.09890556        132925254.18214560        1494494403.8020117     
  -1409847815.8429165        46729021.393431842        1455524742.4913447     
  -1353039539.7536814        76710560.425357819        1453216262.9459708     
  -1295772965.2625024        108219760.79709977        1454989355.7347188     
  -1238048092.3693759        141256622.50866586        1460844020.8575895     
  -1179864921.0743032        175821145.56005216        1470780258.3145840     
   1.3011569843546477E-004   2.9216555914517509E-004   1575908758.0945442     
   1.2718763771117864E-004   3.3791650796214582E-004   1562095364.9751220     
   1.2961243799847810E-004   3.9942865864656303E-004   1551669132.4256999     
   1.3967764673821168E-004   4.8675578220095593E-004   1544630060.4462831     
   1.5381468992265563E-004   5.8904346601849824E-004   1540978149.0368671     
  -291434913.56168741        45014681.402271077        1547058653.6919916     
  -279472797.36325473        53773653.689661428        1532900894.3916023     
  -267036501.14193720        64113226.053335339        1522536301.0690815     
  -254126024.89773035        76033398.493305624        1515964873.7244258     
  -240741368.63064212        89534171.009550557        1513186612.3576429     
  -585224038.26136613        89323099.462888241        1519920535.5944777     
  -560139790.41345394        107189048.67293972        1505971620.1398182     
  -534107182.51977837        128216198.03553852        1496221876.0708904     
  -507126214.58033454        152404547.55069748        1490671303.3876989     
  -479196886.59512454        179754097.21840772        1489319902.0902352     
  -881367374.09890556        132925254.18214560        1494494403.8020117     
  -842000979.15047359        160246184.95016527        1481307542.2197733     
  -801212044.13339376        192308915.94701129        1472725857.4311330     
  -759000569.04766941        229113447.17267019        1468749349.4360893     
  -715366553.89329684        270659778.62715882        1469378018.2346473     
  -1179864921.0743032        175821145.56005216        1470780258.3145840     
  -1125056363.5743077        212945062.52135140        1458908660.6314626     
  -1068351085.9827840        256391379.78774750        1452048245.1498041     
  -1009749088.2997366        306160097.35922307        1450199011.8696101     
  -949250370.52515817        362251215.23579991        1453360960.7908773     
   1.5381468992265563E-004   5.8904346601849824E-004   1540978149.0368671     
   1.5646824495403990E-004   6.9642094289192860E-004   1491457419.2517016     
   1.6191260786325941E-004   8.1379500208186698E-004   1445213354.7958982     
   1.7046803529203295E-004   9.4188622103218080E-004   1402245955.6694582     
   1.7824569659091800E-004   1.0659971074354182E-003   1362555221.8723874     
  -240741368.63064212        89534171.009550557        1513186612.3576429     
  -228216334.75461638        104858025.73403807        1464762216.2646098     
  -214793413.47802925        123174838.46039744        1419159522.1181436     
  -200472604.80088776        144484609.18860587        1376378529.9182436     
  -185253908.72318655        168787337.91867852        1336419239.6649048     
  -479196886.59512454        179754097.21840772        1489319902.0902352     
  -455446714.22250497        210011838.05344671        1443039374.9899907     
  -429900767.04876947        246255494.89220348        1399125586.4535086     
  -402559045.07392108        288485067.73467076        1357578536.4807911     
  -373421548.29795516        336700556.58086330        1318398225.0718417     
  -715366553.89329684        270659778.62715882        1469378018.2346473     
  -681691138.40351224        315461436.95891386        1426288895.4278350     
  -645322060.71205115        369241969.29625845        1385111547.8019879     
  -606259320.81892264        432001375.63916183        1345845975.3571060     
  -564502918.72412133        503739655.98763537        1308492178.0931902     
  -949250370.52515817        362251215.23579991        1453360960.7908773     
  -906949607.29763496        421206822.45045304        1414510777.5781503     
  -861057294.46788168        492134261.67253637        1377117406.1635866     
  -811573432.03590465        575033532.90203309        1341180846.5471883     
  -758498020.00169432        669904636.13897562        1306701098.7289569     
   1.7824569659091800E-004   1.0659971074354182E-003   1362555221.8723874     
   1.9233698882654496E-004   1.2267659415782532E-003   1296670149.6274586     
   2.0976810032581083E-004   1.3951980596479312E-003   1223851902.6074245     
   2.3321546159450833E-004   1.5854190670916912E-003   1144100480.8122771     
   2.6279345000467988E-004   1.7974632771211464E-003   1057415884.2420104     
  -185253908.72318655        168787337.91867852        1336419239.6649048     
  -192798030.43661606        190844717.97260523        1272239984.4897063     
  -198217953.83993596        219982759.06023142        1204100568.9130232     
  -201513678.93313581        256201461.18158942        1132000992.9348550     
  -202685205.71622813        299500824.33664149        1055941256.5552049     
  -373421548.29795516        336700556.58086330        1318398225.0718417     
  -380015464.94303381        383363614.72310245        1258403018.3281605     
  -382360984.96789509        444187994.93273687        1197420665.5566218     
  -380458108.37253487        519173697.20977437        1135451166.7572315     
  -374306835.15695071        608320721.55422258        1072494521.9299778     
  -564502918.72412133        503739655.98763537        1308492178.0931902     
  -561652303.51905918        577556690.25272322        1255159251.1428220     
  -552429093.38367176        672615707.61889374        1203812192.5382204     
  -536833288.31795222        788916708.08616900        1154451002.2793896     
  -514864888.32190782        926459691.65452993        1107075680.3663328     
  -758498020.00169432        669904636.13897562        1306701098.7289569     
  -737708546.16469550        773423944.56145740        1262508682.9336879     
  -708422279.08726680        905265897.11870420        1223275149.8578172     
  -670639218.76940107        1065430493.8107405        1189000499.5013394     
  -624359365.21109891        1253917734.6375673        1159684731.8642642     
  -1746092969.9573734       -523827890.98721206        686134631.86959291     
  -1772279377.1403697       -501817961.43436480        813329452.57904339     
  -1795374981.1418152       -469505354.60968125        933642103.29421234     
  -1815379781.9617090       -426890070.51316112        1047072584.0151002     
  -1832293779.6000524       -373972109.14480448        1153620894.7417066     
  -2190762534.9441934       -657228760.48325801        700380230.29992568     
  -2225093092.3187633       -615298084.12727499        818389524.03708303     
  -2257227474.7836514       -566046824.73901916        932419161.43581855     
  -2287165682.3388567       -509474982.31849003        1042469142.4961325     
  -2314907714.9843802       -445582556.86568809        1148539467.2180238     
  -2674634540.9408474       -802390362.28225422        723749230.55318511     
  -2708816352.3473916       -738051070.27525568        831529264.33420241     
  -2741696617.1161237       -669373289.47554791        938232155.43265724     
  -2773275335.2470427       -596357019.88313043        1043857903.8485497     
  -2803552506.7401481       -519002261.49800372        1148406509.5818801     
  -3197708987.9473357       -959312696.38420081        756241632.62937093     
  -3223449157.2262559       -870076919.87830698        852748673.47040069     
  -3248782408.1392322       -779484748.81926727        951081085.28472769     
  -3273708740.6862659       -687536183.20708227        1051238868.0723519     
  -3298228154.8673549       -594231223.04175043        1153222021.8332729     
  -3759985875.9636579       -1127995762.7890973        797857436.52848351     
  -3768991506.9553556       -1011375632.9364291        882047751.44567871     
  -3778484847.8529792       -896381202.77017856        970965950.99203074     
  -3788465898.6565280       -783012472.29034519        1064612035.1675395     
  -3798934659.3660021       -671269441.49692988        1162986003.9722047     
  -1832293779.6000524       -373972109.14480448        1153620894.7417066     
  -1812704955.0695252       -310406444.91302061        1203513076.7305417     
  -1796406808.7450981       -257809708.03490472        1256126826.4659870     
  -1783399340.6267710       -216181898.51045561        1311462143.9480433     
  -1773682550.7145448       -185523016.33967584        1369519029.1767094     
  -2314907714.9843802       -445582556.86568809        1148539467.2180238     
  -2286158491.4068084       -366662525.42446476        1191411816.6456695     
  -2260871225.7357354       -299282353.67157197        1235065743.6222527     
  -2239045917.9711623       -243442041.60701317        1279501248.1477747     
  -2220682568.1130886       -199141589.23078591        1324718330.2222340     
  -2803552506.7401481       -519002261.49800372        1148406509.5818801     
  -2771185713.2517366       -426390711.58820212        1184059200.1312027     
  -2742452157.3702245       -345889953.70139676        1218553478.0317917     
  -2717351839.0956116       -277499987.83758736        1251889343.2836459     
  -2695884758.4278970       -221220813.99677503        1284066795.8867667     
  -3298228154.8673549       -594231223.04175043        1153222021.8332729     
  -3267786620.6043115       -489591003.40423310        1181455227.1871409     
  -3241149603.6485662       -397632508.12437594        1206590029.6946025     
  -3218317104.0001187       -318355737.20217907        1228626429.3556585     
  -3199289121.6589704       -251760690.63764322        1247564426.1703072     
  -3798934659.3660021       -671269441.49692988        1162986003.9722047     
  -3775961213.4645324       -556263400.87255859        1183599897.8134854     
  -3756963564.5707603       -454510016.94051170        1199175398.6106873     
  -3741941712.6846852       -366009289.70078909        1209712506.3638115     
  -3730895657.8063083       -290761219.15339231        1215211221.0728562     
  -1773682550.7145448       -185523016.33967584        1369519029.1767094     
  -1737213636.2700779       -153013865.71847290        1391564538.7333097     
  -1701525715.4278073       -123108027.10459256        1414904386.1410494     
  -1666618788.1877337       -95805500.498034835        1439538571.3999267     
  -1632492854.5498562       -71106285.898797929        1465467094.5099418     
  -2220682568.1130886       -199141589.23078591        1324718330.2222340     
  -2174362939.4934177       -155173257.87174070        1336275696.9851007     
  -2130330147.2391088       -118827714.39723682        1351471772.0151761     
  -2088584191.3501658       -90104958.807286501        1370306555.3124621     
  -2049125071.8265867       -69004991.101882100        1392780046.8769562     
  -2695884758.4278970       -221220813.99677503        1284066795.8867667     
  -2633016214.4442468       -163783841.54325116        1283379203.2988708     
  -2573940349.5891266       -118989132.85149825        1288674689.3942544     
  -2518657163.8625388       -86836687.921518922        1299953254.1729181     
  -2467166657.2644835       -67326506.753311992        1317214897.6348629     
  -3199289121.6589704       -251760690.63764322        1247564426.1703072     
  -3113173461.1225648       -178845616.73301005        1232875057.6746192     
  -3032356322.4778605       -123592282.46737444        1226513138.2782826     
  -2956837705.7248545       -86000687.840734839        1228478667.9812973     
  -2886617610.8635468       -66070832.853093266        1238771646.7836621     
  -3730895657.8063083       -290761219.15339231        1215211221.0728562     
  -3614834679.5283751       -200358583.44101691        1184763260.1123471     
  -3505578065.9053102       -132637163.24486399        1164987118.6672611     
  -3403125816.9371090       -87596958.564932585        1155882796.7375970     
  -3307477932.6237783       -65237969.401226521        1157450294.3233547     
  -1632492854.5498562       -71106285.898797929        1465467094.5099418     
  -1576703894.1143148       -41221789.879719019        1454077346.3411908     
  -1521000067.5179770       -11621073.324652851        1448623704.9485080     
  -1465381374.7608454        17695863.766395509        1449106170.3318925     
  -1409847815.8429165        46729021.393431842        1455524742.4913447     
  -2049125071.8265867       -69004991.101882100        1392780046.8769562     
  -1979261183.9044917       -41124640.712027192        1380989517.7570970     
  -1908654007.6401780       -10766662.514782190        1374552244.3037260     
  -1837303543.0336494        22068943.489848495        1373468226.5168424     
  -1765209790.0849051        57382177.301868677        1377737464.3964469     
  -2467166657.2644835       -67326506.753311992        1317214897.6348629     
  -2384893130.7403498       -41949888.658036947        1305990080.1088872     
  -2301047893.6925769       -11334235.483969212        1299535667.1398187     
  -2215630946.1211672        24520452.768888354        1297851658.7276564     
  -2128642288.0261202        65614176.100538373        1300938054.8724020     
  -2886617610.8635468       -66070832.853093266        1238771646.7836621     
  -2793599734.6218877       -43697533.717749476        1229079033.3965602     
  -2698181725.6751723       -13323792.232215881        1223573973.4567859     
  -2600363584.0233970        25050391.603514314        1222256466.9643366     
  -2500145309.6665649        71425017.789437175        1225126513.9192154     
  -3307477932.6237783       -65237969.401226521        1157450294.3233547     
  -3205380995.5491123       -46367575.891173959        1150256377.6201177     
  -3100055503.5879641       -16735332.759518862        1146667163.2546272     
  -2991501456.7403393        23658759.993729472        1146682651.2268832     
  -2879718855.0062361        74814702.368569613        1150302841.5368845     
  -1409847815.8429165        46729021.393431842        1455524742.4913447     
  -1353039539.7536814        76710560.425357819        1453216262.9459708     
  -1295772965.2625024        108219760.79709977        1454989355.7347188     
  -1238048092.3693759        141256622.50866586        1460844020.8575895     
  -1179864921.0743032        175821145.56005216        1470780258.3145840     
  -1765209790.0849051        57382177.301868677        1377737464.3964469     
  -1695489749.9786110        93210002.380733609        1373119786.3683002     
  -1625704181.6521759        129256254.86006713        1373003519.2390921     
  -1555853085.1055982        165520934.73987681        1377388663.0088227     
  -1485936460.3388798        202004042.02015543        1386275217.6774895     
  -2128642288.0261202        65614176.100538373        1300938054.8724020     
  -2044810945.1461532        107648148.85332763        1293552946.4827147     
  -1961306844.2278497        148591315.06723297        1291089087.5567787     
  -1878129985.2712064        188443674.74227226        1293546478.0945942     
  -1795280368.2762284        227205227.87842715        1300925118.0961628     
  -2500145309.6665649        71425017.789437175        1225126513.9192154     
  -2401003125.2563090        120024999.84313476        1214515743.2892113     
  -2302580952.9895225        166224941.41860473        1209246060.6877759     
  -2204878792.8662019        210024842.51585138        1209317466.1149063     
  -2107896644.8863511        251424703.13487005        1214729959.5706034     
  -2879718855.0062361        74814702.368569613        1150302841.5368845     
  -2764066290.3090801        130340555.35016108        1136008176.7877951     
  -2649526507.9371982        182157133.91416883        1127474438.6320851     
  -2536099507.8905849        230264438.06061172        1124701627.0697596     
  -2423785290.1692481        274662467.78947377        1127689742.1008134     
  -1179864921.0743032        175821145.56005216        1470780258.3145840     
  -1125056363.5743077        212945062.52135140        1458908660.6314626     
  -1068351085.9827840        256391379.78774750        1452048245.1498041     
  -1009749088.2997366        306160097.35922307        1450199011.8696101     
  -949250370.52515817        362251215.23579991        1453360960.7908773     
  -1485936460.3388798        202004042.02015543        1386275217.6774895     
  -1417054570.8669825        242029713.09477961        1375875223.2929363     
  -1345697780.3518369        290305054.31356782        1370620051.1206932     
  -1271866088.7934580        346830065.67646617        1370509701.1607618     
  -1195559496.1918349        411604747.18351460        1375544173.4131367     
  -1795280368.2762284        227205227.87842715        1300925118.0961628     
  -1711943318.2300062        270247201.64711714        1292671271.4538450     
  -1625553186.1888254        323466115.39900112        1289695887.0346825     
  -1536109972.1526954        386861969.13405132        1291998964.8386772     
  -1443613676.1216063        460434762.85230076        1299580504.8658292     
  -2107896644.8863511        251424703.13487005        1214729959.5706034     
  -2009722605.6633842        297597528.17834806        1209296805.1141872     
  -1907917303.4937487        355874563.04405391        1209275752.8917706     
  -1802480738.3774438        426255807.73199141        1214666802.9033594     
  -1693412910.3144693        508741262.24215949        1225469955.1489515     
  -2423785290.1692481        274662467.78947377        1127689742.1008134     
  -2310392433.1671171        324080692.68846095        1125751824.2739623     
  -2192790132.2666039        387530397.24873185        1129359648.6919594     
  -2070978387.4677105        465011581.47026742        1138513215.3548093     
  -1944957198.7704325        556524245.35308492        1153212524.2625096     
  -949250370.52515817        362251215.23579991        1453360960.7908773     
  -906949607.29763496        421206822.45045304        1414510777.5781503     
  -861057294.46788168        492134261.67253637        1377117406.1635866     
  -811573432.03590465        575033532.90203309        1341180846.5471883     
  -758498020.00169432        669904636.13897562        1306701098.7289569     
  -1195559496.1918349        411604747.18351460        1375544173.4131367     
  -1144935982.7647667        481132948.44943810        1342050639.8498538     
  -1088573012.0218723        569792674.10145926        1311062580.6300716     
  -1026470583.9631534        677583924.13955176        1282579995.7537868     
  -958628698.58861077        804506698.56373286        1256602885.2210002     
  -1443613676.1216063        460434762.85230076        1299580504.8658292     
  -1381671233.7940443        541434411.77978754        1273949513.2845242     
  -1311841426.4370594        648725277.47202265        1251872658.5920482     
  -1234124254.0506549        782307359.92898786        1233349940.7884004     
  -1148519716.6348255        942180659.15070271        1218381359.8735862     
  -1693412910.3144693        508741262.24215949        1225469955.1489515     
  -1617155360.3854685        602111212.44148898        1210207397.8821545     
  -1530862537.7134428        728932071.78423238        1199547640.0495188     
  -1434534442.2984023        889203840.27035677        1193490681.6510437     
  -1328171074.1403415        1082926517.8998809        1192036522.6867313     
  -1944957198.7704325        556524245.35308492        1153212524.2625096     
  -1851388362.5390401        663163350.43454611        1150824293.6427467     
  -1745636345.8510282        810413057.03806841        1154087525.0024798     
  -1627701148.7064018        998273365.16363764        1163002218.3417060     
  -1497582771.1051595        1226744274.8112652        1177568373.6604266     
  -758498020.00169432        669904636.13897562        1306701098.7289569     
  -737708546.16469550        773423944.56145740        1262508682.9336879     
  -708422279.08726680        905265897.11870420        1223275149.8578172     
  -670639218.76940107        1065430493.8107405        1189000499.5013394     
  -624359365.21109891        1253917734.6375673        1159684731.8642642     
  -958628698.58861077        804506698.56373286        1256602885.2210002     
  -922466226.03536129        939988135.34269524        1221815777.8556266     
  -880133879.23672152        1096035819.6062829        1186519295.6241713     
  -831631658.19269753        1272649751.3544886        1150713438.5266366     
  -776959562.90328455        1469829930.5873270        1114398206.5630147     
  -1148519716.6348255        942180659.15070271        1218381359.8735862     
  -1112607838.4666951        1104937146.3557472        1190284822.1105621     
  -1072853005.0482259        1280503484.3952436        1156210651.8959723     
  -1029255216.3794135        1468879673.2692177        1116158849.2298145     
  -981814472.46026742        1670065712.9776473        1070129414.1120985     
  -1328171074.1403415        1082926517.8998809        1192036522.6867313     
  -1308133383.4587080        1268270977.6005847        1167915815.6984937     
  -1286579656.5217834        1458668891.4855833        1132349218.6732116     
  -1263509893.3295641        1654120259.5549095        1085336731.6108820     
  -1238924093.8820553        1854625081.8085194        1026878354.5115031     
  -1497582771.1051595        1226744274.8112652        1177568373.6604266     
  -1509042861.0113931        1429989629.0772276        1154708758.6194208     
  -1521313833.6573892        1630532040.8773174        1114934995.9558930     
  -1534395689.0431330        1828371510.2115786        1058247085.6698294     
  -1548288427.1686387        2023508037.0799663        984645027.76124990     
  -3759985875.9636579       -1127995762.7890973        797857436.52848351     
  -3768991506.9553556       -1011375632.9364291        882047751.44567871     
  -3778484847.8529792       -896381202.77017856        970965950.99203074     
  -3788465898.6565280       -783012472.29034519        1064612035.1675395     
  -3798934659.3660021       -671269441.49692988        1162986003.9722047     
  -4334128440.4027357       -1300238532.1208208        854052216.79821491     
  -4327897174.1282225       -1127868335.3666389        937437857.10344255     
  -4322754168.0888395       -959125672.72954917        1014950902.9300953     
  -4318699422.2845812       -794010544.20955098        1086591354.2781737     
  -4315732936.7154503       -632522949.80664468        1152359211.1476769     
  -4892799916.6774931       -1467839975.0032480        930281547.98625648     
  -4901618836.3017187       -1248805836.2970369        1012161871.6287807     
  -4912126566.4902725       -1035401066.1385915        1077569121.6849988     
  -4924323107.2431564       -827625664.52791286        1126503298.1549101     
  -4938208458.5603695       -625479631.46500063        1158964401.0385156     
  -5436000304.7879295       -1630800091.4363790        1026545430.0926088     
  -5490156493.4758368       -1374188135.7276220        1106219795.0216932     
  -5546602043.0572777       -1125207382.9973061        1158820607.2567403     
  -5605336953.5322504       -883857833.24543118        1184347866.7977493     
  -5666361224.9007530       -650139486.47199559        1182801573.6447206     
  -5963729604.7340460       -1789118881.4202139        1142843863.1172717     
  -6093510145.6505852       -1504015233.6583958        1219611627.2821805     
  -6226180597.7898560       -1228544623.3056922        1258705359.6453202     
  -6361740961.1518650       -962707050.36210501        1260125060.2066905     
  -6500191235.7366047       -706502514.82763195        1223870728.9662921     
  -3798934659.3660021       -671269441.49692988        1162986003.9722047     
  -3775961213.4645324       -556263400.87255859        1183599897.8134854     
  -3756963564.5707603       -454510016.94051170        1199175398.6106873     
  -3741941712.6846852       -366009289.70078909        1209712506.3638115     
  -3730895657.8063083       -290761219.15339231        1215211221.0728562     
  -4315732936.7154503       -632522949.80664468        1152359211.1476769     
  -4280427012.1445394       -479234176.63434529        1132781222.1527734     
  -4255835455.6447458       -361659963.69911015        1118893671.5135367     
  -4241958267.2160711       -279800311.00094008        1110696559.2299671     
  -4238795446.8585167       -233655218.53983355        1108189885.3020637     
  -4938208458.5603695       -625479631.46500063        1158964401.0385156     
  -4859916251.3207407       -424711984.54499078        1091332862.9667690     
  -4799076983.2156534       -282120801.40678501        1040120594.6504345     
  -4755690654.2451077       -197706082.05038571        1005327596.0895119     
  -4729757264.4091024       -171467826.47578931        986953867.28400183     
  -5666361224.9007530       -650139486.47199559        1182801573.6447206     
  -5514428930.9931364       -392696824.60449338        1059254820.2554713     
  -5386688147.2834854       -215892530.06353641        962856168.02137983     
  -5283138873.7717953       -119726602.84912395        893605616.94244647     
  -5203781110.4580698       -104199042.96126008        851503167.01866925     
  -6500191235.7366047       -706502514.82763195        1223870728.9662921     
  -6243965051.1617308       -383188696.81285691        1036547094.0188818     
  -6018668947.8482389       -162975149.66936588        887100391.62637484     
  -5824302925.7961330       -45861873.397162437        775530621.78876960     
  -5660866985.0054140       -31848867.996241808        701837784.50606763     
  -3730895657.8063083       -290761219.15339231        1215211221.0728562     
  -3614834679.5283751       -200358583.44101691        1184763260.1123471     
  -3505578065.9053102       -132637163.24486399        1164987118.6672611     
  -3403125816.9371090       -87596958.564932585        1155882796.7375970     
  -3307477932.6237783       -65237969.401226521        1157450294.3233547     
  -4238795446.8585167       -233655218.53983355        1108189885.3020637     
  -4106669056.3696675       -170939951.94570374        1076145663.2701650     
  -3978412185.8798308       -121123085.34827709        1052177023.9892987     
  -3854024835.3890038       -84204618.747552156        1036283967.4594628     
  -3733507004.8971868       -60184552.143531322        1028466493.6806582     
  -4729757264.4091024       -171467826.47578931        986953867.28400183     
  -4588983281.0361710       -138665274.79795527        956737369.61254573     
  -4449143973.0063915       -108978307.59730220        932000217.92772961     
  -4310239340.3197689       -82406924.873832226        912742412.22955477     
  -4172269382.9763012       -58951126.627546310        898963952.51801872     
  -5203781110.4580698       -104199042.96126008        851503167.01866925     
  -5061777353.5278835       -103534551.99776721        826538379.13948822     
  -4917773427.2849970       -96202829.991942644        804456700.48255503     
  -4771769331.7294092       -82203876.943773508        785258131.04787254     
  -4623765066.8611183       -61537692.853273153        768942670.83543956     
  -5660866985.0054140       -31848867.996241808        701837784.50606763     
  -5525051273.8448057       -65547783.545145035        685548691.85099304     
  -5384300548.7156410       -82796652.532191753        669546471.65377486     
  -5238614809.6179180       -83595474.957379103        653831123.91441560     
  -5087994056.5516396       -67944250.820712090        638402648.63291538     
  -3307477932.6237783       -65237969.401226521        1157450294.3233547     
  -3205380995.5491123       -46367575.891173959        1150256377.6201177     
  -3100055503.5879641       -16735332.759518862        1146667163.2546272     
  -2991501456.7403393        23658759.993729472        1146682651.2268832     
  -2879718855.0062361        74814702.368569613        1150302841.5368845     
  -3733507004.8971868       -60184552.143531322        1028466493.6806582     
  -3620293713.1473050       -40089526.863364220        1020819178.7689202     
  -3504353986.9157381       -10906386.644253969        1017835596.2457300     
  -3385687826.2024865        27364868.513809919        1019515746.1110871     
  -3264295231.0075521        74724238.610815048        1025859628.3649913     
  -4172269382.9763012       -58951126.627546310        898963952.51801872     
  -4044913936.4060578       -36723729.533727169        890277432.25885379     
  -3915334175.7589250       -7081952.1836113930        887313674.43903601     
  -3783530101.0349026        29974205.422807932        890072679.05856836     
  -3649501712.2339935        74444743.285521746        898554446.11744630     
  -4623765066.8611183       -61537692.853273153        768942670.83543956     
  -4479241665.3253689       -36270183.902257919        758631138.08991790     
  -4332996070.1175222       -5262029.3775894642        755101397.83454669     
  -4185028281.2375851        31486770.720726967        758353450.06932569     
  -4035338298.6855478        73976216.392696381        768387294.79425418     
  -5087994056.5516396       -67944250.820712090        638402648.63291538     
  -4923276899.9052391       -38728889.968951941        625880296.26211381     
  -4757339669.9915371       -5446618.2261993885        621198766.43226051     
  -4590182366.8105316        31902564.407569885        624358059.14336145     
  -4421804990.3622284        73318657.932331085        635358174.39541006     
  -2879718855.0062361        74814702.368569613        1150302841.5368845     
  -2764066290.3090801        130340555.35016108        1136008176.7877951     
  -2649526507.9371982        182157133.91416883        1127474438.6320851     
  -2536099507.8905849        230264438.06061172        1124701627.0697596     
  -2423785290.1692481        274662467.78947377        1127689742.1008134     
  -3264295231.0075521        74724238.610815048        1025859628.3649913     
  -3135893394.7021027        127419421.76635861        1009817616.0107532     
  -3008086317.6747952        178132073.99476683        998475040.56782997     
  -2880873999.9256248        226862195.29604697        991831902.03622305     
  -2754256441.4545894        273609785.67020786        989888200.41593051     
  -3649501712.2339935        74444743.285521746        898554446.11744630     
  -3511383431.9832964        123399408.31609845        881369446.37971675     
  -3373341887.9636064        172098285.90999436        867822393.87123644     
  -3235377080.1749220        220541376.06720543        857913288.59200525     
  -3097489008.6172414        268728678.78773856        851642130.54202557     
  -4035338298.6855478        73976216.392696381        768387294.79425418     
  -3890536402.1526527        118280514.99939442        750663667.89468598     
  -3745293218.8036289        164055769.65985918        735516498.54230571     
  -3599608748.6384778        211301980.37408614        722945786.73710513     
  -3453482991.6571889        260019147.14208579        712951532.47908914     
  -4421804990.3622284        73318657.932331085        635358174.39541006     
  -4273352305.2101793        112062741.81623745        617700280.55566549     
  -4123940310.1948633        154004525.24436545        601557354.58103657     
  -3973569005.3162889        199144008.21669173        586929396.47152662     
  -3822238390.5744472        247481190.73323631        573816406.22713280     
  -2423785290.1692481        274662467.78947377        1127689742.1008134     
  -2310392433.1671171        324080692.68846095        1125751824.2739623     
  -2192790132.2666039        387530397.24873185        1129359648.6919594     
  -2070978387.4677105        465011581.47026742        1138513215.3548093     
  -1944957198.7704325        556524245.35308492        1153212524.2625096     
  -2754256441.4545894        273609785.67020786        989888200.41593051     
  -2626924328.2819052        324127339.29059374        987342440.63624966     
  -2496653106.2690539        384441922.37820292        989719752.11489773     
  -2363442775.4160409        454553534.93302345        997020134.85187912     
  -2227293335.7228575        534462176.95506847        1009243588.8471905     
  -3097489008.6172414        268728678.78773856        851642130.54202557     
  -2957996699.2354808        319811843.14108765        847006471.24159122     
  -2816835616.0717735        376457586.76759267        846671212.21297026     
  -2674005759.1261191        438665909.66725862        850636353.45616186     
  -2529507128.3985205        506436811.84007525        858901894.97116530     
  -3453482991.6571889        260019147.14208579        712951532.47908914     
  -3303609546.0278411        311134204.23994732        704743916.08998477     
  -3153337661.6747627        363577390.41690516        700214028.98617327     
  -3002667338.5979562        417348705.67296624        699361871.16765654     
  -2851598576.7974195        472448150.00811410        702187442.63442838     
  -3822238390.5744472        247481190.73323631        573816406.22713280     
  -3663762868.6589885        298094422.58716750        560554775.18143594     
  -3506159243.0780249        345801333.32613015        550348202.43451107     
  -3349427513.8315411        390601922.95014739        543196687.98636198     
  -3193567680.9195538        432496191.45918536        539100231.83698475     
  -1944957198.7704325        556524245.35308492        1153212524.2625096     
  -1851388362.5390401        663163350.43454611        1150824293.6427467     
  -1745636345.8510282        810413057.03806841        1154087525.0024798     
  -1627701148.7064018        998273365.16363764        1163002218.3417060     
  -1497582771.1051595        1226744274.8112652        1177568373.6604266     
  -2227293335.7228575        534462176.95506847        1009243588.8471905     
  -2119427255.5334845        630179363.95262098        1015741927.3197143     
  -1998482557.0458128        769491945.27784121        1030107126.4151680     
  -1864459240.2598476        952399920.93070519        1052339186.1335533     
  -1717357305.1755853        1178903290.9112217        1082438106.4748693     
  -2529507128.3985205        506436811.84007525        858901894.97116530     
  -2401014093.8413420        593130993.87668192        875331480.01793313     
  -2258547003.1441936        726405363.04653180        901843324.33106792     
  -2102105856.3070664        906259919.34963763        938437427.91057217     
  -1931690653.3299665        1132694662.7859869        985113790.75644255     
  -2851598576.7974195        472448150.00811410        702187442.63442838     
  -2696148877.4626188        552018240.20671213        729592951.73739934     
  -2525829684.1461697        681153310.34413862        769296118.75017548     
  -2340640996.8480616        859853360.42042899        821296943.67275751     
  -2140582815.5683026        1088118390.4355645        885595426.50514460     
  -3193567680.9195538        432496191.45918536        539100231.83698475     
  -3004831606.3973088        506841102.94271648        578526342.47811484     
  -2800330600.0517387        633735787.17067945        632465509.67249203     
  -2580064661.8828273        813180244.14310360        700917733.42011023     
  -2344033791.8905873        1045174473.8599612        783883013.72096980     
  -1497582771.1051595        1226744274.8112652        1177568373.6604266     
  -1509042861.0113931        1429989629.0772276        1154708758.6194208     
  -1521313833.6573892        1630532040.8773174        1114934995.9558930     
  -1534395689.0431330        1828371510.2115786        1058247085.6698294     
  -1548288427.1686387        2023508037.0799663        984645027.76124990     
  -1717357305.1755853        1178903290.9112217        1082438106.4748693     
  -1749883245.3261490        1399652955.0791967        1078686196.5508320     
  -1763750667.4511037        1682597679.3325300        1071604477.9301448     
  -1758959571.5504518        2027737463.6712174        1061192950.6127982     
  -1735509957.6242118        2435072308.0952172        1047451614.5988129     
  -1931690653.3299665        1132694662.7859869        985113790.75644255     
  -1946470046.7937815        1382592355.9353163        1023183886.8422886     
  -1923121521.4666286        1759583111.7212000        1071508513.1573598     
  -1861645077.3485169        2263666930.1436195        1130087669.7016563     
  -1762040714.4394429        2894843811.2025843        1198921356.4751689     
  -2140582815.5683026        1088118390.4355645        885595426.50514460     
  -2098803265.4142895        1378807831.6455803        988201829.49379361     
  -1999426395.7039611        1861488338.0433192        1114647101.6375437     
  -1842452206.4373066        2536159909.6288109        1264931242.9363945     
  -1627880697.6143370        3402822546.4020386        1439054253.3903425     
  -2344033791.8905873        1045174473.8599612        783883013.72096980     
  -2206882901.1876831        1388299382.2099619        973740024.50534499     
  -1992665290.1631002        1988313358.2989016        1201020243.3706944     
  -1701380958.8168311        2845216402.1267843        1465723670.3170104     
  -1333029907.1488822        3959008513.6936111        1767850305.3443205     
  -5963729604.7340460       -1789118881.4202139        1142843863.1172717     
  -6093510145.6505852       -1504015233.6583958        1219611627.2821805     
  -6226180597.7898560       -1228544623.3056922        1258705359.6453202     
  -6361740961.1518650       -962707050.36210501        1260125060.2066905     
  -6500191235.7366047       -706502514.82763195        1223870728.9662921     
  -6819485451.9524670       -2045845635.5857401        1346761252.1133857     
  -6837593121.7863331       -1397519144.9883914        1195451198.3767481     
  -6907255158.1087856       -921040542.68633223        1083896728.9280441     
  -7028471560.9198265       -616409828.67956305        1012097843.7672734     
  -7201242330.2194481       -483627002.96808243        980054542.89443684     
  -8346765481.8798227       -2504029644.5639467        1705882002.1340914     
  -8031972806.0890083       -1426112068.7684650        1269718932.6857464     
  -7817398952.0526333       -682257232.15444803        950741063.61503744     
  -7703043919.7706966       -272465134.72189283        748948394.92196453     
  -7688907709.2432003       -196735776.47080517        664340926.60652840     
  -10545569694.516113       -3163670908.3548341        2220206113.1793885     
  -9676649198.5586090       -1589794004.9986165        1442414830.2091749     
  -8956611979.6213989       -512194691.71003819        859238363.70630074     
  -8385458037.7044792        69127031.510901451        470676713.67076457     
  -7963187372.8078499        154171164.66420317        276729880.10256749     
  -13415898089.861334       -4024769426.9584002        2889733585.2492776     
  -11771622299.195137       -1888564953.6788456        1713538890.9470344     
  -10324894240.815083       -410852921.35310459        809388629.20183265     
  -9075713914.7211723        408366670.01882458        177282800.01367268     
  -8024081320.9134054        569093820.43693876       -182778596.61744595     
  -6500191235.7366047       -706502514.82763195        1223870728.9662921     
  -6243965051.1617308       -383188696.81285691        1036547094.0188818     
  -6018668947.8482389       -162975149.66936588        887100391.62637484     
  -5824302925.7961330       -45861873.397162437        775530621.78876960     
  -5660866985.0054140       -31848867.996241808        701837784.50606763     
  -7201242330.2194481       -483627002.96808243        980054542.89443684     
  -6914460973.3845701       -310451792.19807529        833155771.02570474     
  -6640393328.8183498       -179655622.32360268        706531416.16624999     
  -6379039396.5207901       -91238493.344661236        600181478.31607306     
  -6130399176.4918900       -45200405.261252165        514105957.47517252     
  -7688907709.2432003       -196735776.47080517        664340926.60652840     
  -7421864081.7072458       -188787043.41324615        579119448.30798781     
  -7149317797.4472237       -162496121.27546453        496569871.47309899     
  -6871268856.4631376       -117863010.05746722        416692196.10186332     
  -6587717258.7549868       -54887709.759251118        339486422.19428033     
  -7963187372.8078499        154171164.66420317        276729880.10256749     
  -7766174376.1297512       -18194450.458364010        274438125.86573148     
  -7545442353.7348623       -111496646.52496004        257215757.54692343     
  -7300991305.6231747       -125735423.53558111        225062775.14614016     
  -7032821231.7947035       -60910781.490235806        177979178.66338652     
  -8024081320.9134054        569093820.43693876       -182778596.61744595     
  -7947391856.6520901        201325986.66656923       -80888196.301062346     
  -7828766997.6812553       -26657198.072079659       -11530925.612280073     
  -7668206744.0009022       -114855733.77900314        25293215.448905382     
  -7465711095.6110363       -63269620.454202175        29584226.882494010     
  -5660866985.0054140       -31848867.996241808        701837784.50606763     
  -5525051273.8448057       -65547783.545145035        685548691.85099304     
  -5384300548.7156410       -82796652.532191753        669546471.65377486     
  -5238614809.6179180       -83595474.957379103        653831123.91441560     
  -5087994056.5516396       -67944250.820712090        638402648.63291538     
  -6130399176.4918900       -45200405.261252165        514105957.47517252     
  -5984978004.0840816       -48444290.380918264        505235672.12688303     
  -5838919773.6384363       -49564648.707786083        496439246.71952492     
  -5692224485.1549501       -48561480.241851807        487716681.25310081     
  -5544892138.6336250       -45434784.983125448        479067975.72760683     
  -6587717258.7549868       -54887709.759251118        339486422.19428033     
  -6433299232.2911930       -27859146.607040405        333020662.23360288     
  -6282542103.7202797       -13033576.431091309        326415749.69693559     
  -6135445873.0422487       -10410999.231406689        319671684.58427149     
  -5992010540.2570896       -19991415.007982254        312788466.89561903     
  -7032821231.7947035       -60910781.490235806        177979178.66338652     
  -6870014958.4661446       -3792352.2235159874        168903662.17115128     
  -6715167538.9611797        26796564.297883987        159475980.58600166     
  -6568278973.2798128        30855968.073959827        149696133.90793234     
  -6429349261.4220409        8385859.1047146320        139564122.13694528     
  -7465711095.6110363       -63269620.454202175        29584226.882494010     
  -7295125182.6089249        23756092.769660950        12884671.939530484     
  -7136796079.3611279        69925773.479144573       -4380060.6132705817     
  -6990723785.8676453        75239421.674247742       -22209970.775919918     
  -6856908302.1284761        39697037.354963303       -40605058.548413523     
  -5087994056.5516396       -67944250.820712090        638402648.63291538     
  -4923276899.9052391       -38728889.968951941        625880296.26211381     
  -4757339669.9915371       -5446618.2261993885        621198766.43226051     
  -4590182366.8105316        31902564.407569885        624358059.14336145     
  -4421804990.3622284        73318657.932331085        635358174.39541006     
  -5544892138.6336250       -45434784.983125448        479067975.72760683     
  -5369001319.6122379       -29318716.676517487        469977504.82290274     
  -5190832065.4652681       -5607864.6179611683        464664249.94534510     
  -5010384376.1927128        25697771.192538500        463128211.09493738     
  -4827658251.7945776        64598190.754985809        465369388.27167684     
  -5992010540.2570896       -19991415.007982254        312788466.89561903     
  -5816556363.1858702       -20457730.544071198        308364632.95833820     
  -5637765389.1307802       -9801389.4672665596        303654408.53440583     
  -5455637618.0918207        11977608.222431183        298657793.62382185     
  -5270173050.0689964        44879262.525021076        293374788.22658205     
  -6429349261.4220409        8385859.1047146320        139564122.13694528     
  -6265942030.6261368       -12145931.571621418        141041680.66842043     
  -6098139640.9880733       -18027192.774107933        138169242.19944379     
  -5925942092.5078621       -9257924.5027632713        130946806.73001841     
  -5749349385.1854954        14161873.242430210        119374374.26012908     
  -6856908302.1284761        39697037.354963303       -40605058.548413523     
  -6717158321.9330301       -4383319.7591500282       -31991352.046845965     
  -6571954821.0371408       -30285274.538471222       -31791249.059531681     
  -6421297799.4408236       -38008826.983016491       -40004749.586480357     
  -6265187257.1440697       -27553977.092782974       -56631853.627681509     
  -4421804990.3622284        73318657.932331085        635358174.39541006     
  -4273352305.2101793        112062741.81623745        617700280.55566549     
  -4123940310.1948633        154004525.24436545        601557354.58103657     
  -3973569005.3162889        199144008.21669173        586929396.47152662     
  -3822238390.5744472        247481190.73323631        573816406.22713280     
  -4827658251.7945776        64598190.754985809        465369388.27167684     
  -4671736076.7791710        98980185.315883636        437326605.27170342     
  -4515769638.1113729        133509725.38475943        414521251.83758140     
  -4359758935.7911797        168186810.96161461        396953327.96931237     
  -4203703969.8185921        203011442.04645228        384622833.66688836     
  -5270173050.0689964        44879262.525021076        293374788.22658205     
  -5096145780.3310051        78089849.220673084        253879562.15370601     
  -4922989293.1514845        108397827.38807583        223344227.34740832     
  -4750703588.5304403        135803197.02723289        201768783.80769813     
  -4579288666.4678726        160305958.13813257        189153231.53456324     
  -5749349385.1854954        14161873.242430210        119374374.26012908     
  -5546581415.8656759        49391733.530606747        67359151.201667666     
  -5345599275.3152018        78668831.254305840        28026281.110511605     
  -5146402963.5340719        101993166.41352677        1375763.9866753959     
  -4948992480.5222778        119364739.00827432       -12592400.169847498     
  -6265187257.1440697       -27553977.092782974       -56631853.627681509     
  -6023042983.3831854        12885838.245700359       -122234627.58441362     
  -5783599584.6025219        44322736.983463049       -171432586.87310490     
  -5546857060.8020668        66756719.120526791       -204225731.49374154     
  -5312815411.9818277        80187784.656869650       -220614061.44633493     
  -3822238390.5744472        247481190.73323631        573816406.22713280     
  -3663762868.6589885        298094422.58716750        560554775.18143594     
  -3506159243.0780249        345801333.32613015        550348202.43451107     
  -3349427513.8315411        390601922.95014739        543196687.98636198     
  -3193567680.9195538        432496191.45918536        539100231.83698475     
  -4203703969.8185921        203011442.04645228        384622833.66688836     
  -4045820639.5071931        239078595.95748448        371547582.45751339     
  -3887523981.5133142        276523508.81012535        358318528.16383916     
  -3728813995.8369632        315346180.60433340        344935670.78585559     
  -3569690682.4781380        355546611.34012699        331399010.32357252     
  -4579288666.4678726        160305958.13813257        189153231.53456324     
  -4431165703.1407452        179076581.49221087        177763788.18130827     
  -4281344188.1141858        203509043.84441900        163011680.36067060     
  -4129824121.3881793        233603345.19477415        144896908.07265356     
  -3976605502.9627280        269359485.54327798        123419471.31725653     
  -4948992480.5222778        119364739.00827432       -12592400.169847498     
  -4819798059.5596581        118088379.19131565       -20796607.647190854     
  -4687619862.8806248        126757938.42905116       -35572340.974993944     
  -4552457890.4851809        145373416.72149277       -56919600.153253704     
  -4414312142.3733292        173934814.06863046       -84838385.181964621     
  -5312815411.9818277        80187784.656869650       -220614061.44633493     
  -5211717708.7639132        56113989.054827452       -224133605.02797887     
  -5106351005.8126364        46270192.564024448       -237433535.84314403     
  -4996715303.1279840        50656395.184467077       -260513853.89185473     
  -4882810600.7099495        69272596.916163445       -293374559.17409515     
  -3193567680.9195538        432496191.45918536        539100231.83698475     
  -3004831606.3973088        506841102.94271648        578526342.47811484     
  -2800330600.0517387        633735787.17067945        632465509.67249203     
  -2580064661.8828273        813180244.14310360        700917733.42011023     
  -2344033791.8905873        1045174473.8599612        783883013.72096980     
  -3569690682.4781380        355546611.34012699        331399010.32357252     
  -3364717342.8733411        427189762.98903847        367849840.23064661     
  -3148495102.5734539        536329250.28824186        402901300.53289330     
  -2921023961.5784798        682965073.23774433        436553391.23031205     
  -2682303919.8884115        867097231.83756447        468806112.32290119     
  -3976605502.9627280        269359485.54327798        123419471.31725653     
  -3800858973.0127277        324661654.93634844        151626317.50732428     
  -3618379573.4958720        402406722.88559437        162521367.93448788     
  -3429167304.4121723        502594689.39099026        156104622.59875634     
  -3233222165.7616243        625225554.45255947        132376081.50013012     
  -4414312142.3733292        173934814.06863046       -84838385.181964621     
  -4313256496.8154564        199256778.78469563       -70144225.691864431     
  -4209984012.8189869        231968204.96275020       -88674288.122718632     
  -4104494690.3839073        272069092.60283804       -140428572.47454694     
  -3996788529.5102248        319559441.70493746       -225407078.74734595     
  -4882810600.7099495        69272596.916163445       -293374559.17409515     
  -4901909914.2815695        50975134.533953667       -297461789.36689162     
  -4923308420.5428066        25013696.519681931       -350685667.63874292     
  -4947006119.4936981       -8611717.1267774105       -453046193.98960912     
  -4973003011.1342125       -49901106.405301094       -604543368.41952407     
  -2344033791.8905873        1045174473.8599612        783883013.72096980     
  -2206882901.1876831        1388299382.2099619        973740024.50534499     
  -1992665290.1631002        1988313358.2989016        1201020243.3706944     
  -1701380958.8168311        2845216402.1267843        1465723670.3170104     
  -1333029907.1488822        3959008513.6936111        1767850305.3443205     
  -2682303919.8884115        867097231.83756447        468806112.32290119     
  -2502028641.6112537        1179873879.3450017        661517103.33101356     
  -2236621219.2391920        1776424340.5021129        856980936.89431906     
  -1886081652.7722280        2656748615.3088989        1055197613.0128297     
  -1450409942.2103651        3820846703.7653556        1256167131.6865304     
  -3233222165.7616243        625225554.45255947        132376081.50013012     
  -3108880687.1267076        877936484.95248222        337350713.80073082     
  -2891341640.6236777        1441305975.0127895        510407823.13075304     
  -2580605026.2525196        2315334024.6335335        651547409.49019969     
  -2176670844.0132408        3500020633.8146677        760769472.87907398     
  -3996788529.5102248        319559441.70493746       -225407078.74734595     
  -4027439037.7340622        482487199.03237247        1240855.9144948903     
  -3956826554.3165569        982958261.83096457        161300902.07999986     
  -3784951079.2577057        1820972630.1007023        254773059.74913710     
  -3511812612.5575128        2996530303.8415670        281657328.92193371     
  -4973003011.1342125       -49901106.405301094       -604543368.41952407     
  -5257703693.4332905       -6473978.4152655602       -346812470.32767528     
  -5433075960.3178205        401381200.95662928       -190339826.25794652     
  -5499119811.7877827        1173664431.7104056       -135125436.21035266     
  -5455835247.8431807        2310375713.8460488       -181169300.18488362     
 </DataArray>
 <DataArray  type="Float64" Name="VM" NumberOfComponents="1" format="ascii">
   12932164343.666929     
   11345260790.714666     
   10222306887.622707     
   9291708833.2545338     
   8329251344.6074381     
   10131292479.180168     
   9328600507.7487411     
   8838019243.0790272     
   8459607353.5930672     
   8055653544.7961407     
   7985500014.5963306     
   7741346648.9827290     
   7678245245.1608496     
   7680825676.6413174     
   7679151652.2923250     
   6494655437.8041916     
   6590704277.1976290     
   6761739703.5183258     
   6965628524.7549219     
   7175694506.5879278     
   5658221647.9309874     
   5889868690.9741516     
   6113797803.1500196     
   6327543405.4471636     
   6530911814.8507099     
   8329251344.6074381     
   8051162318.8177786     
   7815498013.8444948     
   7611554915.7981644     
   7434454800.4544077     
   8055653544.7961407     
   7771643523.6265926     
   7503553833.6525288     
   7249431009.7925014     
   7009346597.8280916     
   7679151652.2923250     
   7397614022.4210033     
   7121598027.0046492     
   6851222964.9513817     
   6586744242.9220209     
   7175694506.5879278     
   6916790417.7331581     
   6665708937.1028910     
   6418653095.6460361     
   6172491832.2432632     
   6530911814.8507099     
   6321756555.0209465     
   6134401734.8952799     
   5954984271.6378584     
   5774414775.0440588     
   7434454800.4544077     
   7307066271.5478535     
   7172018644.2160244     
   7028750805.3710489     
   6877202380.0319767     
   7009346597.8280916     
   6874347368.0242224     
   6734273109.7017965     
   6588864709.9035826     
   6438086074.1047821     
   6586744242.9220209     
   6445277123.7697124     
   6301449269.1276608     
   6155200913.4908752     
   6006522377.9528847     
   6172491832.2432632     
   6024795415.5683737     
   5877532862.2664413     
   5730703067.1120710     
   5584306630.4416437     
   5774414775.0440588     
   5619454088.4557848     
   5467780450.6051407     
   5319270086.1724205     
   5173903151.5592470     
   6877202380.0319767     
   6715196350.2506762     
   6557095848.1739788     
   6402752942.5182390     
   6252225304.8889446     
   6438086074.1047821     
   6264642816.5329275     
   6093847055.8639746     
   5925660694.5550013     
   5760155483.3605375     
   6006522377.9528847     
   5830867786.4156065     
   5657371714.4337721     
   5486078764.1176348     
   5317091865.3753424     
   5584306630.4416437     
   5415926429.8673592     
   5250085531.8803234     
   5086927452.1718159     
   4926664298.8574152     
   5173903151.5592470     
   5022415827.7129345     
   4874839762.5583124     
   4731458494.0421534     
   4592708986.5607986     
   6252225304.8889446     
   6033212137.3835459     
   5813475812.1757212     
   5591734448.2309742     
   5366979809.2685022     
   5760155483.3605375     
   5572662916.7042837     
   5385583428.1809320     
   5198150602.0057535     
   5009788959.0877886     
   5317091865.3753424     
   5154427377.5816183     
   4993081507.9230423     
   4832692805.9006472     
   4673008322.6248722     
   4926664298.8574152     
   4782372636.0274382     
   4639868860.2392521     
   4499083747.5334225     
   4359993679.9094715     
   4592708986.5607986     
   4460677355.3363686     
   4330279471.1199551     
   4201628230.1017728     
   4074859649.9115510     
   5366979809.2685022     
   5254360869.2951021     
   5146101186.4753857     
   5042464464.9323893     
   4943995238.8277597     
   5009788959.0877886     
   4880046909.3833189     
   4752666278.8488445     
   4627907967.4933643     
   4506195759.8807697     
   4673008322.6248722     
   4533830147.9031277     
   4395717765.4980059     
   4258843019.9069180     
   4123442659.8204274     
   4359993679.9094715     
   4219861983.3097839     
   4080376971.8728075     
   3941612123.4692388     
   3803652494.5399499     
   4074859649.9115510     
   3942946980.0270238     
   3812324116.9694662     
   3683030720.1845593     
   3555140015.1473250     
   4943995238.8277597     
   4954457118.3747320     
   4973095911.3968344     
   5004607282.5249453     
   5057816601.0281982     
   4506195759.8807697     
   4417928372.4417009     
   4333352796.4837770     
   4254029260.8816404     
   4184025973.9810171     
   4123442659.8204274     
   3981821054.2102995     
   3845764132.1255136     
   3715962467.4193802     
   3594258751.0117636     
   3803652494.5399499     
   3653372032.8118582     
   3517995006.7408309     
   3400811110.5159082     
   3306322389.7319889     
   3555140015.1473250     
   3436997416.1759748     
   3349355176.3678799     
   3299986422.3481598     
   3298518776.8271341     
   5057816601.0281982     
   5288694399.2643938     
   5654099712.7086220     
   6174682573.3767986     
   6914294641.6862030     
   4184025973.9810171     
   4289085158.8236713     
   4537635135.2508163     
   4972807682.7331190     
   5663326509.6834688     
   3594258751.0117636     
   3675150050.4457278     
   3922508867.6220050     
   4389623975.8079348     
   5132518274.6811056     
   3306322389.7319889     
   3452121459.0750217     
   3786105554.3666658     
   4355087603.3355188     
   5194056234.6853542     
   3298518776.8271341     
   3564551919.7357306     
   4026598671.2610245     
   4719723316.6140862     
   5666046064.2763739     
   5658221647.9309874     
   5889868690.9741516     
   6113797803.1500196     
   6327543405.4471636     
   6530911814.8507099     
   5148394411.6509762     
   5306304754.0920820     
   5460623033.0257130     
   5608451271.6460533     
   5748344491.5779953     
   4637722413.5384007     
   4747381171.3635845     
   4857827428.4967451     
   4966432840.9224300     
   5071289204.0821009     
   4126512370.5135593     
   4214006639.5438867     
   4307021843.4994354     
   4403926302.6721001     
   4503291150.9165783     
   3616400082.8384852     
   3708144574.7181115     
   3810749118.9429312     
   3924202174.1777382     
   4048457459.1378775     
   6530911814.8507099     
   6321756555.0209465     
   6134401734.8952799     
   5954984271.6378584     
   5774414775.0440588     
   5748344491.5779953     
   5635929455.1140995     
   5539074746.6279001     
   5448756880.7154827     
   5359397280.0075932     
   5071289204.0821009     
   5030718022.0341959     
   5000236509.1209936     
   4974686226.6314678     
   4950882507.8264189     
   4503291150.9165783     
   4511094521.2140961     
   4523221993.5491724     
   4537238967.9710674     
   4551463433.9557486     
   4048457459.1378775     
   4082843272.1433640     
   4114345867.5144353     
   4142066899.1549516     
   4165277861.2559495     
   5774414775.0440588     
   5619454088.4557848     
   5467780450.6051407     
   5319270086.1724205     
   5173903151.5592470     
   5359397280.0075932     
   5211308627.0251064     
   5065777185.6348152     
   4922821659.4548807     
   4782496517.4844198     
   4950882507.8264189     
   4815361063.0560017     
   4682709835.3712950     
   4552917376.3477526     
   4426031588.5127172     
   4551463433.9557486     
   4434661865.3837509     
   4322243194.5986156     
   4213991521.2713952     
   4109893827.6785617     
   4165277861.2559495     
   4073561355.1354399     
   3989145926.5133238     
   3911397474.2103133     
   3840177948.3208103     
   5173903151.5592470     
   5022415827.7129345     
   4874839762.5583124     
   4731458494.0421534     
   4592708986.5607986     
   4782496517.4844198     
   4650701249.7816954     
   4523562384.1201973     
   4401423181.5555868     
   4284764150.9228749     
   4426031588.5127172     
   4311834270.8206034     
   4202872865.4381242     
   4099523741.7191048     
   4002285754.8406725     
   4109893827.6785617     
   4011136156.3501015     
   3917954042.3946948     
   3830733201.9370046     
   3749972396.4423761     
   3840177948.3208103     
   3754631904.0510364     
   3674681004.6754541     
   3600702601.6409907     
   3533187387.3819542     
   4592708986.5607986     
   4460677355.3363686     
   4330279471.1199551     
   4201628230.1017728     
   4074859649.9115510     
   4284764150.9228749     
   4159438213.6129665     
   4036276267.9070978     
   3915403933.0604048     
   3796975914.5532136     
   4002285754.8406725     
   3887001409.9934950     
   3774777714.2133865     
   3665771882.5731320     
   3560185436.9812913     
   3749972396.4423761     
   3648127145.2445140     
   3550634901.6479769     
   3457694958.3191676     
   3369572424.3147650     
   3533187387.3819542     
   3448023315.7682614     
   3368886748.1586466     
   3296006250.4806895     
   3229698115.3909431     
   4074859649.9115510     
   3942946980.0270238     
   3812324116.9694662     
   3683030720.1845593     
   3555140015.1473250     
   3796975914.5532136     
   3678110712.6719503     
   3562738871.2419076     
   3451184071.6290755     
   3343838480.4876232     
   3560185436.9812913     
   3456918620.8330445     
   3359651583.9772110     
   3269017645.4688816     
   3185758540.4720020     
   3369572424.3147650     
   3283562583.0614786     
   3206169990.4382749     
   3138301990.7046542     
   3081007518.9396853     
   3229698115.3909431     
   3161272936.6979680     
   3103971786.6431093     
   3058897385.0092678     
   3027324058.6941662     
   3555140015.1473250     
   3436997416.1759748     
   3349355176.3678799     
   3299986422.3481598     
   3298518776.8271341     
   3343838480.4876232     
   3264840561.3915725     
   3215542291.9311185     
   3202208942.7901521     
   3232358539.5369072     
   3185758540.4720020     
   3136782512.4228210     
   3115972419.2567382     
   3128450858.5954952     
   3180218422.4760771     
   3081007518.9396853     
   3052853129.5867090     
   3050775096.7185349     
   3079161897.1713076     
   3143046933.2705917     
   3027324058.6941662     
   3011376275.4381795     
   3019015751.6291633     
   3054271422.7603550     
   3121667597.0589457     
   3298518776.8271341     
   3564551919.7357306     
   4026598671.2610245     
   4719723316.6140862     
   5666046064.2763739     
   3232358539.5369072     
   3482751947.8703046     
   3861614707.1451173     
   4393135985.7882566     
   5097177397.4632683     
   3180218422.4760771     
   3395908961.1446190     
   3690909474.0503073     
   4078645508.6844277     
   4571430638.7476492     
   3143046933.2705917     
   3310746253.3658791     
   3514917156.7404613     
   3761749280.7882261     
   4056985192.4363747     
   3121667597.0589457     
   3237291041.6582203     
   3344072607.2287207     
   3444186196.4927697     
   3540244821.7584381     
   3616400082.8384852     
   3708144574.7181115     
   3810749118.9429312     
   3924202174.1777382     
   4048457459.1378775     
   3129492772.0525866     
   3244156362.1287656     
   3368007268.7063904     
   3500627255.6214252     
   3641603033.3609133     
   2687533830.2946854     
   2820901160.5128551     
   2961516704.3408623     
   3108336136.3101668     
   3260480401.4152174     
   2294156791.4491615     
   2443321453.3229499     
   2597307242.8457084     
   2754208354.4420104     
   2912608413.1923738     
   1954718987.5640457     
   2118477809.2358341     
   2283841317.7955885     
   2447846864.1883855     
   2608534525.3999600     
   4048457459.1378775     
   4082843272.1433640     
   4114345867.5144353     
   4142066899.1549516     
   4165277861.2559495     
   3641603033.3609133     
   3675018255.6643133     
   3707014218.7371240     
   3736698322.2959599     
   3763326996.5331855     
   3260480401.4152174     
   3299342361.1818757     
   3338669612.6250401     
   3377665309.3326201     
   3415674174.6639309     
   2912608413.1923738     
   2963292047.6948586     
   3016725366.6849952     
   3072276529.3700938     
   3129455886.9511032     
   2608534525.3999600     
   2676734445.5478826     
   2750268344.3059678     
   2828693696.9491396     
   2911710280.4529991     
   4165277861.2559495     
   4073561355.1354399     
   3989145926.5133238     
   3911397474.2103133     
   3840177948.3208103     
   3763326996.5331855     
   3704996632.8622770     
   3653585569.6447368     
   3608805172.4685493     
   3570696141.5457134     
   3415674174.6639309     
   3386671014.4640245     
   3363793063.1993055     
   3346953549.4880805     
   3336240956.5665259     
   3129455886.9511032     
   3125928368.7481079     
   3127093243.1411700     
   3132942897.9842858     
   3143530526.0763655     
   2911710280.4529991     
   2929993563.7235250     
   2950718071.6683211     
   2973876178.9236526     
   2999464941.5658207     
   3840177948.3208103     
   3754631904.0510364     
   3674681004.6754541     
   3600702601.6409907     
   3533187387.3819542     
   3570696141.5457134     
   3495131091.1238637     
   3425757133.9854541     
   3362943804.2338133     
   3307144682.5255198     
   3336240956.5665259     
   3272042069.5559969     
   3214848068.8487091     
   3164997124.8278022     
   3122885170.5219316     
   3143530526.0763655     
   3091790065.5748210     
   3048066243.5890012     
   3012633997.5725670     
   2985804993.7726865     
   2999464941.5658207     
   2960696309.3973622     
   2931114552.0160666     
   2910895564.0740976     
   2900240007.6612506     
   3533187387.3819542     
   3448023315.7682614     
   3368886748.1586466     
   3296006250.4806895     
   3229698115.3909431     
   3307144682.5255198     
   3239220258.0099649     
   3177905641.4733896     
   3123463854.2000580     
   3076219523.8772120     
   3122885170.5219316     
   3071286003.3548365     
   3026709463.3259487     
   2989413395.4950995     
   2959690759.2099700     
   2985804993.7726865     
   2949200577.0389051     
   2919789323.0883894     
   2897792409.0916977     
   2883444971.8643899     
   2900240007.6612506     
   2876787348.4603434     
   2860410706.5915775     
   2851279495.9945421     
   2849565443.0070834     
   3229698115.3909431     
   3161272936.6979680     
   3103971786.6431093     
   3058897385.0092678     
   3027324058.6941662     
   3076219523.8772120     
   3018747092.5598235     
   2972005706.2346535     
   2936868235.9154119     
   2914327334.2458849     
   2959690759.2099700     
   2911945812.3539085     
   2874510620.3580828     
   2848041877.1100588     
   2833273548.9574780     
   2883444971.8643899     
   2844062102.0426435     
   2814540882.8828459     
   2795343693.4145651     
   2786977621.0153942     
   2849565443.0070834     
   2817075799.2549572     
   2793986204.3877621     
   2780594114.1777501     
   2777218672.7403727     
   3027324058.6941662     
   3011376275.4381795     
   3019015751.6291633     
   3054271422.7603550     
   3121667597.0589457     
   2914327334.2458849     
   2888813352.2574344     
   2882276964.1590428     
   2897831273.9599023     
   2939036089.6211839     
   2833273548.9574780     
   2796264125.4868994     
   2773869601.6752453     
   2768390903.7864575     
   2782494278.8615432     
   2786977621.0153942     
   2737979821.6288905     
   2699364942.4294620     
   2672698287.6500254     
   2659807446.5404706     
   2777218672.7403727     
   2717445189.7544298     
   2663968588.9310498     
   2617688890.3786926     
   2579654258.2721691     
   3121667597.0589457     
   3237291041.6582203     
   3344072607.2287207     
   3444186196.4927697     
   3540244821.7584381     
   2939036089.6211839     
   3011789150.0364985     
   3083235334.5185490     
   3155382046.4800544     
   3230440259.2086906     
   2782494278.8615432     
   2817530461.7505288     
   2859189390.3442278     
   2909683417.6692376     
   2971246324.3193955     
   2659807446.5404706     
   2660851428.6841855     
   2676578513.2492156     
   2709621501.3083849     
   2762555826.7672219     
   2579654258.2721691     
   2548478854.9759202     
   2540056156.2259803     
   2557456771.1595616     
   2603773341.6979547     
   1954718987.5640457     
   2118477809.2358341     
   2283841317.7955885     
   2447846864.1883855     
   2608534525.3999600     
   1658414073.9321554     
   1825504052.3418458     
   1994620609.1389973     
   2163090291.3164301     
   2329169227.7784863     
   1404003494.6143582     
   1582786700.8522918     
   1762993927.5697176     
   1942660671.6710830     
   2120558951.1758969     
   1222743359.1927793     
   1416501436.0140362     
   1610394952.3736212     
   1803671482.4214499     
   1995885045.3610001     
   1154874038.1948726     
   1355261686.0415828     
   1556647893.7951827     
   1759032661.4556720     
   1962415989.0230503     
   2608534525.3999600     
   2676734445.5478826     
   2750268344.3059678     
   2828693696.9491396     
   2911710280.4529991     
   2329169227.7784863     
   2418442465.9431758     
   2510999884.9143405     
   2606484613.0920258     
   2704645546.9819875     
   2120558951.1758969     
   2228279605.8732171     
   2336752356.8117537     
   2445752542.5746236     
   2555121308.0728645     
   1995885045.3610001     
   2118369367.9640388     
   2238853718.9186850     
   2357265231.3094525     
   2473553121.5372291     
   1962415989.0230503     
   2095290450.2821345     
   2223623931.6446810     
   2347416433.1106892     
   2466667954.6801600     
   2911710280.4529991     
   2929993563.7235250     
   2950718071.6683211     
   2973876178.9236526     
   2999464941.5658207     
   2704645546.9819875     
   2731459864.7796001     
   2761756768.3116598     
   2795550717.0245962     
   2832857608.1327071     
   2555121308.0728645     
   2590174271.0901785     
   2629755870.1760859     
   2673883422.0154262     
   2722573696.2038589     
   2473553121.5372291     
   2514971822.2246766     
   2561967940.7196946     
   2614548950.3915968     
   2672721746.7574239     
   2466667954.6801600     
   2510983278.9324260     
   2561955544.7525568     
   2619584752.1405516     
   2683870901.0964117     
   2999464941.5658207     
   2960696309.3973622     
   2931114552.0160666     
   2910895564.0740976     
   2900240007.6612506     
   2832857608.1327071     
   2806792433.5392227     
   2789220001.6714482     
   2780235070.3219919     
   2779942849.0577693     
   2722573696.2038589     
   2706616824.4950433     
   2698254355.6379995     
   2697523766.5054131     
   2704465649.2078514     
   2672721746.7574239     
   2664234183.9716477     
   2662263392.7337942     
   2666816987.5391183     
   2677903042.0909243     
   2683870901.0964117     
   2680431688.1788392     
   2682307158.7138062     
   2689497312.7013121     
   2702002150.1413555     
   2900240007.6612506     
   2876787348.4603434     
   2860410706.5915775     
   2851279495.9945421     
   2849565443.0070834     
   2779942849.0577693     
   2763310495.6475396     
   2754205262.5996351     
   2752737336.1363153     
   2759016876.0885458     
   2704465649.2078514     
   2693332796.5340972     
   2690172825.0015178     
   2695040774.1539183     
   2707990974.8002129     
   2677903042.0909243     
   2670340391.2782030     
   2671191410.6025620     
   2680471071.5644507     
   2698194009.7142000     
   2702002150.1413555     
   2695605139.8484631     
   2698064784.2460251     
   2709381083.3340468     
   2729554037.1125216     
   2849565443.0070834     
   2817075799.2549572     
   2793986204.3877621     
   2780594114.1777501     
   2777218672.7403727     
   2759016876.0885458     
   2729906232.3137259     
   2709200625.9975777     
   2697062481.0477991     
   2693667064.9360170     
   2707990974.8002129     
   2681256886.2787490     
   2661997516.0474000     
   2650282115.0101199     
   2646185954.8440199     
   2698194009.7142000     
   2673084431.8497891     
   2654597885.6463823     
   2642750778.0026674     
   2637561094.0167866     
   2729554037.1125216     
   2705628538.4047599     
   2687569773.8976326     
   2675377743.5911484     
   2669052447.4852991     
   2777218672.7403727     
   2717445189.7544298     
   2663968588.9310498     
   2617688890.3786926     
   2579654258.2721691     
   2693667064.9360170     
   2623388273.2315269     
   2558644598.6145401     
   2499996916.2727427     
   2448108460.1655426     
   2646185954.8440199     
   2567931813.0590405     
   2494790388.8748803     
   2427028664.9728265     
   2364965919.4799194     
   2637561094.0167866     
   2554132585.8108187     
   2475844632.2347398     
   2402765874.2341704     
   2334978767.0703940     
   2669052447.4852991     
   2583280027.4695034     
   2503182958.2835617     
   2428761239.9274774     
   2360014872.4012594     
   2579654258.2721691     
   2548478854.9759202     
   2540056156.2259803     
   2557456771.1595616     
   2603773341.6979547     
   2448108460.1655426     
   2387401374.5452890     
   2340225130.9678121     
   2309191991.2254133     
   2297229780.6996675     
   2364965919.4799194     
   2277673810.4017010     
   2194263386.1557841     
   2116497483.8455827     
   2046604947.1910636     
   2334978767.0703940     
   2228490746.4614124     
   2116804630.5829341     
   2000538376.1662295     
   1880564339.3595715     
   2360014872.4012594     
   2245898579.8126965     
   2119773676.2558966     
   1981640161.7308452     
   1831498036.2375326     
   1154874038.1948726     
   1355261686.0415828     
   1556647893.7951827     
   1759032661.4556720     
   1962415989.0230503     
   1222743359.1926243     
   1416501436.0139258     
   1610394952.3735514     
   1803671482.4214203     
   1995885045.3610096     
   1404003494.6141319     
   1582786700.8521209     
   1762993927.5696018     
   1942660671.6710224     
   2120558951.1758957     
   1658414073.9319344     
   1825504052.3416662     
   1994620609.1388640     
   2163090291.3163476     
   2329169227.7784595     
   1954718987.5638821     
   2118477809.2356858     
   2283841317.7954636     
   2447846864.1882911     
   2608534525.3999014     
   1962415989.0230503     
   2095290450.2821345     
   2223623931.6446810     
   2347416433.1106892     
   2466667954.6801600     
   1995885045.3610096     
   2118369367.9640300     
   2238853718.9186587     
   2357265231.3094115     
   2473553121.5371723     
   2120558951.1758957     
   2228279605.8731866     
   2336752356.8116965     
   2445752542.5745416     
   2555121308.0727615     
   2329169227.7784595     
   2418442465.9431176     
   2510999884.9142518     
   2606484613.0919118     
   2704645546.9818516     
   2608534525.3999014     
   2676734445.5477920     
   2750268344.3058491     
   2828693696.9489980     
   2911710280.4528413     
   2466667954.6801600     
   2510983278.9324260     
   2561955544.7525568     
   2619584752.1405516     
   2683870901.0964117     
   2473553121.5371723     
   2514971822.2246265     
   2561967940.7196503     
   2614548950.3915567     
   2672721746.7573881     
   2555121308.0727615     
   2590174271.0900869     
   2629755870.1760030     
   2673883422.0153456     
   2722573696.2037787     
   2704645546.9818516     
   2731459864.7794752     
   2761756768.3115425     
   2795550717.0244775     
   2832857608.1325841     
   2911710280.4528413     
   2929993563.7233806     
   2950718071.6681814     
   2973876178.9235106     
   2999464941.5656657     
   2683870901.0964117     
   2680431688.1788392     
   2682307158.7138062     
   2689497312.7013121     
   2702002150.1413555     
   2672721746.7573881     
   2664234183.9716158     
   2662263392.7337713     
   2666816987.5391088     
   2677903042.0909314     
   2722573696.2037787     
   2706616824.4949756     
   2698254355.6379519     
   2697523766.5053902     
   2704465649.2078652     
   2832857608.1325841     
   2806792433.5391150     
   2789220001.6713676     
   2780235070.3219538     
   2779942849.0577793     
   2999464941.5656657     
   2960696309.3972225     
   2931114552.0159574     
   2910895564.0740352     
   2900240007.6612492     
   2702002150.1413555     
   2695605139.8484631     
   2698064784.2460251     
   2709381083.3340468     
   2729554037.1125216     
   2677903042.0909314     
   2670340391.2782187     
   2671191410.6025872     
   2680471071.5644765     
   2698194009.7142320     
   2704465649.2078652     
   2693332796.5341282     
   2690172825.0015612     
   2695040774.1539693     
   2707990974.8002672     
   2779942849.0577793     
   2763310495.6475816     
   2754205262.5997028     
   2752737336.1363988     
   2759016876.0886416     
   2900240007.6612492     
   2876787348.4603896     
   2860410706.5916619     
   2851279495.9946508     
   2849565443.0072083     
   2729554037.1125216     
   2705628538.4047599     
   2687569773.8976326     
   2675377743.5911484     
   2669052447.4852991     
   2698194009.7142320     
   2673084431.8498421     
   2654597885.6464610     
   2642750778.0027752     
   2637561094.0169272     
   2707990974.8002672     
   2681256886.2788515     
   2661997516.0475540     
   2650282115.0103378     
   2646185954.8443012     
   2759016876.0886416     
   2729906232.3138800     
   2709200625.9978065     
   2697062481.0481062     
   2693667064.9364309     
   2849565443.0072083     
   2817075799.2551618     
   2793986204.3880606     
   2780594114.1781502     
   2777218672.7408919     
   2669052447.4852991     
   2583280027.4695034     
   2503182958.2835617     
   2428761239.9274774     
   2360014872.4012594     
   2637561094.0169272     
   2554132585.8109899     
   2475844632.2349458     
   2402765874.2344065     
   2334978767.0706720     
   2646185954.8443012     
   2567931813.0593815     
   2494790388.8752818     
   2427028664.9732919     
   2364965919.4804611     
   2693667064.9364309     
   2623388273.2320142     
   2558644598.6151185     
   2499996916.2734075     
   2448108460.1663141     
   2777218672.7408919     
   2717445189.7550564     
   2663968588.9317837     
   2617688890.3795390     
   2579654258.2731395     
   2360014872.4012594     
   2245898579.8126965     
   2119773676.2558966     
   1981640161.7308452     
   1831498036.2375326     
   2334978767.0706720     
   2228490746.4617696     
   2116804630.5833762     
   2000538376.1667728     
   1880564339.3602793     
   2364965919.4804611     
   2277673810.4023914     
   2194263386.1566319     
   2116497483.8466392     
   2046604947.1923621     
   2448108460.1663141     
   2387401374.5462785     
   2340225130.9690113     
   2309191991.2268701     
   2297229780.7014284     
   2579654258.2731395     
   2548478854.9771600     
   2540056156.2274833     
   2557456771.1613555     
   2603773341.7000675     
   1954718987.5638821     
   2118477809.2356858     
   2283841317.7954636     
   2447846864.1882911     
   2608534525.3999014     
   2294156791.4490643     
   2443321453.3228602     
   2597307242.8456306     
   2754208354.4419460     
   2912608413.1923242     
   2687533830.2946305     
   2820901160.5128088     
   2961516704.3408251     
   3108336136.3101373     
   3260480401.4151945     
   3129492772.0525508     
   3244156362.1287460     
   3368007268.7063856     
   3500627255.6214323     
   3641603033.3609281     
   3616400082.8384442     
   3708144574.7181029     
   3810749118.9429531     
   3924202174.1777844     
   4048457459.1379428     
   2608534525.3999014     
   2676734445.5477920     
   2750268344.3058491     
   2828693696.9489980     
   2911710280.4528413     
   2912608413.1923242     
   2963292047.6947761     
   3016725366.6848836     
   3072276529.3699565     
   3129455886.9509430     
   3260480401.4151945     
   3299342361.1818151     
   3338669612.6249447     
   3377665309.3324919     
   3415674174.6637721     
   3641603033.3609281     
   3675018255.6642866     
   3707014218.7370548     
   3736698322.2958498     
   3763326996.5330343     
   4048457459.1379428     
   4082843272.1433811     
   4114345867.5144043     
   4142066899.1548700     
   4165277861.2558155     
   2911710280.4528413     
   2929993563.7233806     
   2950718071.6681814     
   2973876178.9235106     
   2999464941.5656657     
   3129455886.9509430     
   3125928368.7479577     
   3127093243.1410232     
   3132942897.9841385     
   3143530526.0762105     
   3415674174.6637721     
   3386671014.4638734     
   3363793063.1991601     
   3346953549.4879394     
   3336240956.5663886     
   3763326996.5330343     
   3704996632.8621330     
   3653585569.6446009     
   3608805172.4684238     
   3570696141.5455990     
   4165277861.2558155     
   4073561355.1353126     
   3989145926.5132065     
   3911397474.2102070     
   3840177948.3207254     
   2999464941.5656657     
   2960696309.3972225     
   2931114552.0159574     
   2910895564.0740352     
   2900240007.6612492     
   3143530526.0762105     
   3091790065.5746837     
   3048066243.5888925     
   3012633997.5724945     
   2985804993.7726674     
   3336240956.5663886     
   3272042069.5558772     
   3214848068.8486118     
   3164997124.8277316     
   3122885170.5218997     
   3570696141.5455990     
   3495131091.1237688     
   3425757133.9853797     
   3362943804.2337589     
   3307144682.5254869     
   3840177948.3207254     
   3754631904.0509758     
   3674681004.6754150     
   3600702601.6409721     
   3533187387.3819470     
   2900240007.6612492     
   2876787348.4603896     
   2860410706.5916619     
   2851279495.9946508     
   2849565443.0072083     
   2985804993.7726674     
   2949200577.0389276     
   2919789323.0884533     
   2897792409.0918012     
   2883444971.8645248     
   3122885170.5218997     
   3071286003.3548484     
   3026709463.3260036     
   2989413395.4951992     
   2959690759.2101121     
   3307144682.5254869     
   3239220258.0099730     
   3177905641.4734449     
   3123463854.2001610     
   3076219523.8773727     
   3533187387.3819470     
   3448023315.7682862     
   3368886748.1587105     
   3296006250.4808073     
   3229698115.3911180     
   2849565443.0072083     
   2817075799.2551618     
   2793986204.3880606     
   2780594114.1781502     
   2777218672.7408919     
   2883444971.8645248     
   2844062102.0428672     
   2814540882.8831797     
   2795343693.4150152     
   2786977621.0159740     
   2959690759.2101121     
   2911945812.3541555     
   2874510620.3584394     
   2848041877.1105375     
   2833273548.9580870     
   3076219523.8773727     
   3018747092.5600905     
   2972005706.2350259     
   2936868235.9159026     
   2914327334.2465048     
   3229698115.3911180     
   3161272936.6982446     
   3103971786.6434941     
   3058897385.0097656     
   3027324058.6947808     
   2777218672.7408919     
   2717445189.7550564     
   2663968588.9317837     
   2617688890.3795390     
   2579654258.2731395     
   2786977621.0159740     
   2737979821.6295977     
   2699364942.4303184     
   2672698287.6510649     
   2659807446.5417242     
   2833273548.9580870     
   2796264125.4876552     
   2773869601.6761885     
   2768390903.7876315     
   2782494278.8630128     
   2914327334.2465048     
   2888813352.2581983     
   2882276964.1600251     
   2897831273.9611654     
   2939036089.6227927     
   3027324058.6947808     
   3011376275.4389329     
   3019015751.6301336     
   3054271422.7616248     
   3121667597.0606251     
   2579654258.2731395     
   2548478854.9771600     
   2540056156.2274833     
   2557456771.1613555     
   2603773341.7000675     
   2659807446.5417242     
   2660851428.6858263     
   2676578513.2512388     
   2709621501.3108053     
   2762555826.7700391     
   2782494278.8630128     
   2817530461.7524648     
   2859189390.3466167     
   2909683417.6720700     
   2971246324.3226418     
   2939036089.6227927     
   3011789150.0386014     
   3083235334.5211134     
   3155382046.4830499     
   3230440259.2120533     
   3121667597.0606251     
   3237291041.6603584     
   3344072607.2312889     
   3444186196.4956989     
   3540244821.7616324     
   3616400082.8384442     
   3708144574.7181029     
   3810749118.9429531     
   3924202174.1777844     
   4048457459.1379428     
   4126512370.5135112     
   4214006639.5438762     
   4307021843.4994640     
   4403926302.6721621     
   4503291150.9166718     
   4637722413.5383692     
   4747381171.3635874     
   4857827428.4967813     
   4966432840.9225025     
   5071289204.0822105     
   5148394411.6509848     
   5306304754.0921078     
   5460623033.0257616     
   5608451271.6461306     
   5748344491.5781021     
   5658221647.9310579     
   5889868690.9742165     
   6113797803.1500835     
   6327543405.4472370     
   6530911814.8507977     
   4048457459.1379428     
   4082843272.1433811     
   4114345867.5144043     
   4142066899.1548700     
   4165277861.2558155     
   4503291150.9166718     
   4511094521.2141495     
   4523221993.5491810     
   4537238967.9710274     
   4551463433.9556570     
   5071289204.0822105     
   5030718022.0342741     
   5000236509.1210365     
   4974686226.6314735     
   4950882507.8263817     
   5748344491.5781021     
   5635929455.1141920     
   5539074746.6279755     
   5448756880.7155390     
   5359397280.0076246     
   6530911814.8507977     
   6321756555.0210438     
   6134401734.8953800     
   5954984271.6379642     
   5774414775.0441656     
   4165277861.2558155     
   4073561355.1353126     
   3989145926.5132065     
   3911397474.2102070     
   3840177948.3207254     
   4551463433.9556570     
   4434661865.3836670     
   4322243194.5985413     
   4213991521.2713356     
   4109893827.6785164     
   4950882507.8263817     
   4815361063.0559769     
   4682709835.3712778     
   4552917376.3477488     
   4426031588.5127268     
   5359397280.0076246     
   5211308627.0251513     
   5065777185.6348686     
   4922821659.4549465     
   4782496517.4844961     
   5774414775.0441656     
   5619454088.4559069     
   5467780450.6052771     
   5319270086.1725683     
   5173903151.5594034     
   3840177948.3207254     
   3754631904.0509758     
   3674681004.6754150     
   3600702601.6409721     
   3533187387.3819470     
   4109893827.6785164     
   4011136156.3500810     
   3917954042.3946948     
   3830733201.9370222     
   3749972396.4424114     
   4426031588.5127268     
   4311834270.8206320     
   4202872865.4381728     
   4099523741.7191768     
   4002285754.8407660     
   4782496517.4844961     
   4650701249.7817888     
   4523562384.1203051     
   4401423181.5557194     
   4284764150.9230289     
   5173903151.5594034     
   5022415827.7131052     
   4874839762.5584965     
   4731458494.0423574     
   4592708986.5610209     
   3533187387.3819470     
   3448023315.7682862     
   3368886748.1587105     
   3296006250.4808073     
   3229698115.3911180     
   3749972396.4424114     
   3648127145.2445784     
   3550634901.6480794     
   3457694958.3193159     
   3369572424.3149667     
   4002285754.8407660     
   3887001409.9936094     
   3774777714.2135348     
   3665771882.5733199     
   3560185436.9815288     
   4284764150.9230289     
   4159438213.6131372     
   4036276267.9072919     
   3915403933.0606322     
   3796975914.5534792     
   4592708986.5610209     
   4460677355.3366041     
   4330279471.1202087     
   4201628230.1020494     
   4074859649.9118590     
   3229698115.3911180     
   3161272936.6982446     
   3103971786.6434941     
   3058897385.0097656     
   3027324058.6947808     
   3369572424.3149667     
   3283562583.0617757     
   3206169990.4386659     
   3138301990.7051392     
   3081007518.9402623     
   3560185436.9815288     
   3456918620.8333640     
   3359651583.9776082     
   3269017645.4693532     
   3185758540.4725413     
   3796975914.5534792     
   3678110712.6722965     
   3562738871.2423244     
   3451184071.6295557     
   3343838480.4881506     
   4074859649.9118590     
   3942946980.0274076     
   3812324116.9699101     
   3683030720.1850600     
   3555140015.1478591     
   3027324058.6947808     
   3011376275.4389329     
   3019015751.6301336     
   3054271422.7616248     
   3121667597.0606251     
   3081007518.9402623     
   3052853129.5873656     
   3050775096.7193255     
   3079161897.1723185     
   3143046933.2718983     
   3185758540.4725413     
   3136782512.4233737     
   3115972419.2573543     
   3128450858.5962400     
   3180218422.4770203     
   3343838480.4881506     
   3264840561.3920484     
   3215542291.9315839     
   3202208942.7906570     
   3232358539.5375156     
   3555140015.1478591     
   3436997416.1764045     
   3349355176.3682446     
   3299986422.3484936     
   3298518776.8274770     
   3121667597.0606251     
   3237291041.6603584     
   3344072607.2312889     
   3444186196.4956989     
   3540244821.7616324     
   3143046933.2718983     
   3310746253.3675585     
   3514917156.7426267     
   3761749280.7909918     
   4056985192.4398446     
   3180218422.4770203     
   3395908961.1459513     
   3690909474.0522866     
   4078645508.6873465     
   4571430638.7518282     
   3232358539.5375156     
   3482751947.8714032     
   3861614707.1471086     
   4393135985.7916298     
   5097177397.4685879     
   3298518776.8274770     
   3564551919.7367187     
   4026598671.2632666     
   4719723316.6182852     
   5666046064.2833204     
   5658221647.9310579     
   5889868690.9742165     
   6113797803.1500835     
   6327543405.4472370     
   6530911814.8507977     
   6494655437.8043184     
   6590704277.1977501     
   6761739703.5184383     
   6965628524.7550249     
   7175694506.5880184     
   7985500014.5964842     
   7741346648.9828920     
   7678245245.1610136     
   7680825676.6414700     
   7679151652.2924604     
   10131292479.180323     
   9328600507.7489223     
   8838019243.0792389     
   8459607353.5932884     
   8055653544.7963572     
   12932164343.667051     
   11345260790.714853     
   10222306887.622959     
   9291708833.2548409     
   8329251344.6077824     
   6530911814.8507977     
   6321756555.0210438     
   6134401734.8953800     
   5954984271.6379642     
   5774414775.0441656     
   7175694506.5880184     
   6916790417.7332649     
   6665708937.1030169     
   6418653095.6461830     
   6172491832.2434359     
   7679151652.2924604     
   7397614022.4211493     
   7121598027.0048094     
   6851222964.9515676     
   6586744242.9222345     
   8055653544.7963572     
   7771643523.6268005     
   7503553833.6527367     
   7249431009.7927122     
   7009346597.8283215     
   8329251344.6077824     
   8051162318.8180771     
   7815498013.8447552     
   7611554915.7983971     
   7434454800.4546251     
   5774414775.0441656     
   5619454088.4559069     
   5467780450.6052771     
   5319270086.1725683     
   5173903151.5594034     
   6172491832.2434359     
   6024795415.5685682     
   5877532862.2666559     
   5730703067.1123056     
   5584306630.4418879     
   6586744242.9222345     
   6445277123.7699537     
   6301449269.1279259     
   6155200913.4911604     
   6006522377.9531813     
   7009346597.8283215     
   6874347368.0244827     
   6734273109.7020817     
   6588864709.9038868     
   6438086074.1050920     
   7434454800.4546251     
   7307066271.5481033     
   7172018644.2163000     
   7028750805.3713379     
   6877202380.0322685     
   5173903151.5594034     
   5022415827.7131052     
   4874839762.5584965     
   4731458494.0423574     
   4592708986.5610209     
   5584306630.4418879     
   5415926429.8676214     
   5250085531.8806095     
   5086927452.1721230     
   4926664298.8577442     
   6006522377.9531813     
   5830867786.4159451     
   5657371714.4341516     
   5486078764.1180592     
   5317091865.3758135     
   6438086074.1050920     
   6264642816.5333195     
   6093847055.8644514     
   5925660694.5555649     
   5760155483.3611917     
   6877202380.0322685     
   6715196350.2511044     
   6557095848.1745520     
   6402752942.5189638     
   6252225304.8898230     
   4592708986.5610209     
   4460677355.3366041     
   4330279471.1202087     
   4201628230.1020494     
   4074859649.9118590     
   4926664298.8577442     
   4782372636.0277624     
   4639868860.2395763     
   4499083747.5337505     
   4359993679.9098101     
   5317091865.3758135     
   5154427377.5820627     
   4993081507.9234610     
   4832692805.9010448     
   4673008322.6252460     
   5760155483.3611917     
   5572662916.7048788     
   5385583428.1814718     
   5198150602.0062342     
   5009788959.0882092     
   6252225304.8898230     
   6033212137.3843298     
   5813475812.1764116     
   5591734448.2315702     
   5366979809.2689943     
   4074859649.9118590     
   3942946980.0274076     
   3812324116.9699101     
   3683030720.1850600     
   3555140015.1478591     
   4359993679.9098101     
   4219861983.3101950     
   4080376971.8732929     
   3941612123.4697862     
   3803652494.5405488     
   4673008322.6252460     
   4533830147.9035835     
   4395717765.4985533     
   4258843019.9075460     
   4123442659.8211470     
   5009788959.0882092     
   4880046909.3838453     
   4752666278.8494730     
   4627907967.4941063     
   4506195759.8816271     
   5366979809.2689943     
   5254360869.2957087     
   5146101186.4761286     
   5042464464.9332676     
   4943995238.8287849     
   3555140015.1478591     
   3436997416.1764045     
   3349355176.3682446     
   3299986422.3484936     
   3298518776.8274770     
   3803652494.5405488     
   3653372032.8123679     
   3517995006.7412667     
   3400811110.5162811     
   3306322389.7323341     
   4123442659.8211470     
   3981821054.2109818     
   3845764132.1261802     
   3715962467.4200287     
   3594258751.0124259     
   4506195759.8816271     
   4417928372.4426470     
   4333352796.4848204     
   4254029260.8827991     
   4184025973.9822960     
   4943995238.8287849     
   4954457118.3759966     
   4973095911.3983746     
   5004607282.5267582     
   5057816601.0303297     
   3298518776.8274770     
   3564551919.7367187     
   4026598671.2632666     
   4719723316.6182852     
   5666046064.2833204     
   3306322389.7323341     
   3452121459.0758853     
   3786105554.3685231     
   4355087603.3388615     
   5194056234.6906614     
   3594258751.0124259     
   3675150050.4467049     
   3922508867.6235518     
   4389623975.8102770     
   5132518274.6843662     
   4184025973.9822960     
   4289085158.8251910     
   4537635135.2526636     
   4972807682.7351923     
   5663326509.6855211     
   5057816601.0303297     
   5288694399.2669678     
   5654099712.7116070     
   6174682573.3799038     
   6914294641.6889315     
 </DataArray>
 <DataArray  type="Float64" Name="strain" NumberOfComponents="3" format="ascii">
  0.20347445436289471        0.0000000000000000       0.12522178869413514     
  0.18675088021818831       -2.7382028934659745E-002   7.4253351941037479E-002
  0.17002730607348193       -4.4776922514854253E-002   3.5073507265412557E-002
  0.15330373192877553       -5.2184680740583564E-002   7.6822546672603298E-003
  0.13658015778406912       -4.9605303611847645E-002  -7.9204058534191463E-003
  0.15994114036682441        0.0000000000000000        9.6208931571108561E-002
  0.15332851661764701       -2.1886679242814868E-002   6.2504642642398606E-002
  0.14671589286846962       -3.6246481702937872E-002   3.7233662427273904E-002
  0.14010326911929219       -4.3079407380369014E-002   2.0395990925734495E-002
  0.13349064537011479       -4.2385456275108271E-002   1.1991628137780277E-002
  0.12659260980850703        0.0000000000000000        7.3921553425813524E-002
  0.12673565309097112       -1.6391329550970002E-002   5.5021153749717944E-002
  0.12687869637343524       -2.7716040891021483E-002   4.1198779423320175E-002
  0.12702173965589936       -3.3974134020154444E-002   3.2454430446620122E-002
  0.12716478293836345       -3.5165608938368897E-002   2.8788106819617874E-002
  0.10342886268794256        0.0000000000000000        5.8359654258250050E-002
  0.10697228963816070       -1.0895979859125127E-002   5.1802885262995479E-002
  0.11051571658837885       -1.9185600079105091E-002   4.6968858253551231E-002
  0.11405914353859700       -2.4868860659939894E-002   4.3857573229917277E-002
  0.11760257048881513       -2.7945761601629520E-002   4.2469030192093624E-002
   9.0449899005130979E-002   0.0000000000000000        4.9523234068418118E-002
   9.4038426259215685E-002  -5.4006301672802574E-003   5.2849837182231213E-002
   9.7626953513300405E-002  -1.0655159267188703E-002   5.4543898917967119E-002
  0.10121548076738512       -1.5763587299725334E-002   5.4605419275625885E-002
  0.10480400802146983       -2.0725914264890150E-002   5.3034398255207477E-002
  0.13658015778406912       -4.9605303611847645E-002  -7.9204058534191463E-003
  0.13346316087752921       -4.3092392394369336E-002  -3.5051551730417088E-003
  0.13034616397098928       -3.8699548353871488E-002  -4.9967344319417142E-004
  0.12722916706444931       -3.6426771490353990E-002   1.0960393361233479E-003
  0.12411217015790940       -3.6274061803816926E-002   1.2819831649109881E-003
  0.13349064537011479       -4.2385456275108271E-002   1.1991628137780277E-002
  0.12934526734986690       -3.8527631039675769E-002   1.1892318787518379E-002
  0.12519988932961904       -3.5868934326591620E-002   1.1146016160370600E-002
  0.12105451130937117       -3.4409366135855823E-002   9.7527202563368991E-003
  0.11690913328912328       -3.4148926467468407E-002   7.7124310754171921E-003
  0.12716478293836345       -3.5165608938368897E-002   2.8788106819617874E-002
  0.12275379947805165       -3.3962869684982237E-002   2.5095176093348701E-002
  0.11834281601773988       -3.3038320299311849E-002   2.1518027763837634E-002
  0.11393183255742806       -3.2391960781357719E-002   1.8056661831084724E-002
  0.10952084909711629       -3.2023791131119861E-002   1.4711078295089858E-002
  0.11760257048881513       -2.7945761601629520E-002   4.2469030192093624E-002
  0.11368875726208347       -2.9398108330288681E-002   3.6103416744449293E-002
  0.10977494403535178       -3.0207706272032030E-002   3.0616361367207016E-002
  0.10586113080862009       -3.0374555426859590E-002   2.6007864060366977E-002
  0.10194731758188842       -2.9898655794771384E-002   2.2277924823928961E-002
  0.10480400802146983       -2.0725914264890150E-002   5.3034398255207477E-002
  0.10215014070196231       -2.4833346975595125E-002   4.4917040740819966E-002
   9.9496273382454772E-002  -2.7377092244752241E-002   3.8441016970478650E-002
   9.6842406062947223E-002  -2.8357150072361455E-002   3.3606326944183487E-002
   9.4188538743439701E-002  -2.7773520458422851E-002   3.0412970661934449E-002
  0.12411217015790940       -3.6274061803816926E-002   1.2819831649109881E-003
  0.12170420017399322       -3.6871560792536368E-002   5.5833578404897166E-004
  0.11929623019007705       -3.6849409954788262E-002  -1.8980262657294911E-004
  0.11688826020616089       -3.6207609290572762E-002  -9.6243206695498240E-004
  0.11448029022224471       -3.4946158799889826E-002  -1.7595525370968645E-003
  0.11690913328912328       -3.4148926467468407E-002   7.7124310754171921E-003
  0.11448128754664723       -3.4286868921936747E-002   7.3191586940865722E-003
  0.11205344180417118       -3.4022447099768108E-002   6.9106258253961092E-003
  0.10962559606169510       -3.3355661000962766E-002   6.4868324693458934E-003
  0.10719775031921908       -3.2286510625520459E-002   6.0477786259357791E-003
  0.10952084909711629       -3.2023791131119861E-002   1.4711078295089858E-002
  0.10708235813848049       -3.1702177051337058E-002   1.4430895363460056E-002
  0.10464386717984470       -3.1195484244747974E-002   1.4144682486870362E-002
  0.10220537622120893       -3.0503712711352660E-002   1.3852439665321164E-002
   9.9766885262573130E-002  -2.9626862451151093E-002   1.3554166898812239E-002
  0.10194731758188842       -2.9898655794771384E-002   2.2277924823928961E-002
   9.9507411949493058E-002  -2.9117485180737417E-002   2.1893545792169174E-002
   9.7067506317097679E-002  -2.8368521389727803E-002   2.1512367357850018E-002
   9.4627600684702287E-002  -2.7651764421742581E-002   2.1134389520971100E-002
   9.2187695052306923E-002  -2.6967214276781726E-002   2.0759612281532881E-002
   9.4188538743439701E-002  -2.7773520458422851E-002   3.0412970661934449E-002
   9.1756448979684893E-002  -2.6532793310137755E-002   2.9707109980214245E-002
   8.9324359215930044E-002  -2.5541558534707680E-002   2.9013680438334646E-002
   8.6892269452175222E-002  -2.4799816132132550E-002   2.8332682036295652E-002
   8.4460179688420400E-002  -2.4307566102412359E-002   2.7664114774097387E-002
  0.11448029022224471       -3.4946158799889826E-002  -1.7595525370968645E-003
  0.11193072210008065       -3.3512736280345040E-002  -1.3862919220317682E-003
  0.10938115397791653       -3.2355019529544046E-002  -1.3776207925831341E-003
  0.10683158585575245       -3.1473008547486872E-002  -1.7335391487511981E-003
  0.10428201773358836       -3.0866703334173462E-002  -2.4540469905354745E-003
  0.10719775031921908       -3.2286510625520459E-002   6.0477786259357791E-003
  0.10437163751923736       -3.1127277960269512E-002   6.1118061622976727E-003
  0.10154552471925565       -3.0190244992038068E-002   5.9873338286409866E-003
   9.8719411919273969E-002  -2.9475411720826260E-002   5.6743616249653600E-003
   9.5893299119292286E-002  -2.8982778146633859E-002   5.1728895512710982E-003
   9.9766885262573130E-002  -2.9626862451151093E-002   1.3554166898812239E-002
   9.6840317400371551E-002  -2.8741819640194025E-002   1.3362467428195551E-002
   9.3913749538169985E-002  -2.8025470454532263E-002   1.3158357703157590E-002
   9.0987181675968393E-002  -2.7477814894165710E-002   1.2941837723698571E-002
   8.8060613813766814E-002  -2.7098852959094338E-002   1.2712907489818723E-002
   9.2187695052306923E-002  -2.6967214276781726E-002   2.0759612281532881E-002
   8.9336761743483234E-002  -2.6356361320118517E-002   2.0365691875661361E-002
   8.6485828434659462E-002  -2.5860695917026316E-002   2.0135450830966684E-002
   8.3634895125835731E-002  -2.5480218067504962E-002   2.0068889147448848E-002
   8.0783961817012029E-002  -2.5214927771554804E-002   2.0166006825107576E-002
   8.4460179688420400E-002  -2.4307566102412359E-002   2.7664114774097387E-002
   8.1860970548572276E-002  -2.3970903000042995E-002   2.7121479504695720E-002
   7.9261761408724138E-002  -2.3695921379520368E-002   2.6918613212068426E-002
   7.6662552268876000E-002  -2.3482621240844423E-002   2.7055515896215708E-002
   7.4063343129027875E-002  -2.3331002584015215E-002   2.7532187557137405E-002
  0.10428201773358836       -3.0866703334173462E-002  -2.4540469905354745E-003
  0.10044847891426784       -3.0329978887676523E-002  -5.2968338619923117E-003
   9.6614940094947255E-002  -2.9656710206069206E-002  -7.4287454311677548E-003
   9.2781401275626674E-002  -2.8846897289351501E-002  -8.8497816980615540E-003
   8.8947862456306148E-002  -2.7900540137522856E-002  -9.5599426626746808E-003
   9.5893299119292286E-002  -2.8982778146633859E-002   5.1728895512710982E-003
   9.2689982265403925E-002  -2.8556102638170738E-002   2.9188965520717536E-003
   8.9486665411515592E-002  -2.8039143564146315E-002   1.2144721814552478E-003
   8.6283348557627301E-002  -2.7431900924560836E-002   5.9616439422149892E-005
   8.3080031703738955E-002  -2.6734374719413923E-002  -5.4567067402772063E-004
   8.8060613813766814E-002  -2.7098852959094338E-002   1.2712907489818723E-002
   8.5326212251612479E-002  -2.6782226388664732E-002   1.1001447693327518E-002
   8.2591810689458145E-002  -2.6421576922223251E-002   9.6782498517209645E-003
   7.9857409127303783E-002  -2.6016904559769946E-002   8.7433139649994197E-003
   7.7123007565149476E-002  -2.5568209301304712E-002   8.1966400331626166E-003
   8.0783961817012029E-002  -2.5214927771554804E-002   2.0166006825107576E-002
   7.8357168872893401E-002  -2.5008350139158725E-002   1.8950819561774804E-002
   7.5930375928774774E-002  -2.4804010280300218E-002   1.7962587579628819E-002
   7.3503582984656160E-002  -2.4601908194979170E-002   1.7201310878669471E-002
   7.1076790040537505E-002  -2.4402043883195751E-002   1.6666989458896483E-002
   7.4063343129027875E-002  -2.3331002584015215E-002   2.7532187557137405E-002
   7.1782852129246705E-002  -2.3234473889652663E-002   2.6767012157414144E-002
   6.9502361129465576E-002  -2.3186443638377102E-002   2.6067485365179166E-002
   6.7221870129684419E-002  -2.3186911830188554E-002   2.5433607180432555E-002
   6.4941379129903276E-002  -2.3235878465086790E-002   2.4865377603174144E-002
   8.8947862456306148E-002  -2.7900540137522856E-002  -9.5599426626746808E-003
   8.7142531757995412E-002  -2.6993821694732412E-002  -9.7124562178783069E-003
   8.5337201059684620E-002  -2.6302924905128477E-002  -1.0288786553201146E-002
   8.3531870361373883E-002  -2.5827849768711428E-002  -1.1288933668643752E-002
   8.1726539663063091E-002  -2.5568596285480916E-002  -1.2712897564205683E-002
   8.3080031703738955E-002  -2.6734374719413923E-002  -5.4567067402772063E-004
   8.0920409555275463E-002  -2.6067129950984202E-002  -9.0118633137858950E-004
   7.8760787406811889E-002  -2.5550731621550707E-002  -1.5414681089152560E-003
   7.6601165258348300E-002  -2.5185179731113162E-002  -2.4665160066382197E-003
   7.4441543109884767E-002  -2.4970474279671695E-002  -3.6763300245473696E-003
   7.7123007565149476E-002  -2.5568209301304712E-002   8.1966400331626166E-003
   7.4748144626466437E-002  -2.5140438207236382E-002   7.7030974878554287E-003
   7.2373281687783314E-002  -2.4798538337973047E-002   7.0638394822958861E-003
   6.9998418749100316E-002  -2.4542509693515006E-002   6.2788660164830659E-003
   6.7623555810417180E-002  -2.4372352273861975E-002   5.3481770904178216E-003
   7.1076790040537505E-002  -2.4402043883195751E-002   1.6666989458896483E-002
   6.8625736971568263E-002  -2.4213746463488312E-002   1.6100395239823980E-002
   6.6174683902599035E-002  -2.4046345054395332E-002   1.5527136220432079E-002
   6.3723630833629807E-002  -2.3899839655916685E-002   1.4947212400720410E-002
   6.1272577764660587E-002  -2.3774230268052615E-002   1.4360623780689384E-002
   6.4941379129903276E-002  -2.3235878465086790E-002   2.4865377603174144E-002
   6.2553186590581122E-002  -2.3287054719740213E-002   2.4290706924526950E-002
   6.0164994051258969E-002  -2.3294151770817700E-002   2.3848422105493317E-002
   5.7776801511936829E-002  -2.3257169618318495E-002   2.3538523146073437E-002
   5.5388608972614661E-002  -2.3176108262243311E-002   2.3361010046267339E-002
   8.1726539663063091E-002  -2.5568596285480916E-002  -1.2712897564205683E-002
   8.1953374244008392E-002  -2.5359135146966527E-002  -1.2890010872564139E-002
   8.2180208824953582E-002  -2.5033437044697654E-002  -1.5196378931010945E-002
   8.2407043405898855E-002  -2.4591501978674497E-002  -1.9632001739545435E-002
   8.2633877986844073E-002  -2.4033329948897064E-002  -2.6196879298169162E-002
   7.4441543109884767E-002  -2.4970474279671695E-002  -3.6763300245473696E-003
   7.2883892174166132E-002  -2.4887228797147887E-002  -3.0395831133133155E-003
   7.1326241238447469E-002  -2.4916056813464066E-002  -3.8425524853185067E-003
   6.9768590302728736E-002  -2.5056958328620586E-002  -6.0852381405632899E-003
   6.8210939367010170E-002  -2.5309933342617552E-002  -9.7676400790477347E-003
   6.7623555810417180E-002  -2.4372352273861975E-002   5.3481770904178216E-003
   6.4970957824883602E-002  -2.4415322447329191E-002   6.5704737586496642E-003
   6.2318359839349927E-002  -2.4798676582230686E-002   7.0425926104911718E-003
   5.9665761853816328E-002  -2.5522414678567227E-002   6.7645336459422403E-003
   5.7013163868282646E-002  -2.6586536736338151E-002   5.7362968650023771E-003
   6.1272577764660587E-002  -2.3774230268052615E-002   1.4360623780689384E-002
   5.8214571196160844E-002  -2.3943416097510412E-002   1.5940159743324626E-002
   5.5156564627661053E-002  -2.4681296350997202E-002   1.7459056356418371E-002
   5.2098558059161297E-002  -2.5987871028513479E-002   1.8917313619970420E-002
   4.9040551490661520E-002  -2.7863140130058694E-002   2.0314931533980729E-002
   5.5388608972614661E-002  -2.3176108262243311E-002   2.3361010046267339E-002
   5.2614732287997762E-002  -2.3471509747691799E-002   2.5069474840711592E-002
   4.9840855603380807E-002  -2.4563916119763857E-002   2.7406838752462886E-002
   4.7066978918763852E-002  -2.6453327378459630E-002   3.0373101781521694E-002
   4.4293102234146953E-002  -2.9139743523779293E-002   3.3968263927887488E-002
   8.2633877986844073E-002  -2.4033329948897064E-002  -2.6196879298169162E-002
   8.7596024998436772E-002  -2.6180618826891600E-002  -1.5028540380869759E-002
   9.2558172010029582E-002  -3.3855066484185126E-002  -8.2480591378565338E-003
   9.7520319021622476E-002  -4.7056672920778170E-002  -5.8554355691287641E-003
  0.10248246603321509       -6.5785438136669594E-002  -7.8506696746876159E-003
   6.8210939367010170E-002  -2.5309933342617552E-002  -9.7676400790477347E-003
   6.9536419957374473E-002  -2.8178648505858217E-002   5.3770422942245322E-005
   7.0861900547738887E-002  -3.6166770468746640E-002   6.9897057567611665E-003
   7.2187381138103301E-002  -4.9274299231283104E-002   1.1040165922409167E-002
   7.3512861728467604E-002  -6.7501234793467368E-002   1.2205150919886387E-002
   5.7013163868282646E-002  -2.6586536736338151E-002   5.7362968650023771E-003
   5.6204360543533644E-002  -3.0176678184824723E-002   1.4618530931333834E-002
   5.5395557218784683E-002  -3.8478474453308154E-002   2.2117672335610017E-002
   5.4586753894035826E-002  -5.1491925541788039E-002   2.8233721077830010E-002
   5.3777950569286748E-002  -6.9217031450264921E-002   3.2966677157993951E-002
   4.9040551490661520E-002  -2.7863140130058694E-002   2.0314931533980729E-002
   4.7599846756914317E-002  -3.2174707863791396E-002   2.8665741144305167E-002
   4.6159142023167038E-002  -4.0790178437869445E-002   3.7135840598688893E-002
   4.4718437289419793E-002  -5.3709551852293307E-002   4.5725229897131757E-002
   4.3277732555672535E-002  -7.0932828107062473E-002   5.4433909039633965E-002
   4.4293102234146953E-002  -2.9139743523779293E-002   3.3968263927887488E-002
   4.3722878597516474E-002  -3.4172737542757736E-002   4.2195401061856153E-002
   4.3152654960885967E-002  -4.3101882422430945E-002   5.2044210545998643E-002
   4.2582431324255460E-002  -5.5927178162798380E-002   6.3514692380315832E-002
   4.2012207687625036E-002  -7.2648624763860026E-002   7.6606846564807318E-002
   9.0449899005130979E-002   0.0000000000000000        4.9523234068418118E-002
   9.4038426259215685E-002  -5.4006301672802574E-003   5.2849837182231213E-002
   9.7626953513300405E-002  -1.0655159267188703E-002   5.4543898917967119E-002
  0.10121548076738512       -1.5763587299725334E-002   5.4605419275625885E-002
  0.10480400802146983       -2.0725914264890150E-002   5.3034398255207477E-002
   8.2446004622616198E-002   0.0000000000000000        4.4483635304015438E-002
   8.4631667545958023E-002  -4.5476468719192510E-003   4.7936191117609314E-002
   8.6817330469299847E-002  -8.9795538319986327E-003   5.0215559647794561E-002
   8.9002993392641644E-002  -1.3295720880238142E-002   5.1321740894571234E-002
   9.1188656315983482E-002  -1.7496148016637788E-002   5.1254734857939258E-002
   7.4207465402942069E-002   0.0000000000000000        4.0312200412739745E-002
   7.5449618090209558E-002  -3.6946635765582438E-003   4.3860347770582453E-002
   7.6691770777477034E-002  -7.3039483968085628E-003   4.6694661939685106E-002
   7.7933923464744523E-002  -1.0827854460750958E-002   4.8815142920047690E-002
   7.9176076152012026E-002  -1.4266381768385423E-002   5.0221790711670253E-002
   6.5734281346108592E-002   0.0000000000000000        3.7008929394591022E-002
   6.6492277891970306E-002  -2.8416802811972370E-003   4.0622307141150629E-002
   6.7250274437832006E-002  -5.6283429616184938E-003   4.3981205793638720E-002
   6.8008270983693719E-002  -8.3599880412637655E-003   4.7085625352055314E-002
   6.8766267529555447E-002  -1.1036615520133051E-002   4.9935565816400414E-002
   5.7026452452115767E-002   0.0000000000000000        3.4573822249569286E-002
   5.7759646951240265E-002  -1.9886969858362302E-003   3.8222069229313829E-002
   5.8492841450364756E-002  -3.9527375264284247E-003   4.2075191209655423E-002
   5.9226035949489254E-002  -5.8921216217765818E-003   4.6133188190594088E-002
   5.9959230448613746E-002  -7.8068492718806944E-003   5.0396060172129810E-002
  0.10480400802146983       -2.0725914264890150E-002   5.3034398255207477E-002
  0.10215014070196231       -2.4833346975595125E-002   4.4917040740819966E-002
   9.9496273382454772E-002  -2.7377092244752241E-002   3.8441016970478650E-002
   9.6842406062947223E-002  -2.8357150072361455E-002   3.3606326944183487E-002
   9.4188538743439701E-002  -2.7773520458422851E-002   3.0412970661934449E-002
   9.1188656315983482E-002  -1.7496148016637788E-002   5.1254734857939258E-002
   8.9943664726860897E-002  -2.1027197578224542E-002   4.5901042211072378E-002
   8.8698673137738354E-002  -2.3335231902025379E-002   4.1723767280929157E-002
   8.7453681548615783E-002  -2.4420250988040338E-002   3.8722910067509816E-002
   8.6208689959493212E-002  -2.4282254836269397E-002   3.6898470570814197E-002
   7.9176076152012026E-002  -1.4266381768385423E-002   5.0221790711670253E-002
   7.8875044265952016E-002  -1.7221048180853953E-002   4.7291090728561941E-002
   7.8574012379892047E-002  -1.9293371559298549E-002   4.5071892434854988E-002
   7.8272980493832023E-002  -2.0483351903719211E-002   4.3564195830549456E-002
   7.7971948607772068E-002  -2.0790989214115929E-002   4.2768000915645255E-002
   6.8766267529555447E-002  -1.1036615520133051E-002   4.9935565816400414E-002
   6.8944279319235621E-002  -1.3414898783483370E-002   4.9087186293288745E-002
   6.9122291108915809E-002  -1.5251511216571711E-002   4.8485392432256073E-002
   6.9300302898596011E-002  -1.6546452819398087E-002   4.8130184233302363E-002
   6.9478314688276199E-002  -1.7299723591962461E-002   4.8021561696427705E-002
   5.9959230448613746E-002  -7.8068492718806944E-003   5.0396060172129810E-002
   6.0151369886711728E-002  -9.6087493861127873E-003   5.1289328905252840E-002
   6.0343509324809703E-002  -1.1209650873844875E-002   5.1964267273132421E-002
   6.0535648762907686E-002  -1.2609553735076957E-002   5.2420875275768671E-002
   6.0727788201005661E-002  -1.3808457969809014E-002   5.2659152913161471E-002
   9.4188538743439701E-002  -2.7773520458422851E-002   3.0412970661934449E-002
   9.1756448979684893E-002  -2.6532793310137755E-002   2.9707109980214245E-002
   8.9324359215930044E-002  -2.5541558534707680E-002   2.9013680438334646E-002
   8.6892269452175222E-002  -2.4799816132132550E-002   2.8332682036295652E-002
   8.4460179688420400E-002  -2.4307566102412359E-002   2.7664114774097387E-002
   8.6208689959493212E-002  -2.4282254836269397E-002   3.6898470570814197E-002
   8.3845283132140791E-002  -2.3583310901009891E-002   3.5816663096049181E-002
   8.1481876304788370E-002  -2.2985486636559138E-002   3.4859790354248452E-002
   7.9118469477435949E-002  -2.2488782042917266E-002   3.4027852345411877E-002
   7.6755062650083514E-002  -2.2093197120084090E-002   3.3320849069539346E-002
   7.7971948607772068E-002  -2.0790989214115929E-002   4.2768000915645255E-002
   7.5789728309945584E-002  -2.0633828491881990E-002   4.1458619349881681E-002
   7.3607508012119141E-002  -2.0429414738410655E-002   4.0386676110205841E-002
   7.1425287714292685E-002  -2.0177747953701971E-002   3.9552171196617747E-002
   6.9243067416466214E-002  -1.9878828137755850E-002   3.8955104609117455E-002
   6.9478314688276199E-002  -1.7299723591962461E-002   4.8021561696427705E-002
   6.7589784513099271E-002  -1.7684346082754106E-002   4.6632978741711670E-002
   6.5701254337922371E-002  -1.7873342840262180E-002   4.5594337706207015E-002
   6.3812724162745443E-002  -1.7866713864486666E-002   4.4905638589913602E-002
   6.1924193987568509E-002  -1.7664459155427609E-002   4.4566881392831596E-002
   6.0727788201005661E-002  -1.3808457969809014E-002   5.2659152913161471E-002
   5.9245451741601840E-002  -1.4734863673626222E-002   5.1339741271539140E-002
   5.7763115282198033E-002  -1.5317270942113633E-002   5.0482775142251829E-002
   5.6280778822794239E-002  -1.5555679775271412E-002   5.0088254525299386E-002
   5.4798442363390404E-002  -1.5450090173099340E-002   5.0156179420681790E-002
   8.4460179688420400E-002  -2.4307566102412359E-002   2.7664114774097387E-002
   8.1860970548572276E-002  -2.3970903000042995E-002   2.7121479504695720E-002
   7.9261761408724138E-002  -2.3695921379520368E-002   2.6918613212068426E-002
   7.6662552268876000E-002  -2.3482621240844423E-002   2.7055515896215708E-002
   7.4063343129027875E-002  -2.3331002584015215E-002   2.7532187557137405E-002
   7.6755062650083514E-002  -2.2093197120084090E-002   3.3320849069539346E-002
   7.4472676835909177E-002  -2.1791705261588828E-002   3.2874015983899815E-002
   7.2190291021734881E-002  -2.1577279860960488E-002   3.2721060572833437E-002
   6.9907905207560544E-002  -2.1449920918199031E-002   3.2861982836340148E-002
   6.7625519393386221E-002  -2.1409628433304517E-002   3.3296782774419970E-002
   6.9243067416466214E-002  -1.9878828137755850E-002   3.8955104609117455E-002
   6.7231613625764408E-002  -1.9612507523134613E-002   3.8578688731219800E-002
   6.5220159835062561E-002  -1.9458638342400525E-002   3.8450259225693936E-002
   6.3208706044360699E-002  -1.9417220595553598E-002   3.8569816092539969E-002
   6.1197252253658858E-002  -1.9488254282593764E-002   3.8937359331757807E-002
   6.1924193987568509E-002  -1.7664459155427609E-002   4.4566881392831596E-002
   6.0137780918137845E-002  -1.7433309784680450E-002   4.4235497746655597E-002
   5.8351367848707175E-002  -1.7339996823840631E-002   4.4106209170650071E-002
   5.6564954779276498E-002  -1.7384520272908131E-002   4.4179015664815274E-002
   5.4778541709845835E-002  -1.7566880131883081E-002   4.4453917229150847E-002
   5.4798442363390404E-002  -1.5450090173099340E-002   5.0156179420681790E-002
   5.3191178713029585E-002  -1.5254112046226259E-002   4.9844443030207242E-002
   5.1583915062668753E-002  -1.5221355305280730E-002   4.9688910407701944E-002
   4.9976651412307900E-002  -1.5351819950262731E-002   4.9689581553165794E-002
   4.8369387761947075E-002  -1.5645505981172342E-002   4.9846456466598965E-002
   7.4063343129027875E-002  -2.3331002584015215E-002   2.7532187557137405E-002
   7.1782852129246705E-002  -2.3234473889652663E-002   2.6767012157414144E-002
   6.9502361129465576E-002  -2.3186443638377102E-002   2.6067485365179166E-002
   6.7221870129684419E-002  -2.3186911830188554E-002   2.5433607180432555E-002
   6.4941379129903276E-002  -2.3235878465086790E-002   2.4865377603174144E-002
   6.7625519393386221E-002  -2.1409628433304517E-002   3.3296782774419970E-002
   6.5433675944204808E-002  -2.1424023927417615E-002   3.2528758942104691E-002
   6.3241832495023464E-002  -2.1460728921679197E-002   3.1872381603500671E-002
   6.1049989045842037E-002  -2.1519743416089303E-002   3.1327650758607745E-002
   5.8858145596660638E-002  -2.1601067410647851E-002   3.0894566407426022E-002
   6.1197252253658858E-002  -1.9488254282593764E-002   3.8937359331757807E-002
   5.9140054241300082E-002  -1.9613573965182485E-002   3.8192676009789005E-002
   5.7082856228941228E-002  -1.9735014204981263E-002   3.7605637067754230E-002
   5.5025658216582424E-002  -1.9852575001990082E-002   3.7176242505653372E-002
   5.2968460204223619E-002  -1.9966256356208911E-002   3.6904492323486665E-002
   5.4778541709845835E-002  -1.7566880131883081E-002   4.4453917229150847E-002
   5.2901987020532448E-002  -1.7803124002947410E-002   4.3758763360466947E-002
   5.1025432331219062E-002  -1.8009299488283316E-002   4.3267251757939856E-002
   4.9148877641905640E-002  -1.8185406587890848E-002   4.2979382421569678E-002
   4.7272322952592288E-002  -1.8331445301770055E-002   4.2895155351356261E-002
   4.8369387761947075E-002  -1.5645505981172342E-002   4.9846456466598965E-002
   4.6719474281901957E-002  -1.5992674040712265E-002   4.9227020994138448E-002
   4.5069560801856812E-002  -1.6283584771585403E-002   4.8857225674057522E-002
   4.3419647321811673E-002  -1.6518238173791659E-002   4.8737070506356235E-002
   4.1769733841766549E-002  -1.6696634247331088E-002   4.8866555491034802E-002
   6.4941379129903276E-002  -2.3235878465086790E-002   2.4865377603174144E-002
   6.2553186590581122E-002  -2.3287054719740213E-002   2.4290706924526950E-002
   6.0164994051258969E-002  -2.3294151770817700E-002   2.3848422105493317E-002
   5.7776801511936829E-002  -2.3257169618318495E-002   2.3538523146073437E-002
   5.5388608972614661E-002  -2.3176108262243311E-002   2.3361010046267339E-002
   5.8858145596660638E-002  -2.1601067410647851E-002   3.0894566407426022E-002
   5.6615830121660105E-002  -2.1703617800797381E-002   3.0538903030563558E-002
   5.4373514646659599E-002  -2.1826311481980228E-002   3.0342607922730774E-002
   5.2131199171659072E-002  -2.1969148454196882E-002   3.0305681083927317E-002
   4.9888883696658504E-002  -2.2132128717446797E-002   3.0428122514153527E-002
   5.2968460204223619E-002  -1.9966256356208911E-002   3.6904492323486665E-002
   5.0899004202960549E-002  -2.0120180881854341E-002   3.6703613753799498E-002
   4.8829548201697458E-002  -2.0358471193143143E-002   3.6689085862557577E-002
   4.6760092200434408E-002  -2.0681127290075051E-002   3.6860908649761097E-002
   4.4690636199171296E-002  -2.1088149172650256E-002   3.7219082115410002E-002
   4.7272322952592288E-002  -1.8331445301770055E-002   4.2895155351356261E-002
   4.5402708834482441E-002  -1.8536743962911377E-002   4.2784839094234479E-002
   4.3533094716372581E-002  -1.8890630904305809E-002   4.2887855924973822E-002
   4.1663480598262720E-002  -1.9393106125953304E-002   4.3204205843574268E-002
   3.9793866480152831E-002  -2.0044169627853756E-002   4.3733888850035950E-002
   4.1769733841766549E-002  -1.6696634247331088E-002   4.8866555491034802E-002
   4.0126944016225741E-002  -1.6953307043968496E-002   4.8782579051868696E-002
   3.8484154190684919E-002  -1.7422790615468614E-002   4.8938918109979551E-002
   3.6841364365144104E-002  -1.8105084961831587E-002   4.9335572665367214E-002
   3.5198574539603289E-002  -1.9000190083057256E-002   4.9972542718031920E-002
   5.5388608972614661E-002  -2.3176108262243311E-002   2.3361010046267339E-002
   5.2614732287997762E-002  -2.3471509747691799E-002   2.5069474840711592E-002
   4.9840855603380807E-002  -2.4563916119763857E-002   2.7406838752462886E-002
   4.7066978918763852E-002  -2.6453327378459630E-002   3.0373101781521694E-002
   4.4293102234146953E-002  -2.9139743523779293E-002   3.3968263927887488E-002
   4.9888883696658504E-002  -2.2132128717446797E-002   3.0428122514153527E-002
   4.7695905825407600E-002  -2.2681048390749414E-002   3.1615694575277464E-002
   4.5502927954156613E-002  -2.3981703593123821E-002   3.3336165145826047E-002
   4.3309950082905654E-002  -2.6034094324570496E-002   3.5589534225799122E-002
   4.1116972211654723E-002  -2.8838220585088836E-002   3.8375801815197064E-002
   4.4690636199171296E-002  -2.1088149172650256E-002   3.7219082115410002E-002
   4.2982556533403694E-002  -2.1890587033807113E-002   3.7931030800765125E-002
   4.1274476867636065E-002  -2.3399491066484049E-002   3.9079877387662526E-002
   3.9566397201868421E-002  -2.5614861270681192E-002   4.0665621876101864E-002
   3.7858317536100763E-002  -2.8536697646398462E-002   4.2688264266083256E-002
   3.9793866480152831E-002  -2.0044169627853756E-002   4.3733888850035950E-002
   3.8474684411985961E-002  -2.1100125676864603E-002   4.4015483517174388E-002
   3.7155502343819022E-002  -2.2817278539844367E-002   4.4637975477972477E-002
   3.5836320275652117E-002  -2.5195628216791804E-002   4.5601364732429983E-002
   3.4517138207485219E-002  -2.8235174707708047E-002   4.6905651280546773E-002
   3.5198574539603289E-002  -1.9000190083057256E-002   4.9972542718031920E-002
   3.4172289461154470E-002  -2.0309664319922455E-002   4.9869052724505480E-002
   3.3146004382705610E-002  -2.2235066013204283E-002   5.0010459416755970E-002
   3.2119719304256771E-002  -2.4776395162902708E-002   5.0396762794783320E-002
   3.1093434225807931E-002  -2.7933651769017631E-002   5.1027962858587239E-002
   4.4293102234146953E-002  -2.9139743523779293E-002   3.3968263927887488E-002
   4.3722878597516474E-002  -3.4172737542757736E-002   4.2195401061856153E-002
   4.3152654960885967E-002  -4.3101882422430945E-002   5.2044210545998643E-002
   4.2582431324255460E-002  -5.5927178162798380E-002   6.3514692380315832E-002
   4.2012207687625036E-002  -7.2648624763860026E-002   7.6606846564807318E-002
   4.1116972211654723E-002  -2.8838220585088836E-002   3.8375801815197064E-002
   4.1874093581804578E-002  -3.3474146854479025E-002   4.2822079278026948E-002
   4.2631214951954405E-002  -4.1021937612540763E-002   4.8301374404243036E-002
   4.3388336322104357E-002  -5.1481592859274242E-002   5.4813687193845523E-002
   4.4145457692254142E-002  -6.4853112594678963E-002   6.2359017646834713E-002
   3.7858317536100763E-002  -2.8536697646398462E-002   4.2688264266083256E-002
   3.9354129226243116E-002  -3.2775556166200148E-002   4.4337968429797300E-002
   4.0849940916385372E-002  -3.8941992802650642E-002   4.6432035570109713E-002
   4.2345752606527599E-002  -4.7036007555750006E-002   4.8970465687020487E-002
   4.3841564296670049E-002  -5.7057600425498012E-002   5.1953258780529865E-002
   3.4517138207485219E-002  -2.8235174707708047E-002   4.6905651280546773E-002
   3.6162985530832026E-002  -3.2076965477921382E-002   4.6743068517167780E-002
   3.7808832854178770E-002  -3.6862047992760605E-002   4.6436194043599506E-002
   3.9454680177525639E-002  -4.2590422252225875E-002   4.5985027859841161E-002
   4.1100527500872334E-002  -4.9262088256317060E-002   4.5389569965894036E-002
   3.1093434225807931E-002  -2.7933651769017631E-002   5.1027962858587239E-002
   3.2300662495571314E-002  -3.1378374789642560E-002   5.0037379540138038E-002
   3.3507890765334683E-002  -3.4782103182870366E-002   4.8313849824711319E-002
   3.4715119035098059E-002  -3.8144836948701695E-002   4.5857373712307137E-002
   3.5922347304861435E-002  -4.1466576087135998E-002   4.2667951202926213E-002
   5.7026452452115767E-002   0.0000000000000000        3.4573822249569286E-002
   5.7759646951240265E-002  -1.9886969858362302E-003   3.8222069229313829E-002
   5.8492841450364756E-002  -3.9527375264284247E-003   4.2075191209655423E-002
   5.9226035949489254E-002  -5.8921216217765818E-003   4.6133188190594088E-002
   5.9959230448613746E-002  -7.8068492718806944E-003   5.0396060172129810E-002
   4.8498586317201359E-002   0.0000000000000000        3.2770470747274565E-002
   4.9373768021045907E-002  -1.6159637881592607E-003   3.6952442517052202E-002
   5.0248949724890447E-002  -3.2524995603746588E-003   4.1213513695672867E-002
   5.1124131428734995E-002  -4.9096073166461883E-003   4.5553684283136595E-002
   5.1999313132579536E-002  -6.5872870569738569E-003   4.9972954279443323E-002
   4.0565290537603105E-002   0.0000000000000000        3.1362466657306902E-002
   4.1456683854413673E-002  -1.2432305904822895E-003   3.6032934787817460E-002
   4.2348077171224241E-002  -2.5522615943208921E-003   4.0656726735417030E-002
   4.3239470488034816E-002  -3.9270930115158018E-003   4.5233842500105606E-002
   4.4130863804845384E-002  -5.3677248420670272E-003   4.9764282081883222E-002
   3.3226565113321005E-002   0.0000000000000000        3.0349809979666294E-002
   3.4008394451343578E-002  -8.7049739280532041E-004   3.5463546041609596E-002
   3.4790223789366144E-002  -1.8520236282671275E-003   4.0404830328887899E-002
   3.5572053127388717E-002  -2.9445787063854152E-003   4.5173662841501164E-002
   3.6353882465411290E-002  -4.1481626271601957E-003   4.9770043579449440E-002
   2.6482410044355066E-002   0.0000000000000000        2.9732500714352746E-002
   2.7028899811835615E-002  -4.9776419512834874E-004   3.5244276278428625E-002
   2.7575389579316163E-002  -1.1517856622133595E-003   4.0457824476085466E-002
   2.8121879346796715E-002  -1.9620644012550252E-003   4.5373145307323268E-002
   2.8668369114277260E-002  -2.9286004122533616E-003   4.9990238772142044E-002
   5.9959230448613746E-002  -7.8068492718806944E-003   5.0396060172129810E-002
   6.0151369886711728E-002  -9.6087493861127873E-003   5.1289328905252840E-002
   6.0343509324809703E-002  -1.1209650873844875E-002   5.1964267273132421E-002
   6.0535648762907686E-002  -1.2609553735076957E-002   5.2420875275768671E-002
   6.0727788201005661E-002  -1.3808457969809014E-002   5.2659152913161471E-002
   5.1999313132579536E-002  -6.5872870569738569E-003   4.9972954279443323E-002
   5.2015155326383650E-002  -8.1790830462840514E-003   5.1196393178111511E-002
   5.2030997520187770E-002  -9.5785395495031726E-003   5.2285567953435384E-002
   5.2046839713991891E-002  -1.0785656566631205E-002   5.3240478605414976E-002
   5.2062681907796012E-002  -1.1800434097668157E-002   5.4061125134050175E-002
   4.4130863804845384E-002  -5.3677248420670272E-003   4.9764282081883222E-002
   4.4054474996254749E-002  -6.7494167064553294E-003   5.1309232005687606E-002
   4.3978086187664099E-002  -7.9474282251614792E-003   5.2803984048046829E-002
   4.3901697379073464E-002  -8.9617593981854652E-003   5.4248538208960799E-002
   4.3825308570482814E-002  -9.7924102255272961E-003   5.5642894488429573E-002
   3.6353882465411290E-002  -4.1481626271601957E-003   4.9770043579449440E-002
   3.6269328896324990E-002  -5.3197503666265935E-003   5.1627845387981167E-002
   3.6184775327238690E-002  -6.3163169008197736E-003   5.3519515556966740E-002
   3.6100221758152383E-002  -7.1378622297397091E-003   5.5445054086406223E-002
   3.6015668189066090E-002  -7.7843863533864441E-003   5.7404460976299636E-002
   2.8668369114277260E-002  -2.9286004122533616E-003   4.9990238772142044E-002
   2.8659717026594402E-002  -3.8900840267978654E-003   5.2152233324992123E-002
   2.8651064938911543E-002  -4.6852055764780836E-003   5.4432162480195188E-002
   2.8642412851228680E-002  -5.3139650612939772E-003   5.6830026237751283E-002
   2.8633760763545818E-002  -5.7763624812455783E-003   5.9345824597660315E-002
   6.0727788201005661E-002  -1.3808457969809014E-002   5.2659152913161471E-002
   5.9245451741601840E-002  -1.4734863673626222E-002   5.1339741271539140E-002
   5.7763115282198033E-002  -1.5317270942113633E-002   5.0482775142251829E-002
   5.6280778822794239E-002  -1.5555679775271412E-002   5.0088254525299386E-002
   5.4798442363390404E-002  -1.5450090173099340E-002   5.0156179420681790E-002
   5.2062681907796012E-002  -1.1800434097668157E-002   5.4061125134050175E-002
   5.0991996268378907E-002  -1.2585107026730342E-002   5.3424585832570287E-002
   4.9921310628961837E-002  -1.3101910237934231E-002   5.3148902658728917E-002
   4.8850624989544747E-002  -1.3350843731279762E-002   5.3234075612526119E-002
   4.7779939350127663E-002  -1.3331907506766938E-002   5.3680104693961866E-002
   4.3825308570482814E-002  -9.7924102255272961E-003   5.5642894488429573E-002
   4.3064684366356125E-002  -1.0435350379834561E-002   5.5613098809620641E-002
   4.2304060162229429E-002  -1.0886549533754841E-002   5.5842569873753883E-002
   4.1543435958102719E-002  -1.1146007687288167E-002   5.6331307680829397E-002
   4.0782811753976043E-002  -1.1213724840434480E-002   5.7079312230847078E-002
   3.6015668189066090E-002  -7.7843863533864441E-003   5.7404460976299636E-002
   3.5463516035533459E-002  -8.2855937329387105E-003   5.7905280202690215E-002
   3.4911363882000807E-002  -8.6711888295754463E-003   5.8563776787326778E-002
   3.4359211728468175E-002  -8.9411716432965162E-003   5.9379950730209213E-002
   3.3807059574935537E-002  -9.0955421741020503E-003   6.0353802031337542E-002
   2.8633760763545818E-002  -5.7763624812455783E-003   5.9345824597660315E-002
   2.8188491275910908E-002  -6.1358370860429001E-003   6.0301130011779142E-002
   2.7743221788276002E-002  -6.4558281253960549E-003   6.1312523399447573E-002
   2.7297952300641096E-002  -6.7363355993049429E-003   6.2380004760665506E-002
   2.6852682813006179E-002  -6.9773595077696066E-003   6.3503574095433044E-002
   5.4798442363390404E-002  -1.5450090173099340E-002   5.0156179420681790E-002
   5.3191178713029585E-002  -1.5254112046226259E-002   4.9844443030207242E-002
   5.1583915062668753E-002  -1.5221355305280730E-002   4.9688910407701944E-002
   4.9976651412307900E-002  -1.5351819950262731E-002   4.9689581553165794E-002
   4.8369387761947075E-002  -1.5645505981172342E-002   4.9846456466598965E-002
   4.7779939350127663E-002  -1.3331907506766938E-002   5.3680104693961866E-002
   4.6341507908443519E-002  -1.3239706444480463E-002   5.3260091447186610E-002
   4.4903076466759367E-002  -1.3268845424505273E-002   5.3021538849795574E-002
   4.3464645025075237E-002  -1.3419324446841215E-002   5.2964446901788691E-002
   4.2026213583391092E-002  -1.3691143511488396E-002   5.3088815603166098E-002
   4.0782811753976043E-002  -1.1213724840434480E-002   5.7079312230847078E-002
   3.9538469402383578E-002  -1.1225300842734723E-002   5.6592903471387505E-002
   3.8294127050791146E-002  -1.1316335543729818E-002   5.6313212242727076E-002
   3.7049784699198694E-002  -1.1486828943419687E-002   5.6240238544865886E-002
   3.5805442347606208E-002  -1.1736781041804437E-002   5.6373982377803840E-002
   3.3807059574935537E-002  -9.0955421741020503E-003   6.0353802031337542E-002
   3.2782063194849789E-002  -9.2108952409889686E-003   5.9842879102809901E-002
   3.1757066814764055E-002  -9.3638256629543625E-003   5.9563930586496443E-002
   3.0732070434678301E-002  -9.5543334399981923E-003   5.9516956482397326E-002
   2.9707074054592546E-002  -9.7824185721204979E-003   5.9701956790512302E-002
   2.6852682813006179E-002  -6.9773595077696066E-003   6.3503574095433044E-002
   2.6072289285842147E-002  -7.1964896392431657E-003   6.3010018341453783E-002
   2.5291895758678115E-002  -7.4113157821788962E-003   6.2773693881103737E-002
   2.4511502231514076E-002  -7.6218379365766671E-003   6.2794600714382878E-002
   2.3731108704350037E-002  -7.8280561024365591E-003   6.3072738841291304E-002
   4.8369387761947075E-002  -1.5645505981172342E-002   4.9846456466598965E-002
   4.6719474281901957E-002  -1.5992674040712265E-002   4.9227020994138448E-002
   4.5069560801856812E-002  -1.6283584771585403E-002   4.8857225674057522E-002
   4.3419647321811673E-002  -1.6518238173791659E-002   4.8737070506356235E-002
   4.1769733841766549E-002  -1.6696634247331088E-002   4.8866555491034802E-002
   4.2026213583391092E-002  -1.3691143511488396E-002   5.3088815603166098E-002
   4.0616843753488022E-002  -1.4005432290331132E-002   5.2629015542532520E-002
   3.9207473923584979E-002  -1.4283320455253920E-002   5.2400662629803439E-002
   3.7798104093681922E-002  -1.4524808006256756E-002   5.2403756864978959E-002
   3.6388734263778894E-002  -1.4729894943339511E-002   5.2638298248058851E-002
   3.5805442347606208E-002  -1.1736781041804437E-002   5.6373982377803840E-002
   3.4618423163370111E-002  -1.2018190539949992E-002   5.6053961014250434E-002
   3.3431403979133981E-002  -1.2283056138922489E-002   5.5947193794126340E-002
   3.2244384794897843E-002  -1.2531377838721793E-002   5.6053680717431616E-002
   3.1057365610661712E-002  -1.2763155639348073E-002   5.6373421784166183E-002
   2.9707074054592546E-002  -9.7824185721204979E-003   5.9701956790512302E-002
   2.8724212511548164E-002  -1.0030948789568912E-002   5.9501857409292189E-002
   2.7741350968503789E-002  -1.0282791822591003E-002   5.9496819167026163E-002
   2.6758489425459400E-002  -1.0537947671186916E-002   5.9686842063714232E-002
   2.5775627882415011E-002  -1.0796416335356593E-002   6.0071926099356486E-002
   2.3731108704350037E-002  -7.8280561024365591E-003   6.3072738841291304E-002
   2.2934211798022228E-002  -8.0437070391877336E-003   6.2972704727657564E-002
   2.2137314891694418E-002  -8.2825275062595669E-003   6.3049538748502734E-002
   2.1340417985366612E-002  -8.5445175036519532E-003   6.3303240903827024E-002
   2.0543521079038798E-002  -8.8296770313650574E-003   6.3733811193630197E-002
   4.1769733841766549E-002  -1.6696634247331088E-002   4.8866555491034802E-002
   4.0126944016225741E-002  -1.6953307043968496E-002   4.8782579051868696E-002
   3.8484154190684919E-002  -1.7422790615468614E-002   4.8938918109979551E-002
   3.6841364365144104E-002  -1.8105084961831587E-002   4.9335572665367214E-002
   3.5198574539603289E-002  -1.9000190083057256E-002   4.9972542718031920E-002
   3.6388734263778894E-002  -1.4729894943339511E-002   5.2638298248058851E-002
   3.4983364401946618E-002  -1.5008571831280959E-002   5.2402861554944974E-002
   3.3577994540114370E-002  -1.5470829234859533E-002   5.2401949291971214E-002
   3.2172624678282108E-002  -1.6116667154075073E-002   5.2635561459137677E-002
   3.0767254816449818E-002  -1.6946085588927740E-002   5.3103698056444187E-002
   3.1057365610661712E-002  -1.2763155639348073E-002   5.6373421784166183E-002
   2.9883624645401258E-002  -1.3063836618593463E-002   5.6015755096330062E-002
   2.8709883680140821E-002  -1.3518867854250230E-002   5.5886821771497480E-002
   2.7536142714880342E-002  -1.4128249346318501E-002   5.5986621809668159E-002
   2.6362401749619908E-002  -1.4891981094798196E-002   5.6315155210842474E-002
   2.5775627882415011E-002  -1.0796416335356593E-002   6.0071926099356486E-002
   2.4827724746589633E-002  -1.1119101405906030E-002   5.9621259676024010E-002
   2.3879821610764237E-002  -1.1566906473641093E-002   5.9393535548558113E-002
   2.2931918474938848E-002  -1.2139831538561985E-002   5.9388753716958974E-002
   2.1984015339113462E-002  -1.2837876600668582E-002   5.9606914181226447E-002
   2.0543521079038798E-002  -8.8296770313650574E-003   6.3733811193630197E-002
   1.9815664705511729E-002  -9.1743661932184306E-003   6.3219375294026825E-002
   1.9087808331984653E-002  -9.6149450930318320E-003   6.2922090623153376E-002
   1.8359951958457601E-002  -1.0151413730805438E-002   6.2841957181009975E-002
   1.7632095584930521E-002  -1.0783772106539191E-002   6.2978974967596413E-002
   3.5198574539603289E-002  -1.9000190083057256E-002   4.9972542718031920E-002
   3.4172289461154470E-002  -2.0309664319922455E-002   4.9869052724505480E-002
   3.3146004382705610E-002  -2.2235066013204283E-002   5.0010459416755970E-002
   3.2119719304256771E-002  -2.4776395162902708E-002   5.0396762794783320E-002
   3.1093434225807931E-002  -2.7933651769017631E-002   5.1027962858587239E-002
   3.0767254816449818E-002  -1.6946085588927740E-002   5.3103698056444187E-002
   2.9963145401962446E-002  -1.8120963675935797E-002   5.2442320574881074E-002
   2.9159035987475046E-002  -1.9803180551617866E-002   5.1980397735463660E-002
   2.8354926572987639E-002  -2.1992736215973634E-002   5.1717929538192493E-002
   2.7550817158500232E-002  -2.4689630669003537E-002   5.1654915983067595E-002
   2.6362401749619908E-002  -1.4891981094798196E-002   5.6315155210842474E-002
   2.5735025955463300E-002  -1.5932263031949126E-002   5.5204478908984667E-002
   2.5107650161306661E-002  -1.7371295090031345E-002   5.4247815205642445E-002
   2.4480274367150050E-002  -1.9209077269044729E-002   5.3445164100815637E-002
   2.3852898572993421E-002  -2.1445609568989332E-002   5.2796525594504179E-002
   2.1984015339113462E-002  -1.2837876600668582E-002   5.9606914181226447E-002
   2.1487931121656964E-002  -1.3743562387962406E-002   5.8155527726816918E-002
   2.0991846904200463E-002  -1.4939409628444793E-002   5.6812711827292521E-002
   2.0495762686743958E-002  -1.6425418322115654E-002   5.5578466482652640E-002
   1.9999678469287463E-002  -1.8201588468975183E-002   5.4452791692897594E-002
   1.7632095584930521E-002  -1.0783772106539191E-002   6.2978974967596413E-002
   1.7221860900543479E-002  -1.1554861743975825E-002   6.1295467028377904E-002
   1.6811626216156443E-002  -1.2507524166858394E-002   5.9675087600413540E-002
   1.6401391531769397E-002  -1.3641759375186687E-002   5.8117836683703336E-002
   1.5991156847382351E-002  -1.4957567368961033E-002   5.6623714278247306E-002
   3.1093434225807931E-002  -2.7933651769017631E-002   5.1027962858587239E-002
   3.2300662495571314E-002  -3.1378374789642560E-002   5.0037379540138038E-002
   3.3507890765334683E-002  -3.4782103182870366E-002   4.8313849824711319E-002
   3.4715119035098059E-002  -3.8144836948701695E-002   4.5857373712307137E-002
   3.5922347304861435E-002  -4.1466576087135998E-002   4.2667951202926213E-002
   2.7550817158500232E-002  -2.4689630669003537E-002   5.1654915983067595E-002
   2.8143577945638640E-002  -2.7678516543935078E-002   5.0609685346904992E-002
   2.8736338732777054E-002  -3.0744046473996728E-002   4.9068466142469763E-002
   2.9329099519915452E-002  -3.3886220459188203E-002   4.7031258369762241E-002
   2.9921860307053849E-002  -3.7105038499509524E-002   4.4498062028781704E-002
   2.3852898572993421E-002  -2.1445609568989332E-002   5.2796525594504179E-002
   2.4068149706211607E-002  -2.3978658298227873E-002   5.1579008958101691E-002
   2.4283400839429845E-002  -2.6705989765123075E-002   5.0102461582131261E-002
   2.4498651972648028E-002  -2.9627603969674707E-002   4.8366883466593132E-002
   2.4713903105866269E-002  -3.2743500911883272E-002   4.6372274611487019E-002
   1.9999678469287463E-002  -1.8201588468975183E-002   5.4452791692897594E-002
   2.0074377777290257E-002  -2.0278800052520501E-002   5.2945350373728238E-002
   2.0149077085293080E-002  -2.2667933056249319E-002   5.1415836143696061E-002
   2.0223776393295874E-002  -2.5368987480161434E-002   4.9864249002800697E-002
   2.0298475701298675E-002  -2.8381963324256854E-002   4.8290588951042379E-002
   1.5991156847382351E-002  -1.4957567368961033E-002   5.6623714278247306E-002
   1.6162262158874549E-002  -1.6578941806813074E-002   5.4708709593784544E-002
   1.6333367470366726E-002  -1.8629876347375812E-002   5.3008589827163499E-002
   1.6504472781858914E-002  -2.1110370990647893E-002   5.1523354978384311E-002
   1.6675578093351129E-002  -2.4020425736630546E-002   5.0253005047446786E-002
   2.6482410044355066E-002   0.0000000000000000        2.9732500714352746E-002
   2.7028899811835615E-002  -4.9776419512834874E-004   3.5244276278428625E-002
   2.7575389579316163E-002  -1.1517856622133595E-003   4.0457824476085466E-002
   2.8121879346796715E-002  -1.9620644012550252E-003   4.5373145307323268E-002
   2.8668369114277260E-002  -2.9286004122533616E-003   4.9990238772142044E-002
   1.9992106998102090E-002   0.0000000000000000        2.9365319600096300E-002
   2.0280770630300808E-002  -3.7332314634655039E-004   3.4693904972457140E-002
   2.0569434262499523E-002  -8.6383924666046108E-004   3.9805065440673360E-002
   2.0858097894698245E-002  -1.4715483009417286E-003   4.4698801004744951E-002
   2.1146761526896964E-002  -2.1964503091903599E-003   4.9375111664671900E-002
   1.3414937641958884E-002   0.0000000000000000        2.9103047375627005E-002
   1.3526577601150180E-002  -2.4888209756475117E-004   3.4287506874262109E-002
   1.3638217560341476E-002  -5.7589283110756097E-004   3.9335343931027000E-002
   1.3749857519532773E-002  -9.8103220062842854E-004   4.4246558545921681E-002
   1.3861497478724068E-002  -1.4643002061273539E-003   4.9021150718946124E-002
   6.7509019759254508E-003   0.0000000000000000        2.8945684040944858E-002
   6.7663207243837328E-003  -1.2444104878295281E-004   3.4025081983843533E-002
   6.7817394728420166E-003  -2.8794641555465999E-004   3.9048659947146402E-002
   6.7971582213003003E-003  -4.9051610031512847E-004   4.4016417930853452E-002
   6.8125769697585815E-003  -7.3215010306434828E-004   4.8928355934964696E-002
   1.7876325419940997E-015   0.0000000000000000        2.8893229596049858E-002
   1.4667086989383904E-015  -1.1527237497865883E-015   3.3906630301201404E-002
   1.1447006537101956E-015  -1.7624790515924360E-015   3.8945013489031552E-002
   8.2280102869924931E-016  -1.8301332671555315E-015   4.4008379159540298E-002
   5.0090140368830305E-016  -1.3478801408339791E-015   4.9096727312727628E-002
   2.8668369114277260E-002  -2.9286004122533616E-003   4.9990238772142044E-002
   2.8659717026594402E-002  -3.8900840267978654E-003   5.2152233324992123E-002
   2.8651064938911543E-002  -4.6852055764780836E-003   5.4432162480195188E-002
   2.8642412851228680E-002  -5.3139650612939772E-003   5.6830026237751283E-002
   2.8633760763545818E-002  -5.7763624812455783E-003   5.9345824597660315E-002
   2.1146761526896964E-002  -2.1964503091903599E-003   4.9375111664671900E-002
   2.1227101146459024E-002  -2.9175630200985827E-003   5.1890073668377557E-002
   2.1307440766021091E-002  -3.5139041823586360E-003   5.4465084484220085E-002
   2.1387780385583154E-002  -3.9854737959705471E-003   5.7100144112199470E-002
   2.1468120005145221E-002  -4.3322718609342808E-003   5.9795252552315686E-002
   1.3861497478724068E-002  -1.4643002061273539E-003   4.9021150718946124E-002
   1.3972943015314926E-002  -1.9450420133992935E-003   5.1847489657291225E-002
   1.4084388551905783E-002  -2.3426027882392083E-003   5.4675991617557040E-002
   1.4195834088496643E-002  -2.6569825306470996E-003   5.7506656599743584E-002
   1.4307279625087497E-002  -2.8881812406229695E-003   6.0339484603850857E-002
   6.8125769697585815E-003  -7.3215010306434828E-004   4.8928355934964696E-002
   6.8972426331620996E-003  -9.7252100670000758E-004   5.2024481291733080E-002
   6.9819082965656169E-003  -1.1713013941197776E-003   5.5064883880206077E-002
   7.0665739599691350E-003  -1.3284912653236643E-003   5.8049563700383638E-002
   7.1512396233726523E-003  -1.4440906203116513E-003   6.0978520752265848E-002
   5.0090140368830305E-016  -1.3478801408339791E-015   4.9096727312727628E-002
   5.4643789493269423E-016  -7.1644079557842133E-016   5.2421048571703183E-002
   5.9435963095655353E-016  -3.3523531173251797E-016   5.5631761272167186E-002
   6.4152242545967297E-016  -2.1217836515541322E-016   5.8728865414119660E-002
   6.8695049648681561E-016  -3.6082248300317588E-016   6.1712360997560611E-002
   2.8633760763545818E-002  -5.7763624812455783E-003   5.9345824597660315E-002
   2.8188491275910908E-002  -6.1358370860429001E-003   6.0301130011779142E-002
   2.7743221788276002E-002  -6.4558281253960549E-003   6.1312523399447573E-002
   2.7297952300641096E-002  -6.7363355993049429E-003   6.2380004760665506E-002
   2.6852682813006179E-002  -6.9773595077696066E-003   6.3503574095433044E-002
   2.1468120005145221E-002  -4.3322718609342808E-003   5.9795252552315686E-002
   2.1092745840649678E-002  -4.6018778145323416E-003   6.0803713814130959E-002
   2.0717371676154152E-002  -4.8418710940471531E-003   6.1895877748675374E-002
   2.0341997511658619E-002  -5.0522516994787629E-003   6.3071744355949033E-002
   1.9966623347163072E-002  -5.2330196308271459E-003   6.4331313635951792E-002
   1.4307279625087497E-002  -2.8881812406229695E-003   6.0339484603850857E-002
   1.4029415482910963E-002  -3.0679185430217137E-003   6.1391230822001513E-002
   1.3751551340734428E-002  -3.2279140626982634E-003   6.2554294412060965E-002
   1.3473687198557897E-002  -3.3681677996525825E-003   6.3828675374029240E-002
   1.3195823056381364E-002  -3.4886797538846923E-003   6.5214373707906365E-002
   7.1512396233726523E-003  -1.4440906203116513E-003   6.0978520752265848E-002
   6.9985002026947442E-003  -1.5339592715110859E-003   6.2063681035390866E-002
   6.8457607820168360E-003  -1.6139570313493676E-003   6.3287773389604368E-002
   6.6930213613389288E-003  -1.6840838998264023E-003   6.4650797814906305E-002
   6.5402819406610180E-003  -1.7443398769422629E-003   6.6152754311296635E-002
   6.8695049648681561E-016  -3.6082248300317588E-016   6.1712360997560611E-002
   1.0312931064682118E-015  -5.1694759584108851E-016   6.2821064454299039E-002
   1.3756357164496080E-015  -4.8225312632155237E-016   6.4096314681305527E-002
   1.7195446455620100E-015  -2.4546337185071820E-016   6.5538111678580091E-002
   2.0643209364124004E-015   2.0816681711721685E-016   6.7146455446122730E-002
   2.6852682813006179E-002  -6.9773595077696066E-003   6.3503574095433044E-002
   2.6072289285842147E-002  -7.1964896392431657E-003   6.3010018341453783E-002
   2.5291895758678115E-002  -7.4113157821788962E-003   6.2773693881103737E-002
   2.4511502231514076E-002  -7.6218379365766671E-003   6.2794600714382878E-002
   2.3731108704350037E-002  -7.8280561024365591E-003   6.3072738841291304E-002
   1.9966623347163072E-002  -5.2330196308271459E-003   6.4331313635951792E-002
   1.9427927885668671E-002  -5.3973672294322095E-003   6.3941249819045018E-002
   1.8889232424174254E-002  -5.5584868366338400E-003   6.3777350839848285E-002
   1.8350536962679860E-002  -5.7163784524320495E-003   6.3839616698361482E-002
   1.7811841501185442E-002  -5.8710420768268434E-003   6.4128047394584872E-002
   1.3195823056381364E-002  -3.4886797538846923E-003   6.5214373707906365E-002
   1.2867759204637402E-002  -3.5982448196212498E-003   6.4926725830937532E-002
   1.2539695352893444E-002  -3.7056578910888652E-003   6.4834176335759552E-002
   1.2211631501149473E-002  -3.8109189682875287E-003   6.4936725222372496E-002
   1.1883567649405520E-002  -3.9140280512172249E-003   6.5234372490776238E-002
   6.5402819406610180E-003  -1.7443398769422629E-003   6.6152754311296635E-002
   6.3917832427483300E-003  -1.7991224098102641E-003   6.5966446377131338E-002
   6.2432845448356445E-003  -1.8528289455438498E-003   6.5944170368837735E-002
   6.0947858469229624E-003  -1.9054594841429594E-003   6.6085926286415811E-002
   5.9462871490102700E-003  -1.9570140256075438E-003   6.6391714129865498E-002
   2.0643209364124004E-015   2.0816681711721685E-016   6.7146455446122730E-002
   1.4745149545802860E-015   7.1470607210244452E-016   6.7060411457626423E-002
   8.8470897274817162E-016   1.1553258350005535E-015   6.7107332939082637E-002
   2.9663771439203401E-016   1.6210990883003262E-015   6.7287219890491370E-002
  -2.9490299091605721E-016   2.0816681711721685E-015   6.7600072311852555E-002
   2.3731108704350037E-002  -7.8280561024365591E-003   6.3072738841291304E-002
   2.2934211798022228E-002  -8.0437070391877336E-003   6.2972704727657564E-002
   2.2137314891694418E-002  -8.2825275062595669E-003   6.3049538748502734E-002
   2.1340417985366612E-002  -8.5445175036519532E-003   6.3303240903827024E-002
   2.0543521079038798E-002  -8.8296770313650574E-003   6.3733811193630197E-002
   1.7811841501185442E-002  -5.8710420768268434E-003   6.4128047394584872E-002
   1.7197401752362385E-002  -6.0327802793901791E-003   6.4004322316331033E-002
   1.6582962003539321E-002  -6.2118956296938962E-003   6.4068643418607657E-002
   1.5968522254716254E-002  -6.4083881277381318E-003   6.4321010701414785E-002
   1.5354082505893200E-002  -6.6222577735226551E-003   6.4761424164752335E-002
   1.1883567649405520E-002  -3.9140280512172249E-003   6.5234372490776238E-002
   1.1462763104138716E-002  -4.0218535195926455E-003   6.5092748830482522E-002
   1.1041958558871910E-002  -4.1412637531282291E-003   6.5150349396770751E-002
   1.0621154013605111E-002  -4.2722587518242002E-003   6.5407174189640982E-002
   1.0200349468338300E-002  -4.4148385156804193E-003   6.5863223209093227E-002
   5.9462871490102700E-003  -1.9570140256075438E-003   6.6391714129865498E-002
   5.7302958533512393E-003  -2.0109267597950460E-003   6.6237984270111974E-002
   5.5143045576922112E-003  -2.0706318765626158E-003   6.6294656682991920E-002
   5.2983132620331806E-003  -2.1361293759103238E-003   6.6561731368505461E-002
   5.0823219663741525E-003  -2.2074192578381280E-003   6.7039208326652430E-002
  -2.9490299091605721E-016   2.0816681711721685E-015   6.7600072311852555E-002
  -4.1633363423443370E-017   2.4424906541753444E-015   6.7440028635219446E-002
   2.0643209364124004E-016   3.1433189384699745E-015   6.7501565277271317E-002
   4.5709963591988867E-016   3.5891428717960139E-015   6.7784682238008320E-002
   7.0776717819853729E-016   4.2188474935755949E-015   6.8289379517430249E-002
   2.0543521079038798E-002  -8.8296770313650574E-003   6.3733811193630197E-002
   1.9815664705511729E-002  -9.1743661932184306E-003   6.3219375294026825E-002
   1.9087808331984653E-002  -9.6149450930318320E-003   6.2922090623153376E-002
   1.8359951958457601E-002  -1.0151413730805438E-002   6.2841957181009975E-002
   1.7632095584930521E-002  -1.0783772106539191E-002   6.2978974967596413E-002
   1.5354082505893200E-002  -6.6222577735226551E-003   6.4761424164752335E-002
   1.4834580577259011E-002  -6.8807746449125462E-003   6.4189993496187758E-002
   1.4315078648624819E-002  -7.2112088197725660E-003   6.3818120488678770E-002
   1.3795576719990628E-002  -7.6135602981022461E-003   6.3645805142225759E-002
   1.3276074791356431E-002  -8.0878290799020758E-003   6.3673047456828308E-002
   1.0200349468338300E-002  -4.4148385156804193E-003   6.5863223209093227E-002
   9.8716084169228856E-003  -4.5871830966067173E-003   6.5258770206057179E-002
   9.5428673655074559E-003  -4.8074725465129184E-003   6.4836281296402842E-002
   9.2141263140920297E-003  -5.0757068653990000E-003   6.4595756480130245E-002
   8.8853852626766087E-003  -5.3918860532650437E-003   6.4537195757239305E-002
   5.0823219663741525E-003  -2.2074192578381280E-003   6.7039208326652430E-002
   4.9267482245033559E-003  -2.2935915483008051E-003   6.6425705423635253E-002
   4.7711744826325706E-003  -2.4037362732534616E-003   6.5976573046325634E-002
   4.6156007407617810E-003  -2.5378534326957252E-003   6.5691811194723504E-002
   4.4600269988909888E-003  -2.6959430266280532E-003   6.5571419868829153E-002
   7.0776717819853729E-016   4.2188474935755949E-015   6.8289379517430249E-002
   4.3021142204224816E-016   4.9960036108132044E-015   6.7690799148921954E-002
   1.6306400674181987E-016   6.0090821207836598E-015   6.7238995738446994E-002
  -1.0581813203458523E-016   7.4142081363248735E-015   6.6933969286005604E-002
  -3.8163916471489756E-016   9.0483176506950258E-015   6.6775719791597576E-002
   1.7632095584930521E-002  -1.0783772106539191E-002   6.2978974967596413E-002
   1.7221860900543479E-002  -1.1554861743975825E-002   6.1295467028377904E-002
   1.6811626216156443E-002  -1.2507524166858394E-002   5.9675087600413540E-002
   1.6401391531769397E-002  -1.3641759375186687E-002   5.8117836683703336E-002
   1.5991156847382351E-002  -1.4957567368961033E-002   5.6623714278247306E-002
   1.3276074791356431E-002  -8.0878290799020758E-003   6.3673047456828308E-002
   1.2938826158184161E-002  -8.6661463079792389E-003   6.1805852135199679E-002
   1.2601577525011873E-002  -9.3806431251404615E-003   6.0021500404746256E-002
   1.2264328891839595E-002  -1.0231319531386351E-002   5.8319992265468405E-002
   1.1927080258667302E-002  -1.1218175526716556E-002   5.6701327717365690E-002
   8.8853852626766087E-003  -5.3918860532650437E-003   6.4537195757239305E-002
   8.6408377606403269E-003  -5.7774308719824724E-003   6.2531706249561766E-002
   8.3962902586040538E-003  -6.2537620834228133E-003   6.0628775412980819E-002
   8.1517427565677772E-003  -6.8208796875859051E-003   5.8828403247496580E-002
   7.9071952545314954E-003  -7.4787836844720790E-003   5.7130589753108973E-002
   4.4600269988909888E-003  -2.6959430266280532E-003   6.5571419868829153E-002
   4.3278957079119842E-003  -2.8887154359858239E-003   6.3473029371464221E-002
   4.1957644169329684E-003  -3.1268810417049119E-003   6.1496912625117250E-002
   4.0636331259539622E-003  -3.4104398437854863E-003   5.9643069629788409E-002
   3.9315018349749533E-003  -3.7393918422276018E-003   5.7911500385477106E-002
  -3.8163916471489756E-016   9.0483176506950258E-015   6.6775719791597576E-002
  -8.7430063189231078E-016   1.0824674490095276E-014   6.4629821500907070E-002
  -1.3704315460216776E-015   1.2753686995381486E-014   6.2625912041155585E-002
  -1.8682971836270212E-015   1.4845763507409515E-014   6.0763991412343191E-002
  -2.3592239273284576E-015   1.6875389974302379E-014   5.9044059614470124E-002
   1.5991156847382351E-002  -1.4957567368961033E-002   5.6623714278247306E-002
   1.6162262158874549E-002  -1.6578941806813074E-002   5.4708709593784544E-002
   1.6333367470366726E-002  -1.8629876347375812E-002   5.3008589827163499E-002
   1.6504472781858914E-002  -2.1110370990647893E-002   5.1523354978384311E-002
   1.6675578093351129E-002  -2.4020425736630546E-002   5.0253005047446786E-002
   1.1927080258667302E-002  -1.1218175526716556E-002   5.6701327717365690E-002
   1.2248655176572532E-002  -1.2434206355105032E-002   5.4390234216182026E-002
   1.2570230094477768E-002  -1.3972407260526259E-002   5.2165195009983012E-002
   1.2891805012382993E-002  -1.5832778242979621E-002   5.0026210098768120E-002
   1.3213379930288205E-002  -1.8015319302465693E-002   4.7973279482537379E-002
   7.9071952545314954E-003  -7.4787836844720790E-003   5.7130589753108973E-002
   8.2504091559922853E-003  -8.2894709033968783E-003   5.4530797460882213E-002
   8.5936230574530700E-003  -9.3149381736768039E-003   5.1888228840782452E-002
   8.9368369589138373E-003  -1.0555185495311401E-002   4.9202883892809350E-002
   9.2800508603746446E-003  -1.2010212868300951E-002   4.6474762616963206E-002
   3.9315018349749533E-003  -3.7393918422276018E-003   5.7911500385477106E-002
   4.1675240971337964E-003  -4.1447354516887802E-003   5.5130399327884834E-002
   4.4035463592926490E-003  -4.6574690868274107E-003   5.2177691319562042E-002
   4.6395686214514972E-003  -5.2775927476430996E-003   4.9053376360508799E-002
   4.8755908836103506E-003  -6.0051064341361537E-003   4.5757454450724239E-002
  -2.3592239273284576E-015   1.6875389974302379E-014   5.9044059614470124E-002
  -2.9282132274488504E-015   1.9484414082171497E-014   5.6189039817189868E-002
  -3.4798552928094750E-015   2.2204460492503131E-014   5.3033582446321725E-002
  -4.0401709755499837E-015   2.5257573810222311E-014   4.9577687501865336E-002
  -4.6074255521943996E-015   2.8643754035329039E-014   4.5821354983820450E-002
   1.7876325419940997E-015   0.0000000000000000        2.8893229596049858E-002
   1.4667086989383904E-015  -1.1527237497865883E-015   3.3906630301201404E-002
   1.1447006537101956E-015  -1.7624790515924360E-015   3.8945013489031552E-002
   8.2280102869924931E-016  -1.8301332671555315E-015   4.4008379159540298E-002
   5.0090140368830305E-016  -1.3478801408339791E-015   4.9096727312727628E-002
  -6.7509019759220013E-003   0.0000000000000000        2.8945684040942488E-002
  -6.7663207243809052E-003   1.2444104878141151E-004   3.4025081983841826E-002
  -6.7817394728398091E-003   2.8794641555227648E-004   3.9048659947145396E-002
  -6.7971582212987131E-003   4.9051610031259404E-004   4.4016417930853216E-002
  -6.8125769697576187E-003   7.3215010306237199E-004   4.8928355934965251E-002
  -1.3414937641955810E-002   0.0000000000000000        2.9103047375623223E-002
  -1.3526577601147661E-002   2.4888209756397444E-004   3.4287506874259271E-002
  -1.3638217560339515E-002   5.7589283110631370E-004   3.9335343931025189E-002
  -1.3749857519531367E-002   9.8103220062701561E-004   4.4246558545920960E-002
  -1.3861497478723216E-002   1.4643002061260858E-003   4.9021150718946631E-002
  -1.9992106998099640E-002   0.0000000000000000        2.9365319600092071E-002
  -2.0280770630298806E-002   3.7332314634653759E-004   3.4693904972453740E-002
  -2.0569434262497969E-002   8.6383924666035179E-004   3.9805065440670896E-002
  -2.0858097894697128E-002   1.4715483009414367E-003   4.4698801004743570E-002
  -2.1146761526896297E-002   2.1964503091897992E-003   4.9375111664671734E-002
  -2.6482410044353498E-002   0.0000000000000000        2.9732500714349026E-002
  -2.7028899811834338E-002   4.9776419512910161E-004   3.5244276278425211E-002
  -2.7575389579315178E-002   1.1517856622143881E-003   4.0457824476082538E-002
  -2.8121879346796014E-002   1.9620644012558596E-003   4.5373145307321013E-002
  -2.8668369114276851E-002   2.9286004122535195E-003   4.9990238772140622E-002
   5.0090140368830305E-016  -1.3478801408339791E-015   4.9096727312727628E-002
   5.4643789493269423E-016  -7.1644079557842133E-016   5.2421048571703183E-002
   5.9435963095655353E-016  -3.3523531173251797E-016   5.5631761272167186E-002
   6.4152242545967297E-016  -2.1217836515541322E-016   5.8728865414119660E-002
   6.8695049648681561E-016  -3.6082248300317588E-016   6.1712360997560611E-002
  -6.8125769697576187E-003   7.3215010306237199E-004   4.8928355934965251E-002
  -6.8972426331610284E-003   9.7252100669877137E-004   5.2024481291733184E-002
  -6.9819082965644355E-003   1.1713013941190165E-003   5.5064883880205751E-002
  -7.0665739599678427E-003   1.3284912653230602E-003   5.8049563700382945E-002
  -7.1512396233712524E-003   1.4440906203109366E-003   6.0978520752264773E-002
  -1.3861497478723216E-002   1.4643002061260858E-003   4.9021150718946631E-002
  -1.3972943015313922E-002   1.9450420133982791E-003   5.1847489657291017E-002
  -1.4084388551904617E-002   2.3426027882383687E-003   5.4675991617556194E-002
  -1.4195834088495318E-002   2.6569825306463533E-003   5.7506656599742155E-002
  -1.4307279625086019E-002   2.8881812406222201E-003   6.0339484603848928E-002
  -2.1146761526896297E-002   2.1964503091897992E-003   4.9375111664671734E-002
  -2.1227101146458122E-002   2.9175630200977839E-003   5.1890073668376675E-002
  -2.1307440766019956E-002   3.5139041823577344E-003   5.4465084484218544E-002
  -2.1387780385581780E-002   3.9854737959696364E-003   5.7100144112197375E-002
  -2.1468120005143608E-002   4.3322718609335245E-003   5.9795252552313154E-002
  -2.8668369114276851E-002   2.9286004122535195E-003   4.9990238772140622E-002
  -2.8659717026593652E-002   3.8900840267972834E-003   5.2152233324990145E-002
  -2.8651064938910446E-002   4.6852055764770792E-003   5.4432162480192774E-002
  -2.8642412851227237E-002   5.3139650612929277E-003   5.6830026237748549E-002
  -2.8633760763544035E-002   5.7763624812447942E-003   5.9345824597657408E-002
   6.8695049648681561E-016  -3.6082248300317588E-016   6.1712360997560611E-002
   1.0312931064682118E-015  -5.1694759584108851E-016   6.2821064454299039E-002
   1.3756357164496080E-015  -4.8225312632155237E-016   6.4096314681305527E-002
   1.7195446455620100E-015  -2.4546337185071820E-016   6.5538111678580091E-002
   2.0643209364124004E-015   2.0816681711721685E-016   6.7146455446122730E-002
  -7.1512396233712524E-003   1.4440906203109366E-003   6.0978520752264773E-002
  -6.9985002026926877E-003   1.5339592715102601E-003   6.2063681035390117E-002
  -6.8457607820141221E-003   1.6139570313485896E-003   6.3287773389603882E-002
  -6.6930213613355556E-003   1.6840838998260117E-003   6.4650797814906041E-002
  -6.5402819406569918E-003   1.7443398769424745E-003   6.6152754311296580E-002
  -1.4307279625086019E-002   2.8881812406222201E-003   6.0339484603848928E-002
  -1.4029415482908921E-002   3.0679185430209973E-003   6.1391230822000126E-002
  -1.3751551340731820E-002   3.2279140626976736E-003   6.2554294412060035E-002
  -1.3473687198554723E-002   3.3681677996522546E-003   6.3828675374028573E-002
  -1.3195823056377624E-002   3.4886797538847478E-003   6.5214373707905865E-002
  -2.1468120005143608E-002   4.3322718609335245E-003   5.9795252552313154E-002
  -2.1092745840647666E-002   4.6018778145317475E-003   6.0803713814128996E-002
  -2.0717371676151720E-002   4.8418710940467515E-003   6.1895877748673875E-002
  -2.0341997511655774E-002   5.0522516994784905E-003   6.3071744355947715E-002
  -1.9966623347159828E-002   5.2330196308270592E-003   6.4331313635950543E-002
  -2.8633760763544035E-002   5.7763624812447942E-003   5.9345824597657408E-002
  -2.8188491275908938E-002   6.1358370860425081E-003   6.0301130011776762E-002
  -2.7743221788273827E-002   6.4558281253958277E-003   6.1312523399445470E-002
  -2.7297952300638719E-002   6.7363355993047547E-003   6.2380004760663493E-002
  -2.6852682813003612E-002   6.9773595077693151E-003   6.3503574095430809E-002
   2.0643209364124004E-015   2.0816681711721685E-016   6.7146455446122730E-002
   1.4745149545802860E-015   7.1470607210244452E-016   6.7060411457626423E-002
   8.8470897274817162E-016   1.1553258350005535E-015   6.7107332939082637E-002
   2.9663771439203401E-016   1.6210990883003262E-015   6.7287219890491370E-002
  -2.9490299091605721E-016   2.0816681711721685E-015   6.7600072311852555E-002
  -6.5402819406569918E-003   1.7443398769424745E-003   6.6152754311296580E-002
  -6.3917832427454347E-003   1.7991224098112407E-003   6.5966446377131088E-002
  -6.2432845448338759E-003   1.8528289455456773E-003   6.5944170368837415E-002
  -6.0947858469223241E-003   1.9054594841455570E-003   6.6085926286415561E-002
  -5.9462871490107670E-003   1.9570140256111590E-003   6.6391714129865387E-002
  -1.3195823056377624E-002   3.4886797538847478E-003   6.5214373707905865E-002
  -1.2867759204634647E-002   3.5982448196218118E-003   6.4926725830936866E-002
  -1.2539695352891674E-002   3.7056578910900865E-003   6.4834176335758914E-002
  -1.2211631501148699E-002   3.8109189682895340E-003   6.4936725222372010E-002
  -1.1883567649405725E-002   3.9140280512202502E-003   6.5234372490776210E-002
  -1.9966623347159828E-002   5.2330196308270592E-003   6.4331313635950543E-002
  -1.9427927885666163E-002   5.3973672294323882E-003   6.3941249819043644E-002
  -1.8889232424172495E-002   5.5584868366345243E-003   6.3777350839847077E-002
  -1.8350536962678833E-002   5.7163784524335319E-003   6.3839616698360857E-002
  -1.7811841501185168E-002   5.8710420768293761E-003   6.4128047394584914E-002
  -2.6852682813003612E-002   6.9773595077693151E-003   6.3503574095430809E-002
  -2.6072289285839982E-002   7.1964896392429228E-003   6.3010018341451604E-002
  -2.5291895758676353E-002   7.4113157821790038E-003   6.2773693881102016E-002
  -2.4511502231512734E-002   7.6218379365774851E-003   6.2794600714382004E-002
  -2.3731108704349101E-002   7.8280561024384465E-003   6.3072738841291609E-002
  -2.9490299091605721E-016   2.0816681711721685E-015   6.7600072311852555E-002
  -4.1633363423443370E-017   2.4424906541753444E-015   6.7440028635219446E-002
   2.0643209364124004E-016   3.1433189384699745E-015   6.7501565277271317E-002
   4.5709963591988867E-016   3.5891428717960139E-015   6.7784682238008320E-002
   7.0776717819853729E-016   4.2188474935755949E-015   6.8289379517430249E-002
  -5.9462871490107670E-003   1.9570140256111590E-003   6.6391714129865387E-002
  -5.7302958533512740E-003   2.0109267597996777E-003   6.6237984270112113E-002
  -5.5143045576917862E-003   2.0706318765683074E-003   6.6294656682992309E-002
  -5.2983132620323019E-003   2.1361293759171590E-003   6.6561731368505878E-002
  -5.0823219663728124E-003   2.2074192578462881E-003   6.7039208326652971E-002
  -1.1883567649405725E-002   3.9140280512202502E-003   6.5234372490776210E-002
  -1.1462763104138601E-002   4.0218535195967464E-003   6.5092748830482938E-002
  -1.1041958558871462E-002   4.1412637531336345E-003   6.5150349396771431E-002
  -1.0621154013604342E-002   4.2722587518307558E-003   6.5407174189641801E-002
  -1.0200349468337210E-002   4.4148385156883019E-003   6.5863223209094032E-002
  -1.7811841501185168E-002   5.8710420768293761E-003   6.4128047394584914E-002
  -1.7197401752361993E-002   6.0327802793938845E-003   6.4004322316331796E-002
  -1.6582962003538832E-002   6.2118956296988524E-003   6.4068643418608892E-002
  -1.5968522254715654E-002   6.4083881277443664E-003   6.4321010701416229E-002
  -1.5354082505892489E-002   6.6222577735302879E-003   6.4761424164753847E-002
  -2.3731108704349101E-002   7.8280561024384465E-003   6.3072738841291609E-002
  -2.2934211798021478E-002   8.0437070391910365E-003   6.2972704727658729E-002
  -2.2137314891693873E-002   8.2825275062641743E-003   6.3049538748504483E-002
  -2.1340417985366261E-002   8.5445175036579762E-003   6.3303240903828883E-002
  -2.0543521079038646E-002   8.8296770313723849E-003   6.3733811193631973E-002
   7.0776717819853729E-016   4.2188474935755949E-015   6.8289379517430249E-002
   4.3021142204224816E-016   4.9960036108132044E-015   6.7690799148921954E-002
   1.6306400674181987E-016   6.0090821207836598E-015   6.7238995738446994E-002
  -1.0581813203458523E-016   7.4142081363248735E-015   6.6933969286005604E-002
  -3.8163916471489756E-016   9.0483176506950258E-015   6.6775719791597576E-002
  -5.0823219663728124E-003   2.2074192578462881E-003   6.7039208326652971E-002
  -4.9267482245025527E-003   2.2935915483106306E-003   6.6425705423636100E-002
  -4.7711744826322965E-003   2.4037362732652751E-003   6.5976573046326870E-002
  -4.6156007407620343E-003   2.5378534327104123E-003   6.5691811194725114E-002
  -4.4600269988917876E-003   2.6959430266457196E-003   6.5571419868831193E-002
  -1.0200349468337210E-002   4.4148385156883019E-003   6.5863223209094032E-002
  -9.8716084169222645E-003   4.5871830966162652E-003   6.5258770206058789E-002
  -9.5428673655073327E-003   4.8074725465245341E-003   6.4836281296405257E-002
  -9.2141263140923975E-003   5.0757068654132976E-003   6.4595756480133618E-002
  -8.8853852626774484E-003   5.3918860532824187E-003   6.4537195757243523E-002
  -1.5354082505892489E-002   6.6222577735302879E-003   6.4761424164753847E-002
  -1.4834580577258720E-002   6.8807746449217888E-003   6.4189993496190173E-002
  -1.4315078648624953E-002   7.2112088197838244E-003   6.3818120488682434E-002
  -1.3795576719991175E-002   7.6135602981161838E-003   6.3645805142230533E-002
  -1.3276074791357409E-002   8.0878290799191316E-003   6.3673047456834719E-002
  -2.0543521079038646E-002   8.8296770313723849E-003   6.3733811193631973E-002
  -1.9815664705511885E-002   9.1743661932273957E-003   6.3219375294030045E-002
  -1.9087808331985139E-002   9.6149450930430452E-003   6.2922090623158178E-002
  -1.8359951958458392E-002   1.0151413730819066E-002   6.2841957181016442E-002
  -1.7632095584931638E-002   1.0783772106555789E-002   6.2978974967604684E-002
  -3.8163916471489756E-016   9.0483176506950258E-015   6.6775719791597576E-002
  -8.7430063189231078E-016   1.0824674490095276E-014   6.4629821500907070E-002
  -1.3704315460216776E-015   1.2753686995381486E-014   6.2625912041155585E-002
  -1.8682971836270212E-015   1.4845763507409515E-014   6.0763991412343191E-002
  -2.3592239273284576E-015   1.6875389974302379E-014   5.9044059614470124E-002
  -4.4600269988917876E-003   2.6959430266457196E-003   6.5571419868831193E-002
  -4.3278957079137970E-003   2.8887154360070499E-003   6.3473029371466427E-002
  -4.1957644169358082E-003   3.1268810417301035E-003   6.1496912625119554E-002
  -4.0636331259578254E-003   3.4104398438145368E-003   5.9643069629790560E-002
  -3.9315018349798357E-003   3.7393918422605754E-003   5.7911500385479209E-002
  -8.8853852626774484E-003   5.3918860532824187E-003   6.4537195757243523E-002
  -8.6408377606423167E-003   5.7774308720033030E-003   6.2531706249566263E-002
  -8.3962902586071746E-003   6.2537620834472382E-003   6.0628775412985371E-002
  -8.1517427565720394E-003   6.8208796876141186E-003   5.8828403247500952E-002
  -7.9071952545369025E-003   7.4787836845041644E-003   5.7130589753113137E-002
  -1.3276074791357409E-002   8.0878290799191316E-003   6.3673047456834719E-002
  -1.2938826158186442E-002   8.6661463079994588E-003   6.1805852135206188E-002
  -1.2601577525015478E-002   9.3806431251645638E-003   6.0021500404752806E-002
  -1.2264328891844522E-002   1.0231319531413978E-002   5.8319992265474595E-002
  -1.1927080258673534E-002   1.1218175526747864E-002   5.6701327717371575E-002
  -1.7632095584931638E-002   1.0783772106555789E-002   6.2978974967604684E-002
  -1.7221860900546181E-002   1.1554861743995726E-002   6.1295467028386508E-002
  -1.6811626216160711E-002   1.2507524166881681E-002   5.9675087600422089E-002
  -1.6401391531775243E-002   1.3641759375213409E-002   5.8117836683711496E-002
  -1.5991156847389783E-002   1.4957567368991398E-002   5.6623714278254800E-002
  -2.3592239273284576E-015   1.6875389974302379E-014   5.9044059614470124E-002
  -2.9282132274488504E-015   1.9484414082171497E-014   5.6189039817189868E-002
  -3.4798552928094750E-015   2.2204460492503131E-014   5.3033582446321725E-002
  -4.0401709755499837E-015   2.5257573810222311E-014   4.9577687501865336E-002
  -4.6074255521943996E-015   2.8643754035329039E-014   4.5821354983820450E-002
  -3.9315018349798357E-003   3.7393918422605754E-003   5.7911500385479209E-002
  -4.1675240971399598E-003   4.1447354517265000E-003   5.5130399327887269E-002
  -4.4035463593000892E-003   4.6574690868702029E-003   5.2177691319564345E-002
  -4.6395686214602107E-003   5.2775927476921697E-003   4.9053376360510381E-002
  -4.8755908836203427E-003   6.0051064341918314E-003   4.5757454450725543E-002
  -7.9071952545369025E-003   7.4787836845041644E-003   5.7130589753113137E-002
  -8.2504091559994098E-003   8.2894709034335434E-003   5.4530797460886959E-002
  -8.5936230574619361E-003   9.3149381737184234E-003   5.1888228840786949E-002
  -8.9368369589244538E-003   1.0555185495358915E-002   4.9202883892813368E-002
  -9.2800508603869576E-003   1.2010212868355130E-002   4.6474762616965704E-002
  -1.1927080258673534E-002   1.1218175526747864E-002   5.6701327717371575E-002
  -1.2248655176581269E-002   1.2434206355140684E-002   5.4390234216188951E-002
  -1.2570230094488998E-002   1.3972407260566588E-002   5.2165195009989548E-002
  -1.2891805012396715E-002   1.5832778243025911E-002   5.0026210098773553E-002
  -1.3213379930304447E-002   1.8015319302518373E-002   4.7973279482541084E-002
  -1.5991156847389783E-002   1.4957567368991398E-002   5.6623714278254800E-002
  -1.6162262158885547E-002   1.6578941806847769E-002   5.4708709593793148E-002
  -1.6333367470381301E-002   1.8629876347414739E-002   5.3008589827172076E-002
  -1.6504472781877055E-002   2.1110370990692680E-002   5.1523354978391375E-002
  -1.6675578093372820E-002   2.4020425736681617E-002   5.0253005047451449E-002
  -2.6482410044353498E-002   0.0000000000000000        2.9732500714349026E-002
  -2.7028899811834338E-002   4.9776419512910161E-004   3.5244276278425211E-002
  -2.7575389579315178E-002   1.1517856622143881E-003   4.0457824476082538E-002
  -2.8121879346796014E-002   1.9620644012558596E-003   4.5373145307321013E-002
  -2.8668369114276851E-002   2.9286004122535195E-003   4.9990238772140622E-002
  -3.3226565113320269E-002   0.0000000000000000        3.0349809979663446E-002
  -3.4008394451343009E-002   8.7049739280589851E-004   3.5463546041606932E-002
  -3.4790223789365755E-002   1.8520236282679355E-003   4.0404830328885470E-002
  -3.5572053127388495E-002   2.9445787063861160E-003   4.5173662841499075E-002
  -3.6353882465411227E-002   4.1481626271604316E-003   4.9770043579447698E-002
  -4.0565290537602855E-002   0.0000000000000000        3.1362466657304688E-002
  -4.1456683854413583E-002   1.2432305904826963E-003   3.6032934787815440E-002
  -4.2348077171224324E-002   2.5522615943214871E-003   4.0656726735415150E-002
  -4.3239470488035059E-002   3.9270930115163733E-003   4.5233842500103823E-002
  -4.4130863804845787E-002   5.3677248420673472E-003   4.9764282081881467E-002
  -4.8498586317201262E-002   0.0000000000000000        3.2770470747272740E-002
  -4.9373768021046066E-002   1.6159637881594958E-003   3.6952442517050696E-002
  -5.0248949724890871E-002   3.2524995603750405E-003   4.1213513695671534E-002
  -5.1124131428735689E-002   4.9096073166466272E-003   4.5553684283135248E-002
  -5.1999313132580501E-002   6.5872870569742680E-003   4.9972954279441831E-002
  -5.7026452452115475E-002   0.0000000000000000        3.4573822249567621E-002
  -5.7759646951240445E-002   1.9886969858362918E-003   3.8222069229312747E-002
  -5.8492841450365429E-002   3.9527375264285878E-003   4.2075191209654667E-002
  -5.9226035949490406E-002   5.8921216217768854E-003   4.6133188190593380E-002
  -5.9959230448615383E-002   7.8068492718811784E-003   5.0396060172128873E-002
  -2.8668369114276851E-002   2.9286004122535195E-003   4.9990238772140622E-002
  -2.8659717026593652E-002   3.8900840267972834E-003   5.2152233324990145E-002
  -2.8651064938910446E-002   4.6852055764770792E-003   5.4432162480192774E-002
  -2.8642412851227237E-002   5.3139650612929277E-003   5.6830026237748549E-002
  -2.8633760763544035E-002   5.7763624812447942E-003   5.9345824597657408E-002
  -3.6353882465411227E-002   4.1481626271604316E-003   4.9770043579447698E-002
  -3.6269328896324483E-002   5.3197503666262951E-003   5.1627845387979009E-002
  -3.6184775327237725E-002   6.3163169008191421E-003   5.3519515556964284E-002
  -3.6100221758150974E-002   7.1378622297389258E-003   5.5445054086403572E-002
  -3.6015668189064216E-002   7.7843863533856791E-003   5.7404460976296812E-002
  -4.4130863804845787E-002   5.3677248420673472E-003   4.9764282081881467E-002
  -4.4054474996254603E-002   6.7494167064553164E-003   5.1309232005685455E-002
  -4.3978086187663426E-002   7.9474282251611773E-003   5.2803984048044303E-002
  -4.3901697379072249E-002   8.9617593981849326E-003   5.4248538208957989E-002
  -4.3825308570481079E-002   9.7924102255265676E-003   5.5642894488426561E-002
  -5.1999313132580501E-002   6.5872870569742680E-003   4.9972954279441831E-002
  -5.2015155326384024E-002   8.1790830462843394E-003   5.1196393178109444E-002
  -5.2030997520187562E-002   9.5785395495032333E-003   5.2285567953432775E-002
  -5.2046839713991086E-002   1.0785656566630943E-002   5.3240478605411867E-002
  -5.2062681907794631E-002   1.1800434097667468E-002   5.4061125134046643E-002
  -5.9959230448615383E-002   7.8068492718811784E-003   5.0396060172128873E-002
  -6.0151369886712748E-002   9.6087493861133511E-003   5.1289328905251036E-002
  -6.0343509324810113E-002   1.1209650873845275E-002   5.1964267273129777E-002
  -6.0535648762907478E-002   1.2609553735076943E-002   5.2420875275765166E-002
  -6.0727788201004843E-002   1.3808457969808334E-002   5.2659152913157099E-002
  -2.8633760763544035E-002   5.7763624812447942E-003   5.9345824597657408E-002
  -2.8188491275908938E-002   6.1358370860425081E-003   6.0301130011776762E-002
  -2.7743221788273827E-002   6.4558281253958277E-003   6.1312523399445470E-002
  -2.7297952300638719E-002   6.7363355993047547E-003   6.2380004760663493E-002
  -2.6852682813003612E-002   6.9773595077693151E-003   6.3503574095430809E-002
  -3.6015668189064216E-002   7.7843863533856791E-003   5.7404460976296812E-002
  -3.5463516035531592E-002   8.2855937329380756E-003   5.7905280202687703E-002
  -3.4911363881998961E-002   8.6711888295749311E-003   5.8563776787324301E-002
  -3.4359211728466330E-002   8.9411716432960531E-003   5.9379950730206688E-002
  -3.3807059574933705E-002   9.0955421741015646E-003   6.0353802031334766E-002
  -4.3825308570481079E-002   9.7924102255265676E-003   5.5642894488426561E-002
  -4.3064684366354522E-002   1.0435350379833714E-002   5.5613098809617734E-002
  -4.2304060162227951E-002   1.0886549533753995E-002   5.5842569873751025E-002
  -4.1543435958101387E-002   1.1146007687287379E-002   5.6331307680826448E-002
  -4.0782811753974829E-002   1.1213724840433884E-002   5.7079312230844059E-002
  -5.2062681907794631E-002   1.1800434097667468E-002   5.4061125134046643E-002
  -5.0991996268377700E-002   1.2585107026729325E-002   5.3424585832566832E-002
  -4.9921310628960804E-002   1.3101910237933063E-002   5.3148902658725579E-002
  -4.8850624989543900E-002   1.3350843731278692E-002   5.3234075612522885E-002
  -4.7779939350126983E-002   1.3331907506766182E-002   5.3680104693958688E-002
  -6.0727788201004843E-002   1.3808457969808334E-002   5.2659152913157099E-002
  -5.9245451741601174E-002   1.4734863673624927E-002   5.1339741271535039E-002
  -5.7763115282197512E-002   1.5317270942112151E-002   5.0482775142247985E-002
  -5.6280778822793823E-002   1.5555679775270002E-002   5.0088254525295868E-002
  -5.4798442363390175E-002   1.5450090173098452E-002   5.0156179420678709E-002
  -2.6852682813003612E-002   6.9773595077693151E-003   6.3503574095430809E-002
  -2.6072289285839982E-002   7.1964896392429228E-003   6.3010018341451604E-002
  -2.5291895758676353E-002   7.4113157821790038E-003   6.2773693881102016E-002
  -2.4511502231512734E-002   7.6218379365774851E-003   6.2794600714382004E-002
  -2.3731108704349101E-002   7.8280561024384465E-003   6.3072738841291609E-002
  -3.3807059574933705E-002   9.0955421741015646E-003   6.0353802031334766E-002
  -3.2782063194848055E-002   9.2108952409886702E-003   5.9842879102807542E-002
  -3.1757066814762390E-002   9.3638256629545204E-003   5.9563930586494791E-002
  -3.0732070434676736E-002   9.5543334399990562E-003   5.9516956482396507E-002
  -2.9707074054591096E-002   9.7824185721223367E-003   5.9701956790512697E-002
  -4.0782811753974829E-002   1.1213724840433884E-002   5.7079312230844059E-002
  -3.9538469402382308E-002   1.1225300842734466E-002   5.6592903471385111E-002
  -3.8294127050789772E-002   1.1316335543730065E-002   5.6313212242725473E-002
  -3.7049784699197230E-002   1.1486828943420643E-002   5.6240238544865109E-002
  -3.5805442347604695E-002   1.1736781041806241E-002   5.6373982377804090E-002
  -4.7779939350126983E-002   1.3331907506766182E-002   5.3680104693958688E-002
  -4.6341507908442714E-002   1.3239706444480279E-002   5.3260091447184271E-002
  -4.4903076466758458E-002   1.3268845424505595E-002   5.3021538849794062E-002
  -4.3464645025074189E-002   1.3419324446842223E-002   5.2964446901787920E-002
  -4.2026213583389933E-002   1.3691143511490110E-002   5.3088815603166001E-002
  -5.4798442363390175E-002   1.5450090173098452E-002   5.0156179420678709E-002
  -5.3191178713029336E-002   1.5254112046225995E-002   4.9844443030205104E-002
  -5.1583915062668476E-002   1.5221355305281174E-002   4.9688910407700515E-002
  -4.9976651412307636E-002   1.5351819950263855E-002   4.9689581553164934E-002
  -4.8369387761946783E-002   1.5645505981174007E-002   4.9846456466598327E-002
  -2.3731108704349101E-002   7.8280561024384465E-003   6.3072738841291609E-002
  -2.2934211798021478E-002   8.0437070391910365E-003   6.2972704727658729E-002
  -2.2137314891693873E-002   8.2825275062641743E-003   6.3049538748504483E-002
  -2.1340417985366261E-002   8.5445175036579762E-003   6.3303240903828883E-002
  -2.0543521079038646E-002   8.8296770313723849E-003   6.3733811193631973E-002
  -2.9707074054591096E-002   9.7824185721223367E-003   5.9701956790512697E-002
  -2.8724212511547182E-002   1.0030948789571947E-002   5.9501857409293007E-002
  -2.7741350968503265E-002   1.0282791822595332E-002   5.9496819167027322E-002
  -2.6758489425459355E-002   1.0537947671192606E-002   5.9686842063715648E-002
  -2.5775627882415442E-002   1.0796416335363657E-002   6.0071926099357881E-002
  -3.5805442347604695E-002   1.1736781041806241E-002   5.6373982377804090E-002
  -3.4618423163369189E-002   1.2018190539952893E-002   5.6053961014250968E-002
  -3.3431403979133661E-002   1.2283056138926465E-002   5.5947193794127076E-002
  -3.2244384794898134E-002   1.2531377838727237E-002   5.6053680717432414E-002
  -3.1057365610662611E-002   1.2763155639354928E-002   5.6373421784167058E-002
  -4.2026213583389933E-002   1.3691143511490110E-002   5.3088815603166001E-002
  -4.0616843753487494E-002   1.4005432290333793E-002   5.2629015542532485E-002
  -3.9207473923585069E-002   1.4283320455257693E-002   5.2400662629803620E-002
  -3.7798104093682623E-002   1.4524808006261866E-002   5.2403756864979278E-002
  -3.6388734263780198E-002   1.4729894943346256E-002   5.2638298248059476E-002
  -4.8369387761946783E-002   1.5645505981174007E-002   4.9846456466598327E-002
  -4.6719474281902137E-002   1.5992674040714749E-002   4.9227020994137782E-002
  -4.5069560801857478E-002   1.6283584771588804E-002   4.8857225674057023E-002
  -4.3419647321812811E-002   1.6518238173796454E-002   4.8737070506356249E-002
  -4.1769733841768172E-002   1.6696634247337472E-002   4.8866555491035246E-002
  -2.0543521079038646E-002   8.8296770313723849E-003   6.3733811193631973E-002
  -1.9815664705511885E-002   9.1743661932273957E-003   6.3219375294030045E-002
  -1.9087808331985139E-002   9.6149450930430452E-003   6.2922090623158178E-002
  -1.8359951958458392E-002   1.0151413730819066E-002   6.2841957181016442E-002
  -1.7632095584931638E-002   1.0783772106555789E-002   6.2978974967604684E-002
  -2.5775627882415442E-002   1.0796416335363657E-002   6.0071926099357881E-002
  -2.4827724746590271E-002   1.1119101405914572E-002   5.9621259676027244E-002
  -2.3879821610765118E-002   1.1566906473651981E-002   5.9393535548563373E-002
  -2.2931918474939965E-002   1.2139831538575060E-002   5.9388753716966343E-002
  -2.1984015339114822E-002   1.2837876600684417E-002   5.9606914181235926E-002
  -3.1057365610662611E-002   1.2763155639354928E-002   5.6373421784167058E-002
  -2.9883624645402358E-002   1.3063836618601984E-002   5.6015755096333289E-002
  -2.8709883680142094E-002   1.3518867854260812E-002   5.5886821771502913E-002
  -2.7536142714881848E-002   1.4128249346330999E-002   5.5986621809676007E-002
  -2.6362401749621612E-002   1.4891981094813045E-002   5.6315155210852605E-002
  -3.6388734263780198E-002   1.4729894943346256E-002   5.2638298248059476E-002
  -3.4983364401948144E-002   1.5008571831289390E-002   5.2402861554948110E-002
  -3.3577994540116077E-002   1.5470829234869640E-002   5.2401949291976724E-002
  -3.2172624678284023E-002   1.6116667154087078E-002   5.2635561459145573E-002
  -3.0767254816451955E-002   1.6946085588941673E-002   5.3103698056454568E-002
  -4.1769733841768172E-002   1.6696634247337472E-002   4.8866555491035246E-002
  -4.0126944016227586E-002   1.6953307043976601E-002   4.8782579051871694E-002
  -3.8484154190687063E-002   1.7422790615478551E-002   4.8938918109984908E-002
  -3.6841364365146512E-002   1.8105084961843008E-002   4.9335572665375069E-002
  -3.5198574539605967E-002   1.9000190083070245E-002   4.9972542718042079E-002
  -1.7632095584931638E-002   1.0783772106555789E-002   6.2978974967604684E-002
  -1.7221860900546181E-002   1.1554861743995726E-002   6.1295467028386508E-002
  -1.6811626216160711E-002   1.2507524166881681E-002   5.9675087600422089E-002
  -1.6401391531775243E-002   1.3641759375213409E-002   5.8117836683711496E-002
  -1.5991156847389783E-002   1.4957567368991398E-002   5.6623714278254800E-002
  -2.1984015339114822E-002   1.2837876600684417E-002   5.9606914181235926E-002
  -2.1487931121659969E-002   1.3743562387981134E-002   5.8155527726827000E-002
  -2.0991846904205167E-002   1.4939409628467015E-002   5.6812711827303103E-002
  -2.0495762686750317E-002   1.6425418322141630E-002   5.5578466482664096E-002
  -1.9999678469295512E-002   1.8201588469005270E-002   5.4452791692910008E-002
  -2.6362401749621612E-002   1.4891981094813045E-002   5.6315155210852605E-002
  -2.5735025955466343E-002   1.5932263031966681E-002   5.5204478908996046E-002
  -2.5107650161311106E-002   1.7371295090052342E-002   5.4247815205655421E-002
  -2.4480274367155851E-002   1.9209077269069737E-002   5.3445164100830680E-002
  -2.3852898573000603E-002   2.1445609569019169E-002   5.2796525594522067E-002
  -3.0767254816451955E-002   1.6946085588941673E-002   5.3103698056454568E-002
  -2.9963145401965253E-002   1.8120963675952159E-002   5.2442320574893356E-002
  -2.9159035987478543E-002   1.9803180551637756E-002   5.1980397735479154E-002
  -2.8354926572991820E-002   2.1992736215997958E-002   5.1717929538211894E-002
  -2.7550817158505096E-002   2.4689630669033055E-002   5.1654915983091687E-002
  -3.5198574539605967E-002   1.9000190083070245E-002   4.9972542718042079E-002
  -3.4172289461156732E-002   2.0309664319937637E-002   4.9869052724519025E-002
  -3.3146004382707477E-002   2.2235066013222948E-002   5.0010459416774122E-002
  -3.2119719304258221E-002   2.4776395162925971E-002   5.0396762794807259E-002
  -3.1093434225808986E-002   2.7933651769046886E-002   5.1027962858618492E-002
  -1.5991156847389783E-002   1.4957567368991398E-002   5.6623714278254800E-002
  -1.6162262158885547E-002   1.6578941806847769E-002   5.4708709593793148E-002
  -1.6333367470381301E-002   1.8629876347414739E-002   5.3008589827172076E-002
  -1.6504472781877055E-002   2.1110370990692680E-002   5.1523354978391375E-002
  -1.6675578093372820E-002   2.4020425736681617E-002   5.0253005047451449E-002
  -1.9999678469295512E-002   1.8201588469005270E-002   5.4452791692910008E-002
  -2.0074377777302827E-002   2.0278800052555057E-002   5.2945350373743816E-002
  -2.0149077085310108E-002   2.2667933056288322E-002   5.1415836143714089E-002
  -2.0223776393317402E-002   2.5368987480204965E-002   4.9864249002820923E-002
  -2.0298475701324710E-002   2.8381963324305204E-002   4.8290588951063973E-002
  -2.3852898573000603E-002   2.1445609569019169E-002   5.2796525594522067E-002
  -2.4068149706223653E-002   2.3978658298262595E-002   5.1579008958124353E-002
  -2.4283400839446648E-002   2.6705989765161857E-002   5.0102461582158801E-002
  -2.4498651972669649E-002   2.9627603969717364E-002   4.8366883466625293E-002
  -2.4713903105892693E-002   3.2743500911928791E-002   4.6372274611524267E-002
  -2.7550817158505096E-002   2.4689630669033055E-002   5.1654915983091687E-002
  -2.8143577945648056E-002   2.7678516543969953E-002   5.0609685346934732E-002
  -2.8736338732790974E-002   3.0744046474035305E-002   4.9068466142505832E-002
  -2.9329099519933951E-002   3.3886220459229649E-002   4.7031258369804887E-002
  -2.9921860307076852E-002   3.7105038499552268E-002   4.4498062028831803E-002
  -3.1093434225808986E-002   2.7933651769046886E-002   5.1027962858618492E-002
  -3.2300662495576019E-002   3.1378374789677421E-002   5.0037379540174898E-002
  -3.3507890765343079E-002   3.4782103182908905E-002   4.8313849824755367E-002
  -3.4715119035110112E-002   3.8144836948741975E-002   4.5857373712359276E-002
  -3.5922347304877145E-002   4.1466576087175966E-002   4.2667951202987497E-002
  -5.7026452452115475E-002   0.0000000000000000        3.4573822249567621E-002
  -5.7759646951240445E-002   1.9886969858362918E-003   3.8222069229312747E-002
  -5.8492841450365429E-002   3.9527375264285878E-003   4.2075191209654667E-002
  -5.9226035949490406E-002   5.8921216217768854E-003   4.6133188190593380E-002
  -5.9959230448615383E-002   7.8068492718811784E-003   5.0396060172128873E-002
  -6.5734281346108162E-002   0.0000000000000000        3.7008929394589316E-002
  -6.6492277891970528E-002   2.8416802811971334E-003   4.0622307141149179E-002
  -6.7250274437832908E-002   5.6283429616183767E-003   4.3981205793637464E-002
  -6.8008270983695274E-002   8.3599880412637238E-003   4.7085625352054190E-002
  -6.8766267529557626E-002   1.1036615520133176E-002   4.9935565816399331E-002
  -7.4207465402941986E-002   0.0000000000000000        4.0312200412737781E-002
  -7.5449618090210127E-002   3.6946635765579753E-003   4.3860347770580496E-002
  -7.6691770777478241E-002   7.3039483968081655E-003   4.6694661939683281E-002
  -7.7933923464746369E-002   1.0827854460750564E-002   4.8815142920046108E-002
  -7.9176076152014496E-002   1.4266381768385171E-002   5.0221790711669011E-002
  -8.2446004622616934E-002   0.0000000000000000        4.4483635304013051E-002
  -8.4631667545959174E-002   4.5476468719188156E-003   4.7936191117606712E-002
  -8.6817330469301429E-002   8.9795538319979509E-003   5.0215559647792077E-002
  -8.9002993392643684E-002   1.3295720880237397E-002   5.1321740894569132E-002
  -9.1188656315985911E-002   1.7496148016637174E-002   5.1254734857937891E-002
  -9.0449899005133033E-002   0.0000000000000000        4.9523234068415106E-002
  -9.4038426259217767E-002   5.4006301672796589E-003   5.2849837182227827E-002
  -9.7626953513302472E-002   1.0655159267187743E-002   5.4543898917963879E-002
 -0.10121548076738722        1.5763587299724241E-002   5.4605419275623263E-002
 -0.10480400802147193        2.0725914264889157E-002   5.3034398255205992E-002
  -5.9959230448615383E-002   7.8068492718811784E-003   5.0396060172128873E-002
  -6.0151369886712748E-002   9.6087493861133511E-003   5.1289328905251036E-002
  -6.0343509324810113E-002   1.1209650873845275E-002   5.1964267273129777E-002
  -6.0535648762907478E-002   1.2609553735076943E-002   5.2420875275765166E-002
  -6.0727788201004843E-002   1.3808457969808334E-002   5.2659152913157099E-002
  -6.8766267529557626E-002   1.1036615520133176E-002   4.9935565816399331E-002
  -6.8944279319237259E-002   1.3414898783483608E-002   4.9087186293286851E-002
  -6.9122291108916878E-002   1.5251511216571891E-002   4.8485392432253256E-002
  -6.9300302898596483E-002   1.6546452819398021E-002   4.8130184233298574E-002
  -6.9478314688276116E-002   1.7299723591962024E-002   4.8021561696422764E-002
  -7.9176076152014496E-002   1.4266381768385171E-002   5.0221790711669011E-002
  -7.8875044265954070E-002   1.7221048180853862E-002   4.7291090728559991E-002
  -7.8574012379893643E-002   1.9293371559298521E-002   4.5071892434852164E-002
  -7.8272980493833202E-002   2.0483351903719110E-002   4.3564195830545514E-002
  -7.7971948607772762E-002   2.0790989214115690E-002   4.2768000915640078E-002
  -9.1188656315985911E-002   1.7496148016637174E-002   5.1254734857937891E-002
  -8.9943664726863146E-002   2.1027197578224129E-002   4.5901042211070428E-002
  -8.8698673137740394E-002   2.3335231902025150E-002   4.1723767280926458E-002
  -8.7453681548617629E-002   2.4420250988040241E-002   3.8722910067506014E-002
  -8.6208689959494864E-002   2.4282254836269349E-002   3.6898470570809000E-002
 -0.10480400802147193        2.0725914264889157E-002   5.3034398255205992E-002
 -0.10215014070196456        2.4833346975594368E-002   4.4917040740818211E-002
  -9.9496273382457159E-002   2.7377092244751766E-002   3.8441016970476242E-002
  -9.6842406062949735E-002   2.8357150072361288E-002   3.3606326944180018E-002
  -9.4188538743442352E-002   2.7773520458423039E-002   3.0412970661929599E-002
  -6.0727788201004843E-002   1.3808457969808334E-002   5.2659152913157099E-002
  -5.9245451741601174E-002   1.4734863673624927E-002   5.1339741271535039E-002
  -5.7763115282197512E-002   1.5317270942112151E-002   5.0482775142247985E-002
  -5.6280778822793823E-002   1.5555679775270002E-002   5.0088254525295868E-002
  -5.4798442363390175E-002   1.5450090173098452E-002   5.0156179420678709E-002
  -6.9478314688276116E-002   1.7299723591962024E-002   4.8021561696422764E-002
  -6.7589784513099271E-002   1.7684346082753273E-002   4.6632978741707153E-002
  -6.5701254337922455E-002   1.7873342840261201E-002   4.5594337706202942E-002
  -6.3812724162745638E-002   1.7866713864485816E-002   4.4905638589910056E-002
  -6.1924193987568793E-002   1.7664459155427081E-002   4.4566881392828522E-002
  -7.7971948607772762E-002   2.0790989214115690E-002   4.2768000915640078E-002
  -7.5789728309946403E-002   2.0633828491881601E-002   4.1458619349876984E-002
  -7.3607508012120015E-002   2.0429414738410253E-002   4.0386676110201615E-002
  -7.1425287714293656E-002   2.0177747953701641E-002   3.9552171196614042E-002
  -6.9243067416467297E-002   1.9878828137755739E-002   3.8955104609114145E-002
  -8.6208689959494864E-002   2.4282254836269349E-002   3.6898470570809000E-002
  -8.3845283132142553E-002   2.3583310901009964E-002   3.5816663096044490E-002
  -8.1481876304790229E-002   2.2985486636559273E-002   3.4859790354244052E-002
  -7.9118469477437947E-002   2.2488782042917488E-002   3.4027852345407811E-002
  -7.6755062650085595E-002   2.2093197120084368E-002   3.3320849069535717E-002
  -9.4188538743442352E-002   2.7773520458423039E-002   3.0412970661929599E-002
  -9.1756448979687710E-002   2.6532793310138282E-002   2.9707109980209701E-002
  -8.9324359215933069E-002   2.5541558534708346E-002   2.9013680438330244E-002
  -8.6892269452178414E-002   2.4799816132133275E-002   2.8332682036291343E-002
  -8.4460179688423773E-002   2.4307566102412997E-002   2.7664114774093002E-002
  -5.4798442363390175E-002   1.5450090173098452E-002   5.0156179420678709E-002
  -5.3191178713029336E-002   1.5254112046225995E-002   4.9844443030205104E-002
  -5.1583915062668476E-002   1.5221355305281174E-002   4.9688910407700515E-002
  -4.9976651412307636E-002   1.5351819950263855E-002   4.9689581553164934E-002
  -4.8369387761946783E-002   1.5645505981174007E-002   4.9846456466598327E-002
  -6.1924193987568793E-002   1.7664459155427081E-002   4.4566881392828522E-002
  -6.0137780918138262E-002   1.7433309784680454E-002   4.4235497746653210E-002
  -5.8351367848707703E-002   1.7339996823841124E-002   4.4106209170648301E-002
  -5.6564954779277157E-002   1.7384520272909265E-002   4.4179015664813776E-002
  -5.4778541709846612E-002   1.7566880131884677E-002   4.4453917229149625E-002
  -6.9243067416467297E-002   1.9878828137755739E-002   3.8955104609114145E-002
  -6.7231613625765657E-002   1.9612507523134835E-002   3.8578688731216997E-002
  -6.5220159835064032E-002   1.9458638342401104E-002   3.8450259225691563E-002
  -6.3208706044362420E-002   1.9417220595554646E-002   3.8569816092537963E-002
  -6.1197252253660836E-002   1.9488254282595333E-002   3.8937359331756009E-002
  -7.6755062650085595E-002   2.2093197120084368E-002   3.3320849069535717E-002
  -7.4472676835911536E-002   2.1791705261589214E-002   3.2874015983896443E-002
  -7.2190291021737435E-002   2.1577279860961127E-002   3.2721060572830356E-002
  -6.9907905207563389E-002   2.1449920918200041E-002   3.2861982836337449E-002
  -6.7625519393389275E-002   2.1409628433306009E-002   3.3296782774417680E-002
  -8.4460179688423773E-002   2.4307566102412997E-002   2.7664114774093002E-002
  -8.1860970548575884E-002   2.3970903000043661E-002   2.7121479504691598E-002
  -7.9261761408727954E-002   2.3695921379521027E-002   2.6918613212064624E-002
  -7.6662552268880052E-002   2.3482621240845492E-002   2.7055515896212329E-002
  -7.4063343129032122E-002   2.3331002584016658E-002   2.7532187557134435E-002
  -4.8369387761946783E-002   1.5645505981174007E-002   4.9846456466598327E-002
  -4.6719474281902137E-002   1.5992674040714749E-002   4.9227020994137782E-002
  -4.5069560801857478E-002   1.6283584771588804E-002   4.8857225674057023E-002
  -4.3419647321812811E-002   1.6518238173796454E-002   4.8737070506356249E-002
  -4.1769733841768172E-002   1.6696634247337472E-002   4.8866555491035246E-002
  -5.4778541709846612E-002   1.7566880131884677E-002   4.4453917229149625E-002
  -5.2901987020533503E-002   1.7803124002949824E-002   4.3758763360465969E-002
  -5.1025432331220422E-002   1.8009299488286758E-002   4.3267251757939301E-002
  -4.9148877641907313E-002   1.8185406587895574E-002   4.2979382421569665E-002
  -4.7272322952594197E-002   1.8331445301776411E-002   4.2895155351356989E-002
  -6.1197252253660836E-002   1.9488254282595333E-002   3.8937359331756009E-002
  -5.9140054241302101E-002   1.9613573965184788E-002   3.8192676009787728E-002
  -5.7082856228943414E-002   1.9735014204984604E-002   3.7605637067753578E-002
  -5.5025658216584727E-002   1.9852575001994700E-002   3.7176242505653559E-002
  -5.2968460204226048E-002   1.9966256356215184E-002   3.6904492323487775E-002
  -6.7625519393389275E-002   2.1409628433306009E-002   3.3296782774417680E-002
  -6.5433675944207847E-002   2.1424023927419836E-002   3.2528758942103060E-002
  -6.3241832495026448E-002   2.1460728921682465E-002   3.1872381603499915E-002
  -6.1049989045845063E-002   2.1519743416093823E-002   3.1327650758607890E-002
  -5.8858145596663580E-002   2.1601067410654040E-002   3.0894566407427194E-002
  -7.4063343129032122E-002   2.3331002584016658E-002   2.7532187557134435E-002
  -7.1782852129250840E-002   2.3234473889654855E-002   2.6767012157412173E-002
  -6.9502361129469545E-002   2.3186443638380405E-002   2.6067485365178250E-002
  -6.7221870129688277E-002   2.3186911830192974E-002   2.5433607180432818E-002
  -6.4941379129906968E-002   2.3235878465092841E-002   2.4865377603175753E-002
  -4.1769733841768172E-002   1.6696634247337472E-002   4.8866555491035246E-002
  -4.0126944016227586E-002   1.6953307043976601E-002   4.8782579051871694E-002
  -3.8484154190687063E-002   1.7422790615478551E-002   4.8938918109984908E-002
  -3.6841364365146512E-002   1.8105084961843008E-002   4.9335572665375069E-002
  -3.5198574539605967E-002   1.9000190083070245E-002   4.9972542718042079E-002
  -4.7272322952594197E-002   1.8331445301776411E-002   4.2895155351356989E-002
  -4.5402708834484717E-002   1.8536743962919419E-002   4.2784839094237484E-002
  -4.3533094716375245E-002   1.8890630904315316E-002   4.2887855924978902E-002
  -4.1663480598265801E-002   1.9393106125963927E-002   4.3204205843581429E-002
  -3.9793866480156301E-002   2.0044169627865427E-002   4.3733888850044922E-002
  -5.2968460204226048E-002   1.9966256356215184E-002   3.6904492323487775E-002
  -5.0899004202963449E-002   2.0120180881862196E-002   3.6703613753802287E-002
  -4.8829548201700858E-002   2.0358471193152081E-002   3.6689085862562046E-002
  -4.6760092200438280E-002   2.0681127290084905E-002   3.6860908649767016E-002
  -4.4690636199175723E-002   2.1088149172660525E-002   3.7219082115417162E-002
  -5.8858145596663580E-002   2.1601067410654040E-002   3.0894566407427194E-002
  -5.6615830121663754E-002   2.1703617800804993E-002   3.0538903030566007E-002
  -5.4373514646663908E-002   2.1826311481988901E-002   3.0342607922734178E-002
  -5.2131199171664096E-002   2.1969148454205882E-002   3.0305681083931786E-002
  -4.9888883696664228E-002   2.2132128717455665E-002   3.0428122514158565E-002
  -6.4941379129906968E-002   2.3235878465092841E-002   2.4865377603175753E-002
  -6.2553186590585647E-002   2.3287054719747735E-002   2.4290706924528893E-002
  -6.0164994051264395E-002   2.3294151770825625E-002   2.3848422105495481E-002
  -5.7776801511943095E-002   2.3257169618326832E-002   2.3538523146075685E-002
  -5.5388608972621822E-002   2.3176108262250861E-002   2.3361010046269337E-002
  -3.5198574539605967E-002   1.9000190083070245E-002   4.9972542718042079E-002
  -3.4172289461156732E-002   2.0309664319937637E-002   4.9869052724519025E-002
  -3.3146004382707477E-002   2.2235066013222948E-002   5.0010459416774122E-002
  -3.2119719304258221E-002   2.4776395162925971E-002   5.0396762794807259E-002
  -3.1093434225808986E-002   2.7933651769046886E-002   5.1027962858618492E-002
  -3.9793866480156301E-002   2.0044169627865427E-002   4.3733888850044922E-002
  -3.8474684411987849E-002   2.1100125676877773E-002   4.4015483517187620E-002
  -3.7155502343819417E-002   2.2817278539859751E-002   4.4637975477990616E-002
  -3.5836320275650993E-002   2.5195628216810994E-002   4.5601364732453978E-002
  -3.4517138207482534E-002   2.8235174707731625E-002   4.6905651280577665E-002
  -4.4690636199175723E-002   2.1088149172660525E-002   3.7219082115417162E-002
  -4.2982556533405783E-002   2.1890587033818076E-002   3.7931030800777102E-002
  -4.1274476867635884E-002   2.3399491066496497E-002   3.9079877387679610E-002
  -3.9566397201865965E-002   2.5614861270695961E-002   4.0665621876124797E-002
  -3.7858317536096045E-002   2.8536697646416281E-002   4.2688264266112511E-002
  -4.9888883696664228E-002   2.2132128717455665E-002   3.0428122514158565E-002
  -4.7695905825410542E-002   2.2681048390758296E-002   3.1615694575287304E-002
  -4.5502927954156856E-002   2.3981703593133161E-002   3.3336165145840937E-002
  -4.3309950082903170E-002   2.6034094324580790E-002   3.5589534225819494E-002
  -4.1116972211649533E-002   2.8838220585100924E-002   3.8375801815222932E-002
  -5.5388608972621822E-002   2.3176108262250861E-002   2.3361010046269337E-002
  -5.2614732288002064E-002   2.3471509747698488E-002   2.5069474840718309E-002
  -4.9840855603382375E-002   2.4563916119770018E-002   2.7406838752474655E-002
  -4.7066978918762638E-002   2.6453327378465862E-002   3.0373101781538112E-002
  -4.4293102234142928E-002   2.9139743523785622E-002   3.3968263927908693E-002
  -3.1093434225808986E-002   2.7933651769046886E-002   5.1027962858618492E-002
  -3.2300662495576019E-002   3.1378374789677421E-002   5.0037379540174898E-002
  -3.3507890765343079E-002   3.4782103182908905E-002   4.8313849824755367E-002
  -3.4715119035110112E-002   3.8144836948741975E-002   4.5857373712359276E-002
  -3.5922347304877145E-002   4.1466576087175966E-002   4.2667951202987497E-002
  -3.4517138207482534E-002   2.8235174707731625E-002   4.6905651280577665E-002
  -3.6162985530831804E-002   3.2076965477950692E-002   4.6743068517202724E-002
  -3.7808832854181046E-002   3.6862047992797686E-002   4.6436194043639606E-002
  -3.9454680177530288E-002   4.2590422252272553E-002   4.5985027859887923E-002
  -4.1100527500879613E-002   4.9262088256374681E-002   4.5389569965948562E-002
  -3.7858317536096045E-002   2.8536697646416281E-002   4.2688264266112511E-002
  -3.9354129226239612E-002   3.2775556166224185E-002   4.4337968429832508E-002
  -4.0849940916383144E-002   3.8941992802686475E-002   4.6432035570152262E-002
  -4.2345752606526718E-002   4.7036007555802915E-002   4.8970465687071779E-002
  -4.3841564296670299E-002   5.7057600425573618E-002   5.1953258780590650E-002
  -4.1116972211649533E-002   2.8838220585100924E-002   3.8375801815222932E-002
  -4.1874093581799395E-002   3.3474146854497788E-002   4.2822079278064390E-002
  -4.2631214951949284E-002   4.1021937612575124E-002   4.8301374404293558E-002
  -4.3388336322099166E-002   5.1481592859333382E-002   5.4813687193910422E-002
  -4.4145457692249146E-002   6.4853112594772333E-002   6.2359017646914844E-002
  -4.4293102234142928E-002   2.9139743523785622E-002   3.3968263927908693E-002
  -4.3722878597511200E-002   3.4172737542771114E-002   4.2195401061898286E-002
  -4.3152654960879513E-002   4.3101882422463864E-002   5.2044210546063424E-002
  -4.2582431324247778E-002   5.5927178162863897E-002   6.3514692380403789E-002
  -4.2012207687616099E-002   7.2648624763971270E-002   7.6606846564920561E-002
  -9.0449899005133033E-002   0.0000000000000000        4.9523234068415106E-002
  -9.4038426259217767E-002   5.4006301672796589E-003   5.2849837182227827E-002
  -9.7626953513302472E-002   1.0655159267187743E-002   5.4543898917963879E-002
 -0.10121548076738722        1.5763587299724241E-002   5.4605419275623263E-002
 -0.10480400802147193        2.0725914264889157E-002   5.3034398255205992E-002
 -0.10342886268794575        0.0000000000000000        5.8359654258246713E-002
 -0.10697228963816359        1.0895979859125139E-002   5.1802885262992419E-002
 -0.11051571658838143        1.9185600079105053E-002   4.6968858253548580E-002
 -0.11405914353859929        2.4868860659939748E-002   4.3857573229915181E-002
 -0.11760257048881706        2.7945761601629204E-002   4.2469030192092264E-002
 -0.12659260980851064        0.0000000000000000        7.3921553425810624E-002
 -0.12673565309097448        1.6391329550970626E-002   5.5021153749715675E-002
 -0.12687869637343832        2.7716040891022371E-002   4.1198779423318288E-002
 -0.12702173965590213        3.3974134020155262E-002   3.2454430446618464E-002
 -0.12716478293836597        3.5165608938369244E-002   2.8788106819616230E-002
 -0.15994114036682772        0.0000000000000000        9.6208931571106840E-002
 -0.15332851661765040        2.1886679242816107E-002   6.2504642642397579E-002
 -0.14671589286847314        3.6246481702939697E-002   3.7233662427273030E-002
 -0.14010326911929583        4.3079407380370749E-002   2.0395990925733132E-002
 -0.13349064537011851        4.2385456275109298E-002   1.1991628137777925E-002
 -0.20347445436289691        0.0000000000000000       0.12522178869413536     
 -0.18675088021819139        2.7382028934661590E-002   7.4253351941038159E-002
 -0.17002730607348585        4.4776922514857001E-002   3.5073507265412751E-002
 -0.15330373192878033        5.2184680740586270E-002   7.6822546672591502E-003
 -0.13658015778407478        4.9605303611849338E-002  -7.9204058534226573E-003
 -0.10480400802147193        2.0725914264889157E-002   5.3034398255205992E-002
 -0.10215014070196456        2.4833346975594368E-002   4.4917040740818211E-002
  -9.9496273382457159E-002   2.7377092244751766E-002   3.8441016970476242E-002
  -9.6842406062949735E-002   2.8357150072361288E-002   3.3606326944180018E-002
  -9.4188538743442352E-002   2.7773520458423039E-002   3.0412970661929599E-002
 -0.11760257048881706        2.7945761601629204E-002   4.2469030192092264E-002
 -0.11368875726208580        2.9398108330288261E-002   3.6103416744447205E-002
 -0.10977494403535450        3.0207706272031710E-002   3.0616361367204168E-002
 -0.10586113080862321        3.0374555426859601E-002   2.6007864060363168E-002
 -0.10194731758189191        2.9898655794771911E-002   2.2277924823924142E-002
 -0.12716478293836597        3.5165608938369244E-002   2.8788106819616230E-002
 -0.12275379947805454        3.3962869684982133E-002   2.5095176093346140E-002
 -0.11834281601774307        3.3038320299311710E-002   2.1518027763834290E-002
 -0.11393183255743164        3.2391960781357906E-002   1.8056661831080744E-002
 -0.10952084909712019        3.2023791131120749E-002   1.4711078295085481E-002
 -0.13349064537011851        4.2385456275109298E-002   1.1991628137777925E-002
 -0.12934526734987070        3.8527631039676019E-002   1.1892318787515031E-002
 -0.12519988932962289        3.5868934326591641E-002   1.1146016160366682E-002
 -0.12105451130937500        3.4409366135856184E-002   9.7527202563327409E-003
 -0.11690913328912721        3.4148926467469587E-002   7.7124310754134156E-003
 -0.13658015778407478        4.9605303611849338E-002  -7.9204058534226573E-003
 -0.13346316087753435        4.3092392394369933E-002  -3.5051551730460352E-003
 -0.13034616397099386        3.8699548353871620E-002  -4.9967344319880314E-004
 -0.12722916706445336        3.6426771490354462E-002   1.0960393361192332E-003
 -0.12411217015791293        3.6274061803818480E-002   1.2819831649080737E-003
  -9.4188538743442352E-002   2.7773520458423039E-002   3.0412970661929599E-002
  -9.1756448979687710E-002   2.6532793310138282E-002   2.9707109980209701E-002
  -8.9324359215933069E-002   2.5541558534708346E-002   2.9013680438330244E-002
  -8.6892269452178414E-002   2.4799816132133275E-002   2.8332682036291343E-002
  -8.4460179688423773E-002   2.4307566102412997E-002   2.7664114774093002E-002
 -0.10194731758189191        2.9898655794771911E-002   2.2277924823924142E-002
  -9.9507411949496777E-002   2.9117485180738437E-002   2.1893545792164931E-002
  -9.7067506317101676E-002   2.8368521389729083E-002   2.1512367357846080E-002
  -9.4627600684706575E-002   2.7651764421743885E-002   2.1134389520967703E-002
  -9.2187695052311447E-002   2.6967214276782697E-002   2.0759612281529630E-002
 -0.10952084909712019        3.2023791131120749E-002   1.4711078295085481E-002
 -0.10708235813848468        3.1702177051338626E-002   1.4430895363456125E-002
 -0.10464386717984922        3.1195484244749879E-002   1.4144682486867208E-002
 -0.10220537622121377        3.0503712711354464E-002   1.3852439665318432E-002
  -9.9766885262578250E-002   2.9626862451152411E-002   1.3554166898810158E-002
 -0.11690913328912721        3.4148926467469587E-002   7.7124310754134156E-003
 -0.11448128754665150        3.4286868921938787E-002   7.3191586940832224E-003
 -0.11205344180417574        3.4022447099770634E-002   6.9106258253934056E-003
 -0.10962559606170001        3.3355661000965063E-002   6.4868324693437346E-003
 -0.10719775031922427        3.2286510625522118E-002   6.0477786259342959E-003
 -0.12411217015791293        3.6274061803818480E-002   1.2819831649080737E-003
 -0.12170420017399705        3.6871560792538977E-002   5.5833578404632100E-004
 -0.11929623019008118        3.6849409954791384E-002  -1.8980262657505853E-004
 -0.11688826020616533        3.6207609290575683E-002  -9.6243206695652977E-004
 -0.11448029022224943        3.4946158799891769E-002  -1.7595525370979193E-003
  -8.4460179688423773E-002   2.4307566102412997E-002   2.7664114774093002E-002
  -8.1860970548575884E-002   2.3970903000043661E-002   2.7121479504691598E-002
  -7.9261761408727954E-002   2.3695921379521027E-002   2.6918613212064624E-002
  -7.6662552268880052E-002   2.3482621240845492E-002   2.7055515896212329E-002
  -7.4063343129032122E-002   2.3331002584016658E-002   2.7532187557134435E-002
  -9.2187695052311447E-002   2.6967214276782697E-002   2.0759612281529630E-002
  -8.9336761743488036E-002   2.6356361320119231E-002   2.0365691875659120E-002
  -8.6485828434664666E-002   2.5860695917026992E-002   2.0135450830964956E-002
  -8.3634895125841241E-002   2.5480218067505875E-002   2.0068889147447286E-002
  -8.0783961817017885E-002   2.5214927771555984E-002   2.0166006825105998E-002
  -9.9766885262578250E-002   2.9626862451152411E-002   1.3554166898810158E-002
  -9.6840317400377490E-002   2.8741819640194836E-002   1.3362467428194656E-002
  -9.3913749538176675E-002   2.8025470454532794E-002   1.3158357703157587E-002
  -9.0987181675975831E-002   2.7477814894166286E-002   1.2941837723698947E-002
  -8.8060613813775057E-002   2.7098852959095338E-002   1.2712907489818556E-002
 -0.10719775031922427        3.2286510625522118E-002   6.0477786259342959E-003
 -0.10437163751924416        3.1127277960270327E-002   6.1118061622982191E-003
 -0.10154552471926402        3.0190244992038567E-002   5.9873338286425644E-003
  -9.8719411919283878E-002   2.9475411720826586E-002   5.6743616249674642E-003
  -9.5893299119303749E-002   2.8982778146634650E-002   5.1728895512722604E-003
 -0.11448029022224943        3.4946158799891769E-002  -1.7595525370979193E-003
 -0.11193072210008809        3.3512736280345984E-002  -1.3862919220299919E-003
 -0.10938115397792667        3.2355019529544518E-002  -1.3776207925797063E-003
 -0.10683158585576531        3.1473008547487177E-002  -1.7335391487474823E-003
 -0.10428201773360390        3.0866703334173962E-002  -2.4540469905328655E-003
  -7.4063343129032122E-002   2.3331002584016658E-002   2.7532187557134435E-002
  -7.1782852129250840E-002   2.3234473889654855E-002   2.6767012157412173E-002
  -6.9502361129469545E-002   2.3186443638380405E-002   2.6067485365178250E-002
  -6.7221870129688277E-002   2.3186911830192974E-002   2.5433607180432818E-002
  -6.4941379129906968E-002   2.3235878465092841E-002   2.4865377603175753E-002
  -8.0783961817017885E-002   2.5214927771555984E-002   2.0166006825105998E-002
  -7.8357168872898939E-002   2.5008350139160584E-002   1.8950819561773816E-002
  -7.5930375928780006E-002   2.4804010280302852E-002   1.7962587579628528E-002
  -7.3503582984661059E-002   2.4601908194982806E-002   1.7201310878670203E-002
  -7.1076790040542126E-002   2.4402043883200497E-002   1.6666989458898496E-002
  -8.8060613813775057E-002   2.7098852959095338E-002   1.2712907489818556E-002
  -8.5326212251620112E-002   2.6782226388666244E-002   1.1001447693327261E-002
  -8.2591810689465125E-002   2.6421576922225354E-002   9.6782498517210269E-003
  -7.9857409127310167E-002   2.6016904559772749E-002   8.7433139650002524E-003
  -7.7123007565155194E-002   2.5568209301308237E-002   8.1966400331644068E-003
  -9.5893299119303749E-002   2.8982778146634650E-002   5.1728895512722604E-003
  -9.2689982265414306E-002   2.8556102638171828E-002   2.9188965520722653E-003
  -8.9486665411524891E-002   2.8039143564147773E-002   1.2144721814555028E-003
  -8.6283348557635489E-002   2.7431900924562470E-002   5.9616439422600486E-005
  -8.3080031703746005E-002   2.6734374719415963E-002  -5.4567067402672489E-004
 -0.10428201773360390        3.0866703334173962E-002  -2.4540469905328655E-003
 -0.10044847891428160        3.0329978887677606E-002  -5.2968338619912569E-003
  -9.6614940094959356E-002   2.9656710206070330E-002  -7.4287454311678797E-003
  -9.2781401275637082E-002   2.8846897289352448E-002  -8.8497816980621334E-003
  -8.8947862456314808E-002   2.7900540137523633E-002  -9.5599426626745143E-003
  -6.4941379129906968E-002   2.3235878465092841E-002   2.4865377603175753E-002
  -6.2553186590585647E-002   2.3287054719747735E-002   2.4290706924528893E-002
  -6.0164994051264395E-002   2.3294151770825625E-002   2.3848422105495481E-002
  -5.7776801511943095E-002   2.3257169618326832E-002   2.3538523146075685E-002
  -5.5388608972621822E-002   2.3176108262250861E-002   2.3361010046269337E-002
  -7.1076790040542126E-002   2.4402043883200497E-002   1.6666989458898496E-002
  -6.8625736971573981E-002   2.4213746463494043E-002   1.6100395239825580E-002
  -6.6174683902605863E-002   2.4046345054401994E-002   1.5527136220433030E-002
  -6.3723630833637718E-002   2.3899839655923707E-002   1.4947212400720410E-002
  -6.1272577764669600E-002   2.3774230268059471E-002   1.4360623780688142E-002
  -7.7123007565155194E-002   2.5568209301308237E-002   8.1966400331644068E-003
  -7.4748144626473473E-002   2.5140438207240573E-002   7.7030974878566916E-003
  -7.2373281687791863E-002   2.4798538337977911E-002   7.0638394822957265E-003
  -6.9998418749110197E-002   2.4542509693520467E-002   6.2788660164816539E-003
  -6.7623555810428532E-002   2.4372352273868275E-002   5.3481770904144493E-003
  -8.3080031703746005E-002   2.6734374719415963E-002  -5.4567067402672489E-004
  -8.0920409555284206E-002   2.6067129950986881E-002  -9.0118633137827031E-004
  -7.8760787406822325E-002   2.5550731621553972E-002  -1.5414681089164044E-003
  -7.6601165258360485E-002   2.5185179731117453E-002  -2.4665160066409939E-003
  -7.4441543109898631E-002   2.4970474279677149E-002  -3.6763300245518001E-003
  -8.8947862456314808E-002   2.7900540137523633E-002  -9.5599426626745143E-003
  -8.7142531758006014E-002   2.6993821694733355E-002  -9.7124562178790841E-003
  -8.5337201059697387E-002   2.6302924905130254E-002  -1.0288786553202908E-002
  -8.3531870361388733E-002   2.5827849768714370E-002  -1.1288933668647038E-002
  -8.1726539663079967E-002   2.5568596285485801E-002  -1.2712897564210790E-002
  -5.5388608972621822E-002   2.3176108262250861E-002   2.3361010046269337E-002
  -5.2614732288002064E-002   2.3471509747698488E-002   2.5069474840718309E-002
  -4.9840855603382375E-002   2.4563916119770018E-002   2.7406838752474655E-002
  -4.7066978918762638E-002   2.6453327378465862E-002   3.0373101781538112E-002
  -4.4293102234142928E-002   2.9139743523785622E-002   3.3968263927908693E-002
  -6.1272577764669600E-002   2.3774230268059471E-002   1.4360623780688142E-002
  -5.8214571196167547E-002   2.3943416097517350E-002   1.5940159743328020E-002
  -5.5156564627665439E-002   2.4681296351004633E-002   1.7459056356425376E-002
  -5.2098558059163386E-002   2.5987871028521473E-002   1.8917313619980190E-002
  -4.9040551490661347E-002   2.7863140130068131E-002   2.0314931533992386E-002
  -6.7623555810428532E-002   2.4372352273868275E-002   5.3481770904144493E-003
  -6.4970957824893871E-002   2.4415322447336116E-002   6.5704737586507189E-003
  -6.2318359839359169E-002   2.4798676582239262E-002   7.0425926104944747E-003
  -5.9665761853824488E-002   2.5522414678577365E-002   6.7645336459461088E-003
  -5.7013163868289869E-002   2.6586536736350780E-002   5.7362968650056384E-003
  -7.4441543109898631E-002   2.4970474279677149E-002  -3.6763300245518001E-003
  -7.2883892174181078E-002   2.4887228797155540E-002  -3.0395831133141257E-003
  -7.1326241238463539E-002   2.4916056813474106E-002  -3.8425524853178076E-003
  -6.9768590302745986E-002   2.5056958328633507E-002  -6.0852381405637011E-003
  -6.8210939367028434E-002   2.5309933342633414E-002  -9.7676400790516586E-003
  -8.1726539663079967E-002   2.5568596285485801E-002  -1.2712897564210790E-002
  -8.1953374244029265E-002   2.5359135146973744E-002  -1.2890010872565305E-002
  -8.2180208824978507E-002   2.5033437044708728E-002  -1.5196378931012194E-002
  -8.2407043405927749E-002   2.4591501978688868E-002  -1.9632001739549730E-002
  -8.2633877986877047E-002   2.4033329948916049E-002  -2.6196879298179376E-002
  -4.4293102234142928E-002   2.9139743523785622E-002   3.3968263927908693E-002
  -4.3722878597511200E-002   3.4172737542771114E-002   4.2195401061898286E-002
  -4.3152654960879513E-002   4.3101882422463864E-002   5.2044210546063424E-002
  -4.2582431324247778E-002   5.5927178162863897E-002   6.3514692380403789E-002
  -4.2012207687616099E-002   7.2648624763971270E-002   7.6606846564920561E-002
  -4.9040551490661347E-002   2.7863140130068131E-002   2.0314931533992386E-002
  -4.7599846756912575E-002   3.2174707863806301E-002   2.8665741144343920E-002
  -4.6159142023163770E-002   4.0790178437897839E-002   3.7135840598753828E-002
  -4.4718437289414964E-002   5.3709551852342788E-002   4.5725229897222622E-002
  -4.3277732555666193E-002   7.0932828107141077E-002   5.4433909039749651E-002
  -5.7013163868289869E-002   2.6586536736350780E-002   5.7362968650056384E-003
  -5.6204360543540867E-002   3.0176678184841571E-002   1.4618530931365004E-002
  -5.5395557218791913E-002   3.8478474453331545E-002   2.2117672335665965E-002
  -5.4586753894042994E-002   5.1491925541821491E-002   2.8233721077908652E-002
  -5.3777950569294020E-002   6.9217031450310662E-002   3.2966677158093205E-002
  -6.8210939367028434E-002   2.5309933342633414E-002  -9.7676400790516586E-003
  -6.9536419957396234E-002   2.8178648505876522E-002   5.3770422961445241E-005
  -7.0861900547764103E-002   3.6166770468765527E-002   6.9897057567999948E-003
  -7.2187381138131931E-002   4.9274299231300230E-002   1.1040165922462607E-002
  -7.3512861728499718E-002   6.7501234793480358E-002   1.2205150919950461E-002
  -8.2633877986877047E-002   2.4033329948916049E-002  -2.6196879298179376E-002
  -8.7596024998478517E-002   2.6180618826912028E-002  -1.5028540380865929E-002
  -9.2558172010080153E-002   3.3855066484199586E-002  -8.2480591378443491E-003
  -9.7520319021681734E-002   4.7056672920779009E-002  -5.8554355691152818E-003
 -0.10248246603328326        6.5785438136650054E-002  -7.8506696746782900E-003
 </DataArray>
 </PointData>
 </Piece>
 <Piece  NumberOfPoints="          1600 "  NumberOfCells="         1024 ">
 <Points>
 <DataArray  type="Float64" NumberOfComponents="3"  format="ascii" >
  0.50000000000000000        0.0000000000000000        0.0000000000000000     
  0.53125000000000000        0.0000000000000000        0.0000000000000000     
  0.56250000000000000        0.0000000000000000        0.0000000000000000     
  0.59375000000000000        0.0000000000000000        0.0000000000000000     
  0.62500000000000000        0.0000000000000000        0.0000000000000000     
  0.50000000000000000        3.1250000000000000E-002   0.0000000000000000     
  0.53125000000000000        3.1250000000000000E-002   0.0000000000000000     
  0.56250000000000000        3.1250000000000000E-002   0.0000000000000000     
  0.59375000000000000        3.1250000000000000E-002   0.0000000000000000     
  0.62500000000000000        3.1250000000000000E-002   0.0000000000000000     
  0.50000000000000000        6.2500000000000000E-002   0.0000000000000000     
  0.53125000000000000        6.2500000000000000E-002   0.0000000000000000     
  0.56250000000000000        6.2500000000000000E-002   0.0000000000000000     
  0.59375000000000000        6.2500000000000000E-002   0.0000000000000000     
  0.62500000000000000        6.2500000000000000E-002   0.0000000000000000     
  0.50000000000000000        9.3750000000000000E-002   0.0000000000000000     
  0.53125000000000000        9.3750000000000000E-002   0.0000000000000000     
  0.56250000000000000        9.3750000000000000E-002   0.0000000000000000     
  0.59375000000000000        9.3750000000000000E-002   0.0000000000000000     
  0.62500000000000000        9.3750000000000000E-002   0.0000000000000000     
  0.50000000000000000       0.12500000000000000        0.0000000000000000     
  0.53125000000000000       0.12500000000000000        0.0000000000000000     
  0.56250000000000000       0.12500000000000000        0.0000000000000000     
  0.59375000000000000       0.12500000000000000        0.0000000000000000     
  0.62500000000000000       0.12500000000000000        0.0000000000000000     
  0.62500000000000000        0.0000000000000000        0.0000000000000000     
  0.65625000000000000        0.0000000000000000        0.0000000000000000     
  0.68750000000000000        0.0000000000000000        0.0000000000000000     
  0.71875000000000000        0.0000000000000000        0.0000000000000000     
  0.75000000000000000        0.0000000000000000        0.0000000000000000     
  0.62500000000000000        3.1250000000000000E-002   0.0000000000000000     
  0.65625000000000000        3.1250000000000000E-002   0.0000000000000000     
  0.68750000000000000        3.1250000000000000E-002   0.0000000000000000     
  0.71875000000000000        3.1250000000000000E-002   0.0000000000000000     
  0.75000000000000000        3.1250000000000000E-002   0.0000000000000000     
  0.62500000000000000        6.2500000000000000E-002   0.0000000000000000     
  0.65625000000000000        6.2500000000000000E-002   0.0000000000000000     
  0.68750000000000000        6.2500000000000000E-002   0.0000000000000000     
  0.71875000000000000        6.2500000000000000E-002   0.0000000000000000     
  0.75000000000000000        6.2500000000000000E-002   0.0000000000000000     
  0.62500000000000000        9.3750000000000000E-002   0.0000000000000000     
  0.65625000000000000        9.3750000000000000E-002   0.0000000000000000     
  0.68750000000000000        9.3750000000000000E-002   0.0000000000000000     
  0.71875000000000000        9.3750000000000000E-002   0.0000000000000000     
  0.75000000000000000        9.3750000000000000E-002   0.0000000000000000     
  0.62500000000000000       0.12500000000000000        0.0000000000000000     
  0.65625000000000000       0.12500000000000000        0.0000000000000000     
  0.68750000000000000       0.12500000000000000        0.0000000000000000     
  0.71875000000000000       0.12500000000000000        0.0000000000000000     
  0.75000000000000000       0.12500000000000000        0.0000000000000000     
  0.75000000000000000        0.0000000000000000        0.0000000000000000     
  0.78125000000000000        0.0000000000000000        0.0000000000000000     
  0.81250000000000000        0.0000000000000000        0.0000000000000000     
  0.84375000000000000        0.0000000000000000        0.0000000000000000     
  0.87500000000000000        0.0000000000000000        0.0000000000000000     
  0.75000000000000000        3.1250000000000000E-002   0.0000000000000000     
  0.78125000000000000        3.1250000000000000E-002   0.0000000000000000     
  0.81250000000000000        3.1250000000000000E-002   0.0000000000000000     
  0.84375000000000000        3.1250000000000000E-002   0.0000000000000000     
  0.87500000000000000        3.1250000000000000E-002   0.0000000000000000     
  0.75000000000000000        6.2500000000000000E-002   0.0000000000000000     
  0.78125000000000000        6.2500000000000000E-002   0.0000000000000000     
  0.81250000000000000        6.2500000000000000E-002   0.0000000000000000     
  0.84375000000000000        6.2500000000000000E-002   0.0000000000000000     
  0.87500000000000000        6.2500000000000000E-002   0.0000000000000000     
  0.75000000000000000        9.3750000000000000E-002   0.0000000000000000     
  0.78125000000000000        9.3750000000000000E-002   0.0000000000000000     
  0.81250000000000000        9.3750000000000000E-002   0.0000000000000000     
  0.84375000000000000        9.3750000000000000E-002   0.0000000000000000     
  0.87500000000000000        9.3750000000000000E-002   0.0000000000000000     
  0.75000000000000000       0.12500000000000000        0.0000000000000000     
  0.78125000000000000       0.12500000000000000        0.0000000000000000     
  0.81250000000000000       0.12500000000000000        0.0000000000000000     
  0.84375000000000000       0.12500000000000000        0.0000000000000000     
  0.87500000000000000       0.12500000000000000        0.0000000000000000     
  0.87500000000000000        0.0000000000000000        0.0000000000000000     
  0.90625000000000000        0.0000000000000000        0.0000000000000000     
  0.93750000000000000        0.0000000000000000        0.0000000000000000     
  0.96875000000000000        0.0000000000000000        0.0000000000000000     
   1.0000000000000000        0.0000000000000000        0.0000000000000000     
  0.87500000000000000        3.1250000000000000E-002   0.0000000000000000     
  0.90625000000000000        3.1250000000000000E-002   0.0000000000000000     
  0.93750000000000000        3.1250000000000000E-002   0.0000000000000000     
  0.96875000000000000        3.1250000000000000E-002   0.0000000000000000     
   1.0000000000000000        3.1250000000000000E-002   0.0000000000000000     
  0.87500000000000000        6.2500000000000000E-002   0.0000000000000000     
  0.90625000000000000        6.2500000000000000E-002   0.0000000000000000     
  0.93750000000000000        6.2500000000000000E-002   0.0000000000000000     
  0.96875000000000000        6.2500000000000000E-002   0.0000000000000000     
   1.0000000000000000        6.2500000000000000E-002   0.0000000000000000     
  0.87500000000000000        9.3750000000000000E-002   0.0000000000000000     
  0.90625000000000000        9.3750000000000000E-002   0.0000000000000000     
  0.93750000000000000        9.3750000000000000E-002   0.0000000000000000     
  0.96875000000000000        9.3750000000000000E-002   0.0000000000000000     
   1.0000000000000000        9.3750000000000000E-002   0.0000000000000000     
  0.87500000000000000       0.12500000000000000        0.0000000000000000     
  0.90625000000000000       0.12500000000000000        0.0000000000000000     
  0.93750000000000000       0.12500000000000000        0.0000000000000000     
  0.96875000000000000       0.12500000000000000        0.0000000000000000     
   1.0000000000000000       0.12500000000000000        0.0000000000000000     
   1.0000000000000000        0.0000000000000000        0.0000000000000000     
   1.0312500000000000        0.0000000000000000        0.0000000000000000     
   1.0625000000000000        0.0000000000000000        0.0000000000000000     
   1.0937500000000000        0.0000000000000000        0.0000000000000000     
   1.1250000000000000        0.0000000000000000        0.0000000000000000     
   1.0000000000000000        3.1250000000000000E-002   0.0000000000000000     
   1.0312500000000000        3.1250000000000000E-002   0.0000000000000000     
   1.0625000000000000        3.1250000000000000E-002   0.0000000000000000     
   1.0937500000000000        3.1250000000000000E-002   0.0000000000000000     
   1.1250000000000000        3.1250000000000000E-002   0.0000000000000000     
   1.0000000000000000        6.2500000000000000E-002   0.0000000000000000     
   1.0312500000000000        6.2500000000000000E-002   0.0000000000000000     
   1.0625000000000000        6.2500000000000000E-002   0.0000000000000000     
   1.0937500000000000        6.2500000000000000E-002   0.0000000000000000     
   1.1250000000000000        6.2500000000000000E-002   0.0000000000000000     
   1.0000000000000000        9.3750000000000000E-002   0.0000000000000000     
   1.0312500000000000        9.3750000000000000E-002   0.0000000000000000     
   1.0625000000000000        9.3750000000000000E-002   0.0000000000000000     
   1.0937500000000000        9.3750000000000000E-002   0.0000000000000000     
   1.1250000000000000        9.3750000000000000E-002   0.0000000000000000     
   1.0000000000000000       0.12500000000000000        0.0000000000000000     
   1.0312500000000000       0.12500000000000000        0.0000000000000000     
   1.0625000000000000       0.12500000000000000        0.0000000000000000     
   1.0937500000000000       0.12500000000000000        0.0000000000000000     
   1.1250000000000000       0.12500000000000000        0.0000000000000000     
   1.1250000000000000        0.0000000000000000        0.0000000000000000     
   1.1562500000000000        0.0000000000000000        0.0000000000000000     
   1.1875000000000000        0.0000000000000000        0.0000000000000000     
   1.2187500000000000        0.0000000000000000        0.0000000000000000     
   1.2500000000000000        0.0000000000000000        0.0000000000000000     
   1.1250000000000000        3.1250000000000000E-002   0.0000000000000000     
   1.1562500000000000        3.1250000000000000E-002   0.0000000000000000     
   1.1875000000000000        3.1250000000000000E-002   0.0000000000000000     
   1.2187500000000000        3.1250000000000000E-002   0.0000000000000000     
   1.2500000000000000        3.1250000000000000E-002   0.0000000000000000     
   1.1250000000000000        6.2500000000000000E-002   0.0000000000000000     
   1.1562500000000000        6.2500000000000000E-002   0.0000000000000000     
   1.1875000000000000        6.2500000000000000E-002   0.0000000000000000     
   1.2187500000000000        6.2500000000000000E-002   0.0000000000000000     
   1.2500000000000000        6.2500000000000000E-002   0.0000000000000000     
   1.1250000000000000        9.3750000000000000E-002   0.0000000000000000     
   1.1562500000000000        9.3750000000000000E-002   0.0000000000000000     
   1.1875000000000000        9.3750000000000000E-002   0.0000000000000000     
   1.2187500000000000        9.3750000000000000E-002   0.0000000000000000     
   1.2500000000000000        9.3750000000000000E-002   0.0000000000000000     
   1.1250000000000000       0.12500000000000000        0.0000000000000000     
   1.1562500000000000       0.12500000000000000        0.0000000000000000     
   1.1875000000000000       0.12500000000000000        0.0000000000000000     
   1.2187500000000000       0.12500000000000000        0.0000000000000000     
   1.2500000000000000       0.12500000000000000        0.0000000000000000     
   1.2500000000000000        0.0000000000000000        0.0000000000000000     
   1.2812500000000000        0.0000000000000000        0.0000000000000000     
   1.3125000000000000        0.0000000000000000        0.0000000000000000     
   1.3437500000000000        0.0000000000000000        0.0000000000000000     
   1.3750000000000000        0.0000000000000000        0.0000000000000000     
   1.2500000000000000        3.1250000000000000E-002   0.0000000000000000     
   1.2812500000000000        3.1250000000000000E-002   0.0000000000000000     
   1.3125000000000000        3.1250000000000000E-002   0.0000000000000000     
   1.3437500000000000        3.1250000000000000E-002   0.0000000000000000     
   1.3750000000000000        3.1250000000000000E-002   0.0000000000000000     
   1.2500000000000000        6.2500000000000000E-002   0.0000000000000000     
   1.2812500000000000        6.2500000000000000E-002   0.0000000000000000     
   1.3125000000000000        6.2500000000000000E-002   0.0000000000000000     
   1.3437500000000000        6.2500000000000000E-002   0.0000000000000000     
   1.3750000000000000        6.2500000000000000E-002   0.0000000000000000     
   1.2500000000000000        9.3750000000000000E-002   0.0000000000000000     
   1.2812500000000000        9.3750000000000000E-002   0.0000000000000000     
   1.3125000000000000        9.3750000000000000E-002   0.0000000000000000     
   1.3437500000000000        9.3750000000000000E-002   0.0000000000000000     
   1.3750000000000000        9.3750000000000000E-002   0.0000000000000000     
   1.2500000000000000       0.12500000000000000        0.0000000000000000     
   1.2812500000000000       0.12500000000000000        0.0000000000000000     
   1.3125000000000000       0.12500000000000000        0.0000000000000000     
   1.3437500000000000       0.12500000000000000        0.0000000000000000     
   1.3750000000000000       0.12500000000000000        0.0000000000000000     
   1.3750000000000000        0.0000000000000000        0.0000000000000000     
   1.4062500000000000        0.0000000000000000        0.0000000000000000     
   1.4375000000000000        0.0000000000000000        0.0000000000000000     
   1.4687500000000000        0.0000000000000000        0.0000000000000000     
   1.5000000000000000        0.0000000000000000        0.0000000000000000     
   1.3750000000000000        3.1250000000000000E-002   0.0000000000000000     
   1.4062500000000000        3.1250000000000000E-002   0.0000000000000000     
   1.4375000000000000        3.1250000000000000E-002   0.0000000000000000     
   1.4687500000000000        3.1250000000000000E-002   0.0000000000000000     
   1.5000000000000000        3.1250000000000000E-002   0.0000000000000000     
   1.3750000000000000        6.2500000000000000E-002   0.0000000000000000     
   1.4062500000000000        6.2500000000000000E-002   0.0000000000000000     
   1.4375000000000000        6.2500000000000000E-002   0.0000000000000000     
   1.4687500000000000        6.2500000000000000E-002   0.0000000000000000     
   1.5000000000000000        6.2500000000000000E-002   0.0000000000000000     
   1.3750000000000000        9.3750000000000000E-002   0.0000000000000000     
   1.4062500000000000        9.3750000000000000E-002   0.0000000000000000     
   1.4375000000000000        9.3750000000000000E-002   0.0000000000000000     
   1.4687500000000000        9.3750000000000000E-002   0.0000000000000000     
   1.5000000000000000        9.3750000000000000E-002   0.0000000000000000     
   1.3750000000000000       0.12500000000000000        0.0000000000000000     
   1.4062500000000000       0.12500000000000000        0.0000000000000000     
   1.4375000000000000       0.12500000000000000        0.0000000000000000     
   1.4687500000000000       0.12500000000000000        0.0000000000000000     
   1.5000000000000000       0.12500000000000000        0.0000000000000000     
  0.50000000000000000       0.12500000000000000        0.0000000000000000     
  0.53125000000000000       0.12500000000000000        0.0000000000000000     
  0.56250000000000000       0.12500000000000000        0.0000000000000000     
  0.59375000000000000       0.12500000000000000        0.0000000000000000     
  0.62500000000000000       0.12500000000000000        0.0000000000000000     
  0.50000000000000000       0.15625000000000000        0.0000000000000000     
  0.53125000000000000       0.15625000000000000        0.0000000000000000     
  0.56250000000000000       0.15625000000000000        0.0000000000000000     
  0.59375000000000000       0.15625000000000000        0.0000000000000000     
  0.62500000000000000       0.15625000000000000        0.0000000000000000     
  0.50000000000000000       0.18750000000000000        0.0000000000000000     
  0.53125000000000000       0.18750000000000000        0.0000000000000000     
  0.56250000000000000       0.18750000000000000        0.0000000000000000     
  0.59375000000000000       0.18750000000000000        0.0000000000000000     
  0.62500000000000000       0.18750000000000000        0.0000000000000000     
  0.50000000000000000       0.21875000000000000        0.0000000000000000     
  0.53125000000000000       0.21875000000000000        0.0000000000000000     
  0.56250000000000000       0.21875000000000000        0.0000000000000000     
  0.59375000000000000       0.21875000000000000        0.0000000000000000     
  0.62500000000000000       0.21875000000000000        0.0000000000000000     
  0.50000000000000000       0.25000000000000000        0.0000000000000000     
  0.53125000000000000       0.25000000000000000        0.0000000000000000     
  0.56250000000000000       0.25000000000000000        0.0000000000000000     
  0.59375000000000000       0.25000000000000000        0.0000000000000000     
  0.62500000000000000       0.25000000000000000        0.0000000000000000     
  0.62500000000000000       0.12500000000000000        0.0000000000000000     
  0.65625000000000000       0.12500000000000000        0.0000000000000000     
  0.68750000000000000       0.12500000000000000        0.0000000000000000     
  0.71875000000000000       0.12500000000000000        0.0000000000000000     
  0.75000000000000000       0.12500000000000000        0.0000000000000000     
  0.62500000000000000       0.15625000000000000        0.0000000000000000     
  0.65625000000000000       0.15625000000000000        0.0000000000000000     
  0.68750000000000000       0.15625000000000000        0.0000000000000000     
  0.71875000000000000       0.15625000000000000        0.0000000000000000     
  0.75000000000000000       0.15625000000000000        0.0000000000000000     
  0.62500000000000000       0.18750000000000000        0.0000000000000000     
  0.65625000000000000       0.18750000000000000        0.0000000000000000     
  0.68750000000000000       0.18750000000000000        0.0000000000000000     
  0.71875000000000000       0.18750000000000000        0.0000000000000000     
  0.75000000000000000       0.18750000000000000        0.0000000000000000     
  0.62500000000000000       0.21875000000000000        0.0000000000000000     
  0.65625000000000000       0.21875000000000000        0.0000000000000000     
  0.68750000000000000       0.21875000000000000        0.0000000000000000     
  0.71875000000000000       0.21875000000000000        0.0000000000000000     
  0.75000000000000000       0.21875000000000000        0.0000000000000000     
  0.62500000000000000       0.25000000000000000        0.0000000000000000     
  0.65625000000000000       0.25000000000000000        0.0000000000000000     
  0.68750000000000000       0.25000000000000000        0.0000000000000000     
  0.71875000000000000       0.25000000000000000        0.0000000000000000     
  0.75000000000000000       0.25000000000000000        0.0000000000000000     
  0.75000000000000000       0.12500000000000000        0.0000000000000000     
  0.78125000000000000       0.12500000000000000        0.0000000000000000     
  0.81250000000000000       0.12500000000000000        0.0000000000000000     
  0.84375000000000000       0.12500000000000000        0.0000000000000000     
  0.87500000000000000       0.12500000000000000        0.0000000000000000     
  0.75000000000000000       0.15625000000000000        0.0000000000000000     
  0.78125000000000000       0.15625000000000000        0.0000000000000000     
  0.81250000000000000       0.15625000000000000        0.0000000000000000     
  0.84375000000000000       0.15625000000000000        0.0000000000000000     
  0.87500000000000000       0.15625000000000000        0.0000000000000000     
  0.75000000000000000       0.18750000000000000        0.0000000000000000     
  0.78125000000000000       0.18750000000000000        0.0000000000000000     
  0.81250000000000000       0.18750000000000000        0.0000000000000000     
  0.84375000000000000       0.18750000000000000        0.0000000000000000     
  0.87500000000000000       0.18750000000000000        0.0000000000000000     
  0.75000000000000000       0.21875000000000000        0.0000000000000000     
  0.78125000000000000       0.21875000000000000        0.0000000000000000     
  0.81250000000000000       0.21875000000000000        0.0000000000000000     
  0.84375000000000000       0.21875000000000000        0.0000000000000000     
  0.87500000000000000       0.21875000000000000        0.0000000000000000     
  0.75000000000000000       0.25000000000000000        0.0000000000000000     
  0.78125000000000000       0.25000000000000000        0.0000000000000000     
  0.81250000000000000       0.25000000000000000        0.0000000000000000     
  0.84375000000000000       0.25000000000000000        0.0000000000000000     
  0.87500000000000000       0.25000000000000000        0.0000000000000000     
  0.87500000000000000       0.12500000000000000        0.0000000000000000     
  0.90625000000000000       0.12500000000000000        0.0000000000000000     
  0.93750000000000000       0.12500000000000000        0.0000000000000000     
  0.96875000000000000       0.12500000000000000        0.0000000000000000     
   1.0000000000000000       0.12500000000000000        0.0000000000000000     
  0.87500000000000000       0.15625000000000000        0.0000000000000000     
  0.90625000000000000       0.15625000000000000        0.0000000000000000     
  0.93750000000000000       0.15625000000000000        0.0000000000000000     
  0.96875000000000000       0.15625000000000000        0.0000000000000000     
   1.0000000000000000       0.15625000000000000        0.0000000000000000     
  0.87500000000000000       0.18750000000000000        0.0000000000000000     
  0.90625000000000000       0.18750000000000000        0.0000000000000000     
  0.93750000000000000       0.18750000000000000        0.0000000000000000     
  0.96875000000000000       0.18750000000000000        0.0000000000000000     
   1.0000000000000000       0.18750000000000000        0.0000000000000000     
  0.87500000000000000       0.21875000000000000        0.0000000000000000     
  0.90625000000000000       0.21875000000000000        0.0000000000000000     
  0.93750000000000000       0.21875000000000000        0.0000000000000000     
  0.96875000000000000       0.21875000000000000        0.0000000000000000     
   1.0000000000000000       0.21875000000000000        0.0000000000000000     
  0.87500000000000000       0.25000000000000000        0.0000000000000000     
  0.90625000000000000       0.25000000000000000        0.0000000000000000     
  0.93750000000000000       0.25000000000000000        0.0000000000000000     
  0.96875000000000000       0.25000000000000000        0.0000000000000000     
   1.0000000000000000       0.25000000000000000        0.0000000000000000     
   1.0000000000000000       0.12500000000000000        0.0000000000000000     
   1.0312500000000000       0.12500000000000000        0.0000000000000000     
   1.0625000000000000       0.12500000000000000        0.0000000000000000     
   1.0937500000000000       0.12500000000000000        0.0000000000000000     
   1.1250000000000000       0.12500000000000000        0.0000000000000000     
   1.0000000000000000       0.15625000000000000        0.0000000000000000     
   1.0312500000000000       0.15625000000000000        0.0000000000000000     
   1.0625000000000000       0.15625000000000000        0.0000000000000000     
   1.0937500000000000       0.15625000000000000        0.0000000000000000     
   1.1250000000000000       0.15625000000000000        0.0000000000000000     
   1.0000000000000000       0.18750000000000000        0.0000000000000000     
   1.0312500000000000       0.18750000000000000        0.0000000000000000     
   1.0625000000000000       0.18750000000000000        0.0000000000000000     
   1.0937500000000000       0.18750000000000000        0.0000000000000000     
   1.1250000000000000       0.18750000000000000        0.0000000000000000     
   1.0000000000000000       0.21875000000000000        0.0000000000000000     
   1.0312500000000000       0.21875000000000000        0.0000000000000000     
   1.0625000000000000       0.21875000000000000        0.0000000000000000     
   1.0937500000000000       0.21875000000000000        0.0000000000000000     
   1.1250000000000000       0.21875000000000000        0.0000000000000000     
   1.0000000000000000       0.25000000000000000        0.0000000000000000     
   1.0312500000000000       0.25000000000000000        0.0000000000000000     
   1.0625000000000000       0.25000000000000000        0.0000000000000000     
   1.0937500000000000       0.25000000000000000        0.0000000000000000     
   1.1250000000000000       0.25000000000000000        0.0000000000000000     
   1.1250000000000000       0.12500000000000000        0.0000000000000000     
   1.1562500000000000       0.12500000000000000        0.0000000000000000     
   1.1875000000000000       0.12500000000000000        0.0000000000000000     
   1.2187500000000000       0.12500000000000000        0.0000000000000000     
   1.2500000000000000       0.12500000000000000        0.0000000000000000     
   1.1250000000000000       0.15625000000000000        0.0000000000000000     
   1.1562500000000000       0.15625000000000000        0.0000000000000000     
   1.1875000000000000       0.15625000000000000        0.0000000000000000     
   1.2187500000000000       0.15625000000000000        0.0000000000000000     
   1.2500000000000000       0.15625000000000000        0.0000000000000000     
   1.1250000000000000       0.18750000000000000        0.0000000000000000     
   1.1562500000000000       0.18750000000000000        0.0000000000000000     
   1.1875000000000000       0.18750000000000000        0.0000000000000000     
   1.2187500000000000       0.18750000000000000        0.0000000000000000     
   1.2500000000000000       0.18750000000000000        0.0000000000000000     
   1.1250000000000000       0.21875000000000000        0.0000000000000000     
   1.1562500000000000       0.21875000000000000        0.0000000000000000     
   1.1875000000000000       0.21875000000000000        0.0000000000000000     
   1.2187500000000000       0.21875000000000000        0.0000000000000000     
   1.2500000000000000       0.21875000000000000        0.0000000000000000     
   1.1250000000000000       0.25000000000000000        0.0000000000000000     
   1.1562500000000000       0.25000000000000000        0.0000000000000000     
   1.1875000000000000       0.25000000000000000        0.0000000000000000     
   1.2187500000000000       0.25000000000000000        0.0000000000000000     
   1.2500000000000000       0.25000000000000000        0.0000000000000000     
   1.2500000000000000       0.12500000000000000        0.0000000000000000     
   1.2812500000000000       0.12500000000000000        0.0000000000000000     
   1.3125000000000000       0.12500000000000000        0.0000000000000000     
   1.3437500000000000       0.12500000000000000        0.0000000000000000     
   1.3750000000000000       0.12500000000000000        0.0000000000000000     
   1.2500000000000000       0.15625000000000000        0.0000000000000000     
   1.2812500000000000       0.15625000000000000        0.0000000000000000     
   1.3125000000000000       0.15625000000000000        0.0000000000000000     
   1.3437500000000000       0.15625000000000000        0.0000000000000000     
   1.3750000000000000       0.15625000000000000        0.0000000000000000     
   1.2500000000000000       0.18750000000000000        0.0000000000000000     
   1.2812500000000000       0.18750000000000000        0.0000000000000000     
   1.3125000000000000       0.18750000000000000        0.0000000000000000     
   1.3437500000000000       0.18750000000000000        0.0000000000000000     
   1.3750000000000000       0.18750000000000000        0.0000000000000000     
   1.2500000000000000       0.21875000000000000        0.0000000000000000     
   1.2812500000000000       0.21875000000000000        0.0000000000000000     
   1.3125000000000000       0.21875000000000000        0.0000000000000000     
   1.3437500000000000       0.21875000000000000        0.0000000000000000     
   1.3750000000000000       0.21875000000000000        0.0000000000000000     
   1.2500000000000000       0.25000000000000000        0.0000000000000000     
   1.2812500000000000       0.25000000000000000        0.0000000000000000     
   1.3125000000000000       0.25000000000000000        0.0000000000000000     
   1.3437500000000000       0.25000000000000000        0.0000000000000000     
   1.3750000000000000       0.25000000000000000        0.0000000000000000     
   1.3750000000000000       0.12500000000000000        0.0000000000000000     
   1.4062500000000000       0.12500000000000000        0.0000000000000000     
   1.4375000000000000       0.12500000000000000        0.0000000000000000     
   1.4687500000000000       0.12500000000000000        0.0000000000000000     
   1.5000000000000000       0.12500000000000000        0.0000000000000000     
   1.3750000000000000       0.15625000000000000        0.0000000000000000     
   1.4062500000000000       0.15625000000000000        0.0000000000000000     
   1.4375000000000000       0.15625000000000000        0.0000000000000000     
   1.4687500000000000       0.15625000000000000        0.0000000000000000     
   1.5000000000000000       0.15625000000000000        0.0000000000000000     
   1.3750000000000000       0.18750000000000000        0.0000000000000000     
   1.4062500000000000       0.18750000000000000        0.0000000000000000     
   1.4375000000000000       0.18750000000000000        0.0000000000000000     
   1.4687500000000000       0.18750000000000000        0.0000000000000000     
   1.5000000000000000       0.18750000000000000        0.0000000000000000     
   1.3750000000000000       0.21875000000000000        0.0000000000000000     
   1.4062500000000000       0.21875000000000000        0.0000000000000000     
   1.4375000000000000       0.21875000000000000        0.0000000000000000     
   1.4687500000000000       0.21875000000000000        0.0000000000000000     
   1.5000000000000000       0.21875000000000000        0.0000000000000000     
   1.3750000000000000       0.25000000000000000        0.0000000000000000     
   1.4062500000000000       0.25000000000000000        0.0000000000000000     
   1.4375000000000000       0.25000000000000000        0.0000000000000000     
   1.4687500000000000       0.25000000000000000        0.0000000000000000     
   1.5000000000000000       0.25000000000000000        0.0000000000000000     
  0.50000000000000000       0.25000000000000000        0.0000000000000000     
  0.53125000000000000       0.25000000000000000        0.0000000000000000     
  0.56250000000000000       0.25000000000000000        0.0000000000000000     
  0.59375000000000000       0.25000000000000000        0.0000000000000000     
  0.62500000000000000       0.25000000000000000        0.0000000000000000     
  0.50000000000000000       0.28125000000000000        0.0000000000000000     
  0.53125000000000000       0.28125000000000000        0.0000000000000000     
  0.56250000000000000       0.28125000000000000        0.0000000000000000     
  0.59375000000000000       0.28125000000000000        0.0000000000000000     
  0.62500000000000000       0.28125000000000000        0.0000000000000000     
  0.50000000000000000       0.31250000000000000        0.0000000000000000     
  0.53125000000000000       0.31250000000000000        0.0000000000000000     
  0.56250000000000000       0.31250000000000000        0.0000000000000000     
  0.59375000000000000       0.31250000000000000        0.0000000000000000     
  0.62500000000000000       0.31250000000000000        0.0000000000000000     
  0.50000000000000000       0.34375000000000000        0.0000000000000000     
  0.53125000000000000       0.34375000000000000        0.0000000000000000     
  0.56250000000000000       0.34375000000000000        0.0000000000000000     
  0.59375000000000000       0.34375000000000000        0.0000000000000000     
  0.62500000000000000       0.34375000000000000        0.0000000000000000     
  0.50000000000000000       0.37500000000000000        0.0000000000000000     
  0.53125000000000000       0.37500000000000000        0.0000000000000000     
  0.56250000000000000       0.37500000000000000        0.0000000000000000     
  0.59375000000000000       0.37500000000000000        0.0000000000000000     
  0.62500000000000000       0.37500000000000000        0.0000000000000000     
  0.62500000000000000       0.25000000000000000        0.0000000000000000     
  0.65625000000000000       0.25000000000000000        0.0000000000000000     
  0.68750000000000000       0.25000000000000000        0.0000000000000000     
  0.71875000000000000       0.25000000000000000        0.0000000000000000     
  0.75000000000000000       0.25000000000000000        0.0000000000000000     
  0.62500000000000000       0.28125000000000000        0.0000000000000000     
  0.65625000000000000       0.28125000000000000        0.0000000000000000     
  0.68750000000000000       0.28125000000000000        0.0000000000000000     
  0.71875000000000000       0.28125000000000000        0.0000000000000000     
  0.75000000000000000       0.28125000000000000        0.0000000000000000     
  0.62500000000000000       0.31250000000000000        0.0000000000000000     
  0.65625000000000000       0.31250000000000000        0.0000000000000000     
  0.68750000000000000       0.31250000000000000        0.0000000000000000     
  0.71875000000000000       0.31250000000000000        0.0000000000000000     
  0.75000000000000000       0.31250000000000000        0.0000000000000000     
  0.62500000000000000       0.34375000000000000        0.0000000000000000     
  0.65625000000000000       0.34375000000000000        0.0000000000000000     
  0.68750000000000000       0.34375000000000000        0.0000000000000000     
  0.71875000000000000       0.34375000000000000        0.0000000000000000     
  0.75000000000000000       0.34375000000000000        0.0000000000000000     
  0.62500000000000000       0.37500000000000000        0.0000000000000000     
  0.65625000000000000       0.37500000000000000        0.0000000000000000     
  0.68750000000000000       0.37500000000000000        0.0000000000000000     
  0.71875000000000000       0.37500000000000000        0.0000000000000000     
  0.75000000000000000       0.37500000000000000        0.0000000000000000     
  0.75000000000000000       0.25000000000000000        0.0000000000000000     
  0.78125000000000000       0.25000000000000000        0.0000000000000000     
  0.81250000000000000       0.25000000000000000        0.0000000000000000     
  0.84375000000000000       0.25000000000000000        0.0000000000000000     
  0.87500000000000000       0.25000000000000000        0.0000000000000000     
  0.75000000000000000       0.28125000000000000        0.0000000000000000     
  0.78125000000000000       0.28125000000000000        0.0000000000000000     
  0.81250000000000000       0.28125000000000000        0.0000000000000000     
  0.84375000000000000       0.28125000000000000        0.0000000000000000     
  0.87500000000000000       0.28125000000000000        0.0000000000000000     
  0.75000000000000000       0.31250000000000000        0.0000000000000000     
  0.78125000000000000       0.31250000000000000        0.0000000000000000     
  0.81250000000000000       0.31250000000000000        0.0000000000000000     
  0.84375000000000000       0.31250000000000000        0.0000000000000000     
  0.87500000000000000       0.31250000000000000        0.0000000000000000     
  0.75000000000000000       0.34375000000000000        0.0000000000000000     
  0.78125000000000000       0.34375000000000000        0.0000000000000000     
  0.81250000000000000       0.34375000000000000        0.0000000000000000     
  0.84375000000000000       0.34375000000000000        0.0000000000000000     
  0.87500000000000000       0.34375000000000000        0.0000000000000000     
  0.75000000000000000       0.37500000000000000        0.0000000000000000     
  0.78125000000000000       0.37500000000000000        0.0000000000000000     
  0.81250000000000000       0.37500000000000000        0.0000000000000000     
  0.84375000000000000       0.37500000000000000        0.0000000000000000     
  0.87500000000000000       0.37500000000000000        0.0000000000000000     
  0.87500000000000000       0.25000000000000000        0.0000000000000000     
  0.90625000000000000       0.25000000000000000        0.0000000000000000     
  0.93750000000000000       0.25000000000000000        0.0000000000000000     
  0.96875000000000000       0.25000000000000000        0.0000000000000000     
   1.0000000000000000       0.25000000000000000        0.0000000000000000     
  0.87500000000000000       0.28125000000000000        0.0000000000000000     
  0.90625000000000000       0.28125000000000000        0.0000000000000000     
  0.93750000000000000       0.28125000000000000        0.0000000000000000     
  0.96875000000000000       0.28125000000000000        0.0000000000000000     
   1.0000000000000000       0.28125000000000000        0.0000000000000000     
  0.87500000000000000       0.31250000000000000        0.0000000000000000     
  0.90625000000000000       0.31250000000000000        0.0000000000000000     
  0.93750000000000000       0.31250000000000000        0.0000000000000000     
  0.96875000000000000       0.31250000000000000        0.0000000000000000     
   1.0000000000000000       0.31250000000000000        0.0000000000000000     
  0.87500000000000000       0.34375000000000000        0.0000000000000000     
  0.90625000000000000       0.34375000000000000        0.0000000000000000     
  0.93750000000000000       0.34375000000000000        0.0000000000000000     
  0.96875000000000000       0.34375000000000000        0.0000000000000000     
   1.0000000000000000       0.34375000000000000        0.0000000000000000     
  0.87500000000000000       0.37500000000000000        0.0000000000000000     
  0.90625000000000000       0.37500000000000000        0.0000000000000000     
  0.93750000000000000       0.37500000000000000        0.0000000000000000     
  0.96875000000000000       0.37500000000000000        0.0000000000000000     
   1.0000000000000000       0.37500000000000000        0.0000000000000000     
   1.0000000000000000       0.25000000000000000        0.0000000000000000     
   1.0312500000000000       0.25000000000000000        0.0000000000000000     
   1.0625000000000000       0.25000000000000000        0.0000000000000000     
   1.0937500000000000       0.25000000000000000        0.0000000000000000     
   1.1250000000000000       0.25000000000000000        0.0000000000000000     
   1.0000000000000000       0.28125000000000000        0.0000000000000000     
   1.0312500000000000       0.28125000000000000        0.0000000000000000     
   1.0625000000000000       0.28125000000000000        0.0000000000000000     
   1.0937500000000000       0.28125000000000000        0.0000000000000000     
   1.1250000000000000       0.28125000000000000        0.0000000000000000     
   1.0000000000000000       0.31250000000000000        0.0000000000000000     
   1.0312500000000000       0.31250000000000000        0.0000000000000000     
   1.0625000000000000       0.31250000000000000        0.0000000000000000     
   1.0937500000000000       0.31250000000000000        0.0000000000000000     
   1.1250000000000000       0.31250000000000000        0.0000000000000000     
   1.0000000000000000       0.34375000000000000        0.0000000000000000     
   1.0312500000000000       0.34375000000000000        0.0000000000000000     
   1.0625000000000000       0.34375000000000000        0.0000000000000000     
   1.0937500000000000       0.34375000000000000        0.0000000000000000     
   1.1250000000000000       0.34375000000000000        0.0000000000000000     
   1.0000000000000000       0.37500000000000000        0.0000000000000000     
   1.0312500000000000       0.37500000000000000        0.0000000000000000     
   1.0625000000000000       0.37500000000000000        0.0000000000000000     
   1.0937500000000000       0.37500000000000000        0.0000000000000000     
   1.1250000000000000       0.37500000000000000        0.0000000000000000     
   1.1250000000000000       0.25000000000000000        0.0000000000000000     
   1.1562500000000000       0.25000000000000000        0.0000000000000000     
   1.1875000000000000       0.25000000000000000        0.0000000000000000     
   1.2187500000000000       0.25000000000000000        0.0000000000000000     
   1.2500000000000000       0.25000000000000000        0.0000000000000000     
   1.1250000000000000       0.28125000000000000        0.0000000000000000     
   1.1562500000000000       0.28125000000000000        0.0000000000000000     
   1.1875000000000000       0.28125000000000000        0.0000000000000000     
   1.2187500000000000       0.28125000000000000        0.0000000000000000     
   1.2500000000000000       0.28125000000000000        0.0000000000000000     
   1.1250000000000000       0.31250000000000000        0.0000000000000000     
   1.1562500000000000       0.31250000000000000        0.0000000000000000     
   1.1875000000000000       0.31250000000000000        0.0000000000000000     
   1.2187500000000000       0.31250000000000000        0.0000000000000000     
   1.2500000000000000       0.31250000000000000        0.0000000000000000     
   1.1250000000000000       0.34375000000000000        0.0000000000000000     
   1.1562500000000000       0.34375000000000000        0.0000000000000000     
   1.1875000000000000       0.34375000000000000        0.0000000000000000     
   1.2187500000000000       0.34375000000000000        0.0000000000000000     
   1.2500000000000000       0.34375000000000000        0.0000000000000000     
   1.1250000000000000       0.37500000000000000        0.0000000000000000     
   1.1562500000000000       0.37500000000000000        0.0000000000000000     
   1.1875000000000000       0.37500000000000000        0.0000000000000000     
   1.2187500000000000       0.37500000000000000        0.0000000000000000     
   1.2500000000000000       0.37500000000000000        0.0000000000000000     
   1.2500000000000000       0.25000000000000000        0.0000000000000000     
   1.2812500000000000       0.25000000000000000        0.0000000000000000     
   1.3125000000000000       0.25000000000000000        0.0000000000000000     
   1.3437500000000000       0.25000000000000000        0.0000000000000000     
   1.3750000000000000       0.25000000000000000        0.0000000000000000     
   1.2500000000000000       0.28125000000000000        0.0000000000000000     
   1.2812500000000000       0.28125000000000000        0.0000000000000000     
   1.3125000000000000       0.28125000000000000        0.0000000000000000     
   1.3437500000000000       0.28125000000000000        0.0000000000000000     
   1.3750000000000000       0.28125000000000000        0.0000000000000000     
   1.2500000000000000       0.31250000000000000        0.0000000000000000     
   1.2812500000000000       0.31250000000000000        0.0000000000000000     
   1.3125000000000000       0.31250000000000000        0.0000000000000000     
   1.3437500000000000       0.31250000000000000        0.0000000000000000     
   1.3750000000000000       0.31250000000000000        0.0000000000000000     
   1.2500000000000000       0.34375000000000000        0.0000000000000000     
   1.2812500000000000       0.34375000000000000        0.0000000000000000     
   1.3125000000000000       0.34375000000000000        0.0000000000000000     
   1.3437500000000000       0.34375000000000000        0.0000000000000000     
   1.3750000000000000       0.34375000000000000        0.0000000000000000     
   1.2500000000000000       0.37500000000000000        0.0000000000000000     
   1.2812500000000000       0.37500000000000000        0.0000000000000000     
   1.3125000000000000       0.37500000000000000        0.0000000000000000     
   1.3437500000000000       0.37500000000000000        0.0000000000000000     
   1.3750000000000000       0.37500000000000000        0.0000000000000000     
   1.3750000000000000       0.25000000000000000        0.0000000000000000     
   1.4062500000000000       0.25000000000000000        0.0000000000000000     
   1.4375000000000000       0.25000000000000000        0.0000000000000000     
   1.4687500000000000       0.25000000000000000        0.0000000000000000     
   1.5000000000000000       0.25000000000000000        0.0000000000000000     
   1.3750000000000000       0.28125000000000000        0.0000000000000000     
   1.4062500000000000       0.28125000000000000        0.0000000000000000     
   1.4375000000000000       0.28125000000000000        0.0000000000000000     
   1.4687500000000000       0.28125000000000000        0.0000000000000000     
   1.5000000000000000       0.28125000000000000        0.0000000000000000     
   1.3750000000000000       0.31250000000000000        0.0000000000000000     
   1.4062500000000000       0.31250000000000000        0.0000000000000000     
   1.4375000000000000       0.31250000000000000        0.0000000000000000     
   1.4687500000000000       0.31250000000000000        0.0000000000000000     
   1.5000000000000000       0.31250000000000000        0.0000000000000000     
   1.3750000000000000       0.34375000000000000        0.0000000000000000     
   1.4062500000000000       0.34375000000000000        0.0000000000000000     
   1.4375000000000000       0.34375000000000000        0.0000000000000000     
   1.4687500000000000       0.34375000000000000        0.0000000000000000     
   1.5000000000000000       0.34375000000000000        0.0000000000000000     
   1.3750000000000000       0.37500000000000000        0.0000000000000000     
   1.4062500000000000       0.37500000000000000        0.0000000000000000     
   1.4375000000000000       0.37500000000000000        0.0000000000000000     
   1.4687500000000000       0.37500000000000000        0.0000000000000000     
   1.5000000000000000       0.37500000000000000        0.0000000000000000     
  0.50000000000000000       0.37500000000000000        0.0000000000000000     
  0.53125000000000000       0.37500000000000000        0.0000000000000000     
  0.56250000000000000       0.37500000000000000        0.0000000000000000     
  0.59375000000000000       0.37500000000000000        0.0000000000000000     
  0.62500000000000000       0.37500000000000000        0.0000000000000000     
  0.50000000000000000       0.40625000000000000        0.0000000000000000     
  0.53125000000000000       0.40625000000000000        0.0000000000000000     
  0.56250000000000000       0.40625000000000000        0.0000000000000000     
  0.59375000000000000       0.40625000000000000        0.0000000000000000     
  0.62500000000000000       0.40625000000000000        0.0000000000000000     
  0.50000000000000000       0.43750000000000000        0.0000000000000000     
  0.53125000000000000       0.43750000000000000        0.0000000000000000     
  0.56250000000000000       0.43750000000000000        0.0000000000000000     
  0.59375000000000000       0.43750000000000000        0.0000000000000000     
  0.62500000000000000       0.43750000000000000        0.0000000000000000     
  0.50000000000000000       0.46875000000000000        0.0000000000000000     
  0.53125000000000000       0.46875000000000000        0.0000000000000000     
  0.56250000000000000       0.46875000000000000        0.0000000000000000     
  0.59375000000000000       0.46875000000000000        0.0000000000000000     
  0.62500000000000000       0.46875000000000000        0.0000000000000000     
  0.50000000000000000       0.50000000000000000        0.0000000000000000     
  0.53125000000000000       0.50000000000000000        0.0000000000000000     
  0.56250000000000000       0.50000000000000000        0.0000000000000000     
  0.59375000000000000       0.50000000000000000        0.0000000000000000     
  0.62500000000000000       0.50000000000000000        0.0000000000000000     
  0.62500000000000000       0.37500000000000000        0.0000000000000000     
  0.65625000000000000       0.37500000000000000        0.0000000000000000     
  0.68750000000000000       0.37500000000000000        0.0000000000000000     
  0.71875000000000000       0.37500000000000000        0.0000000000000000     
  0.75000000000000000       0.37500000000000000        0.0000000000000000     
  0.62500000000000000       0.40625000000000000        0.0000000000000000     
  0.65625000000000000       0.40625000000000000        0.0000000000000000     
  0.68750000000000000       0.40625000000000000        0.0000000000000000     
  0.71875000000000000       0.40625000000000000        0.0000000000000000     
  0.75000000000000000       0.40625000000000000        0.0000000000000000     
  0.62500000000000000       0.43750000000000000        0.0000000000000000     
  0.65625000000000000       0.43750000000000000        0.0000000000000000     
  0.68750000000000000       0.43750000000000000        0.0000000000000000     
  0.71875000000000000       0.43750000000000000        0.0000000000000000     
  0.75000000000000000       0.43750000000000000        0.0000000000000000     
  0.62500000000000000       0.46875000000000000        0.0000000000000000     
  0.65625000000000000       0.46875000000000000        0.0000000000000000     
  0.68750000000000000       0.46875000000000000        0.0000000000000000     
  0.71875000000000000       0.46875000000000000        0.0000000000000000     
  0.75000000000000000       0.46875000000000000        0.0000000000000000     
  0.62500000000000000       0.50000000000000000        0.0000000000000000     
  0.65625000000000000       0.50000000000000000        0.0000000000000000     
  0.68750000000000000       0.50000000000000000        0.0000000000000000     
  0.71875000000000000       0.50000000000000000        0.0000000000000000     
  0.75000000000000000       0.50000000000000000        0.0000000000000000     
  0.75000000000000000       0.37500000000000000        0.0000000000000000     
  0.78125000000000000       0.37500000000000000        0.0000000000000000     
  0.81250000000000000       0.37500000000000000        0.0000000000000000     
  0.84375000000000000       0.37500000000000000        0.0000000000000000     
  0.87500000000000000       0.37500000000000000        0.0000000000000000     
  0.75000000000000000       0.40625000000000000        0.0000000000000000     
  0.78125000000000000       0.40625000000000000        0.0000000000000000     
  0.81250000000000000       0.40625000000000000        0.0000000000000000     
  0.84375000000000000       0.40625000000000000        0.0000000000000000     
  0.87500000000000000       0.40625000000000000        0.0000000000000000     
  0.75000000000000000       0.43750000000000000        0.0000000000000000     
  0.78125000000000000       0.43750000000000000        0.0000000000000000     
  0.81250000000000000       0.43750000000000000        0.0000000000000000     
  0.84375000000000000       0.43750000000000000        0.0000000000000000     
  0.87500000000000000       0.43750000000000000        0.0000000000000000     
  0.75000000000000000       0.46875000000000000        0.0000000000000000     
  0.78125000000000000       0.46875000000000000        0.0000000000000000     
  0.81250000000000000       0.46875000000000000        0.0000000000000000     
  0.84375000000000000       0.46875000000000000        0.0000000000000000     
  0.87500000000000000       0.46875000000000000        0.0000000000000000     
  0.75000000000000000       0.50000000000000000        0.0000000000000000     
  0.78125000000000000       0.50000000000000000        0.0000000000000000     
  0.81250000000000000       0.50000000000000000        0.0000000000000000     
  0.84375000000000000       0.50000000000000000        0.0000000000000000     
  0.87500000000000000       0.50000000000000000        0.0000000000000000     
  0.87500000000000000       0.37500000000000000        0.0000000000000000     
  0.90625000000000000       0.37500000000000000        0.0000000000000000     
  0.93750000000000000       0.37500000000000000        0.0000000000000000     
  0.96875000000000000       0.37500000000000000        0.0000000000000000     
   1.0000000000000000       0.37500000000000000        0.0000000000000000     
  0.87500000000000000       0.40625000000000000        0.0000000000000000     
  0.90625000000000000       0.40625000000000000        0.0000000000000000     
  0.93750000000000000       0.40625000000000000        0.0000000000000000     
  0.96875000000000000       0.40625000000000000        0.0000000000000000     
   1.0000000000000000       0.40625000000000000        0.0000000000000000     
  0.87500000000000000       0.43750000000000000        0.0000000000000000     
  0.90625000000000000       0.43750000000000000        0.0000000000000000     
  0.93750000000000000       0.43750000000000000        0.0000000000000000     
  0.96875000000000000       0.43750000000000000        0.0000000000000000     
   1.0000000000000000       0.43750000000000000        0.0000000000000000     
  0.87500000000000000       0.46875000000000000        0.0000000000000000     
  0.90625000000000000       0.46875000000000000        0.0000000000000000     
  0.93750000000000000       0.46875000000000000        0.0000000000000000     
  0.96875000000000000       0.46875000000000000        0.0000000000000000     
   1.0000000000000000       0.46875000000000000        0.0000000000000000     
  0.87500000000000000       0.50000000000000000        0.0000000000000000     
  0.90625000000000000       0.50000000000000000        0.0000000000000000     
  0.93750000000000000       0.50000000000000000        0.0000000000000000     
  0.96875000000000000       0.50000000000000000        0.0000000000000000     
   1.0000000000000000       0.50000000000000000        0.0000000000000000     
   1.0000000000000000       0.37500000000000000        0.0000000000000000     
   1.0312500000000000       0.37500000000000000        0.0000000000000000     
   1.0625000000000000       0.37500000000000000        0.0000000000000000     
   1.0937500000000000       0.37500000000000000        0.0000000000000000     
   1.1250000000000000       0.37500000000000000        0.0000000000000000     
   1.0000000000000000       0.40625000000000000        0.0000000000000000     
   1.0312500000000000       0.40625000000000000        0.0000000000000000     
   1.0625000000000000       0.40625000000000000        0.0000000000000000     
   1.0937500000000000       0.40625000000000000        0.0000000000000000     
   1.1250000000000000       0.40625000000000000        0.0000000000000000     
   1.0000000000000000       0.43750000000000000        0.0000000000000000     
   1.0312500000000000       0.43750000000000000        0.0000000000000000     
   1.0625000000000000       0.43750000000000000        0.0000000000000000     
   1.0937500000000000       0.43750000000000000        0.0000000000000000     
   1.1250000000000000       0.43750000000000000        0.0000000000000000     
   1.0000000000000000       0.46875000000000000        0.0000000000000000     
   1.0312500000000000       0.46875000000000000        0.0000000000000000     
   1.0625000000000000       0.46875000000000000        0.0000000000000000     
   1.0937500000000000       0.46875000000000000        0.0000000000000000     
   1.1250000000000000       0.46875000000000000        0.0000000000000000     
   1.0000000000000000       0.50000000000000000        0.0000000000000000     
   1.0312500000000000       0.50000000000000000        0.0000000000000000     
   1.0625000000000000       0.50000000000000000        0.0000000000000000     
   1.0937500000000000       0.50000000000000000        0.0000000000000000     
   1.1250000000000000       0.50000000000000000        0.0000000000000000     
   1.1250000000000000       0.37500000000000000        0.0000000000000000     
   1.1562500000000000       0.37500000000000000        0.0000000000000000     
   1.1875000000000000       0.37500000000000000        0.0000000000000000     
   1.2187500000000000       0.37500000000000000        0.0000000000000000     
   1.2500000000000000       0.37500000000000000        0.0000000000000000     
   1.1250000000000000       0.40625000000000000        0.0000000000000000     
   1.1562500000000000       0.40625000000000000        0.0000000000000000     
   1.1875000000000000       0.40625000000000000        0.0000000000000000     
   1.2187500000000000       0.40625000000000000        0.0000000000000000     
   1.2500000000000000       0.40625000000000000        0.0000000000000000     
   1.1250000000000000       0.43750000000000000        0.0000000000000000     
   1.1562500000000000       0.43750000000000000        0.0000000000000000     
   1.1875000000000000       0.43750000000000000        0.0000000000000000     
   1.2187500000000000       0.43750000000000000        0.0000000000000000     
   1.2500000000000000       0.43750000000000000        0.0000000000000000     
   1.1250000000000000       0.46875000000000000        0.0000000000000000     
   1.1562500000000000       0.46875000000000000        0.0000000000000000     
   1.1875000000000000       0.46875000000000000        0.0000000000000000     
   1.2187500000000000       0.46875000000000000        0.0000000000000000     
   1.2500000000000000       0.46875000000000000        0.0000000000000000     
   1.1250000000000000       0.50000000000000000        0.0000000000000000     
   1.1562500000000000       0.50000000000000000        0.0000000000000000     
   1.1875000000000000       0.50000000000000000        0.0000000000000000     
   1.2187500000000000       0.50000000000000000        0.0000000000000000     
   1.2500000000000000       0.50000000000000000        0.0000000000000000     
   1.2500000000000000       0.37500000000000000        0.0000000000000000     
   1.2812500000000000       0.37500000000000000        0.0000000000000000     
   1.3125000000000000       0.37500000000000000        0.0000000000000000     
   1.3437500000000000       0.37500000000000000        0.0000000000000000     
   1.3750000000000000       0.37500000000000000        0.0000000000000000     
   1.2500000000000000       0.40625000000000000        0.0000000000000000     
   1.2812500000000000       0.40625000000000000        0.0000000000000000     
   1.3125000000000000       0.40625000000000000        0.0000000000000000     
   1.3437500000000000       0.40625000000000000        0.0000000000000000     
   1.3750000000000000       0.40625000000000000        0.0000000000000000     
   1.2500000000000000       0.43750000000000000        0.0000000000000000     
   1.2812500000000000       0.43750000000000000        0.0000000000000000     
   1.3125000000000000       0.43750000000000000        0.0000000000000000     
   1.3437500000000000       0.43750000000000000        0.0000000000000000     
   1.3750000000000000       0.43750000000000000        0.0000000000000000     
   1.2500000000000000       0.46875000000000000        0.0000000000000000     
   1.2812500000000000       0.46875000000000000        0.0000000000000000     
   1.3125000000000000       0.46875000000000000        0.0000000000000000     
   1.3437500000000000       0.46875000000000000        0.0000000000000000     
   1.3750000000000000       0.46875000000000000        0.0000000000000000     
   1.2500000000000000       0.50000000000000000        0.0000000000000000     
   1.2812500000000000       0.50000000000000000        0.0000000000000000     
   1.3125000000000000       0.50000000000000000        0.0000000000000000     
   1.3437500000000000       0.50000000000000000        0.0000000000000000     
   1.3750000000000000       0.50000000000000000        0.0000000000000000     
   1.3750000000000000       0.37500000000000000        0.0000000000000000     
   1.4062500000000000       0.37500000000000000        0.0000000000000000     
   1.4375000000000000       0.37500000000000000        0.0000000000000000     
   1.4687500000000000       0.37500000000000000        0.0000000000000000     
   1.5000000000000000       0.37500000000000000        0.0000000000000000     
   1.3750000000000000       0.40625000000000000        0.0000000000000000     
   1.4062500000000000       0.40625000000000000        0.0000000000000000     
   1.4375000000000000       0.40625000000000000        0.0000000000000000     
   1.4687500000000000       0.40625000000000000        0.0000000000000000     
   1.5000000000000000       0.40625000000000000        0.0000000000000000     
   1.3750000000000000       0.43750000000000000        0.0000000000000000     
   1.4062500000000000       0.43750000000000000        0.0000000000000000     
   1.4375000000000000       0.43750000000000000        0.0000000000000000     
   1.4687500000000000       0.43750000000000000        0.0000000000000000     
   1.5000000000000000       0.43750000000000000        0.0000000000000000     
   1.3750000000000000       0.46875000000000000        0.0000000000000000     
   1.4062500000000000       0.46875000000000000        0.0000000000000000     
   1.4375000000000000       0.46875000000000000        0.0000000000000000     
   1.4687500000000000       0.46875000000000000        0.0000000000000000     
   1.5000000000000000       0.46875000000000000        0.0000000000000000     
   1.3750000000000000       0.50000000000000000        0.0000000000000000     
   1.4062500000000000       0.50000000000000000        0.0000000000000000     
   1.4375000000000000       0.50000000000000000        0.0000000000000000     
   1.4687500000000000       0.50000000000000000        0.0000000000000000     
   1.5000000000000000       0.50000000000000000        0.0000000000000000     
  0.50000000000000000       0.50000000000000000        0.0000000000000000     
  0.53125000000000000       0.50000000000000000        0.0000000000000000     
  0.56250000000000000       0.50000000000000000        0.0000000000000000     
  0.59375000000000000       0.50000000000000000        0.0000000000000000     
  0.62500000000000000       0.50000000000000000        0.0000000000000000     
  0.50000000000000000       0.53125000000000000        0.0000000000000000     
  0.53125000000000000       0.53125000000000000        0.0000000000000000     
  0.56250000000000000       0.53125000000000000        0.0000000000000000     
  0.59375000000000000       0.53125000000000000        0.0000000000000000     
  0.62500000000000000       0.53125000000000000        0.0000000000000000     
  0.50000000000000000       0.56250000000000000        0.0000000000000000     
  0.53125000000000000       0.56250000000000000        0.0000000000000000     
  0.56250000000000000       0.56250000000000000        0.0000000000000000     
  0.59375000000000000       0.56250000000000000        0.0000000000000000     
  0.62500000000000000       0.56250000000000000        0.0000000000000000     
  0.50000000000000000       0.59375000000000000        0.0000000000000000     
  0.53125000000000000       0.59375000000000000        0.0000000000000000     
  0.56250000000000000       0.59375000000000000        0.0000000000000000     
  0.59375000000000000       0.59375000000000000        0.0000000000000000     
  0.62500000000000000       0.59375000000000000        0.0000000000000000     
  0.50000000000000000       0.62500000000000000        0.0000000000000000     
  0.53125000000000000       0.62500000000000000        0.0000000000000000     
  0.56250000000000000       0.62500000000000000        0.0000000000000000     
  0.59375000000000000       0.62500000000000000        0.0000000000000000     
  0.62500000000000000       0.62500000000000000        0.0000000000000000     
  0.62500000000000000       0.50000000000000000        0.0000000000000000     
  0.65625000000000000       0.50000000000000000        0.0000000000000000     
  0.68750000000000000       0.50000000000000000        0.0000000000000000     
  0.71875000000000000       0.50000000000000000        0.0000000000000000     
  0.75000000000000000       0.50000000000000000        0.0000000000000000     
  0.62500000000000000       0.53125000000000000        0.0000000000000000     
  0.65625000000000000       0.53125000000000000        0.0000000000000000     
  0.68750000000000000       0.53125000000000000        0.0000000000000000     
  0.71875000000000000       0.53125000000000000        0.0000000000000000     
  0.75000000000000000       0.53125000000000000        0.0000000000000000     
  0.62500000000000000       0.56250000000000000        0.0000000000000000     
  0.65625000000000000       0.56250000000000000        0.0000000000000000     
  0.68750000000000000       0.56250000000000000        0.0000000000000000     
  0.71875000000000000       0.56250000000000000        0.0000000000000000     
  0.75000000000000000       0.56250000000000000        0.0000000000000000     
  0.62500000000000000       0.59375000000000000        0.0000000000000000     
  0.65625000000000000       0.59375000000000000        0.0000000000000000     
  0.68750000000000000       0.59375000000000000        0.0000000000000000     
  0.71875000000000000       0.59375000000000000        0.0000000000000000     
  0.75000000000000000       0.59375000000000000        0.0000000000000000     
  0.62500000000000000       0.62500000000000000        0.0000000000000000     
  0.65625000000000000       0.62500000000000000        0.0000000000000000     
  0.68750000000000000       0.62500000000000000        0.0000000000000000     
  0.71875000000000000       0.62500000000000000        0.0000000000000000     
  0.75000000000000000       0.62500000000000000        0.0000000000000000     
  0.75000000000000000       0.50000000000000000        0.0000000000000000     
  0.78125000000000000       0.50000000000000000        0.0000000000000000     
  0.81250000000000000       0.50000000000000000        0.0000000000000000     
  0.84375000000000000       0.50000000000000000        0.0000000000000000     
  0.87500000000000000       0.50000000000000000        0.0000000000000000     
  0.75000000000000000       0.53125000000000000        0.0000000000000000     
  0.78125000000000000       0.53125000000000000        0.0000000000000000     
  0.81250000000000000       0.53125000000000000        0.0000000000000000     
  0.84375000000000000       0.53125000000000000        0.0000000000000000     
  0.87500000000000000       0.53125000000000000        0.0000000000000000     
  0.75000000000000000       0.56250000000000000        0.0000000000000000     
  0.78125000000000000       0.56250000000000000        0.0000000000000000     
  0.81250000000000000       0.56250000000000000        0.0000000000000000     
  0.84375000000000000       0.56250000000000000        0.0000000000000000     
  0.87500000000000000       0.56250000000000000        0.0000000000000000     
  0.75000000000000000       0.59375000000000000        0.0000000000000000     
  0.78125000000000000       0.59375000000000000        0.0000000000000000     
  0.81250000000000000       0.59375000000000000        0.0000000000000000     
  0.84375000000000000       0.59375000000000000        0.0000000000000000     
  0.87500000000000000       0.59375000000000000        0.0000000000000000     
  0.75000000000000000       0.62500000000000000        0.0000000000000000     
  0.78125000000000000       0.62500000000000000        0.0000000000000000     
  0.81250000000000000       0.62500000000000000        0.0000000000000000     
  0.84375000000000000       0.62500000000000000        0.0000000000000000     
  0.87500000000000000       0.62500000000000000        0.0000000000000000     
  0.87500000000000000       0.50000000000000000        0.0000000000000000     
  0.90625000000000000       0.50000000000000000        0.0000000000000000     
  0.93750000000000000       0.50000000000000000        0.0000000000000000     
  0.96875000000000000       0.50000000000000000        0.0000000000000000     
   1.0000000000000000       0.50000000000000000        0.0000000000000000     
  0.87500000000000000       0.53125000000000000        0.0000000000000000     
  0.90625000000000000       0.53125000000000000        0.0000000000000000     
  0.93750000000000000       0.53125000000000000        0.0000000000000000     
  0.96875000000000000       0.53125000000000000        0.0000000000000000     
   1.0000000000000000       0.53125000000000000        0.0000000000000000     
  0.87500000000000000       0.56250000000000000        0.0000000000000000     
  0.90625000000000000       0.56250000000000000        0.0000000000000000     
  0.93750000000000000       0.56250000000000000        0.0000000000000000     
  0.96875000000000000       0.56250000000000000        0.0000000000000000     
   1.0000000000000000       0.56250000000000000        0.0000000000000000     
  0.87500000000000000       0.59375000000000000        0.0000000000000000     
  0.90625000000000000       0.59375000000000000        0.0000000000000000     
  0.93750000000000000       0.59375000000000000        0.0000000000000000     
  0.96875000000000000       0.59375000000000000        0.0000000000000000     
   1.0000000000000000       0.59375000000000000        0.0000000000000000     
  0.87500000000000000       0.62500000000000000        0.0000000000000000     
  0.90625000000000000       0.62500000000000000        0.0000000000000000     
  0.93750000000000000       0.62500000000000000        0.0000000000000000     
  0.96875000000000000       0.62500000000000000        0.0000000000000000     
   1.0000000000000000       0.62500000000000000        0.0000000000000000     
   1.0000000000000000       0.50000000000000000        0.0000000000000000     
   1.0312500000000000       0.50000000000000000        0.0000000000000000     
   1.0625000000000000       0.50000000000000000        0.0000000000000000     
   1.0937500000000000       0.50000000000000000        0.0000000000000000     
   1.1250000000000000       0.50000000000000000        0.0000000000000000     
   1.0000000000000000       0.53125000000000000        0.0000000000000000     
   1.0312500000000000       0.53125000000000000        0.0000000000000000     
   1.0625000000000000       0.53125000000000000        0.0000000000000000     
   1.0937500000000000       0.53125000000000000        0.0000000000000000     
   1.1250000000000000       0.53125000000000000        0.0000000000000000     
   1.0000000000000000       0.56250000000000000        0.0000000000000000     
   1.0312500000000000       0.56250000000000000        0.0000000000000000     
   1.0625000000000000       0.56250000000000000        0.0000000000000000     
   1.0937500000000000       0.56250000000000000        0.0000000000000000     
   1.1250000000000000       0.56250000000000000        0.0000000000000000     
   1.0000000000000000       0.59375000000000000        0.0000000000000000     
   1.0312500000000000       0.59375000000000000        0.0000000000000000     
   1.0625000000000000       0.59375000000000000        0.0000000000000000     
   1.0937500000000000       0.59375000000000000        0.0000000000000000     
   1.1250000000000000       0.59375000000000000        0.0000000000000000     
   1.0000000000000000       0.62500000000000000        0.0000000000000000     
   1.0312500000000000       0.62500000000000000        0.0000000000000000     
   1.0625000000000000       0.62500000000000000        0.0000000000000000     
   1.0937500000000000       0.62500000000000000        0.0000000000000000     
   1.1250000000000000       0.62500000000000000        0.0000000000000000     
   1.1250000000000000       0.50000000000000000        0.0000000000000000     
   1.1562500000000000       0.50000000000000000        0.0000000000000000     
   1.1875000000000000       0.50000000000000000        0.0000000000000000     
   1.2187500000000000       0.50000000000000000        0.0000000000000000     
   1.2500000000000000       0.50000000000000000        0.0000000000000000     
   1.1250000000000000       0.53125000000000000        0.0000000000000000     
   1.1562500000000000       0.53125000000000000        0.0000000000000000     
   1.1875000000000000       0.53125000000000000        0.0000000000000000     
   1.2187500000000000       0.53125000000000000        0.0000000000000000     
   1.2500000000000000       0.53125000000000000        0.0000000000000000     
   1.1250000000000000       0.56250000000000000        0.0000000000000000     
   1.1562500000000000       0.56250000000000000        0.0000000000000000     
   1.1875000000000000       0.56250000000000000        0.0000000000000000     
   1.2187500000000000       0.56250000000000000        0.0000000000000000     
   1.2500000000000000       0.56250000000000000        0.0000000000000000     
   1.1250000000000000       0.59375000000000000        0.0000000000000000     
   1.1562500000000000       0.59375000000000000        0.0000000000000000     
   1.1875000000000000       0.59375000000000000        0.0000000000000000     
   1.2187500000000000       0.59375000000000000        0.0000000000000000     
   1.2500000000000000       0.59375000000000000        0.0000000000000000     
   1.1250000000000000       0.62500000000000000        0.0000000000000000     
   1.1562500000000000       0.62500000000000000        0.0000000000000000     
   1.1875000000000000       0.62500000000000000        0.0000000000000000     
   1.2187500000000000       0.62500000000000000        0.0000000000000000     
   1.2500000000000000       0.62500000000000000        0.0000000000000000     
   1.2500000000000000       0.50000000000000000        0.0000000000000000     
   1.2812500000000000       0.50000000000000000        0.0000000000000000     
   1.3125000000000000       0.50000000000000000        0.0000000000000000     
   1.3437500000000000       0.50000000000000000        0.0000000000000000     
   1.3750000000000000       0.50000000000000000        0.0000000000000000     
   1.2500000000000000       0.53125000000000000        0.0000000000000000     
   1.2812500000000000       0.53125000000000000        0.0000000000000000     
   1.3125000000000000       0.53125000000000000        0.0000000000000000     
   1.3437500000000000       0.53125000000000000        0.0000000000000000     
   1.3750000000000000       0.53125000000000000        0.0000000000000000     
   1.2500000000000000       0.56250000000000000        0.0000000000000000     
   1.2812500000000000       0.56250000000000000        0.0000000000000000     
   1.3125000000000000       0.56250000000000000        0.0000000000000000     
   1.3437500000000000       0.56250000000000000        0.0000000000000000     
   1.3750000000000000       0.56250000000000000        0.0000000000000000     
   1.2500000000000000       0.59375000000000000        0.0000000000000000     
   1.2812500000000000       0.59375000000000000        0.0000000000000000     
   1.3125000000000000       0.59375000000000000        0.0000000000000000     
   1.3437500000000000       0.59375000000000000        0.0000000000000000     
   1.3750000000000000       0.59375000000000000        0.0000000000000000     
   1.2500000000000000       0.62500000000000000        0.0000000000000000     
   1.2812500000000000       0.62500000000000000        0.0000000000000000     
   1.3125000000000000       0.62500000000000000        0.0000000000000000     
   1.3437500000000000       0.62500000000000000        0.0000000000000000     
   1.3750000000000000       0.62500000000000000        0.0000000000000000     
   1.3750000000000000       0.50000000000000000        0.0000000000000000     
   1.4062500000000000       0.50000000000000000        0.0000000000000000     
   1.4375000000000000       0.50000000000000000        0.0000000000000000     
   1.4687500000000000       0.50000000000000000        0.0000000000000000     
   1.5000000000000000       0.50000000000000000        0.0000000000000000     
   1.3750000000000000       0.53125000000000000        0.0000000000000000     
   1.4062500000000000       0.53125000000000000        0.0000000000000000     
   1.4375000000000000       0.53125000000000000        0.0000000000000000     
   1.4687500000000000       0.53125000000000000        0.0000000000000000     
   1.5000000000000000       0.53125000000000000        0.0000000000000000     
   1.3750000000000000       0.56250000000000000        0.0000000000000000     
   1.4062500000000000       0.56250000000000000        0.0000000000000000     
   1.4375000000000000       0.56250000000000000        0.0000000000000000     
   1.4687500000000000       0.56250000000000000        0.0000000000000000     
   1.5000000000000000       0.56250000000000000        0.0000000000000000     
   1.3750000000000000       0.59375000000000000        0.0000000000000000     
   1.4062500000000000       0.59375000000000000        0.0000000000000000     
   1.4375000000000000       0.59375000000000000        0.0000000000000000     
   1.4687500000000000       0.59375000000000000        0.0000000000000000     
   1.5000000000000000       0.59375000000000000        0.0000000000000000     
   1.3750000000000000       0.62500000000000000        0.0000000000000000     
   1.4062500000000000       0.62500000000000000        0.0000000000000000     
   1.4375000000000000       0.62500000000000000        0.0000000000000000     
   1.4687500000000000       0.62500000000000000        0.0000000000000000     
   1.5000000000000000       0.62500000000000000        0.0000000000000000     
  0.50000000000000000       0.62500000000000000        0.0000000000000000     
  0.53125000000000000       0.62500000000000000        0.0000000000000000     
  0.56250000000000000       0.62500000000000000        0.0000000000000000     
  0.59375000000000000       0.62500000000000000        0.0000000000000000     
  0.62500000000000000       0.62500000000000000        0.0000000000000000     
  0.50000000000000000       0.65625000000000000        0.0000000000000000     
  0.53125000000000000       0.65625000000000000        0.0000000000000000     
  0.56250000000000000       0.65625000000000000        0.0000000000000000     
  0.59375000000000000       0.65625000000000000        0.0000000000000000     
  0.62500000000000000       0.65625000000000000        0.0000000000000000     
  0.50000000000000000       0.68750000000000000        0.0000000000000000     
  0.53125000000000000       0.68750000000000000        0.0000000000000000     
  0.56250000000000000       0.68750000000000000        0.0000000000000000     
  0.59375000000000000       0.68750000000000000        0.0000000000000000     
  0.62500000000000000       0.68750000000000000        0.0000000000000000     
  0.50000000000000000       0.71875000000000000        0.0000000000000000     
  0.53125000000000000       0.71875000000000000        0.0000000000000000     
  0.56250000000000000       0.71875000000000000        0.0000000000000000     
  0.59375000000000000       0.71875000000000000        0.0000000000000000     
  0.62500000000000000       0.71875000000000000        0.0000000000000000     
  0.50000000000000000       0.75000000000000000        0.0000000000000000     
  0.53125000000000000       0.75000000000000000        0.0000000000000000     
  0.56250000000000000       0.75000000000000000        0.0000000000000000     
  0.59375000000000000       0.75000000000000000        0.0000000000000000     
  0.62500000000000000       0.75000000000000000        0.0000000000000000     
  0.62500000000000000       0.62500000000000000        0.0000000000000000     
  0.65625000000000000       0.62500000000000000        0.0000000000000000     
  0.68750000000000000       0.62500000000000000        0.0000000000000000     
  0.71875000000000000       0.62500000000000000        0.0000000000000000     
  0.75000000000000000       0.62500000000000000        0.0000000000000000     
  0.62500000000000000       0.65625000000000000        0.0000000000000000     
  0.65625000000000000       0.65625000000000000        0.0000000000000000     
  0.68750000000000000       0.65625000000000000        0.0000000000000000     
  0.71875000000000000       0.65625000000000000        0.0000000000000000     
  0.75000000000000000       0.65625000000000000        0.0000000000000000     
  0.62500000000000000       0.68750000000000000        0.0000000000000000     
  0.65625000000000000       0.68750000000000000        0.0000000000000000     
  0.68750000000000000       0.68750000000000000        0.0000000000000000     
  0.71875000000000000       0.68750000000000000        0.0000000000000000     
  0.75000000000000000       0.68750000000000000        0.0000000000000000     
  0.62500000000000000       0.71875000000000000        0.0000000000000000     
  0.65625000000000000       0.71875000000000000        0.0000000000000000     
  0.68750000000000000       0.71875000000000000        0.0000000000000000     
  0.71875000000000000       0.71875000000000000        0.0000000000000000     
  0.75000000000000000       0.71875000000000000        0.0000000000000000     
  0.62500000000000000       0.75000000000000000        0.0000000000000000     
  0.65625000000000000       0.75000000000000000        0.0000000000000000     
  0.68750000000000000       0.75000000000000000        0.0000000000000000     
  0.71875000000000000       0.75000000000000000        0.0000000000000000     
  0.75000000000000000       0.75000000000000000        0.0000000000000000     
  0.75000000000000000       0.62500000000000000        0.0000000000000000     
  0.78125000000000000       0.62500000000000000        0.0000000000000000     
  0.81250000000000000       0.62500000000000000        0.0000000000000000     
  0.84375000000000000       0.62500000000000000        0.0000000000000000     
  0.87500000000000000       0.62500000000000000        0.0000000000000000     
  0.75000000000000000       0.65625000000000000        0.0000000000000000     
  0.78125000000000000       0.65625000000000000        0.0000000000000000     
  0.81250000000000000       0.65625000000000000        0.0000000000000000     
  0.84375000000000000       0.65625000000000000        0.0000000000000000     
  0.87500000000000000       0.65625000000000000        0.0000000000000000     
  0.75000000000000000       0.68750000000000000        0.0000000000000000     
  0.78125000000000000       0.68750000000000000        0.0000000000000000     
  0.81250000000000000       0.68750000000000000        0.0000000000000000     
  0.84375000000000000       0.68750000000000000        0.0000000000000000     
  0.87500000000000000       0.68750000000000000        0.0000000000000000     
  0.75000000000000000       0.71875000000000000        0.0000000000000000     
  0.78125000000000000       0.71875000000000000        0.0000000000000000     
  0.81250000000000000       0.71875000000000000        0.0000000000000000     
  0.84375000000000000       0.71875000000000000        0.0000000000000000     
  0.87500000000000000       0.71875000000000000        0.0000000000000000     
  0.75000000000000000       0.75000000000000000        0.0000000000000000     
  0.78125000000000000       0.75000000000000000        0.0000000000000000     
  0.81250000000000000       0.75000000000000000        0.0000000000000000     
  0.84375000000000000       0.75000000000000000        0.0000000000000000     
  0.87500000000000000       0.75000000000000000        0.0000000000000000     
  0.87500000000000000       0.62500000000000000        0.0000000000000000     
  0.90625000000000000       0.62500000000000000        0.0000000000000000     
  0.93750000000000000       0.62500000000000000        0.0000000000000000     
  0.96875000000000000       0.62500000000000000        0.0000000000000000     
   1.0000000000000000       0.62500000000000000        0.0000000000000000     
  0.87500000000000000       0.65625000000000000        0.0000000000000000     
  0.90625000000000000       0.65625000000000000        0.0000000000000000     
  0.93750000000000000       0.65625000000000000        0.0000000000000000     
  0.96875000000000000       0.65625000000000000        0.0000000000000000     
   1.0000000000000000       0.65625000000000000        0.0000000000000000     
  0.87500000000000000       0.68750000000000000        0.0000000000000000     
  0.90625000000000000       0.68750000000000000        0.0000000000000000     
  0.93750000000000000       0.68750000000000000        0.0000000000000000     
  0.96875000000000000       0.68750000000000000        0.0000000000000000     
   1.0000000000000000       0.68750000000000000        0.0000000000000000     
  0.87500000000000000       0.71875000000000000        0.0000000000000000     
  0.90625000000000000       0.71875000000000000        0.0000000000000000     
  0.93750000000000000       0.71875000000000000        0.0000000000000000     
  0.96875000000000000       0.71875000000000000        0.0000000000000000     
   1.0000000000000000       0.71875000000000000        0.0000000000000000     
  0.87500000000000000       0.75000000000000000        0.0000000000000000     
  0.90625000000000000       0.75000000000000000        0.0000000000000000     
  0.93750000000000000       0.75000000000000000        0.0000000000000000     
  0.96875000000000000       0.75000000000000000        0.0000000000000000     
   1.0000000000000000       0.75000000000000000        0.0000000000000000     
   1.0000000000000000       0.62500000000000000        0.0000000000000000     
   1.0312500000000000       0.62500000000000000        0.0000000000000000     
   1.0625000000000000       0.62500000000000000        0.0000000000000000     
   1.0937500000000000       0.62500000000000000        0.0000000000000000     
   1.1250000000000000       0.62500000000000000        0.0000000000000000     
   1.0000000000000000       0.65625000000000000        0.0000000000000000     
   1.0312500000000000       0.65625000000000000        0.0000000000000000     
   1.0625000000000000       0.65625000000000000        0.0000000000000000     
   1.0937500000000000       0.65625000000000000        0.0000000000000000     
   1.1250000000000000       0.65625000000000000        0.0000000000000000     
   1.0000000000000000       0.68750000000000000        0.0000000000000000     
   1.0312500000000000       0.68750000000000000        0.0000000000000000     
   1.0625000000000000       0.68750000000000000        0.0000000000000000     
   1.0937500000000000       0.68750000000000000        0.0000000000000000     
   1.1250000000000000       0.68750000000000000        0.0000000000000000     
   1.0000000000000000       0.71875000000000000        0.0000000000000000     
   1.0312500000000000       0.71875000000000000        0.0000000000000000     
   1.0625000000000000       0.71875000000000000        0.0000000000000000     
   1.0937500000000000       0.71875000000000000        0.0000000000000000     
   1.1250000000000000       0.71875000000000000        0.0000000000000000     
   1.0000000000000000       0.75000000000000000        0.0000000000000000     
   1.0312500000000000       0.75000000000000000        0.0000000000000000     
   1.0625000000000000       0.75000000000000000        0.0000000000000000     
   1.0937500000000000       0.75000000000000000        0.0000000000000000     
   1.1250000000000000       0.75000000000000000        0.0000000000000000     
   1.1250000000000000       0.62500000000000000        0.0000000000000000     
   1.1562500000000000       0.62500000000000000        0.0000000000000000     
   1.1875000000000000       0.62500000000000000        0.0000000000000000     
   1.2187500000000000       0.62500000000000000        0.0000000000000000     
   1.2500000000000000       0.62500000000000000        0.0000000000000000     
   1.1250000000000000       0.65625000000000000        0.0000000000000000     
   1.1562500000000000       0.65625000000000000        0.0000000000000000     
   1.1875000000000000       0.65625000000000000        0.0000000000000000     
   1.2187500000000000       0.65625000000000000        0.0000000000000000     
   1.2500000000000000       0.65625000000000000        0.0000000000000000     
   1.1250000000000000       0.68750000000000000        0.0000000000000000     
   1.1562500000000000       0.68750000000000000        0.0000000000000000     
   1.1875000000000000       0.68750000000000000        0.0000000000000000     
   1.2187500000000000       0.68750000000000000        0.0000000000000000     
   1.2500000000000000       0.68750000000000000        0.0000000000000000     
   1.1250000000000000       0.71875000000000000        0.0000000000000000     
   1.1562500000000000       0.71875000000000000        0.0000000000000000     
   1.1875000000000000       0.71875000000000000        0.0000000000000000     
   1.2187500000000000       0.71875000000000000        0.0000000000000000     
   1.2500000000000000       0.71875000000000000        0.0000000000000000     
   1.1250000000000000       0.75000000000000000        0.0000000000000000     
   1.1562500000000000       0.75000000000000000        0.0000000000000000     
   1.1875000000000000       0.75000000000000000        0.0000000000000000     
   1.2187500000000000       0.75000000000000000        0.0000000000000000     
   1.2500000000000000       0.75000000000000000        0.0000000000000000     
   1.2500000000000000       0.62500000000000000        0.0000000000000000     
   1.2812500000000000       0.62500000000000000        0.0000000000000000     
   1.3125000000000000       0.62500000000000000        0.0000000000000000     
   1.3437500000000000       0.62500000000000000        0.0000000000000000     
   1.3750000000000000       0.62500000000000000        0.0000000000000000     
   1.2500000000000000       0.65625000000000000        0.0000000000000000     
   1.2812500000000000       0.65625000000000000        0.0000000000000000     
   1.3125000000000000       0.65625000000000000        0.0000000000000000     
   1.3437500000000000       0.65625000000000000        0.0000000000000000     
   1.3750000000000000       0.65625000000000000        0.0000000000000000     
   1.2500000000000000       0.68750000000000000        0.0000000000000000     
   1.2812500000000000       0.68750000000000000        0.0000000000000000     
   1.3125000000000000       0.68750000000000000        0.0000000000000000     
   1.3437500000000000       0.68750000000000000        0.0000000000000000     
   1.3750000000000000       0.68750000000000000        0.0000000000000000     
   1.2500000000000000       0.71875000000000000        0.0000000000000000     
   1.2812500000000000       0.71875000000000000        0.0000000000000000     
   1.3125000000000000       0.71875000000000000        0.0000000000000000     
   1.3437500000000000       0.71875000000000000        0.0000000000000000     
   1.3750000000000000       0.71875000000000000        0.0000000000000000     
   1.2500000000000000       0.75000000000000000        0.0000000000000000     
   1.2812500000000000       0.75000000000000000        0.0000000000000000     
   1.3125000000000000       0.75000000000000000        0.0000000000000000     
   1.3437500000000000       0.75000000000000000        0.0000000000000000     
   1.3750000000000000       0.75000000000000000        0.0000000000000000     
   1.3750000000000000       0.62500000000000000        0.0000000000000000     
   1.4062500000000000       0.62500000000000000        0.0000000000000000     
   1.4375000000000000       0.62500000000000000        0.0000000000000000     
   1.4687500000000000       0.62500000000000000        0.0000000000000000     
   1.5000000000000000       0.62500000000000000        0.0000000000000000     
   1.3750000000000000       0.65625000000000000        0.0000000000000000     
   1.4062500000000000       0.65625000000000000        0.0000000000000000     
   1.4375000000000000       0.65625000000000000        0.0000000000000000     
   1.4687500000000000       0.65625000000000000        0.0000000000000000     
   1.5000000000000000       0.65625000000000000        0.0000000000000000     
   1.3750000000000000       0.68750000000000000        0.0000000000000000     
   1.4062500000000000       0.68750000000000000        0.0000000000000000     
   1.4375000000000000       0.68750000000000000        0.0000000000000000     
   1.4687500000000000       0.68750000000000000        0.0000000000000000     
   1.5000000000000000       0.68750000000000000        0.0000000000000000     
   1.3750000000000000       0.71875000000000000        0.0000000000000000     
   1.4062500000000000       0.71875000000000000        0.0000000000000000     
   1.4375000000000000       0.71875000000000000        0.0000000000000000     
   1.4687500000000000       0.71875000000000000        0.0000000000000000     
   1.5000000000000000       0.71875000000000000        0.0000000000000000     
   1.3750000000000000       0.75000000000000000        0.0000000000000000     
   1.4062500000000000       0.75000000000000000        0.0000000000000000     
   1.4375000000000000       0.75000000000000000        0.0000000000000000     
   1.4687500000000000       0.75000000000000000        0.0000000000000000     
   1.5000000000000000       0.75000000000000000        0.0000000000000000     
  0.50000000000000000       0.75000000000000000        0.0000000000000000     
  0.53125000000000000       0.75000000000000000        0.0000000000000000     
  0.56250000000000000       0.75000000000000000        0.0000000000000000     
  0.59375000000000000       0.75000000000000000        0.0000000000000000     
  0.62500000000000000       0.75000000000000000        0.0000000000000000     
  0.50000000000000000       0.78125000000000000        0.0000000000000000     
  0.53125000000000000       0.78125000000000000        0.0000000000000000     
  0.56250000000000000       0.78125000000000000        0.0000000000000000     
  0.59375000000000000       0.78125000000000000        0.0000000000000000     
  0.62500000000000000       0.78125000000000000        0.0000000000000000     
  0.50000000000000000       0.81250000000000000        0.0000000000000000     
  0.53125000000000000       0.81250000000000000        0.0000000000000000     
  0.56250000000000000       0.81250000000000000        0.0000000000000000     
  0.59375000000000000       0.81250000000000000        0.0000000000000000     
  0.62500000000000000       0.81250000000000000        0.0000000000000000     
  0.50000000000000000       0.84375000000000000        0.0000000000000000     
  0.53125000000000000       0.84375000000000000        0.0000000000000000     
  0.56250000000000000       0.84375000000000000        0.0000000000000000     
  0.59375000000000000       0.84375000000000000        0.0000000000000000     
  0.62500000000000000       0.84375000000000000        0.0000000000000000     
  0.50000000000000000       0.87500000000000000        0.0000000000000000     
  0.53125000000000000       0.87500000000000000        0.0000000000000000     
  0.56250000000000000       0.87500000000000000        0.0000000000000000     
  0.59375000000000000       0.87500000000000000        0.0000000000000000     
  0.62500000000000000       0.87500000000000000        0.0000000000000000     
  0.62500000000000000       0.75000000000000000        0.0000000000000000     
  0.65625000000000000       0.75000000000000000        0.0000000000000000     
  0.68750000000000000       0.75000000000000000        0.0000000000000000     
  0.71875000000000000       0.75000000000000000        0.0000000000000000     
  0.75000000000000000       0.75000000000000000        0.0000000000000000     
  0.62500000000000000       0.78125000000000000        0.0000000000000000     
  0.65625000000000000       0.78125000000000000        0.0000000000000000     
  0.68750000000000000       0.78125000000000000        0.0000000000000000     
  0.71875000000000000       0.78125000000000000        0.0000000000000000     
  0.75000000000000000       0.78125000000000000        0.0000000000000000     
  0.62500000000000000       0.81250000000000000        0.0000000000000000     
  0.65625000000000000       0.81250000000000000        0.0000000000000000     
  0.68750000000000000       0.81250000000000000        0.0000000000000000     
  0.71875000000000000       0.81250000000000000        0.0000000000000000     
  0.75000000000000000       0.81250000000000000        0.0000000000000000     
  0.62500000000000000       0.84375000000000000        0.0000000000000000     
  0.65625000000000000       0.84375000000000000        0.0000000000000000     
  0.68750000000000000       0.84375000000000000        0.0000000000000000     
  0.71875000000000000       0.84375000000000000        0.0000000000000000     
  0.75000000000000000       0.84375000000000000        0.0000000000000000     
  0.62500000000000000       0.87500000000000000        0.0000000000000000     
  0.65625000000000000       0.87500000000000000        0.0000000000000000     
  0.68750000000000000       0.87500000000000000        0.0000000000000000     
  0.71875000000000000       0.87500000000000000        0.0000000000000000     
  0.75000000000000000       0.87500000000000000        0.0000000000000000     
  0.75000000000000000       0.75000000000000000        0.0000000000000000     
  0.78125000000000000       0.75000000000000000        0.0000000000000000     
  0.81250000000000000       0.75000000000000000        0.0000000000000000     
  0.84375000000000000       0.75000000000000000        0.0000000000000000     
  0.87500000000000000       0.75000000000000000        0.0000000000000000     
  0.75000000000000000       0.78125000000000000        0.0000000000000000     
  0.78125000000000000       0.78125000000000000        0.0000000000000000     
  0.81250000000000000       0.78125000000000000        0.0000000000000000     
  0.84375000000000000       0.78125000000000000        0.0000000000000000     
  0.87500000000000000       0.78125000000000000        0.0000000000000000     
  0.75000000000000000       0.81250000000000000        0.0000000000000000     
  0.78125000000000000       0.81250000000000000        0.0000000000000000     
  0.81250000000000000       0.81250000000000000        0.0000000000000000     
  0.84375000000000000       0.81250000000000000        0.0000000000000000     
  0.87500000000000000       0.81250000000000000        0.0000000000000000     
  0.75000000000000000       0.84375000000000000        0.0000000000000000     
  0.78125000000000000       0.84375000000000000        0.0000000000000000     
  0.81250000000000000       0.84375000000000000        0.0000000000000000     
  0.84375000000000000       0.84375000000000000        0.0000000000000000     
  0.87500000000000000       0.84375000000000000        0.0000000000000000     
  0.75000000000000000       0.87500000000000000        0.0000000000000000     
  0.78125000000000000       0.87500000000000000        0.0000000000000000     
  0.81250000000000000       0.87500000000000000        0.0000000000000000     
  0.84375000000000000       0.87500000000000000        0.0000000000000000     
  0.87500000000000000       0.87500000000000000        0.0000000000000000     
  0.87500000000000000       0.75000000000000000        0.0000000000000000     
  0.90625000000000000       0.75000000000000000        0.0000000000000000     
  0.93750000000000000       0.75000000000000000        0.0000000000000000     
  0.96875000000000000       0.75000000000000000        0.0000000000000000     
   1.0000000000000000       0.75000000000000000        0.0000000000000000     
  0.87500000000000000       0.78125000000000000        0.0000000000000000     
  0.90625000000000000       0.78125000000000000        0.0000000000000000     
  0.93750000000000000       0.78125000000000000        0.0000000000000000     
  0.96875000000000000       0.78125000000000000        0.0000000000000000     
   1.0000000000000000       0.78125000000000000        0.0000000000000000     
  0.87500000000000000       0.81250000000000000        0.0000000000000000     
  0.90625000000000000       0.81250000000000000        0.0000000000000000     
  0.93750000000000000       0.81250000000000000        0.0000000000000000     
  0.96875000000000000       0.81250000000000000        0.0000000000000000     
   1.0000000000000000       0.81250000000000000        0.0000000000000000     
  0.87500000000000000       0.84375000000000000        0.0000000000000000     
  0.90625000000000000       0.84375000000000000        0.0000000000000000     
  0.93750000000000000       0.84375000000000000        0.0000000000000000     
  0.96875000000000000       0.84375000000000000        0.0000000000000000     
   1.0000000000000000       0.84375000000000000        0.0000000000000000     
  0.87500000000000000       0.87500000000000000        0.0000000000000000     
  0.90625000000000000       0.87500000000000000        0.0000000000000000     
  0.93750000000000000       0.87500000000000000        0.0000000000000000     
  0.96875000000000000       0.87500000000000000        0.0000000000000000     
   1.0000000000000000       0.87500000000000000        0.0000000000000000     
   1.0000000000000000       0.75000000000000000        0.0000000000000000     
   1.0312500000000000       0.75000000000000000        0.0000000000000000     
   1.0625000000000000       0.75000000000000000        0.0000000000000000     
   1.0937500000000000       0.75000000000000000        0.0000000000000000     
   1.1250000000000000       0.75000000000000000        0.0000000000000000     
   1.0000000000000000       0.78125000000000000        0.0000000000000000     
   1.0312500000000000       0.78125000000000000        0.0000000000000000     
   1.0625000000000000       0.78125000000000000        0.0000000000000000     
   1.0937500000000000       0.78125000000000000        0.0000000000000000     
   1.1250000000000000       0.78125000000000000        0.0000000000000000     
   1.0000000000000000       0.81250000000000000        0.0000000000000000     
   1.0312500000000000       0.81250000000000000        0.0000000000000000     
   1.0625000000000000       0.81250000000000000        0.0000000000000000     
   1.0937500000000000       0.81250000000000000        0.0000000000000000     
   1.1250000000000000       0.81250000000000000        0.0000000000000000     
   1.0000000000000000       0.84375000000000000        0.0000000000000000     
   1.0312500000000000       0.84375000000000000        0.0000000000000000     
   1.0625000000000000       0.84375000000000000        0.0000000000000000     
   1.0937500000000000       0.84375000000000000        0.0000000000000000     
   1.1250000000000000       0.84375000000000000        0.0000000000000000     
   1.0000000000000000       0.87500000000000000        0.0000000000000000     
   1.0312500000000000       0.87500000000000000        0.0000000000000000     
   1.0625000000000000       0.87500000000000000        0.0000000000000000     
   1.0937500000000000       0.87500000000000000        0.0000000000000000     
   1.1250000000000000       0.87500000000000000        0.0000000000000000     
   1.1250000000000000       0.75000000000000000        0.0000000000000000     
   1.1562500000000000       0.75000000000000000        0.0000000000000000     
   1.1875000000000000       0.75000000000000000        0.0000000000000000     
   1.2187500000000000       0.75000000000000000        0.0000000000000000     
   1.2500000000000000       0.75000000000000000        0.0000000000000000     
   1.1250000000000000       0.78125000000000000        0.0000000000000000     
   1.1562500000000000       0.78125000000000000        0.0000000000000000     
   1.1875000000000000       0.78125000000000000        0.0000000000000000     
   1.2187500000000000       0.78125000000000000        0.0000000000000000     
   1.2500000000000000       0.78125000000000000        0.0000000000000000     
   1.1250000000000000       0.81250000000000000        0.0000000000000000     
   1.1562500000000000       0.81250000000000000        0.0000000000000000     
   1.1875000000000000       0.81250000000000000        0.0000000000000000     
   1.2187500000000000       0.81250000000000000        0.0000000000000000     
   1.2500000000000000       0.81250000000000000        0.0000000000000000     
   1.1250000000000000       0.84375000000000000        0.0000000000000000     
   1.1562500000000000       0.84375000000000000        0.0000000000000000     
   1.1875000000000000       0.84375000000000000        0.0000000000000000     
   1.2187500000000000       0.84375000000000000        0.0000000000000000     
   1.2500000000000000       0.84375000000000000        0.0000000000000000     
   1.1250000000000000       0.87500000000000000        0.0000000000000000     
   1.1562500000000000       0.87500000000000000        0.0000000000000000     
   1.1875000000000000       0.87500000000000000        0.0000000000000000     
   1.2187500000000000       0.87500000000000000        0.0000000000000000     
   1.2500000000000000       0.87500000000000000        0.0000000000000000     
   1.2500000000000000       0.75000000000000000        0.0000000000000000     
   1.2812500000000000       0.75000000000000000        0.0000000000000000     
   1.3125000000000000       0.75000000000000000        0.0000000000000000     
   1.3437500000000000       0.75000000000000000        0.0000000000000000     
   1.3750000000000000       0.75000000000000000        0.0000000000000000     
   1.2500000000000000       0.78125000000000000        0.0000000000000000     
   1.2812500000000000       0.78125000000000000        0.0000000000000000     
   1.3125000000000000       0.78125000000000000        0.0000000000000000     
   1.3437500000000000       0.78125000000000000        0.0000000000000000     
   1.3750000000000000       0.78125000000000000        0.0000000000000000     
   1.2500000000000000       0.81250000000000000        0.0000000000000000     
   1.2812500000000000       0.81250000000000000        0.0000000000000000     
   1.3125000000000000       0.81250000000000000        0.0000000000000000     
   1.3437500000000000       0.81250000000000000        0.0000000000000000     
   1.3750000000000000       0.81250000000000000        0.0000000000000000     
   1.2500000000000000       0.84375000000000000        0.0000000000000000     
   1.2812500000000000       0.84375000000000000        0.0000000000000000     
   1.3125000000000000       0.84375000000000000        0.0000000000000000     
   1.3437500000000000       0.84375000000000000        0.0000000000000000     
   1.3750000000000000       0.84375000000000000        0.0000000000000000     
   1.2500000000000000       0.87500000000000000        0.0000000000000000     
   1.2812500000000000       0.87500000000000000        0.0000000000000000     
   1.3125000000000000       0.87500000000000000        0.0000000000000000     
   1.3437500000000000       0.87500000000000000        0.0000000000000000     
   1.3750000000000000       0.87500000000000000        0.0000000000000000     
   1.3750000000000000       0.75000000000000000        0.0000000000000000     
   1.4062500000000000       0.75000000000000000        0.0000000000000000     
   1.4375000000000000       0.75000000000000000        0.0000000000000000     
   1.4687500000000000       0.75000000000000000        0.0000000000000000     
   1.5000000000000000       0.75000000000000000        0.0000000000000000     
   1.3750000000000000       0.78125000000000000        0.0000000000000000     
   1.4062500000000000       0.78125000000000000        0.0000000000000000     
   1.4375000000000000       0.78125000000000000        0.0000000000000000     
   1.4687500000000000       0.78125000000000000        0.0000000000000000     
   1.5000000000000000       0.78125000000000000        0.0000000000000000     
   1.3750000000000000       0.81250000000000000        0.0000000000000000     
   1.4062500000000000       0.81250000000000000        0.0000000000000000     
   1.4375000000000000       0.81250000000000000        0.0000000000000000     
   1.4687500000000000       0.81250000000000000        0.0000000000000000     
   1.5000000000000000       0.81250000000000000        0.0000000000000000     
   1.3750000000000000       0.84375000000000000        0.0000000000000000     
   1.4062500000000000       0.84375000000000000        0.0000000000000000     
   1.4375000000000000       0.84375000000000000        0.0000000000000000     
   1.4687500000000000       0.84375000000000000        0.0000000000000000     
   1.5000000000000000       0.84375000000000000        0.0000000000000000     
   1.3750000000000000       0.87500000000000000        0.0000000000000000     
   1.4062500000000000       0.87500000000000000        0.0000000000000000     
   1.4375000000000000       0.87500000000000000        0.0000000000000000     
   1.4687500000000000       0.87500000000000000        0.0000000000000000     
   1.5000000000000000       0.87500000000000000        0.0000000000000000     
  0.50000000000000000       0.87500000000000000        0.0000000000000000     
  0.53125000000000000       0.87500000000000000        0.0000000000000000     
  0.56250000000000000       0.87500000000000000        0.0000000000000000     
  0.59375000000000000       0.87500000000000000        0.0000000000000000     
  0.62500000000000000       0.87500000000000000        0.0000000000000000     
  0.50000000000000000       0.90625000000000000        0.0000000000000000     
  0.53125000000000000       0.90625000000000000        0.0000000000000000     
  0.56250000000000000       0.90625000000000000        0.0000000000000000     
  0.59375000000000000       0.90625000000000000        0.0000000000000000     
  0.62500000000000000       0.90625000000000000        0.0000000000000000     
  0.50000000000000000       0.93750000000000000        0.0000000000000000     
  0.53125000000000000       0.93750000000000000        0.0000000000000000     
  0.56250000000000000       0.93750000000000000        0.0000000000000000     
  0.59375000000000000       0.93750000000000000        0.0000000000000000     
  0.62500000000000000       0.93750000000000000        0.0000000000000000     
  0.50000000000000000       0.96875000000000000        0.0000000000000000     
  0.53125000000000000       0.96875000000000000        0.0000000000000000     
  0.56250000000000000       0.96875000000000000        0.0000000000000000     
  0.59375000000000000       0.96875000000000000        0.0000000000000000     
  0.62500000000000000       0.96875000000000000        0.0000000000000000     
  0.50000000000000000        1.0000000000000000        0.0000000000000000     
  0.53125000000000000        1.0000000000000000        0.0000000000000000     
  0.56250000000000000        1.0000000000000000        0.0000000000000000     
  0.59375000000000000        1.0000000000000000        0.0000000000000000     
  0.62500000000000000        1.0000000000000000        0.0000000000000000     
  0.62500000000000000       0.87500000000000000        0.0000000000000000     
  0.65625000000000000       0.87500000000000000        0.0000000000000000     
  0.68750000000000000       0.87500000000000000        0.0000000000000000     
  0.71875000000000000       0.87500000000000000        0.0000000000000000     
  0.75000000000000000       0.87500000000000000        0.0000000000000000     
  0.62500000000000000       0.90625000000000000        0.0000000000000000     
  0.65625000000000000       0.90625000000000000        0.0000000000000000     
  0.68750000000000000       0.90625000000000000        0.0000000000000000     
  0.71875000000000000       0.90625000000000000        0.0000000000000000     
  0.75000000000000000       0.90625000000000000        0.0000000000000000     
  0.62500000000000000       0.93750000000000000        0.0000000000000000     
  0.65625000000000000       0.93750000000000000        0.0000000000000000     
  0.68750000000000000       0.93750000000000000        0.0000000000000000     
  0.71875000000000000       0.93750000000000000        0.0000000000000000     
  0.75000000000000000       0.93750000000000000        0.0000000000000000     
  0.62500000000000000       0.96875000000000000        0.0000000000000000     
  0.65625000000000000       0.96875000000000000        0.0000000000000000     
  0.68750000000000000       0.96875000000000000        0.0000000000000000     
  0.71875000000000000       0.96875000000000000        0.0000000000000000     
  0.75000000000000000       0.96875000000000000        0.0000000000000000     
  0.62500000000000000        1.0000000000000000        0.0000000000000000     
  0.65625000000000000        1.0000000000000000        0.0000000000000000     
  0.68750000000000000        1.0000000000000000        0.0000000000000000     
  0.71875000000000000        1.0000000000000000        0.0000000000000000     
  0.75000000000000000        1.0000000000000000        0.0000000000000000     
  0.75000000000000000       0.87500000000000000        0.0000000000000000     
  0.78125000000000000       0.87500000000000000        0.0000000000000000     
  0.81250000000000000       0.87500000000000000        0.0000000000000000     
  0.84375000000000000       0.87500000000000000        0.0000000000000000     
  0.87500000000000000       0.87500000000000000        0.0000000000000000     
  0.75000000000000000       0.90625000000000000        0.0000000000000000     
  0.78125000000000000       0.90625000000000000        0.0000000000000000     
  0.81250000000000000       0.90625000000000000        0.0000000000000000     
  0.84375000000000000       0.90625000000000000        0.0000000000000000     
  0.87500000000000000       0.90625000000000000        0.0000000000000000     
  0.75000000000000000       0.93750000000000000        0.0000000000000000     
  0.78125000000000000       0.93750000000000000        0.0000000000000000     
  0.81250000000000000       0.93750000000000000        0.0000000000000000     
  0.84375000000000000       0.93750000000000000        0.0000000000000000     
  0.87500000000000000       0.93750000000000000        0.0000000000000000     
  0.75000000000000000       0.96875000000000000        0.0000000000000000     
  0.78125000000000000       0.96875000000000000        0.0000000000000000     
  0.81250000000000000       0.96875000000000000        0.0000000000000000     
  0.84375000000000000       0.96875000000000000        0.0000000000000000     
  0.87500000000000000       0.96875000000000000        0.0000000000000000     
  0.75000000000000000        1.0000000000000000        0.0000000000000000     
  0.78125000000000000        1.0000000000000000        0.0000000000000000     
  0.81250000000000000        1.0000000000000000        0.0000000000000000     
  0.84375000000000000        1.0000000000000000        0.0000000000000000     
  0.87500000000000000        1.0000000000000000        0.0000000000000000     
  0.87500000000000000       0.87500000000000000        0.0000000000000000     
  0.90625000000000000       0.87500000000000000        0.0000000000000000     
  0.93750000000000000       0.87500000000000000        0.0000000000000000     
  0.96875000000000000       0.87500000000000000        0.0000000000000000     
   1.0000000000000000       0.87500000000000000        0.0000000000000000     
  0.87500000000000000       0.90625000000000000        0.0000000000000000     
  0.90625000000000000       0.90625000000000000        0.0000000000000000     
  0.93750000000000000       0.90625000000000000        0.0000000000000000     
  0.96875000000000000       0.90625000000000000        0.0000000000000000     
   1.0000000000000000       0.90625000000000000        0.0000000000000000     
  0.87500000000000000       0.93750000000000000        0.0000000000000000     
  0.90625000000000000       0.93750000000000000        0.0000000000000000     
  0.93750000000000000       0.93750000000000000        0.0000000000000000     
  0.96875000000000000       0.93750000000000000        0.0000000000000000     
   1.0000000000000000       0.93750000000000000        0.0000000000000000     
  0.87500000000000000       0.96875000000000000        0.0000000000000000     
  0.90625000000000000       0.96875000000000000        0.0000000000000000     
  0.93750000000000000       0.96875000000000000        0.0000000000000000     
  0.96875000000000000       0.96875000000000000        0.0000000000000000     
   1.0000000000000000       0.96875000000000000        0.0000000000000000     
  0.87500000000000000        1.0000000000000000        0.0000000000000000     
  0.90625000000000000        1.0000000000000000        0.0000000000000000     
  0.93750000000000000        1.0000000000000000        0.0000000000000000     
  0.96875000000000000        1.0000000000000000        0.0000000000000000     
   1.0000000000000000        1.0000000000000000        0.0000000000000000     
   1.0000000000000000       0.87500000000000000        0.0000000000000000     
   1.0312500000000000       0.87500000000000000        0.0000000000000000     
   1.0625000000000000       0.87500000000000000        0.0000000000000000     
   1.0937500000000000       0.87500000000000000        0.0000000000000000     
   1.1250000000000000       0.87500000000000000        0.0000000000000000     
   1.0000000000000000       0.90625000000000000        0.0000000000000000     
   1.0312500000000000       0.90625000000000000        0.0000000000000000     
   1.0625000000000000       0.90625000000000000        0.0000000000000000     
   1.0937500000000000       0.90625000000000000        0.0000000000000000     
   1.1250000000000000       0.90625000000000000        0.0000000000000000     
   1.0000000000000000       0.93750000000000000        0.0000000000000000     
   1.0312500000000000       0.93750000000000000        0.0000000000000000     
   1.0625000000000000       0.93750000000000000        0.0000000000000000     
   1.0937500000000000       0.93750000000000000        0.0000000000000000     
   1.1250000000000000       0.93750000000000000        0.0000000000000000     
   1.0000000000000000       0.96875000000000000        0.0000000000000000     
   1.0312500000000000       0.96875000000000000        0.0000000000000000     
   1.0625000000000000       0.96875000000000000        0.0000000000000000     
   1.0937500000000000       0.96875000000000000        0.0000000000000000     
   1.1250000000000000       0.96875000000000000        0.0000000000000000     
   1.0000000000000000        1.0000000000000000        0.0000000000000000     
   1.0312500000000000        1.0000000000000000        0.0000000000000000     
   1.0625000000000000        1.0000000000000000        0.0000000000000000     
   1.0937500000000000        1.0000000000000000        0.0000000000000000     
   1.1250000000000000        1.0000000000000000        0.0000000000000000     
   1.1250000000000000       0.87500000000000000        0.0000000000000000     
   1.1562500000000000       0.87500000000000000        0.0000000000000000     
   1.1875000000000000       0.87500000000000000        0.0000000000000000     
   1.2187500000000000       0.87500000000000000        0.0000000000000000     
   1.2500000000000000       0.87500000000000000        0.0000000000000000     
   1.1250000000000000       0.90625000000000000        0.0000000000000000     
   1.1562500000000000       0.90625000000000000        0.0000000000000000     
   1.1875000000000000       0.90625000000000000        0.0000000000000000     
   1.2187500000000000       0.90625000000000000        0.0000000000000000     
   1.2500000000000000       0.90625000000000000        0.0000000000000000     
   1.1250000000000000       0.93750000000000000        0.0000000000000000     
   1.1562500000000000       0.93750000000000000        0.0000000000000000     
   1.1875000000000000       0.93750000000000000        0.0000000000000000     
   1.2187500000000000       0.93750000000000000        0.0000000000000000     
   1.2500000000000000       0.93750000000000000        0.0000000000000000     
   1.1250000000000000       0.96875000000000000        0.0000000000000000     
   1.1562500000000000       0.96875000000000000        0.0000000000000000     
   1.1875000000000000       0.96875000000000000        0.0000000000000000     
   1.2187500000000000       0.96875000000000000        0.0000000000000000     
   1.2500000000000000       0.96875000000000000        0.0000000000000000     
   1.1250000000000000        1.0000000000000000        0.0000000000000000     
   1.1562500000000000        1.0000000000000000        0.0000000000000000     
   1.1875000000000000        1.0000000000000000        0.0000000000000000     
   1.2187500000000000        1.0000000000000000        0.0000000000000000     
   1.2500000000000000        1.0000000000000000        0.0000000000000000     
   1.2500000000000000       0.87500000000000000        0.0000000000000000     
   1.2812500000000000       0.87500000000000000        0.0000000000000000     
   1.3125000000000000       0.87500000000000000        0.0000000000000000     
   1.3437500000000000       0.87500000000000000        0.0000000000000000     
   1.3750000000000000       0.87500000000000000        0.0000000000000000     
   1.2500000000000000       0.90625000000000000        0.0000000000000000     
   1.2812500000000000       0.90625000000000000        0.0000000000000000     
   1.3125000000000000       0.90625000000000000        0.0000000000000000     
   1.3437500000000000       0.90625000000000000        0.0000000000000000     
   1.3750000000000000       0.90625000000000000        0.0000000000000000     
   1.2500000000000000       0.93750000000000000        0.0000000000000000     
   1.2812500000000000       0.93750000000000000        0.0000000000000000     
   1.3125000000000000       0.93750000000000000        0.0000000000000000     
   1.3437500000000000       0.93750000000000000        0.0000000000000000     
   1.3750000000000000       0.93750000000000000        0.0000000000000000     
   1.2500000000000000       0.96875000000000000        0.0000000000000000     
   1.2812500000000000       0.96875000000000000        0.0000000000000000     
   1.3125000000000000       0.96875000000000000        0.0000000000000000     
   1.3437500000000000       0.96875000000000000        0.0000000000000000     
   1.3750000000000000       0.96875000000000000        0.0000000000000000     
   1.2500000000000000        1.0000000000000000        0.0000000000000000     
   1.2812500000000000        1.0000000000000000        0.0000000000000000     
   1.3125000000000000        1.0000000000000000        0.0000000000000000     
   1.3437500000000000        1.0000000000000000        0.0000000000000000     
   1.3750000000000000        1.0000000000000000        0.0000000000000000     
   1.3750000000000000       0.87500000000000000        0.0000000000000000     
   1.4062500000000000       0.87500000000000000        0.0000000000000000     
   1.4375000000000000       0.87500000000000000        0.0000000000000000     
   1.4687500000000000       0.87500000000000000        0.0000000000000000     
   1.5000000000000000       0.87500000000000000        0.0000000000000000     
   1.3750000000000000       0.90625000000000000        0.0000000000000000     
   1.4062500000000000       0.90625000000000000        0.0000000000000000     
   1.4375000000000000       0.90625000000000000        0.0000000000000000     
   1.4687500000000000       0.90625000000000000        0.0000000000000000     
   1.5000000000000000       0.90625000000000000        0.0000000000000000     
   1.3750000000000000       0.93750000000000000        0.0000000000000000     
   1.4062500000000000       0.93750000000000000        0.0000000000000000     
   1.4375000000000000       0.93750000000000000        0.0000000000000000     
   1.4687500000000000       0.93750000000000000        0.0000000000000000     
   1.5000000000000000       0.93750000000000000        0.0000000000000000     
   1.3750000000000000       0.96875000000000000        0.0000000000000000     
   1.4062500000000000       0.96875000000000000        0.0000000000000000     
   1.4375000000000000       0.96875000000000000        0.0000000000000000     
   1.4687500000000000       0.96875000000000000        0.0000000000000000     
   1.5000000000000000       0.96875000000000000        0.0000000000000000     
   1.3750000000000000        1.0000000000000000        0.0000000000000000     
   1.4062500000000000        1.0000000000000000        0.0000000000000000     
   1.4375000000000000        1.0000000000000000        0.0000000000000000     
   1.4687500000000000        1.0000000000000000        0.0000000000000000     
   1.5000000000000000        1.0000000000000000        0.0000000000000000     
 </DataArray>
 </Points>
 <Cells>
 <DataArray  type="Int32"  Name="connectivity"  format="ascii">
           0           1           6           5
           1           2           7           6
           2           3           8           7
           3           4           9           8
           5           6          11          10
           6           7          12          11
           7           8          13          12
           8           9          14          13
          10          11          16          15
          11          12          17          16
          12          13          18          17
          13          14          19          18
          15          16          21          20
          16          17          22          21
          17          18          23          22
          18          19          24          23
          25          26          31          30
          26          27          32          31
          27          28          33          32
          28          29          34          33
          30          31          36          35
          31          32          37          36
          32          33          38          37
          33          34          39          38
          35          36          41          40
          36          37          42          41
          37          38          43          42
          38          39          44          43
          40          41          46          45
          41          42          47          46
          42          43          48          47
          43          44          49          48
          50          51          56          55
          51          52          57          56
          52          53          58          57
          53          54          59          58
          55          56          61          60
          56          57          62          61
          57          58          63          62
          58          59          64          63
          60          61          66          65
          61          62          67          66
          62          63          68          67
          63          64          69          68
          65          66          71          70
          66          67          72          71
          67          68          73          72
          68          69          74          73
          75          76          81          80
          76          77          82          81
          77          78          83          82
          78          79          84          83
          80          81          86          85
          81          82          87          86
          82          83          88          87
          83          84          89          88
          85          86          91          90
          86          87          92          91
          87          88          93          92
          88          89          94          93
          90          91          96          95
          91          92          97          96
          92          93          98          97
          93          94          99          98
         100         101         106         105
         101         102         107         106
         102         103         108         107
         103         104         109         108
         105         106         111         110
         106         107         112         111
         107         108         113         112
         108         109         114         113
         110         111         116         115
         111         112         117         116
         112         113         118         117
         113         114         119         118
         115         116         121         120
         116         117         122         121
         117         118         123         122
         118         119         124         123
         125         126         131         130
         126         127         132         131
         127         128         133         132
         128         129         134         133
         130         131         136         135
         131         132         137         136
         132         133         138         137
         133         134         139         138
         135         136         141         140
         136         137         142         141
         137         138         143         142
         138         139         144         143
         140         141         146         145
         141         142         147         146
         142         143         148         147
         143         144         149         148
         150         151         156         155
         151         152         157         156
         152         153         158         157
         153         154         159         158
         155         156         161         160
         156         157         162         161
         157         158         163         162
         158         159         164         163
         160         161         166         165
         161         162         167         166
         162         163         168         167
         163         164         169         168
         165         166         171         170
         166         167         172         171
         167         168         173         172
         168         169         174         173
         175         176         181         180
         176         177         182         181
         177         178         183         182
         178         179         184         183
         180         181         186         185
         181         182         187         186
         182         183         188         187
         183         184         189         188
         185         186         191         190
         186         187         192         191
         187         188         193         192
         188         189         194         193
         190         191         196         195
         191         192         197         196
         192         193         198         197
         193         194         199         198
         200         201         206         205
         201         202         207         206
         202         203         208         207
         203         204         209         208
         205         206         211         210
         206         207         212         211
         207         208         213         212
         208         209         214         213
         210         211         216         215
         211         212         217         216
         212         213         218         217
         213         214         219         218
         215         216         221         220
         216         217         222         221
         217         218         223         222
         218         219         224         223
         225         226         231         230
         226         227         232         231
         227         228         233         232
         228         229         234         233
         230         231         236         235
         231         232         237         236
         232         233         238         237
         233         234         239         238
         235         236         241         240
         236         237         242         241
         237         238         243         242
         238         239         244         243
         240         241         246         245
         241         242         247         246
         242         243         248         247
         243         244         249         248
         250         251         256         255
         251         252         257         256
         252         253         258         257
         253         254         259         258
         255         256         261         260
         256         257         262         261
         257         258         263         262
         258         259         264         263
         260         261         266         265
         261         262         267         266
         262         263         268         267
         263         264         269         268
         265         266         271         270
         266         267         272         271
         267         268         273         272
         268         269         274         273
         275         276         281         280
         276         277         282         281
         277         278         283         282
         278         279         284         283
         280         281         286         285
         281         282         287         286
         282         283         288         287
         283         284         289         288
         285         286         291         290
         286         287         292         291
         287         288         293         292
         288         289         294         293
         290         291         296         295
         291         292         297         296
         292         293         298         297
         293         294         299         298
         300         301         306         305
         301         302         307         306
         302         303         308         307
         303         304         309         308
         305         306         311         310
         306         307         312         311
         307         308         313         312
         308         309         314         313
         310         311         316         315
         311         312         317         316
         312         313         318         317
         313         314         319         318
         315         316         321         320
         316         317         322         321
         317         318         323         322
         318         319         324         323
         325         326         331         330
         326         327         332         331
         327         328         333         332
         328         329         334         333
         330         331         336         335
         331         332         337         336
         332         333         338         337
         333         334         339         338
         335         336         341         340
         336         337         342         341
         337         338         343         342
         338         339         344         343
         340         341         346         345
         341         342         347         346
         342         343         348         347
         343         344         349         348
         350         351         356         355
         351         352         357         356
         352         353         358         357
         353         354         359         358
         355         356         361         360
         356         357         362         361
         357         358         363         362
         358         359         364         363
         360         361         366         365
         361         362         367         366
         362         363         368         367
         363         364         369         368
         365         366         371         370
         366         367         372         371
         367         368         373         372
         368         369         374         373
         375         376         381         380
         376         377         382         381
         377         378         383         382
         378         379         384         383
         380         381         386         385
         381         382         387         386
         382         383         388         387
         383         384         389         388
         385         386         391         390
         386         387         392         391
         387         388         393         392
         388         389         394         393
         390         391         396         395
         391         392         397         396
         392         393         398         397
         393         394         399         398
         400         401         406         405
         401         402         407         406
         402         403         408         407
         403         404         409         408
         405         406         411         410
         406         407         412         411
         407         408         413         412
         408         409         414         413
         410         411         416         415
         411         412         417         416
         412         413         418         417
         413         414         419         418
         415         416         421         420
         416         417         422         421
         417         418         423         422
         418         419         424         423
         425         426         431         430
         426         427         432         431
         427         428         433         432
         428         429         434         433
         430         431         436         435
         431         432         437         436
         432         433         438         437
         433         434         439         438
         435         436         441         440
         436         437         442         441
         437         438         443         442
         438         439         444         443
         440         441         446         445
         441         442         447         446
         442         443         448         447
         443         444         449         448
         450         451         456         455
         451         452         457         456
         452         453         458         457
         453         454         459         458
         455         456         461         460
         456         457         462         461
         457         458         463         462
         458         459         464         463
         460         461         466         465
         461         462         467         466
         462         463         468         467
         463         464         469         468
         465         466         471         470
         466         467         472         471
         467         468         473         472
         468         469         474         473
         475         476         481         480
         476         477         482         481
         477         478         483         482
         478         479         484         483
         480         481         486         485
         481         482         487         486
         482         483         488         487
         483         484         489         488
         485         486         491         490
         486         487         492         491
         487         488         493         492
         488         489         494         493
         490         491         496         495
         491         492         497         496
         492         493         498         497
         493         494         499         498
         500         501         506         505
         501         502         507         506
         502         503         508         507
         503         504         509         508
         505         506         511         510
         506         507         512         511
         507         508         513         512
         508         509         514         513
         510         511         516         515
         511         512         517         516
         512         513         518         517
         513         514         519         518
         515         516         521         520
         516         517         522         521
         517         518         523         522
         518         519         524         523
         525         526         531         530
         526         527         532         531
         527         528         533         532
         528         529         534         533
         530         531         536         535
         531         532         537         536
         532         533         538         537
         533         534         539         538
         535         536         541         540
         536         537         542         541
         537         538         543         542
         538         539         544         543
         540         541         546         545
         541         542         547         546
         542         543         548         547
         543         544         549         548
         550         551         556         555
         551         552         557         556
         552         553         558         557
         553         554         559         558
         555         556         561         560
         556         557         562         561
         557         558         563         562
         558         559         564         563
         560         561         566         565
         561         562         567         566
         562         563         568         567
         563         564         569         568
         565         566         571         570
         566         567         572         571
         567         568         573         572
         568         569         574         573
         575         576         581         580
         576         577         582         581
         577         578         583         582
         578         579         584         583
         580         581         586         585
         581         582         587         586
         582         583         588         587
         583         584         589         588
         585         586         591         590
         586         587         592         591
         587         588         593         592
         588         589         594         593
         590         591         596         595
         591         592         597         596
         592         593         598         597
         593         594         599         598
         600         601         606         605
         601         602         607         606
         602         603         608         607
         603         604         609         608
         605         606         611         610
         606         607         612         611
         607         608         613         612
         608         609         614         613
         610         611         616         615
         611         612         617         616
         612         613         618         617
         613         614         619         618
         615         616         621         620
         616         617         622         621
         617         618         623         622
         618         619         624         623
         625         626         631         630
         626         627         632         631
         627         628         633         632
         628         629         634         633
         630         631         636         635
         631         632         637         636
         632         633         638         637
         633         634         639         638
         635         636         641         640
         636         637         642         641
         637         638         643         642
         638         639         644         643
         640         641         646         645
         641         642         647         646
         642         643         648         647
         643         644         649         648
         650         651         656         655
         651         652         657         656
         652         653         658         657
         653         654         659         658
         655         656         661         660
         656         657         662         661
         657         658         663         662
         658         659         664         663
         660         661         666         665
         661         662         667         666
         662         663         668         667
         663         664         669         668
         665         666         671         670
         666         667         672         671
         667         668         673         672
         668         669         674         673
         675         676         681         680
         676         677         682         681
         677         678         683         682
         678         679         684         683
         680         681         686         685
         681         682         687         686
         682         683         688         687
         683         684         689         688
         685         686         691         690
         686         687         692         691
         687         688         693         692
         688         689         694         693
         690         691         696         695
         691         692         697         696
         692         693         698         697
         693         694         699         698
         700         701         706         705
         701         702         707         706
         702         703         708         707
         703         704         709         708
         705         706         711         710
         706         707         712         711
         707         708         713         712
         708         709         714         713
         710         711         716         715
         711         712         717         716
         712         713         718         717
         713         714         719         718
         715         716         721         720
         716         717         722         721
         717         718         723         722
         718         719         724         723
         725         726         731         730
         726         727         732         731
         727         728         733         732
         728         729         734         733
         730         731         736         735
         731         732         737         736
         732         733         738         737
         733         734         739         738
         735         736         741         740
         736         737         742         741
         737         738         743         742
         738         739         744         743
         740         741         746         745
         741         742         747         746
         742         743         748         747
         743         744         749         748
         750         751         756         755
         751         752         757         756
         752         753         758         757
         753         754         759         758
         755         756         761         760
         756         757         762         761
         757         758         763         762
         758         759         764         763
         760         761         766         765
         761         762         767         766
         762         763         768         767
         763         764         769         768
         765         766         771         770
         766         767         772         771
         767         768         773         772
         768         769         774         773
         775         776         781         780
         776         777         782         781
         777         778         783         782
         778         779         784         783
         780         781         786         785
         781         782         787         786
         782         783         788         787
         783         784         789         788
         785         786         791         790
         786         787         792         791
         787         788         793         792
         788         789         794         793
         790         791         796         795
         791         792         797         796
         792         793         798         797
         793         794         799         798
         800         801         806         805
         801         802         807         806
         802         803         808         807
         803         804         809         808
         805         806         811         810
         806         807         812         811
         807         808         813         812
         808         809         814         813
         810         811         816         815
         811         812         817         816
         812         813         818         817
         813         814         819         818
         815         816         821         820
         816         817         822         821
         817         818         823         822
         818         819         824         823
         825         826         831         830
         826         827         832         831
         827         828         833         832
         828         829         834         833
         830         831         836         835
         831         832         837         836
         832         833         838         837
         833         834         839         838
         835         836         841         840
         836         837         842         841
         837         838         843         842
         838         839         844         843
         840         841         846         845
         841         842         847         846
         842         843         848         847
         843         844         849         848
         850         851         856         855
         851         852         857         856
         852         853         858         857
         853         854         859         858
         855         856         861         860
         856         857         862         861
         857         858         863         862
         858         859         864         863
         860         861         866         865
         861         862         867         866
         862         863         868         867
         863         864         869         868
         865         866         871         870
         866         867         872         871
         867         868         873         872
         868         869         874         873
         875         876         881         880
         876         877         882         881
         877         878         883         882
         878         879         884         883
         880         881         886         885
         881         882         887         886
         882         883         888         887
         883         884         889         888
         885         886         891         890
         886         887         892         891
         887         888         893         892
         888         889         894         893
         890         891         896         895
         891         892         897         896
         892         893         898         897
         893         894         899         898
         900         901         906         905
         901         902         907         906
         902         903         908         907
         903         904         909         908
         905         906         911         910
         906         907         912         911
         907         908         913         912
         908         909         914         913
         910         911         916         915
         911         912         917         916
         912         913         918         917
         913         914         919         918
         915         916         921         920
         916         917         922         921
         917         918         923         922
         918         919         924         923
         925         926         931         930
         926         927         932         931
         927         928         933         932
         928         929         934         933
         930         931         936         935
         931         932         937         936
         932         933         938         937
         933         934         939         938
         935         936         941         940
         936         937         942         941
         937         938         943         942
         938         939         944         943
         940         941         946         945
         941         942         947         946
         942         943         948         947
         943         944         949         948
         950         951         956         955
         951         952         957         956
         952         953         958         957
         953         954         959         958
         955         956         961         960
         956         957         962         961
         957         958         963         962
         958         959         964         963
         960         961         966         965
         961         962         967         966
         962         963         968         967
         963         964         969         968
         965         966         971         970
         966         967         972         971
         967         968         973         972
         968         969         974         973
         975         976         981         980
         976         977         982         981
         977         978         983         982
         978         979         984         983
         980         981         986         985
         981         982         987         986
         982         983         988         987
         983         984         989         988
         985         986         991         990
         986         987         992         991
         987         988         993         992
         988         989         994         993
         990         991         996         995
         991         992         997         996
         992         993         998         997
         993         994         999         998
        1000        1001        1006        1005
        1001        1002        1007        1006
        1002        1003        1008        1007
        1003        1004        1009        1008
        1005        1006        1011        1010
        1006        1007        1012        1011
        1007        1008        1013        1012
        1008        1009        1014        1013
        1010        1011        1016        1015
        1011        1012        1017        1016
        1012        1013        1018        1017
        1013        1014        1019        1018
        1015        1016        1021        1020
        1016        1017        1022        1021
        1017        1018        1023        1022
        1018        1019        1024        1023
        1025        1026        1031        1030
        1026        1027        1032        1031
        1027        1028        1033        1032
        1028        1029        1034        1033
        1030        1031        1036        1035
        1031        1032        1037        1036
        1032        1033        1038        1037
        1033        1034        1039        1038
        1035        1036        1041        1040
        1036        1037        1042        1041
        1037        1038        1043        1042
        1038        1039        1044        1043
        1040        1041        1046        1045
        1041        1042        1047        1046
        1042        1043        1048        1047
        1043        1044        1049        1048
        1050        1051        1056        1055
        1051        1052        1057        1056
        1052        1053        1058        1057
        1053        1054        1059        1058
        1055        1056        1061        1060
        1056        1057        1062        1061
        1057        1058        1063        1062
        1058        1059        1064        1063
        1060        1061        1066        1065
        1061        1062        1067        1066
        1062        1063        1068        1067
        1063        1064        1069        1068
        1065        1066        1071        1070
        1066        1067        1072        1071
        1067        1068        1073        1072
        1068        1069        1074        1073
        1075        1076        1081        1080
        1076        1077        1082        1081
        1077        1078        1083        1082
        1078        1079        1084        1083
        1080        1081        1086        1085
        1081        1082        1087        1086
        1082        1083        1088        1087
        1083        1084        1089        1088
        1085        1086        1091        1090
        1086        1087        1092        1091
        1087        1088        1093        1092
        1088        1089        1094        1093
        1090        1091        1096        1095
        1091        1092        1097        1096
        1092        1093        1098        1097
        1093        1094        1099        1098
        1100        1101        1106        1105
        1101        1102        1107        1106
        1102        1103        1108        1107
        1103        1104        1109        1108
        1105        1106        1111        1110
        1106        1107        1112        1111
        1107        1108        1113        1112
        1108        1109        1114        1113
        1110        1111        1116        1115
        1111        1112        1117        1116
        1112        1113        1118        1117
        1113        1114        1119        1118
        1115        1116        1121        1120
        1116        1117        1122        1121
        1117        1118        1123        1122
        1118        1119        1124        1123
        1125        1126        1131        1130
        1126        1127        1132        1131
        1127        1128        1133        1132
        1128        1129        1134        1133
        1130        1131        1136        1135
        1131        1132        1137        1136
        1132        1133        1138        1137
        1133        1134        1139        1138
        1135        1136        1141        1140
        1136        1137        1142        1141
        1137        1138        1143        1142
        1138        1139        1144        1143
        1140        1141        1146        1145
        1141        1142        1147        1146
        1142        1143        1148        1147
        1143        1144        1149        1148
        1150        1151        1156        1155
        1151        1152        1157        1156
        1152        1153        1158        1157
        1153        1154        1159        1158
        1155        1156        1161        1160
        1156        1157        1162        1161
        1157        1158        1163        1162
        1158        1159        1164        1163
        1160        1161        1166        1165
        1161        1162        1167        1166
        1162        1163        1168        1167
        1163        1164        1169        1168
        1165        1166        1171        1170
        1166        1167        1172        1171
        1167        1168        1173        1172
        1168        1169        1174        1173
        1175        1176        1181        1180
        1176        1177        1182        1181
        1177        1178        1183        1182
        1178        1179        1184        1183
        1180        1181        1186        1185
        1181        1182        1187        1186
        1182        1183        1188        1187
        1183        1184        1189        1188
        1185        1186        1191        1190
        1186        1187        1192        1191
        1187        1188        1193        1192
        1188        1189        1194        1193
        1190        1191        1196        1195
        1191        1192        1197        1196
        1192        1193        1198        1197
        1193        1194        1199        1198
        1200        1201        1206        1205
        1201        1202        1207        1206
        1202        1203        1208        1207
        1203        1204        1209        1208
        1205        1206        1211        1210
        1206        1207        1212        1211
        1207        1208        1213        1212
        1208        1209        1214        1213
        1210        1211        1216        1215
        1211        1212        1217        1216
        1212        1213        1218        1217
        1213        1214        1219        1218
        1215        1216        1221        1220
        1216        1217        1222        1221
        1217        1218        1223        1222
        1218        1219        1224        1223
        1225        1226        1231        1230
        1226        1227        1232        1231
        1227        1228        1233        1232
        1228        1229        1234        1233
        1230        1231        1236        1235
        1231        1232        1237        1236
        1232        1233        1238        1237
        1233        1234        1239        1238
        1235        1236        1241        1240
        1236        1237        1242        1241
        1237        1238        1243        1242
        1238        1239        1244        1243
        1240        1241        1246        1245
        1241        1242        1247        1246
        1242        1243        1248        1247
        1243        1244        1249        1248
        1250        1251        1256        1255
        1251        1252        1257        1256
        1252        1253        1258        1257
        1253        1254        1259        1258
        1255        1256        1261        1260
        1256        1257        1262        1261
        1257        1258        1263        1262
        1258        1259        1264        1263
        1260        1261        1266        1265
        1261        1262        1267        1266
        1262        1263        1268        1267
        1263        1264        1269        1268
        1265        1266        1271        1270
        1266        1267        1272        1271
        1267        1268        1273        1272
        1268        1269        1274        1273
        1275        1276        1281        1280
        1276        1277        1282        1281
        1277        1278        1283        1282
        1278        1279        1284        1283
        1280        1281        1286        1285
        1281        1282        1287        1286
        1282        1283        1288        1287
        1283        1284        1289        1288
        1285        1286        1291        1290
        1286        1287        1292        1291
        1287        1288        1293        1292
        1288        1289        1294        1293
        1290        1291        1296        1295
        1291        1292        1297        1296
        1292        1293        1298        1297
        1293        1294        1299        1298
        1300        1301        1306        1305
        1301        1302        1307        1306
        1302        1303        1308        1307
        1303        1304        1309        1308
        1305        1306        1311        1310
        1306        1307        1312        1311
        1307        1308        1313        1312
        1308        1309        1314        1313
        1310        1311        1316        1315
        1311        1312        1317        1316
        1312        1313        1318        1317
        1313        1314        1319        1318
        1315        1316        1321        1320
        1316        1317        1322        1321
        1317        1318        1323        1322
        1318        1319        1324        1323
        1325        1326        1331        1330
        1326        1327        1332        1331
        1327        1328        1333        1332
        1328        1329        1334        1333
        1330        1331        1336        1335
        1331        1332        1337        1336
        1332        1333        1338        1337
        1333        1334        1339        1338
        1335        1336        1341        1340
        1336        1337        1342        1341
        1337        1338        1343        1342
        1338        1339        1344        1343
        1340        1341        1346        1345
        1341        1342        1347        1346
        1342        1343        1348        1347
        1343        1344        1349        1348
        1350        1351        1356        1355
        1351        1352        1357        1356
        1352        1353        1358        1357
        1353        1354        1359        1358
        1355        1356        1361        1360
        1356        1357        1362        1361
        1357        1358        1363        1362
        1358        1359        1364        1363
        1360        1361        1366        1365
        1361        1362        1367        1366
        1362        1363        1368        1367
        1363        1364        1369        1368
        1365        1366        1371        1370
        1366        1367        1372        1371
        1367        1368        1373        1372
        1368        1369        1374        1373
        1375        1376        1381        1380
        1376        1377        1382        1381
        1377        1378        1383        1382
        1378        1379        1384        1383
        1380        1381        1386        1385
        1381        1382        1387        1386
        1382        1383        1388        1387
        1383        1384        1389        1388
        1385        1386        1391        1390
        1386        1387        1392        1391
        1387        1388        1393        1392
        1388        1389        1394        1393
        1390        1391        1396        1395
        1391        1392        1397        1396
        1392        1393        1398        1397
        1393        1394        1399        1398
        1400        1401        1406        1405
        1401        1402        1407        1406
        1402        1403        1408        1407
        1403        1404        1409        1408
        1405        1406        1411        1410
        1406        1407        1412        1411
        1407        1408        1413        1412
        1408        1409        1414        1413
        1410        1411        1416        1415
        1411        1412        1417        1416
        1412        1413        1418        1417
        1413        1414        1419        1418
        1415        1416        1421        1420
        1416        1417        1422        1421
        1417        1418        1423        1422
        1418        1419        1424        1423
        1425        1426        1431        1430
        1426        1427        1432        1431
        1427        1428        1433        1432
        1428        1429        1434        1433
        1430        1431        1436        1435
        1431        1432        1437        1436
        1432        1433        1438        1437
        1433        1434        1439        1438
        1435        1436        1441        1440
        1436        1437        1442        1441
        1437        1438        1443        1442
        1438        1439        1444        1443
        1440        1441        1446        1445
        1441        1442        1447        1446
        1442        1443        1448        1447
        1443        1444        1449        1448
        1450        1451        1456        1455
        1451        1452        1457        1456
        1452        1453        1458        1457
        1453        1454        1459        1458
        1455        1456        1461        1460
        1456        1457        1462        1461
        1457        1458        1463        1462
        1458        1459        1464        1463
        1460        1461        1466        1465
        1461        1462        1467        1466
        1462        1463        1468        1467
        1463        1464        1469        1468
        1465        1466        1471        1470
        1466        1467        1472        1471
        1467        1468        1473        1472
        1468        1469        1474        1473
        1475        1476        1481        1480
        1476        1477        1482        1481
        1477        1478        1483        1482
        1478        1479        1484        1483
        1480        1481        1486        1485
        1481        1482        1487        1486
        1482        1483        1488        1487
        1483        1484        1489        1488
        1485        1486        1491        1490
        1486        1487        1492        1491
        1487        1488        1493        1492
        1488        1489        1494        1493
        1490        1491        1496        1495
        1491        1492        1497        1496
        1492        1493        1498        1497
        1493        1494        1499        1498
        1500        1501        1506        1505
        1501        1502        1507        1506
        1502        1503        1508        1507
        1503        1504        1509        1508
        1505        1506        1511        1510
        1506        1507        1512        1511
        1507        1508        1513        1512
        1508        1509        1514        1513
        1510        1511        1516        1515
        1511        1512        1517        1516
        1512        1513        1518        1517
        1513        1514        1519        1518
        1515        1516        1521        1520
        1516        1517        1522        1521
        1517        1518        1523        1522
        1518        1519        1524        1523
        1525        1526        1531        1530
        1526        1527        1532        1531
        1527        1528        1533        1532
        1528        1529        1534        1533
        1530        1531        1536        1535
        1531        1532        1537        1536
        1532        1533        1538        1537
        1533        1534        1539        1538
        1535        1536        1541        1540
        1536        1537        1542        1541
        1537        1538        1543        1542
        1538        1539        1544        1543
        1540        1541        1546        1545
        1541        1542        1547        1546
        1542        1543        1548        1547
        1543        1544        1549        1548
        1550        1551        1556        1555
        1551        1552        1557        1556
        1552        1553        1558        1557
        1553        1554        1559        1558
        1555        1556        1561        1560
        1556        1557        1562        1561
        1557        1558        1563        1562
        1558        1559        1564        1563
        1560        1561        1566        1565
        1561        1562        1567        1566
        1562        1563        1568        1567
        1563        1564        1569        1568
        1565        1566        1571        1570
        1566        1567        1572        1571
        1567        1568        1573        1572
        1568        1569        1574        1573
        1575        1576        1581        1580
        1576        1577        1582        1581
        1577        1578        1583        1582
        1578        1579        1584        1583
        1580        1581        1586        1585
        1581        1582        1587        1586
        1582        1583        1588        1587
        1583        1584        1589        1588
        1585        1586        1591        1590
        1586        1587        1592        1591
        1587        1588        1593        1592
        1588        1589        1594        1593
        1590        1591        1596        1595
        1591        1592        1597        1596
        1592        1593        1598        1597
        1593        1594        1599        1598
 </DataArray>
 <DataArray  type="Int32"  Name="offsets"  format="ascii"> 
           4
           8
          12
          16
          20
          24
          28
          32
          36
          40
          44
          48
          52
          56
          60
          64
          68
          72
          76
          80
          84
          88
          92
          96
         100
         104
         108
         112
         116
         120
         124
         128
         132
         136
         140
         144
         148
         152
         156
         160
         164
         168
         172
         176
         180
         184
         188
         192
         196
         200
         204
         208
         212
         216
         220
         224
         228
         232
         236
         240
         244
         248
         252
         256
         260
         264
         268
         272
         276
         280
         284
         288
         292
         296
         300
         304
         308
         312
         316
         320
         324
         328
         332
         336
         340
         344
         348
         352
         356
         360
         364
         368
         372
         376
         380
         384
         388
         392
         396
         400
         404
         408
         412
         416
         420
         424
         428
         432
         436
         440
         444
         448
         452
         456
         460
         464
         468
         472
         476
         480
         484
         488
         492
         496
         500
         504
         508
         512
         516
         520
         524
         528
         532
         536
         540
         544
         548
         552
         556
         560
         564
         568
         572
         576
         580
         584
         588
         592
         596
         600
         604
         608
         612
         616
         620
         624
         628
         632
         636
         640
         644
         648
         652
         656
         660
         664
         668
         672
         676
         680
         684
         688
         692
         696
         700
         704
         708
         712
         716
         720
         724
         728
         732
         736
         740
         744
         748
         752
         756
         760
         764
         768
         772
         776
         780
         784
         788
         792
         796
         800
         804
         808
         812
         816
         820
         824
         828
         832
         836
         840
         844
         848
         852
         856
         860
         864
         868
         872
         876
         880
         884
         888
         892
         896
         900
         904
         908
         912
         916
         920
         924
         928
         932
         936
         940
         944
         948
         952
         956
         960
         964
         968
         972
         976
         980
         984
         988
         992
         996
        1000
        1004
        1008
        1012
        1016
        1020
        1024
        1028
        1032
        1036
        1040
        1044
        1048
        1052
        1056
        1060
        1064
        1068
        1072
        1076
        1080
        1084
        1088
        1092
        1096
        1100
        1104
        1108
        1112
        1116
        1120
        1124
        1128
        1132
        1136
        1140
        1144
        1148
        1152
        1156
        1160
        1164
        1168
        1172
        1176
        1180
        1184
        1188
        1192
        1196
        1200
        1204
        1208
        1212
        1216
        1220
        1224
        1228
        1232
        1236
        1240
        1244
        1248
        1252
        1256
        1260
        1264
        1268
        1272
        1276
        1280
        1284
        1288
        1292
        1296
        1300
        1304
        1308
        1312
        1316
        1320
        1324
        1328
        1332
        1336
        1340
        1344
        1348
        1352
        1356
        1360
        1364
        1368
        1372
        1376
        1380
        1384
        1388
        1392
        1396
        1400
        1404
        1408
        1412
        1416
        1420
        1424
        1428
        1432
        1436
        1440
        1444
        1448
        1452
        1456
        1460
        1464
        1468
        1472
        1476
        1480
        1484
        1488
        1492
        1496
        1500
        1504
        1508
        1512
        1516
        1520
        1524
        1528
        1532
        1536
        1540
        1544
        1548
        1552
        1556
        1560
        1564
        1568
        1572
        1576
        1580
        1584
        1588
        1592
        1596
        1600
        1604
        1608
        1612
        1616
        1620
        1624
        1628
        1632
        1636
        1640
        1644
        1648
        1652
        1656
        1660
        1664
        1668
        1672
        1676
        1680
        1684
        1688
        1692
        1696
        1700
        1704
        1708
        1712
        1716
        1720
        1724
        1728
        1732
        1736
        1740
        1744
        1748
        1752
        1756
        1760
        1764
        1768
        1772
        1776
        1780
        1784
        1788
        1792
        1796
        1800
        1804
        1808
        1812
        1816
        1820
        1824
        1828
        1832
        1836
        1840
        1844
        1848
        1852
        1856
        1860
        1864
        1868
        1872
        1876
        1880
        1884
        1888
        1892
        1896
        1900
        1904
        1908
        1912
        1916
        1920
        1924
        1928
        1932
        1936
        1940
        1944
        1948
        1952
        1956
        1960
        1964
        1968
        1972
        1976
        1980
        1984
        1988
        1992
        1996
        2000
        2004
        2008
        2012
        2016
        2020
        2024
        2028
        2032
        2036
        2040
        2044
        2048
        2052
        2056
        2060
        2064
        2068
        2072
        2076
        2080
        2084
        2088
        2092
        2096
        2100
        2104
        2108
        2112
        2116
        2120
        2124
        2128
        2132
        2136
        2140
        2144
        2148
        2152
        2156
        2160
        2164
        2168
        2172
        2176
        2180
        2184
        2188
        2192
        2196
        2200
        2204
        2208
        2212
        2216
        2220
        2224
        2228
        2232
        2236
        2240
        2244
        2248
        2252
        2256
        2260
        2264
        2268
        2272
        2276
        2280
        2284
        2288
        2292
        2296
        2300
        2304
        2308
        2312
        2316
        2320
        2324
        2328
        2332
        2336
        2340
        2344
        2348
        2352
        2356
        2360
        2364
        2368
        2372
        2376
        2380
        2384
        2388
        2392
        2396
        2400
        2404
        2408
        2412
        2416
        2420
        2424
        2428
        2432
        2436
        2440
        2444
        2448
        2452
        2456
        2460
        2464
        2468
        2472
        2476
        2480
        2484
        2488
        2492
        2496
        2500
        2504
        2508
        2512
        2516
        2520
        2524
        2528
        2532
        2536
        2540
        2544
        2548
        2552
        2556
        2560
        2564
        2568
        2572
        2576
        2580
        2584
        2588
        2592
        2596
        2600
        2604
        2608
        2612
        2616
        2620
        2624
        2628
        2632
        2636
        2640
        2644
        2648
        2652
        2656
        2660
        2664
        2668
        2672
        2676
        2680
        2684
        2688
        2692
        2696
        2700
        2704
        2708
        2712
        2716
        2720
        2724
        2728
        2732
        2736
        2740
        2744
        2748
        2752
        2756
        2760
        2764
        2768
        2772
        2776
        2780
        2784
        2788
        2792
        2796
        2800
        2804
        2808
        2812
        2816
        2820
        2824
        2828
        2832
        2836
        2840
        2844
        2848
        2852
        2856
        2860
        2864
        2868
        2872
        2876
        2880
        2884
        2888
        2892
        2896
        2900
        2904
        2908
        2912
        2916
        2920
        2924
        2928
        2932
        2936
        2940
        2944
        2948
        2952
        2956
        2960
        2964
        2968
        2972
        2976
        2980
        2984
        2988
        2992
        2996
        3000
        3004
        3008
        3012
        3016
        3020
        3024
        3028
        3032
        3036
        3040
        3044
        3048
        3052
        3056
        3060
        3064
        3068
        3072
        3076
        3080
        3084
        3088
        3092
        3096
        3100
        3104
        3108
        3112
        3116
        3120
        3124
        3128
        3132
        3136
        3140
        3144
        3148
        3152
        3156
        3160
        3164
        3168
        3172
        3176
        3180
        3184
        3188
        3192
        3196
        3200
        3204
        3208
        3212
        3216
        3220
        3224
        3228
        3232
        3236
        3240
        3244
        3248
        3252
        3256
        3260
        3264
        3268
        3272
        3276
        3280
        3284
        3288
        3292
        3296
        3300
        3304
        3308
        3312
        3316
        3320
        3324
        3328
        3332
        3336
        3340
        3344
        3348
        3352
        3356
        3360
        3364
        3368
        3372
        3376
        3380
        3384
        3388
        3392
        3396
        3400
        3404
        3408
        3412
        3416
        3420
        3424
        3428
        3432
        3436
        3440
        3444
        3448
        3452
        3456
        3460
        3464
        3468
        3472
        3476
        3480
        3484
        3488
        3492
        3496
        3500
        3504
        3508
        3512
        3516
        3520
        3524
        3528
        3532
        3536
        3540
        3544
        3548
        3552
        3556
        3560
        3564
        3568
        3572
        3576
        3580
        3584
        3588
        3592
        3596
        3600
        3604
        3608
        3612
        3616
        3620
        3624
        3628
        3632
        3636
        3640
        3644
        3648
        3652
        3656
        3660
        3664
        3668
        3672
        3676
        3680
        3684
        3688
        3692
        3696
        3700
        3704
        3708
        3712
        3716
        3720
        3724
        3728
        3732
        3736
        3740
        3744
        3748
        3752
        3756
        3760
        3764
        3768
        3772
        3776
        3780
        3784
        3788
        3792
        3796
        3800
        3804
        3808
        3812
        3816
        3820
        3824
        3828
        3832
        3836
        3840
        3844
        3848
        3852
        3856
        3860
        3864
        3868
        3872
        3876
        3880
        3884
        3888
        3892
        3896
        3900
        3904
        3908
        3912
        3916
        3920
        3924
        3928
        3932
        3936
        3940
        3944
        3948
        3952
        3956
        3960
        3964
        3968
        3972
        3976
        3980
        3984
        3988
        3992
        3996
        4000
        4004
        4008
        4012
        4016
        4020
        4024
        4028
        4032
        4036
        4040
        4044
        4048
        4052
        4056
        4060
        4064
        4068
        4072
        4076
        4080
        4084
        4088
        4092
        4096
 </DataArray>
 <DataArray  type="UInt8"  Name="types"  format="ascii">
 9
 9
 9
 9
 9
 9
 9
 9
 9
 9
 9
 9
 9
 9
 9
 9
 9
 9
 9
 9
 9
 9
 9
 9
 9
 9
 9
 9
 9
 9
 9
 9
 9
 9
 9
 9
 9
 9
 9
 9
 9
 9
 9
 9
 9
 9
 9
 9
 9
 9
 9
 9
 9
 9
 9
 9
 9
 9
 9
 9
 9
 9
 9
 9
 9
 9
 9
 9
 9
 9
 9
 9
 9
 9
 9
 9
 9
 9
 9
 9
 9
 9
 9
 9
 9
 9
 9
 9
 9
 9
 9
 9
 9
 9
 9
 9
 9
 9
 9
 9
 9
 9
 9
 9
 9
 9
 9
 9
 9
 9
 9
 9
 9
 9
 9
 9
 9
 9
 9
 9
 9
 9
 9
 9
 9
 9
 9
 9
 9
 9
 9
 9
 9
 9
 9
 9
 9
 9
 9
 9
 9
 9
 9
 9
 9
 9
 9
 9
 9
 9
 9
 9
 9
 9
 9
 9
 9
 9
 9
 9
 9
 9
 9
 9
 9
 9
 9
 9
 9
 9
 9
 9
 9
 9
 9
 9
 9
 9
 9
 9
 9
 9
 9
 9
 9
 9
 9
 9
 9
 9
 9
 9
 9
 9
 9
 9
 9
 9
 9
 9
 9
 9
 9
 9
 9
 9
 9
 9
 9
 9
 9
 9
 9
 9
 9
 9
 9
 9
 9
 9
 9
 9
 9
 9
 9
 9
 9
 9
 9
 9
 9
 9
 9
 9
 9
 9
 9
 9
 9
 9
 9
 9
 9
 9
 9
 9
 9
 9
 9
 9
 9
 9
 9
 9
 9
 9
 9
 9
 9
 9
 9
 9
 9
 9
 9
 9
 9
 9
 9
 9
 9
 9
 9
 9
 9
 9
 9
 9
 9
 9
 9
 9
 9
 9
 9
 9
 9
 9
 9
 9
 9
 9
 9
 9
 9
 9
 9
 9
 9
 9
 9
 9
 9
 9
 9
 9
 9
 9
 9
 9
 9
 9
 9
 9
 9
 9
 9
 9
 9
 9
 9
 9
 9
 9
 9
 9
 9
 9
 9
 9
 9
 9
 9
 9
 9
 9
 9
 9
 9
 9
 9
 9
 9
 9
 9
 9
 9
 9
 9
 9
 9
 9
 9
 9
 9
 9
 9
 9
 9
 9
 9
 9
 9
 9
 9
 9
 9
 9
 9
 9
 9
 9
 9
 9
 9
 9
 9
 9
 9
 9
 9
 9
 9
 9
 9
 9
 9
 9
 9
 9
 9
 9
 9
 9
 9
 9
 9
 9
 9
 9
 9
 9
 9
 9
 9
 9
 9
 9
 9
 9
 9
 9
 9
 9
 9
 9
 9
 9
 9
 9
 9
 9
 9
 9
 9
 9
 9
 9
 9
 9
 9
 9
 9
 9
 9
 9
 9
 9
 9
 9
 9
 9
 9
 9
 9
 9
 9
 9
 9
 9
 9
 9
 9
 9
 9
 9
 9
 9
 9
 9
 9
 9
 9
 9
 9
 9
 9
 9
 9
 9
 9
 9
 9
 9
 9
 9
 9
 9
 9
 9
 9
 9
 9
 9
 9
 9
 9
 9
 9
 9
 9
 9
 9
 9
 9
 9
 9
 9
 9
 9
 9
 9
 9
 9
 9
 9
 9
 9
 9
 9
 9
 9
 9
 9
 9
 9
 9
 9
 9
 9
 9
 9
 9
 9
 9
 9
 9
 9
 9
 9
 9
 9
 9
 9
 9
 9
 9
 9
 9
 9
 9
 9
 9
 9
 9
 9
 9
 9
 9
 9
 9
 9
 9
 9
 9
 9
 9
 9
 9
 9
 9
 9
 9
 9
 9
 9
 9
 9
 9
 9
 9
 9
 9
 9
 9
 9
 9
 9
 9
 9
 9
 9
 9
 9
 9
 9
 9
 9
 9
 9
 9
 9
 9
 9
 9
 9
 9
 9
 9
 9
 9
 9
 9
 9
 9
 9
 9
 9
 9
 9
 9
 9
 9
 9
 9
 9
 9
 9
 9
 9
 9
 9
 9
 9
 9
 9
 9
 9
 9
 9
 9
 9
 9
 9
 9
 9
 9
 9
 9
 9
 9
 9
 9
 9
 9
 9
 9
 9
 9
 9
 9
 9
 9
 9
 9
 9
 9
 9
 9
 9
 9
 9
 9
 9
 9
 9
 9
 9
 9
 9
 9
 9
 9
 9
 9
 9
 9
 9
 9
 9
 9
 9
 9
 9
 9
 9
 9
 9
 9
 9
 9
 9
 9
 9
 9
 9
 9
 9
 9
 9
 9
 9
 9
 9
 9
 9
 9
 9
 9
 9
 9
 9
 9
 9
 9
 9
 9
 9
 9
 9
 9
 9
 9
 9
 9
 9
 9
 9
 9
 9
 9
 9
 9
 9
 9
 9
 9
 9
 9
 9
 9
 9
 9
 9
 9
 9
 9
 9
 9
 9
 9
 9
 9
 9
 9
 9
 9
 9
 9
 9
 9
 9
 9
 9
 9
 9
 9
 9
 9
 9
 9
 9
 9
 9
 9
 9
 9
 9
 9
 9
 9
 9
 9
 9
 9
 9
 9
 9
 9
 9
 9
 9
 9
 9
 9
 9
 9
 9
 9
 9
 9
 9
 9
 9
 9
 9
 9
 9
 9
 9
 9
 9
 9
 9
 9
 9
 9
 9
 9
 9
 9
 9
 9
 9
 9
 9
 9
 9
 9
 9
 9
 9
 9
 9
 9
 9
 9
 9
 9
 9
 9
 9
 9
 9
 9
 9
 9
 9
 9
 9
 9
 9
 9
 9
 9
 9
 9
 9
 9
 9
 9
 9
 9
 9
 9
 9
 9
 9
 9
 9
 9
 9
 9
 9
 9
 9
 9
 9
 9
 9
 9
 9
 9
 9
 9
 9
 9
 9
 9
 9
 9
 9
 9
 9
 9
 9
 9
 9
 9
 9
 9
 9
 9
 9
 9
 9
 9
 9
 9
 9
 9
 9
 9
 9
 9
 9
 9
 9
 9
 9
 9
 9
 9
 9
 9
 9
 9
 9
 9
 9
 9
 9
 9
 9
 9
 9
 9
 9
 9
 9
 9
 9
 9
 9
 9
 9
 9
 9
 9
 9
 9
 9
 9
 9
 9
 9
 9
 9
 9
 9
 9
 9
 9
 9
 9
 9
 9
 9
 9
 9
 9
 9
 9
 9
 9
 9
 9
 9
 9
 9
 9
 9
 9
 9
 9
 9
 9
 9
 9
 9
 9
 9
 9
 9
 9
 9
 9
 9
 9
 9
 9
 9
 9
 9
 9
 9
 9
 9
 9
 9
 9
 9
 9
 9
 9
 9
 9
 9
 9
 9
 9
 9
 9
 9
 </DataArray>
 </Cells> 
 <PointData>
 <DataArray  type="Float64" Name="disp" NumberOfComponents="3" format="ascii">
   5.6934773429353443E-002   6.2027718726144487E-002   0.0000000000000000     
   6.2919955028036739E-002   6.6790564720682594E-002   0.0000000000000000     
   6.8099819819922219E-002   7.1997573178439495E-002   0.0000000000000000     
   7.2474367805009904E-002   7.7648744099415204E-002   0.0000000000000000     
   7.6043598983299765E-002   8.3744077483609708E-002   0.0000000000000000     
   5.5911796349250614E-002   6.0420728542250321E-002   0.0000000000000000     
   6.0333655295520719E-002   6.5518489370631525E-002   0.0000000000000000     
   6.4286294215299494E-002   7.0975209069060630E-002   0.0000000000000000     
   6.7769713108587010E-002   7.6790887637537650E-002   0.0000000000000000     
   7.0783911975383196E-002   8.2965525076062557E-002   0.0000000000000000     
   5.3801595768269081E-002   5.9115779795190546E-002   0.0000000000000000     
   5.7109635047195746E-002   6.4501657566224349E-002   0.0000000000000000     
   6.0172628584610442E-002   7.0168507318753293E-002   0.0000000000000000     
   6.2990576380513169E-002   7.6116329052777390E-002   0.0000000000000000     
   6.5563478434903927E-002   8.2345122768296641E-002   0.0000000000000000     
   5.0604171686408871E-002   5.8112872484965161E-002   0.0000000000000000     
   5.3247894283061849E-002   6.3740069307461067E-002   0.0000000000000000     
   5.5758822927855022E-002   6.9577467927517525E-002   0.0000000000000000     
   5.8136957620788382E-002   7.5625068345134466E-002   0.0000000000000000     
   6.0382298361861930E-002   8.1882870560311918E-002   0.0000000000000000     
   4.6319524103669962E-002   5.7412006611574168E-002   0.0000000000000000     
   4.8748433003119013E-002   6.3233724594341692E-002   0.0000000000000000     
   5.1044877245033253E-002   6.9202090895353244E-002   0.0000000000000000     
   5.3208856829412662E-002   7.5317105514608823E-002   0.0000000000000000     
   5.5240371756257269E-002   8.1578768452108430E-002   0.0000000000000000     
   7.6043598983299765E-002   8.3744077483609708E-002   0.0000000000000000     
   7.9122828268858220E-002   9.0132295255515901E-002   0.0000000000000000     
   8.2027370575751601E-002   9.6662119339626679E-002   0.0000000000000000     
   8.4757225903979952E-002  0.10333354973594200        0.0000000000000000     
   8.7312394253543243E-002  0.11014658644446190        0.0000000000000000     
   7.0783911975383196E-002   8.2965525076062557E-002   0.0000000000000000     
   7.3501774714336887E-002   8.9389136985217582E-002   0.0000000000000000     
   7.6096185224096904E-002   9.5951738965584912E-002   0.0000000000000000     
   7.8567143504663220E-002  0.10265333101716451        0.0000000000000000     
   8.0914649556035834E-002  0.10949391313995641        0.0000000000000000     
   6.5563478434903927E-002   8.2345122768296641E-002   0.0000000000000000     
   6.7970907323013030E-002   8.8784254424667197E-002   0.0000000000000000     
   7.0292435620070759E-002   9.5363089981245236E-002   0.0000000000000000     
   7.2528063326077155E-002  0.10208162943803080        0.0000000000000000     
   7.4677790441032205E-002  0.10893987279502385        0.0000000000000000     
   6.0382298361861930E-002   8.1882870560311918E-002   0.0000000000000000     
   6.2530226094886579E-002   8.8317647573864733E-002   0.0000000000000000     
   6.4616121763673193E-002   9.4896172386607733E-002   0.0000000000000000     
   6.6639985368221771E-002  0.10161844499854088        0.0000000000000000     
   6.8601816908532343E-002  0.10848446540966421        0.0000000000000000     
   5.5240371756257269E-002   8.1578768452108430E-002   0.0000000000000000     
   5.7179731029957589E-002   8.7989316432810216E-002   0.0000000000000000     
   5.9067243654904199E-002   9.4550986181672333E-002   0.0000000000000000     
   6.0902909631097076E-002  0.10126377769869475        0.0000000000000000     
   6.2686728958536247E-002  0.10812769098387748        0.0000000000000000     
   8.7312394253543243E-002  0.11014658644446190        0.0000000000000000     
   8.9720984447635960E-002  0.11708503378196888        0.0000000000000000     
   9.2011105309452543E-002  0.12413269606524550        0.0000000000000000     
   9.4182756838992993E-002  0.13128957329429175        0.0000000000000000     
   9.6235939036257309E-002  0.13855566546910764        0.0000000000000000     
   8.0914649556035834E-002  0.10949391313995641        0.0000000000000000     
   8.3145942752787083E-002  0.11645906262518485        0.0000000000000000     
   8.5268262469489237E-002  0.12353435676407407        0.0000000000000000     
   8.7281608706142350E-002  0.13071979555662405        0.0000000000000000     
   8.9185981462746380E-002  0.13801537900283484        0.0000000000000000     
   7.4677790441032205E-002  0.10893987279502385        0.0000000000000000     
   7.6734814969584883E-002  0.11592381688236816        0.0000000000000000     
   7.8692334916384207E-002  0.12301945853020756        0.0000000000000000     
   8.0550350281430164E-002  0.13022679773854201        0.0000000000000000     
   8.2308861064722738E-002  0.13754583450737154        0.0000000000000000     
   6.8601816908532343E-002  0.10848446540966421        0.0000000000000000     
   7.0487601098029373E-002  0.11547929655351886        0.0000000000000000     
   7.2283322650137399E-002  0.12258800136364602        0.0000000000000000     
   7.3988981564856393E-002  0.12981057984004563        0.0000000000000000     
   7.5604577842186410E-002  0.13714703198271777        0.0000000000000000     
   6.2686728958536247E-002  0.10812769098387748        0.0000000000000000     
   6.4404301138120540E-002  0.11512550163863691        0.0000000000000000     
   6.6041225670748827E-002  0.12223998526438941        0.0000000000000000     
   6.7597502556421107E-002  0.12947114186113495        0.0000000000000000     
   6.9073131795137369E-002  0.13681897142887356        0.0000000000000000     
   9.6235939036257309E-002  0.13855566546910764        0.0000000000000000     
   9.8181198754576954E-002  0.14593503864092400        0.0000000000000000     
  0.10002908284728339       0.15343175886097171        0.0000000000000000     
  0.10177959131437658       0.16104582612925072        0.0000000000000000     
  0.10343272415585655       0.16877724044576109        0.0000000000000000     
   8.9185981462746380E-002  0.13801537900283484        0.0000000000000000     
   9.0989895118869457E-002  0.14542323412745797        0.0000000000000000     
   9.2701864054079708E-002  0.15294548795524512        0.0000000000000000     
   9.4321888268377119E-002  0.16058214048619623        0.0000000000000000     
   9.5849967761761690E-002  0.16833319172031141        0.0000000000000000     
   8.2308861064722738E-002  0.13754583450737154        0.0000000000000000     
   8.3974594358429688E-002  0.14497656014441526        0.0000000000000000     
   8.5554277254718689E-002  0.15251896595739234        0.0000000000000000     
   8.7047909753589767E-002  0.16017305194630277        0.0000000000000000     
   8.8455491855042923E-002  0.16793881811114655        0.0000000000000000     
   7.5604577842186410E-002  0.13714703198271777        0.0000000000000000     
   7.7135296473257647E-002  0.14459501669179586        0.0000000000000000     
   7.8586322449200344E-002  0.15215219286741333        0.0000000000000000     
   7.9957655770014568E-002  0.15981856050957022        0.0000000000000000     
   8.1249296435700238E-002  0.16759411961826651        0.0000000000000000     
   6.9073131795137369E-002  0.13681897142887356        0.0000000000000000     
   7.0472001463353320E-002  0.14427860376959975        0.0000000000000000     
   7.1797999637524687E-002  0.15184516868530812        0.0000000000000000     
   7.3051126317651455E-002  0.15951866617599864        0.0000000000000000     
   7.4231381503733651E-002  0.16729909624167133        0.0000000000000000     
  0.10343272415585655       0.16877724044576109        0.0000000000000000     
  0.10498750042784523       0.17660046375482202        0.0000000000000000     
  0.10644293918646454       0.18448995800075269        0.0000000000000000     
  0.10779904043171448       0.19244572318355313        0.0000000000000000     
  0.10905580416359506       0.20046775930322336        0.0000000000000000     
   9.5849967761761690E-002  0.16833319172031141        0.0000000000000000     
   9.7288481219490158E-002  0.17617576362048237        0.0000000000000000     
   9.8639807326819248E-002  0.18408697814960090        0.0000000000000000     
   9.9903946083748946E-002  0.19206683530766713        0.0000000000000000     
  0.10108089749027926       0.20011533509468096        0.0000000000000000     
   8.8455491855042923E-002  0.16793881811114655        0.0000000000000000     
   8.9781297696006179E-002  0.17579604629991313        0.0000000000000000     
   9.1029601413407532E-002  0.18372451836059200        0.0000000000000000     
   9.2200403007247023E-002  0.19172423429318319        0.0000000000000000     
   9.3293702477524637E-002  0.19979519409768667        0.0000000000000000     
   8.1249296435700238E-002  0.16759411961826651        0.0000000000000000     
   8.2465949857393236E-002  0.17546131179311439        0.0000000000000000     
   8.3612321446229404E-002  0.18340257863372597        0.0000000000000000     
   8.4688411202208713E-002  0.19141792014010134        0.0000000000000000     
   8.5694219125331192E-002  0.19950733631224046        0.0000000000000000     
   7.4231381503733651E-002  0.16729909624167133        0.0000000000000000     
   7.5342437703651385E-002  0.17517156010008608        0.0000000000000000     
   7.6387967425284850E-002  0.18312115896900283        0.0000000000000000     
   7.7367970668634017E-002  0.19114789284842157        0.0000000000000000     
   7.8282447433698929E-002  0.19925176173834233        0.0000000000000000     
  0.10905580416359506       0.20046775930322336        0.0000000000000000     
  0.11022806812533849       0.20855816170356142        0.0000000000000000     
  0.11133067006017701       0.21671902572836549        0.0000000000000000     
  0.11236360996811058       0.22495035137763550        0.0000000000000000     
  0.11332688784913925       0.23325213865137145        0.0000000000000000     
  0.10108089749027926       0.20011533509468096        0.0000000000000000     
  0.10217875268793947       0.20823117190947621        0.0000000000000000     
  0.10320560281825879       0.21641304015088664        0.0000000000000000     
  0.10416144788123725       0.22466093981891219        0.0000000000000000     
  0.10504628787687487       0.23297487091355296        0.0000000000000000     
   9.3293702477524637E-002  0.19979519409768667        0.0000000000000000     
   9.4312124839736541E-002  0.20793376431570296        0.0000000000000000     
   9.5258295109378846E-002  0.21613631148883253        0.0000000000000000     
   9.6132213286451593E-002  0.22440283561707541        0.0000000000000000     
   9.6933879370954767E-002  0.23273333670043161        0.0000000000000000     
   8.5694219125331192E-002  0.19950733631224046        0.0000000000000000     
   8.6628184580729725E-002  0.20766593892224164        0.0000000000000000     
   8.7488746933537198E-002  0.21588883974220319        0.0000000000000000     
   8.8275906183753583E-002  0.22417603877212508        0.0000000000000000     
   8.8989662331378935E-002  0.23252753601200743        0.0000000000000000     
   7.8282447433698929E-002  0.19925176173834233        0.0000000000000000     
   7.9126931910919018E-002  0.20742769572909225        0.0000000000000000     
   7.9896958290733802E-002  0.21567062491099856        0.0000000000000000     
   8.0592526573143253E-002  0.22398054928406128        0.0000000000000000     
   8.1213636758147398E-002  0.23235746884828043        0.0000000000000000     
  0.11332688784913925       0.23325213865137145        0.0000000000000000     
  0.11424745420422011       0.24164635746532170        0.0000000000000000     
  0.11515225953431031       0.25015497773523460        0.0000000000000000     
  0.11604130383940983       0.25877799946111002        0.0000000000000000     
  0.11691458711951867       0.26751542264294809        0.0000000000000000     
  0.10504628787687487       0.23297487091355296        0.0000000000000000     
  0.10586520027654578       0.24138387667962605        0.0000000000000000     
  0.10662326255162415       0.24991700036194861        0.0000000000000000     
  0.10732047470210999       0.25857424196052065        0.0000000000000000     
  0.10795683672800328       0.26735560147534215        0.0000000000000000     
   9.6933879370954767E-002  0.23273333670043161        0.0000000000000000     
   9.7654918390338533E-002  0.24115960846046822        0.0000000000000000     
   9.8286955372053134E-002  0.24971344461875222        0.0000000000000000     
   9.8829990316098584E-002  0.25839484517528372        0.0000000000000000     
   9.9284023222474829E-002  0.26720381013006272        0.0000000000000000     
   8.8989662331378935E-002  0.23252753601200743        0.0000000000000000     
   8.9616608545598442E-002  0.24097355280784821        0.0000000000000000     
   9.0143337995597303E-002  0.24954431050564552        0.0000000000000000     
   9.0569850681375602E-002  0.25823980910539929        0.0000000000000000     
   9.0896146602933228E-002  0.26706004860710963        0.0000000000000000     
   8.1213636758147398E-002  0.23235746884828043        0.0000000000000000     
   8.1750270742325465E-002  0.24082570972176606        0.0000000000000000     
   8.2192410422256668E-002  0.24940959802262841        0.0000000000000000     
   8.2540055797941020E-002  0.25810913375086730        0.0000000000000000     
   8.2793206869378577E-002  0.26692431690648294        0.0000000000000000     
  0.11691458711951867       0.26751542264294809        0.0000000000000000     
  0.11771123011198550       0.27653241949384916        0.0000000000000000     
  0.11837035355415899       0.28599416222691382        0.0000000000000000     
  0.11889195744603914       0.29590065084214195        0.0000000000000000     
  0.11927604178762594       0.30625188533953357        0.0000000000000000     
  0.10795683672800328       0.26735560147534215        0.0000000000000000     
  0.10851260000919007       0.27639388705516987        0.0000000000000000     
  0.10896801592555631       0.28582190684876058        0.0000000000000000     
  0.10932308447710204       0.29563966085611415        0.0000000000000000     
  0.10957780566382723       0.30584714907723065        0.0000000000000000     
   9.9284023222474829E-002  0.26720381013006272        0.0000000000000000     
   9.9659681383834575E-002  0.27623943233965131        0.0000000000000000     
   9.9967592092830557E-002  0.28560080466061183        0.0000000000000000     
  0.10020775534946277       0.29528792709294416        0.0000000000000000     
  0.10038017115373118       0.30530079963664841        0.0000000000000000     
   9.0896146602933228E-002  0.26706004860710963        0.0000000000000000     
   9.1152474235919018E-002  0.27606905534729337        0.0000000000000000     
   9.1369082055981724E-002  0.28533085566246752        0.0000000000000000     
   9.1545970063121332E-002  0.29484544955263209        0.0000000000000000     
   9.1683138257337815E-002  0.30461283701778707        0.0000000000000000     
   8.2793206869378577E-002  0.26692431690648294        0.0000000000000000     
   8.2990978565443435E-002  0.27588275607809609        0.0000000000000000     
   8.3172485815009814E-002  0.28501205985432770        0.0000000000000000     
   8.3337728618077700E-002  0.29431222823517783        0.0000000000000000     
   8.3486706974647107E-002  0.30378326122064647        0.0000000000000000     
   4.6319524103669962E-002   5.7412006611574168E-002   0.0000000000000000     
   4.8748433003119013E-002   6.3233724594341692E-002   0.0000000000000000     
   5.1044877245033253E-002   6.9202090895353244E-002   0.0000000000000000     
   5.3208856829412662E-002   7.5317105514608823E-002   0.0000000000000000     
   5.5240371756257269E-002   8.1578768452108430E-002   0.0000000000000000     
   4.1633757205031693E-002   5.6956336891687262E-002   0.0000000000000000     
   4.4030499285358966E-002   6.2912848072875435E-002   0.0000000000000000     
   4.6252058975206949E-002   6.8967724815243908E-002   0.0000000000000000     
   4.8298436274575626E-002   7.5120967118792722E-002   0.0000000000000000     
   5.0169631183465027E-002   8.1372574983521850E-002   0.0000000000000000     
   3.7232975175473401E-002   5.6689018041974099E-002   0.0000000000000000     
   3.9513341207773396E-002   6.2707664389071494E-002   0.0000000000000000     
   4.1601635557437892E-002   6.8799718280172936E-002   0.0000000000000000     
   4.3497858224466897E-002   7.4965179715278399E-002   0.0000000000000000     
   4.5202009208860396E-002   8.1204048694387881E-002   0.0000000000000000     
   3.3117178014995086E-002   5.6610050062434712E-002   0.0000000000000000     
   3.5196958770362330E-002   6.2618173542929909E-002   0.0000000000000000     
   3.7093606991726126E-002   6.8698071290140286E-002   0.0000000000000000     
   3.8807122679086453E-002   7.4849743304065811E-002   0.0000000000000000     
   4.0337505832443332E-002   8.1073189584706509E-002   0.0000000000000000     
   2.9286365723596754E-002   5.6719432953069089E-002   0.0000000000000000     
   3.1081351973125754E-002   6.2644375534450653E-002   0.0000000000000000     
   3.2727973278071608E-002   6.8662783845145958E-002   0.0000000000000000     
   3.4226229638434309E-002   7.4774657885154971E-002   0.0000000000000000     
   3.5576121054213872E-002   8.0979997654477734E-002   0.0000000000000000     
   5.5240371756257269E-002   8.1578768452108430E-002   0.0000000000000000     
   5.7179731029957589E-002   8.7989316432810216E-002   0.0000000000000000     
   5.9067243654904199E-002   9.4550986181672333E-002   0.0000000000000000     
   6.0902909631097076E-002  0.10126377769869475        0.0000000000000000     
   6.2686728958536247E-002  0.10812769098387748        0.0000000000000000     
   5.0169631183465027E-002   8.1372574983521850E-002   0.0000000000000000     
   5.1928965262646731E-002   8.7752765603671318E-002   0.0000000000000000     
   5.3639760072892305E-002   9.4291756173481137E-002   0.0000000000000000     
   5.5302015614201769E-002  0.10098954669295133        0.0000000000000000     
   5.6915731886575109E-002  0.10784613716208188        0.0000000000000000     
   4.5202009208860396E-002   8.1204048694387881E-002   0.0000000000000000     
   4.6787471927374667E-002   8.7561499688615749E-002   0.0000000000000000     
   4.8327629796766067E-002   9.4082707169076310E-002   0.0000000000000000     
   4.9822482817034539E-002  0.10076767113576958        0.0000000000000000     
   5.1272030988180103E-002  0.10761639158869560        0.0000000000000000     
   4.0337505832443332E-002   8.1073189584706509E-002   0.0000000000000000     
   4.1755251024141439E-002   8.7415518687643468E-002   0.0000000000000000     
   4.3130852826525456E-002   9.3923839168457784E-002   0.0000000000000000     
   4.4464311239595385E-002  0.10059815102714952        0.0000000000000000     
   4.5755626263351223E-002  0.10743845426371862        0.0000000000000000     
   3.5576121054213872E-002   8.0979997654477734E-002   0.0000000000000000     
   3.6832302552947026E-002   8.7314822600754516E-002   0.0000000000000000     
   3.8049429162170502E-002   9.3815152171625643E-002   0.0000000000000000     
   3.9227500881884321E-002  0.10048098636709113        0.0000000000000000     
   4.0366517712088476E-002  0.10731232518715093        0.0000000000000000     
   6.2686728958536247E-002  0.10812769098387748        0.0000000000000000     
   6.4404301138120540E-002  0.11512550163863691        0.0000000000000000     
   6.6041225670748827E-002  0.12223998526438941        0.0000000000000000     
   6.7597502556421107E-002  0.12947114186113495        0.0000000000000000     
   6.9073131795137369E-002  0.13681897142887356        0.0000000000000000     
   5.6915731886575109E-002  0.10784613716208188        0.0000000000000000     
   5.8469365901710958E-002  0.11484196548311987        0.0000000000000000     
   5.9951374671307928E-002  0.12195746955831237        0.0000000000000000     
   6.1361758195366004E-002  0.12919264938765943        0.0000000000000000     
   6.2700516473885207E-002  0.13654750497116094        0.0000000000000000     
   5.1272030988180103E-002  0.10761639158869560        0.0000000000000000     
   5.2667246200653148E-002  0.11460822143236526        0.0000000000000000     
   5.3999100344904058E-002  0.12172251357128959        0.0000000000000000     
   5.5267593420932862E-002  0.12895926800546853        0.0000000000000000     
   5.6472725428739524E-002  0.13631848473490213        0.0000000000000000     
   4.5755626263351223E-002  0.10743845426371862        0.0000000000000000     
   4.6997942034947136E-002  0.11442426948637310        0.0000000000000000     
   4.8184402691537280E-002  0.12153511730332101        0.0000000000000000     
   4.9315008233121682E-002  0.12877099771456232        0.0000000000000000     
   5.0389758659700315E-002  0.13613191072009706        0.0000000000000000     
   4.0366517712088476E-002  0.10731232518715093        0.0000000000000000     
   4.1461453404592910E-002  0.11429010964514336        0.0000000000000000     
   4.2507281711207566E-002  0.12139528075440664        0.0000000000000000     
   4.3504002631932458E-002  0.12862783851494078        0.0000000000000000     
   4.4451616166767571E-002  0.13598778292674576        0.0000000000000000     
   6.9073131795137369E-002  0.13681897142887356        0.0000000000000000     
   7.0472001463353320E-002  0.14427860376959975        0.0000000000000000     
   7.1797999637524687E-002  0.15184516868530812        0.0000000000000000     
   7.3051126317651455E-002  0.15951866617599864        0.0000000000000000     
   7.4231381503733651E-002  0.16729909624167133        0.0000000000000000     
   6.2700516473885207E-002  0.13654750497116094        0.0000000000000000     
   6.3970474294353305E-002  0.14401468135750758        0.0000000000000000     
   6.5174456444258122E-002  0.15158682359538989        0.0000000000000000     
   6.6312462923599630E-002  0.15926393168480790        0.0000000000000000     
   6.7384493732377815E-002  0.16704600562576158        0.0000000000000000     
   5.6472725428739524E-002  0.13631848473490213        0.0000000000000000     
   5.7616479931894220E-002  0.14379060943520003        0.0000000000000000     
   5.8700840493967094E-002  0.15136608778197197        0.0000000000000000     
   5.9725807114958160E-002  0.15904491977521787        0.0000000000000000     
   6.0691379794867432E-002  0.16682710541493789        0.0000000000000000     
   5.0389758659700315E-002  0.13613191072009706        0.0000000000000000     
   5.1410018375976009E-002  0.14360638800267711        0.0000000000000000     
   5.2377151786651602E-002  0.15118296124505429        0.0000000000000000     
   5.3291158891727093E-002  0.15886163044722873        0.0000000000000000     
   5.4152039691202490E-002  0.16664239560920030        0.0000000000000000     
   4.4451616166767571E-002  0.13598778292674576        0.0000000000000000     
   4.5351089626598715E-002  0.14346201705993877        0.0000000000000000     
   4.6203390322311660E-002  0.15103744398463692        0.0000000000000000     
   4.7008518253906409E-002  0.15871406370084029        0.0000000000000000     
   4.7766473421382988E-002  0.16649187620854877        0.0000000000000000     
   7.4231381503733651E-002  0.16729909624167133        0.0000000000000000     
   7.5342437703651385E-002  0.17517156010008608        0.0000000000000000     
   7.6387967425284850E-002  0.18312115896900283        0.0000000000000000     
   7.7367970668634017E-002  0.19114789284842157        0.0000000000000000     
   7.8282447433698929E-002  0.19925176173834233        0.0000000000000000     
   6.7384493732377815E-002  0.16704600562576158        0.0000000000000000     
   6.8392633615912052E-002  0.17492077610135545        0.0000000000000000     
   6.9338967319521688E-002  0.18287597379469420        0.0000000000000000     
   7.0223494843206710E-002  0.19091159870577773        0.0000000000000000     
   7.1046216186967132E-002  0.19902765083460608        0.0000000000000000     
   6.0691379794867432E-002  0.16682710541493789        0.0000000000000000     
   6.1598409975306676E-002  0.17470294467744982        0.0000000000000000     
   6.2447749097887702E-002  0.18266273753907175        0.0000000000000000     
   6.3239397162610511E-002  0.19070648399980364        0.0000000000000000     
   6.3973354169475111E-002  0.19883418405964551        0.0000000000000000     
   5.4152039691202490E-002  0.16664239560920030        0.0000000000000000     
   5.4959766781835270E-002  0.17451806582836918        0.0000000000000000     
   5.5714312760382911E-002  0.18248145020213552        0.0000000000000000     
   5.6415677626845455E-002  0.19053254873049935        0.0000000000000000     
   5.7063861381222859E-002  0.19867136141346062        0.0000000000000000     
   4.7766473421382988E-002  0.16649187620854877        0.0000000000000000     
   4.8476704035497815E-002  0.17436613955411348        0.0000000000000000     
   4.9138658307007310E-002  0.18233211178388550        0.0000000000000000     
   4.9752336235911507E-002  0.19038979289786484        0.0000000000000000     
   5.0317737822210371E-002  0.19853918289605146        0.0000000000000000     
   7.8282447433698929E-002  0.19925176173834233        0.0000000000000000     
   7.9126931910919018E-002  0.20742769572909225        0.0000000000000000     
   7.9896958290733802E-002  0.21567062491099856        0.0000000000000000     
   8.0592526573143253E-002  0.22398054928406128        0.0000000000000000     
   8.1213636758147398E-002  0.23235746884828043        0.0000000000000000     
   7.1046216186967132E-002  0.19902765083460608        0.0000000000000000     
   7.1800855772928759E-002  0.20721896931601641        0.0000000000000000     
   7.2481138023217442E-002  0.21548039328484586        0.0000000000000000     
   7.3087062937833125E-002  0.22381192274109454        0.0000000000000000     
   7.3618630516775863E-002  0.23221355768476246        0.0000000000000000     
   6.3973354169475111E-002  0.19883418405964551        0.0000000000000000     
   6.4642445109383287E-002  0.20703969426277558        0.0000000000000000     
   6.5239494973236833E-002  0.21531687115337228        0.0000000000000000     
   6.5764503761035778E-002  0.22366571473143551        0.0000000000000000     
   6.6217471472780079E-002  0.23208622499696532        0.0000000000000000     
   5.7063861381222859E-002  0.19867136141346062        0.0000000000000000     
   5.7651699920282559E-002  0.20688987056936992        0.0000000000000000     
   5.8172029140791982E-002  0.21518005851657770        0.0000000000000000     
   5.8624849042751150E-002  0.22354192525508412        0.0000000000000000     
   5.9010159626160019E-002  0.23197547078488909        0.0000000000000000     
   5.0317737822210371E-002  0.19853918289605146        0.0000000000000000     
   5.0828620205626611E-002  0.20676949823579929        0.0000000000000000     
   5.1278740525882917E-002  0.21506995537446227        0.0000000000000000     
   5.1668098782979288E-002  0.22344055431204041        0.0000000000000000     
   5.1996694976915718E-002  0.23188129504853369        0.0000000000000000     
   8.1213636758147398E-002  0.23235746884828043        0.0000000000000000     
   8.1750270742325465E-002  0.24082570972176606        0.0000000000000000     
   8.2192410422256668E-002  0.24940959802262841        0.0000000000000000     
   8.2540055797941020E-002  0.25810913375086730        0.0000000000000000     
   8.2793206869378577E-002  0.26692431690648294        0.0000000000000000     
   7.3618630516775863E-002  0.23221355768476246        0.0000000000000000     
   7.4072624331346884E-002  0.24070156086829381        0.0000000000000000     
   7.4445827952847363E-002  0.24929219504413305        0.0000000000000000     
   7.4738241381277354E-002  0.25798546021228008        0.0000000000000000     
   7.4949864616636844E-002  0.26678135637273503        0.0000000000000000     
   6.6217471472780079E-002  0.23208622499696532        0.0000000000000000     
   6.6600388663489968E-002  0.24058658791350340        0.0000000000000000     
   6.6915245888185593E-002  0.24917498944459165        0.0000000000000000     
   6.7162043146866982E-002  0.25785142959022994        0.0000000000000000     
   6.7340780439534106E-002  0.26661590835041832        0.0000000000000000     
   5.9010159626160019E-002  0.23197547078488909        0.0000000000000000     
   5.9333563738754737E-002  0.24048079085739496        0.0000000000000000     
   5.9600664228271351E-002  0.24905798122400419        0.0000000000000000     
   5.9811461094709903E-002  0.25770704188471677        0.0000000000000000     
   5.9965954338070372E-002  0.26642797283953273        0.0000000000000000     
   5.1996694976915718E-002  0.23188129504853369        0.0000000000000000     
   5.2272149557141177E-002  0.24038416969996837        0.0000000000000000     
   5.2502082973104658E-002  0.24894117038237071        0.0000000000000000     
   5.2686495224806132E-002  0.25755229709574073        0.0000000000000000     
   5.2825386312245634E-002  0.26621754984007834        0.0000000000000000     
   8.2793206869378577E-002  0.26692431690648294        0.0000000000000000     
   8.2990978565443435E-002  0.27588275607809609        0.0000000000000000     
   8.3172485815009814E-002  0.28501205985432770        0.0000000000000000     
   8.3337728618077700E-002  0.29431222823517783        0.0000000000000000     
   8.3486706974647107E-002  0.30378326122064647        0.0000000000000000     
   7.4949864616636844E-002  0.26678135637273503        0.0000000000000000     
   7.5121934112196365E-002  0.27567491040378744        0.0000000000000000     
   7.5295686321226449E-002  0.28466114918372704        0.0000000000000000     
   7.5471121243727082E-002  0.29374007271255381        0.0000000000000000     
   7.5648238879698293E-002  0.30291168099026772        0.0000000000000000     
   6.7340780439534106E-002  0.26661590835041832        0.0000000000000000     
   6.7492080615966399E-002  0.27543989419609549        0.0000000000000000     
   6.7656566525943262E-002  0.28429485559820011        0.0000000000000000     
   6.7834238169464656E-002  0.29318079255673229        0.0000000000000000     
   6.8025095546530620E-002  0.30209770507169176        0.0000000000000000     
   5.9965954338070372E-002  0.26642797283953273        0.0000000000000000     
   6.0101418076753566E-002  0.27517770745502007        0.0000000000000000     
   6.0255126429160227E-002  0.28391317909774688        0.0000000000000000     
   6.0427079395290385E-002  0.29263438776771306        0.0000000000000000     
   6.0617276975144067E-002  0.30134133346491870        0.0000000000000000     
   5.2825386312245634E-002  0.26621754984007834        0.0000000000000000     
   5.2949946494557823E-002  0.27488835018056135        0.0000000000000000     
   5.3091366030877385E-002  0.28351611968236734        0.0000000000000000     
   5.3249644921204327E-002  0.29210085834549643        0.0000000000000000     
   5.3424783165538642E-002  0.30064256616994844        0.0000000000000000     
   2.9286365723596754E-002   5.6719432953069089E-002   0.0000000000000000     
   3.1081351973125754E-002   6.2644375534450653E-002   0.0000000000000000     
   3.2727973278071608E-002   6.8662783845145958E-002   0.0000000000000000     
   3.4226229638434309E-002   7.4774657885154971E-002   0.0000000000000000     
   3.5576121054213872E-002   8.0979997654477734E-002   0.0000000000000000     
   2.5593014491040112E-002   5.6910863626581737E-002   0.0000000000000000     
   2.7080962063625574E-002   6.2729165915688417E-002   0.0000000000000000     
   2.8462415863427133E-002   6.8669886995681759E-002   0.0000000000000000     
   2.9737375890444780E-002   7.4733026866561775E-002   0.0000000000000000     
   3.0905842144678525E-002   8.0918585528328479E-002   0.0000000000000000     
   2.1889600507086882E-002   5.7078038995677156E-002   0.0000000000000000     
   2.3110230289423696E-002   6.2815440238697812E-002   0.0000000000000000     
   2.4254616194745459E-002   6.8695411792239439E-002   0.0000000000000000     
   2.5322758223052161E-002   7.4717953656302030E-002   0.0000000000000000     
   2.6314656374343815E-002   8.0883065830885614E-002   0.0000000000000000     
   1.8176123771737076E-002   5.7220959060355354E-002   0.0000000000000000     
   1.9169156650520120E-002   6.2903198503478877E-002   0.0000000000000000     
   2.0104574272026578E-002   6.8739358234819026E-002   0.0000000000000000     
   2.0982376636256454E-002   7.4729438254375793E-002   0.0000000000000000     
   2.1802563743209741E-002   8.0873438562149180E-002   0.0000000000000000     
   1.4452584284990678E-002   5.7339623820616331E-002   0.0000000000000000     
   1.5257741146914843E-002   6.2992440710031600E-002   0.0000000000000000     
   1.6012290095270505E-002   6.8801726323420492E-002   0.0000000000000000     
   1.6716231130057661E-002   7.4767480660782995E-002   0.0000000000000000     
   1.7369564251276309E-002   8.0889703722119136E-002   0.0000000000000000     
   3.5576121054213872E-002   8.0979997654477734E-002   0.0000000000000000     
   3.6832302552947026E-002   8.7314822600754516E-002   0.0000000000000000     
   3.8049429162170502E-002   9.3815152171625643E-002   0.0000000000000000     
   3.9227500881884321E-002  0.10048098636709113        0.0000000000000000     
   4.0366517712088476E-002  0.10731232518715093        0.0000000000000000     
   3.0905842144678525E-002   8.0918585528328479E-002   0.0000000000000000     
   3.2003292409313669E-002   8.7247590340875716E-002   0.0000000000000000     
   3.3065204467535511E-002   9.3741068664097427E-002   0.0000000000000000     
   3.4091578319344069E-002  0.10039902049799354        0.0000000000000000     
   3.5082413964739323E-002  0.10722144584256414        0.0000000000000000     
   2.6314656374343815E-002   8.0883065830885614E-002   0.0000000000000000     
   2.7252886488763620E-002   8.7202000820933934E-002   0.0000000000000000     
   2.8160024406454796E-002   9.3686011131390717E-002   0.0000000000000000     
   2.9036070127417338E-002  0.10033509676225602        0.0000000000000000     
   2.9881023651651246E-002  0.10714925771352982        0.0000000000000000     
   2.1802563743209741E-002   8.0873438562149180E-002   0.0000000000000000     
   2.2581084791296897E-002   8.7178054040929112E-002   0.0000000000000000     
   2.3333888978928363E-002   9.3649979573505571E-002   0.0000000000000000     
   2.4060976306104150E-002  0.10028921515987851        0.0000000000000000     
   2.4762346772824247E-002  0.10709576080004796        0.0000000000000000     
   1.7369564251276309E-002   8.0889703722119136E-002   0.0000000000000000     
   1.7987887316913486E-002   8.7175750000861307E-002   0.0000000000000000     
   1.8586798184956208E-002   9.3632973990441917E-002   0.0000000000000000     
   1.9166296855404493E-002  0.10026137569086101        0.0000000000000000     
   1.9726383328258323E-002  0.10706095510211855        0.0000000000000000     
   4.0366517712088476E-002  0.10731232518715093        0.0000000000000000     
   4.1461453404592910E-002  0.11429010964514336        0.0000000000000000     
   4.2507281711207566E-002  0.12139528075440664        0.0000000000000000     
   4.3504002631932458E-002  0.12862783851494078        0.0000000000000000     
   4.4451616166767571E-002  0.13598778292674576        0.0000000000000000     
   3.5082413964739323E-002  0.10722144584256414        0.0000000000000000     
   3.6034064419869151E-002  0.11419081367854979        0.0000000000000000     
   3.6942882700881398E-002  0.12128959298669116        0.0000000000000000     
   3.7808868807776091E-002  0.12851778376698822        0.0000000000000000     
   3.8632022740553190E-002  0.13587538601944099        0.0000000000000000     
   2.9881023651651246E-002  0.10714925771352982        0.0000000000000000     
   3.0692059191054551E-002  0.11411145335646621        0.0000000000000000     
   3.1466350957525299E-002  0.12120464306231928        0.0000000000000000     
   3.2203898951063466E-002  0.12842882683108905        0.0000000000000000     
   3.2904703171669068E-002  0.13578400466277549        0.0000000000000000     
   2.4762346772824247E-002  0.10709576080004796        0.0000000000000000     
   2.5435437718149129E-002  0.11405202867889255        0.0000000000000000     
   2.6077686481139242E-002  0.12114043098129099        0.0000000000000000     
   2.6689093061794598E-002  0.12836096770724323        0.0000000000000000     
   2.7269657460115199E-002  0.13571363885674928        0.0000000000000000     
   1.9726383328258323E-002  0.10706095510211855        0.0000000000000000     
   2.0264200001152859E-002  0.11401253964582884        0.0000000000000000     
   2.0776889271723248E-002  0.12109695674360627        0.0000000000000000     
   2.1264451139969488E-002  0.12831420639545077        0.0000000000000000     
   2.1726885605891578E-002  0.13566428860136232        0.0000000000000000     
   4.4451616166767571E-002  0.13598778292674576        0.0000000000000000     
   4.5351089626598715E-002  0.14346201705993877        0.0000000000000000     
   4.6203390322311660E-002  0.15103744398463692        0.0000000000000000     
   4.7008518253906409E-002  0.15871406370084029        0.0000000000000000     
   4.7766473421382988E-002  0.16649187620854877        0.0000000000000000     
   3.8632022740553190E-002  0.13587538601944099        0.0000000000000000     
   3.9413084973979516E-002  0.14334796441223055        0.0000000000000000     
   4.0152795982821829E-002  0.15092108361353790        0.0000000000000000     
   4.0851155767080143E-002  0.15859474362336315        0.0000000000000000     
   4.1508164326754436E-002  0.16636894444170625        0.0000000000000000     
   3.2904703171669068E-002  0.13578400466277549        0.0000000000000000     
   3.3569395708335635E-002  0.14325469786479783        0.0000000000000000     
   3.4198608650056708E-002  0.15082542774457533        0.0000000000000000     
   3.4792341996832260E-002  0.15849619430210796        0.0000000000000000     
   3.5350595748662311E-002  0.16626699753739571        0.0000000000000000     
   2.7269657460115199E-002  0.13571363885674928        0.0000000000000000     
   2.7820021829667071E-002  0.14318221741764073        0.0000000000000000     
   2.8340828324016274E-002  0.15075047637774919        0.0000000000000000     
   2.8832076943162793E-002  0.15841841573707460        0.0000000000000000     
   2.9293767687106634E-002  0.16618603549561706        0.0000000000000000     
   2.1726885605891578E-002  0.13566428860136232        0.0000000000000000     
   2.2164963337973829E-002  0.14313052307075919        0.0000000000000000     
   2.2579455004700547E-002  0.15069622951305947        0.0000000000000000     
   2.2970360606071730E-002  0.15836140792826317        0.0000000000000000     
   2.3337680142087383E-002  0.16612605831637037        0.0000000000000000     
   4.7766473421382988E-002  0.16649187620854877        0.0000000000000000     
   4.8476704035497815E-002  0.17436613955411348        0.0000000000000000     
   4.9138658307007310E-002  0.18233211178388550        0.0000000000000000     
   4.9752336235911507E-002  0.19038979289786484        0.0000000000000000     
   5.0317737822210371E-002  0.19853918289605146        0.0000000000000000     
   4.1508164326754436E-002  0.16636894444170625        0.0000000000000000     
   4.2122978908233771E-002  0.17424117047988916        0.0000000000000000     
   4.2694756757907175E-002  0.18220890614923366        0.0000000000000000     
   4.3223497875774654E-002  0.19027215144973983        0.0000000000000000     
   4.3709202261836215E-002  0.19843090638140767        0.0000000000000000     
   3.5350595748662311E-002  0.16626699753739571        0.0000000000000000     
   3.5872348571982571E-002  0.17413716323090236        0.0000000000000000     
   3.6356579133228768E-002  0.18210601716309185        0.0000000000000000     
   3.6803287432400883E-002  0.19017355933396407        0.0000000000000000     
   3.7212473469498922E-002  0.19833978974351907        0.0000000000000000     
   2.9293767687106634E-002  0.16618603549561706        0.0000000000000000     
   2.9724813026744245E-002  0.17405411780715327        0.0000000000000000     
   3.0124125432972094E-002  0.18202344482546012        0.0000000000000000     
   3.0491704905790177E-002  0.19009401655053751        0.0000000000000000     
   3.0827551445198505E-002  0.19826583298238554        0.0000000000000000     
   2.3337680142087383E-002  0.16612605831637037        0.0000000000000000     
   2.3680372272518773E-002  0.17399203420864184        0.0000000000000000     
   2.3997395657137162E-002  0.18196118913633846        0.0000000000000000     
   2.4288750295942556E-002  0.19003352309946026        0.0000000000000000     
   2.4554436188934953E-002  0.19820903609800716        0.0000000000000000     
   5.0317737822210371E-002  0.19853918289605146        0.0000000000000000     
   5.0828620205626611E-002  0.20676949823579929        0.0000000000000000     
   5.1278740525882917E-002  0.21506995537446227        0.0000000000000000     
   5.1668098782979288E-002  0.22344055431204041        0.0000000000000000     
   5.1996694976915718E-002  0.23188129504853369        0.0000000000000000     
   4.3709202261836215E-002  0.19843090638140767        0.0000000000000000     
   4.4146936617094797E-002  0.20667131954447945        0.0000000000000000     
   4.4531767642553351E-002  0.21497953953919735        0.0000000000000000     
   4.4863695338211870E-002  0.22335556636556139        0.0000000000000000     
   4.5142719704070369E-002  0.23179940002357155        0.0000000000000000     
   3.7212473469498922E-002  0.19833978974351907        0.0000000000000000     
   3.7580379806366443E-002  0.20658807677782609        0.0000000000000000     
   3.7903249004846998E-002  0.21490178882295441        0.0000000000000000     
   3.8181081064940593E-002  0.22328092587890408        0.0000000000000000     
   3.8413875986647222E-002  0.23172548794567505        0.0000000000000000     
   3.0827551445198505E-002  0.19826583298238554        0.0000000000000000     
   3.1128949773441571E-002  0.20651976993583920        0.0000000000000000     
   3.1393184612763886E-002  0.21483670322573353        0.0000000000000000     
   3.1620255963165457E-002  0.22321663285206853        0.0000000000000000     
   3.1810163824646270E-002  0.23165955881484412        0.0000000000000000     
   2.4554436188934953E-002  0.19820903609800716        0.0000000000000000     
   2.4792646518320166E-002  0.20646639901851879        0.0000000000000000     
   2.5001574466303998E-002  0.21478428274753464        0.0000000000000000     
   2.5181220032886448E-002  0.22316268728505465        0.0000000000000000     
   2.5331583218067524E-002  0.23160161263107881        0.0000000000000000     
   5.1996694976915718E-002  0.23188129504853369        0.0000000000000000     
   5.2272149557141177E-002  0.24038416969996837        0.0000000000000000     
   5.2502082973104658E-002  0.24894117038237071        0.0000000000000000     
   5.2686495224806132E-002  0.25755229709574073        0.0000000000000000     
   5.2825386312245634E-002  0.26621754984007834        0.0000000000000000     
   4.5142719704070369E-002  0.23179940002357155        0.0000000000000000     
   4.5377274218756918E-002  0.24029564643505733        0.0000000000000000     
   4.5575792360899606E-002  0.24882891152184827        0.0000000000000000     
   4.5738274130498427E-002  0.25739919528394423        0.0000000000000000     
   4.5864719527553388E-002  0.26600649772134533        0.0000000000000000     
   3.8413875986647222E-002  0.23172548794567505        0.0000000000000000     
   3.8610065823709572E-002  0.24021414305649558        0.0000000000000000     
   3.8778082629870349E-002  0.24872555924459386        0.0000000000000000     
   3.8917926405129540E-002  0.25725973650996992        0.0000000000000000     
   3.9029597149487144E-002  0.26581667485262384        0.0000000000000000     
   3.1810163824646270E-002  0.23165955881484412        0.0000000000000000     
   3.1970524371999154E-002  0.24013965956428296        0.0000000000000000     
   3.2108953780016880E-002  0.24863111355060757        0.0000000000000000     
   3.2225452048699456E-002  0.25713392077381786        0.0000000000000000     
   3.2320019178046895E-002  0.26564808123391398        0.0000000000000000     
   2.5331583218067524E-002  0.23160161263107881        0.0000000000000000     
   2.5458649863625636E-002  0.24007219595841961        0.0000000000000000     
   2.5568405811339193E-002  0.24854557443988931        0.0000000000000000     
   2.5660851061208200E-002  0.25702174807548800        0.0000000000000000     
   2.5735985613232655E-002  0.26550071686521559        0.0000000000000000     
   5.2825386312245634E-002  0.26621754984007834        0.0000000000000000     
   5.2949946494557823E-002  0.27488835018056135        0.0000000000000000     
   5.3091366030877385E-002  0.28351611968236734        0.0000000000000000     
   5.3249644921204327E-002  0.29210085834549643        0.0000000000000000     
   5.3424783165538642E-002  0.30064256616994844        0.0000000000000000     
   4.5864719527553388E-002  0.26600649772134533        0.0000000000000000     
   4.5979557024564258E-002  0.27460101662960879        0.0000000000000000     
   4.6107215094030832E-002  0.28313294980429188        0.0000000000000000     
   4.6247693735953090E-002  0.29160229724539460        0.0000000000000000     
   4.6400992950331052E-002  0.30000905895291702        0.0000000000000000     
   3.9029597149487144E-002  0.26581667485262384        0.0000000000000000     
   3.9132140821957928E-002  0.27434490105905202        0.0000000000000000     
   3.9244603381556657E-002  0.28279294191575083        0.0000000000000000     
   3.9366984828283352E-002  0.29116079742272039        0.0000000000000000     
   3.9499285162137986E-002  0.29944846757996046        0.0000000000000000     
   3.2320019178046895E-002  0.26564808123391398        0.0000000000000000     
   3.2407697886738827E-002  0.27412000346889093        0.0000000000000000     
   3.2503530893454896E-002  0.28249609601674414        0.0000000000000000     
   3.2607518198195101E-002  0.29077635887747344        0.0000000000000000     
   3.2719659800959436E-002  0.29896079205107884        0.0000000000000000     
   2.5735985613232655E-002  0.26550071686521559        0.0000000000000000     
   2.5806228218906963E-002  0.27392632385912569        0.0000000000000000     
   2.5883997629725528E-002  0.28224241210727175        0.0000000000000000     
   2.5969293845688343E-002  0.29044898160965388        0.0000000000000000     
   2.6062116866795413E-002  0.29854603236627197        0.0000000000000000     
   1.4452584284990678E-002   5.7339623820616331E-002   0.0000000000000000     
   1.5257741146914843E-002   6.2992440710031600E-002   0.0000000000000000     
   1.6012290095270505E-002   6.8801726323420492E-002   0.0000000000000000     
   1.6716231130057661E-002   7.4767480660782995E-002   0.0000000000000000     
   1.7369564251276309E-002   8.0889703722119136E-002   0.0000000000000000     
   1.0752869620345284E-002   5.7432843790162127E-002   0.0000000000000000     
   1.1381692498265610E-002   6.3071176865290290E-002   0.0000000000000000     
   1.1963967986485129E-002   6.8864357871081305E-002   0.0000000000000000     
   1.2499696085003837E-002   7.4812386807535144E-002   0.0000000000000000     
   1.2988876793821736E-002   8.0915263674651863E-002   0.0000000000000000     
   7.1108673512984780E-003   5.7499429482694778E-002   0.0000000000000000     
   7.5467194242301644E-003   6.3127416976189274E-002   0.0000000000000000     
   7.9458122676783535E-003   6.8909094690838918E-002   0.0000000000000000     
   8.3081458816430462E-003   7.4844462626643724E-002   0.0000000000000000     
   8.6337202661242434E-003   8.0933520783603677E-002   0.0000000000000000     
   3.5265774778502632E-003   5.7539380898214296E-002   0.0000000000000000     
   3.7528219248085027E-003   6.3161161042728536E-002   0.0000000000000000     
   3.9578229388501779E-003   6.8935936782693344E-002   0.0000000000000000     
   4.1415805199752865E-003   7.4863708118108704E-002   0.0000000000000000     
   4.3040946681838308E-003   8.0944475048974618E-002   0.0000000000000000     
   6.3707719655248241E-016   5.7552698036720668E-002   0.0000000000000000     
   6.2710253656561576E-016   6.3172409064908092E-002   0.0000000000000000     
   6.0140694507770931E-016   6.8944884146644542E-002   0.0000000000000000     
   5.5887911486196540E-016   7.4870123281930073E-002   0.0000000000000000     
   4.9873299934333204E-016   8.0948126470764659E-002   0.0000000000000000     
   1.7369564251276309E-002   8.0889703722119136E-002   0.0000000000000000     
   1.7987887316913486E-002   8.7175750000861307E-002   0.0000000000000000     
   1.8586798184956208E-002   9.3632973990441917E-002   0.0000000000000000     
   1.9166296855404493E-002  0.10026137569086101        0.0000000000000000     
   1.9726383328258323E-002  0.10706095510211855        0.0000000000000000     
   1.2988876793821736E-002   8.0915263674651863E-002   0.0000000000000000     
   1.3448222837475102E-002   8.7183202664524354E-002   0.0000000000000000     
   1.3894446940500212E-002   9.3626417969245604E-002   0.0000000000000000     
   1.4327549102897064E-002  0.10024490958881567        0.0000000000000000     
   1.4747529324665658E-002  0.10703867752323450        0.0000000000000000     
   8.6337202661242434E-003   8.0933520783603677E-002   0.0000000000000000     
   8.9370201248434675E-003   8.7188525995712141E-002   0.0000000000000000     
   9.2325301615222427E-003   9.3621735096962477E-002   0.0000000000000000     
   9.5202503761605620E-003  0.10023314808735463        0.0000000000000000     
   9.8001807687584340E-003  0.10702276496688867        0.0000000000000000     
   4.3040946681838308E-003   8.0944475048974618E-002   0.0000000000000000     
   4.4542791790185780E-003   8.7191719994424668E-002   0.0000000000000000     
   4.6010478480222970E-003   9.3618925373592454E-002   0.0000000000000000     
   4.7444006751949869E-003  0.10022609118647793        0.0000000000000000     
   4.8843376605366470E-003  0.10701321743308112        0.0000000000000000     
   4.9873299934333204E-016   8.0948126470764659E-002   0.0000000000000000     
   4.3606611377366988E-016   8.7192784660661951E-002   0.0000000000000000     
   3.8120548384590336E-016   9.3617988799135576E-002   0.0000000000000000     
   3.3631951390500348E-016  0.10022373888618552        0.0000000000000000     
   3.0010716134398763E-016  0.10701003492181180        0.0000000000000000     
   1.9726383328258323E-002  0.10706095510211855        0.0000000000000000     
   2.0264200001152859E-002  0.11401253964582884        0.0000000000000000     
   2.0776889271723248E-002  0.12109695674360627        0.0000000000000000     
   2.1264451139969488E-002  0.12831420639545077        0.0000000000000000     
   2.1726885605891578E-002  0.13566428860136232        0.0000000000000000     
   1.4747529324665658E-002  0.10703867752323450        0.0000000000000000     
   1.5151278121799561E-002  0.11398670858637119        0.0000000000000000     
   1.5535686010292336E-002  0.12106798959209492        0.0000000000000000     
   1.5900752990143981E-002  0.12828252054040568        0.0000000000000000     
   1.6246479061354499E-002  0.13563030143130342        0.0000000000000000     
   9.8001807687584340E-003  0.10702276496688867        0.0000000000000000     
   1.0069604161823030E-002  0.11396825782961569        0.0000000000000000     
   1.0325803377861533E-002  0.12104729876958679        0.0000000000000000     
   1.0568778416873941E-002  0.12825988778680203        0.0000000000000000     
   1.0798529278860250E-002  0.13560602488126133        0.0000000000000000     
   4.8843376605366470E-003  0.10701321743308112        0.0000000000000000     
   5.0191781212232684E-003  0.11395718737556233        0.0000000000000000     
   5.1472413744308391E-003  0.12103488427608189        0.0000000000000000     
   5.2685274201593607E-003  0.12824630813463977        0.0000000000000000     
   5.3830362584088316E-003  0.13559145895123600        0.0000000000000000     
   3.0010716134398763E-016  0.10701003492181180        0.0000000000000000     
   2.7300210703185002E-016  0.11395349722421112        0.0000000000000000     
   2.5435382966509934E-016  0.12103074611158017        0.0000000000000000     
   2.4345759783162002E-016  0.12824178158391897        0.0000000000000000     
   2.4112656316077619E-016  0.13558660364122749        0.0000000000000000     
   2.1726885605891578E-002  0.13566428860136232        0.0000000000000000     
   2.2164963337973829E-002  0.14313052307075919        0.0000000000000000     
   2.2579455004700547E-002  0.15069622951305947        0.0000000000000000     
   2.2970360606071730E-002  0.15836140792826317        0.0000000000000000     
   2.3337680142087383E-002  0.16612605831637037        0.0000000000000000     
   1.6246479061354499E-002  0.13563030143130342        0.0000000000000000     
   1.6573727530696289E-002  0.14309438443610839        0.0000000000000000     
   1.6883361704941743E-002  0.15065782172614064        0.0000000000000000     
   1.7175381584090873E-002  0.15832061330140026        0.0000000000000000     
   1.7449787168143670E-002  0.16608275916188725        0.0000000000000000     
   1.0798529278860250E-002  0.13560602488126133        0.0000000000000000     
   1.1015821705274844E-002  0.14306857112564345        0.0000000000000000     
   1.1221421437572099E-002  0.15063038759262715        0.0000000000000000     
   1.1415328475752013E-002  0.15829147428221244        0.0000000000000000     
   1.1597542819814587E-002  0.16605183119439926        0.0000000000000000     
   5.3830362584088316E-003  0.13559145895123600        0.0000000000000000     
   5.4912458617094968E-003  0.14305308313936443        0.0000000000000000     
   5.5936342025916042E-003  0.15061392711251900        0.0000000000000000     
   5.6902012810551546E-003  0.15827399087069965        0.0000000000000000     
   5.7809470971001411E-003  0.16603327441390642        0.0000000000000000     
   2.4112656316077619E-016  0.13558660364122749        0.0000000000000000     
   2.4936649967166602E-016  0.14304792047727136        0.0000000000000000     
   2.6389480878297178E-016  0.15060844028581619        0.0000000000000000     
   2.9062039233473946E-016  0.15826816306686201        0.0000000000000000     
   3.2656169435263394E-016  0.16602708882040873        0.0000000000000000     
   2.3337680142087383E-002  0.16612605831637037        0.0000000000000000     
   2.3680372272518773E-002  0.17399203420864184        0.0000000000000000     
   2.3997395657137162E-002  0.18196118913633846        0.0000000000000000     
   2.4288750295942556E-002  0.19003352309946026        0.0000000000000000     
   2.4554436188934953E-002  0.19820903609800716        0.0000000000000000     
   1.7449787168143670E-002  0.16608275916188725        0.0000000000000000     
   1.7705678986447083E-002  0.17394688185848578        0.0000000000000000     
   1.7942157568348063E-002  0.18191560394208017        0.0000000000000000     
   1.8159222913846602E-002  0.18998892541267043        0.0000000000000000     
   1.8356875022942708E-002  0.19816684627025649        0.0000000000000000     
   1.1597542819814587E-002  0.16605183119439926        0.0000000000000000     
   1.1767385845670117E-002  0.17391463017980288        0.0000000000000000     
   1.1924178929228899E-002  0.18188304308903855        0.0000000000000000     
   1.2067922070490926E-002  0.18995706992210623        0.0000000000000000     
   1.2198615269456207E-002  0.19813671067900598        0.0000000000000000     
   5.7809470971001411E-003  0.16603327441390642        0.0000000000000000     
   5.8654928501878792E-003  0.17389527917259312        0.0000000000000000     
   5.9434597397796766E-003  0.18186350657721351        0.0000000000000000     
   6.0148477658755299E-003  0.18993795662776777        0.0000000000000000     
   6.0796569284754434E-003  0.19811862932425570        0.0000000000000000     
   3.2656169435263394E-016  0.16602708882040873        0.0000000000000000     
   3.6385824908613529E-016  0.17388882883685647        0.0000000000000000     
   3.9096330339827290E-016  0.18185699440660516        0.0000000000000000     
   4.0934053022190220E-016  0.18993158552965486        0.0000000000000000     
   4.2067044292437572E-016  0.19811260220600554        0.0000000000000000     
   2.4554436188934953E-002  0.19820903609800716        0.0000000000000000     
   2.4792646518320166E-002  0.20646639901851879        0.0000000000000000     
   2.5001574466303998E-002  0.21478428274753464        0.0000000000000000     
   2.5181220032886448E-002  0.22316268728505465        0.0000000000000000     
   2.5331583218067524E-002  0.23160161263107881        0.0000000000000000     
   1.8356875022942708E-002  0.19816684627025649        0.0000000000000000     
   1.8534051211260432E-002  0.20642623393290505        0.0000000000000000     
   1.8689688794423821E-002  0.21474395581868272        0.0000000000000000     
   1.8823787772432866E-002  0.22312001192758951        0.0000000000000000     
   1.8936348145287586E-002  0.23155440225962540        0.0000000000000000     
   1.2198615269456207E-002  0.19813671067900598        0.0000000000000000     
   1.2315745022520563E-002  0.20639754458603810        0.0000000000000000     
   1.2418797826079830E-002  0.21471515086950277        0.0000000000000000     
   1.2507773680134001E-002  0.22308952952940014        0.0000000000000000     
   1.2582672584683083E-002  0.23152068056573014        0.0000000000000000     
   6.0796569284754434E-003  0.19811862932425570        0.0000000000000000     
   6.1377279521005607E-003  0.20638033097791786        0.0000000000000000     
   6.1889015612720264E-003  0.21469786789999484        0.0000000000000000     
   6.2331777559898422E-003  0.22307124009048654        0.0000000000000000     
   6.2705565362540083E-003  0.23150044754939297        0.0000000000000000     
   4.2067044292437572E-016  0.19811260220600554        0.0000000000000000     
   4.2088728335887282E-016  0.20637459310854450        0.0000000000000000     
   4.1145472445824893E-016  0.21469210691015886        0.0000000000000000     
   3.9256250160268902E-016  0.22306514361084870        0.0000000000000000     
   3.6299088734814688E-016  0.23149370321061394        0.0000000000000000     
   2.5331583218067524E-002  0.23160161263107881        0.0000000000000000     
   2.5458649863625636E-002  0.24007219595841961        0.0000000000000000     
   2.5568405811339193E-002  0.24854557443988931        0.0000000000000000     
   2.5660851061208200E-002  0.25702174807548800        0.0000000000000000     
   2.5735985613232655E-002  0.26550071686521559        0.0000000000000000     
   1.8936348145287586E-002  0.23155440225962540        0.0000000000000000     
   1.9031453469620256E-002  0.24001623650356696        0.0000000000000000     
   1.9113187302063166E-002  0.24847462434819065        0.0000000000000000     
   1.9181549642616317E-002  0.25692956579349652        0.0000000000000000     
   1.9236540491279708E-002  0.26538106083948459        0.0000000000000000     
   1.2582672584683083E-002  0.23152068056573014        0.0000000000000000     
   1.2645946361014251E-002  0.23997626546438647        0.0000000000000000     
   1.2700046830414684E-002  0.24842394571126308        0.0000000000000000     
   1.2744973992884386E-002  0.25686372130635982        0.0000000000000000     
   1.2780727848423351E-002  0.26529559224967669        0.0000000000000000     
   6.2705565362540083E-003  0.23150044754939297        0.0000000000000000     
   6.3021285378076107E-003  0.23995228284087819        0.0000000000000000     
   6.3289843963937409E-003  0.24839353852910653        0.0000000000000000     
   6.3511241120123981E-003  0.25682421461407773        0.0000000000000000     
   6.3685476846635832E-003  0.26524431109579205        0.0000000000000000     
   3.6299088734814688E-016  0.23149370321061394        0.0000000000000000     
   3.3870475868447159E-016  0.23994428863304221        0.0000000000000000     
   3.3816265759822883E-016  0.24838340280172105        0.0000000000000000     
   3.5971117577637823E-016  0.25681104571665042        0.0000000000000000     
   4.0375688903360185E-016  0.26522721737783034        0.0000000000000000     
   2.5735985613232655E-002  0.26550071686521559        0.0000000000000000     
   2.5806228218906963E-002  0.27392632385912569        0.0000000000000000     
   2.5883997629725528E-002  0.28224241210727175        0.0000000000000000     
   2.5969293845688343E-002  0.29044898160965388        0.0000000000000000     
   2.6062116866795413E-002  0.29854603236627197        0.0000000000000000     
   1.9236540491279708E-002  0.26538106083948459        0.0000000000000000     
   1.9288351679621618E-002  0.27377051206700415        0.0000000000000000     
   1.9347175039210331E-002  0.28203932205690474        0.0000000000000000     
   1.9413010570045842E-002  0.29018749080918627        0.0000000000000000     
   1.9485858272128159E-002  0.29821501832384884        0.0000000000000000     
   1.2780727848423351E-002  0.26529559224967669        0.0000000000000000     
   1.2814688130042086E-002  0.27365921792977449        0.0000000000000000     
   1.2854234570751090E-002  0.28189425773521409        0.0000000000000000     
   1.2899367170550364E-002  0.29000071166599511        0.0000000000000000     
   1.2950085929439911E-002  0.29797857972211800        0.0000000000000000     
   6.3685476846635832E-003  0.26524431109579205        0.0000000000000000     
   6.3852375701683615E-003  0.27359244144743672        0.0000000000000000     
   6.4051762243478036E-003  0.28180721914219958        0.0000000000000000     
   6.4283636472019061E-003  0.28988864418008048        0.0000000000000000     
   6.4547998387306732E-003  0.29783671656107952        0.0000000000000000     
   4.0375688903360185E-016  0.26522721737783034        0.0000000000000000     
   4.4907653984349594E-016  0.27357018261999072        0.0000000000000000     
   4.7032690242421182E-016  0.28177820627786138        0.0000000000000000     
   4.6951375079484770E-016  0.28985128835144225        0.0000000000000000     
   4.4582393332603942E-016  0.29778942884073345        0.0000000000000000     
   6.3707719655248241E-016   5.7552698036720668E-002   0.0000000000000000     
   6.2710253656561576E-016   6.3172409064908092E-002   0.0000000000000000     
   6.0140694507770931E-016   6.8944884146644542E-002   0.0000000000000000     
   5.5887911486196540E-016   7.4870123281930073E-002   0.0000000000000000     
   4.9873299934333204E-016   8.0948126470764659E-002   0.0000000000000000     
  -3.5265774778490584E-003   5.7539380898213886E-002   0.0000000000000000     
  -3.7528219248073287E-003   6.3161161042727898E-002   0.0000000000000000     
  -3.9578229388490607E-003   6.8935936782692581E-002   0.0000000000000000     
  -4.1415805199742526E-003   7.4863708118107899E-002   0.0000000000000000     
  -4.3040946681829071E-003   8.0944475048973855E-002   0.0000000000000000     
  -7.1108673512974814E-003   5.7499429482693924E-002   0.0000000000000000     
  -7.5467194242292337E-003   6.3127416976188039E-002   0.0000000000000000     
  -7.9458122676774896E-003   6.8909094690837447E-002   0.0000000000000000     
  -8.3081458816422586E-003   7.4844462626642169E-002   0.0000000000000000     
  -8.6337202661235374E-003   8.0933520783602220E-002   0.0000000000000000     
  -1.0752869620344635E-002   5.7432843790160795E-002   0.0000000000000000     
  -1.1381692498265083E-002   6.3071176865288459E-002   0.0000000000000000     
  -1.1963967986484692E-002   6.8864357871079168E-002   0.0000000000000000     
  -1.2499696085003464E-002   7.4812386807532938E-002   0.0000000000000000     
  -1.2988876793821397E-002   8.0915263674649754E-002   0.0000000000000000     
  -1.4452584284990515E-002   5.7339623820614485E-002   0.0000000000000000     
  -1.5257741146914878E-002   6.2992440710029185E-002   0.0000000000000000     
  -1.6012290095270658E-002   6.8801726323417717E-002   0.0000000000000000     
  -1.6716231130057858E-002   7.4767480660780164E-002   0.0000000000000000     
  -1.7369564251276479E-002   8.0889703722116471E-002   0.0000000000000000     
   4.9873299934333204E-016   8.0948126470764659E-002   0.0000000000000000     
   4.3606611377366988E-016   8.7192784660661951E-002   0.0000000000000000     
   3.8120548384590336E-016   9.3617988799135576E-002   0.0000000000000000     
   3.3631951390500348E-016  0.10022373888618552        0.0000000000000000     
   3.0010716134398763E-016  0.10701003492181180        0.0000000000000000     
  -4.3040946681829071E-003   8.0944475048973855E-002   0.0000000000000000     
  -4.4542791790177678E-003   8.7191719994424002E-002   0.0000000000000000     
  -4.6010478480215848E-003   9.3618925373591844E-002   0.0000000000000000     
  -4.7444006751943546E-003  0.10022609118647745        0.0000000000000000     
  -4.8843376605360797E-003  0.10701321743308073        0.0000000000000000     
  -8.6337202661235374E-003   8.0933520783602220E-002   0.0000000000000000     
  -8.9370201248428396E-003   8.7188525995710836E-002   0.0000000000000000     
  -9.2325301615216789E-003   9.3621735096961325E-002   0.0000000000000000     
  -9.5202503761600520E-003  0.10023314808735367        0.0000000000000000     
  -9.8001807687579656E-003  0.10702276496688790        0.0000000000000000     
  -1.2988876793821397E-002   8.0915263674649754E-002   0.0000000000000000     
  -1.3448222837474780E-002   8.7183202664522480E-002   0.0000000000000000     
  -1.3894446940499901E-002   9.3626417969243994E-002   0.0000000000000000     
  -1.4327549102896759E-002  0.10024490958881427        0.0000000000000000     
  -1.4747529324665354E-002  0.10703867752323332        0.0000000000000000     
  -1.7369564251276479E-002   8.0889703722116471E-002   0.0000000000000000     
  -1.7987887316913583E-002   8.7175750000858948E-002   0.0000000000000000     
  -1.8586798184956246E-002   9.3632973990439849E-002   0.0000000000000000     
  -1.9166296855404472E-002  0.10026137569085919        0.0000000000000000     
  -1.9726383328258247E-002  0.10706095510211695        0.0000000000000000     
   3.0010716134398763E-016  0.10701003492181180        0.0000000000000000     
   2.7300210703185002E-016  0.11395349722421112        0.0000000000000000     
   2.5435382966509934E-016  0.12103074611158017        0.0000000000000000     
   2.4345759783162002E-016  0.12824178158391897        0.0000000000000000     
   2.4112656316077619E-016  0.13558660364122749        0.0000000000000000     
  -4.8843376605360797E-003  0.10701321743308073        0.0000000000000000     
  -5.0191781212227480E-003  0.11395718737556203        0.0000000000000000     
  -5.1472413744303516E-003  0.12103488427608165        0.0000000000000000     
  -5.2685274201588889E-003  0.12824630813463953        0.0000000000000000     
  -5.3830362584083623E-003  0.13559145895123575        0.0000000000000000     
  -9.8001807687579656E-003  0.10702276496688790        0.0000000000000000     
  -1.0069604161822589E-002  0.11396825782961507        0.0000000000000000     
  -1.0325803377861110E-002  0.12104729876958627        0.0000000000000000     
  -1.0568778416873518E-002  0.12825988778680153        0.0000000000000000     
  -1.0798529278859820E-002  0.13560602488126081        0.0000000000000000     
  -1.4747529324665354E-002  0.10703867752323332        0.0000000000000000     
  -1.5151278121799252E-002  0.11398670858637021        0.0000000000000000     
  -1.5535686010292014E-002  0.12106798959209408        0.0000000000000000     
  -1.5900752990143641E-002  0.12828252054040487        0.0000000000000000     
  -1.6246479061354138E-002  0.13563030143130267        0.0000000000000000     
  -1.9726383328258247E-002  0.10706095510211695        0.0000000000000000     
  -2.0264200001152734E-002  0.11401253964582747        0.0000000000000000     
  -2.0776889271723074E-002  0.12109695674360504        0.0000000000000000     
  -2.1264451139969262E-002  0.12831420639544963        0.0000000000000000     
  -2.1726885605891307E-002  0.13566428860136126        0.0000000000000000     
   2.4112656316077619E-016  0.13558660364122749        0.0000000000000000     
   2.4936649967166602E-016  0.14304792047727136        0.0000000000000000     
   2.6389480878297178E-016  0.15060844028581619        0.0000000000000000     
   2.9062039233473946E-016  0.15826816306686201        0.0000000000000000     
   3.2656169435263394E-016  0.16602708882040873        0.0000000000000000     
  -5.3830362584083623E-003  0.13559145895123575        0.0000000000000000     
  -5.4912458617090119E-003  0.14305308313936418        0.0000000000000000     
  -5.5936342025910864E-003  0.15061392711251873        0.0000000000000000     
  -5.6902012810545787E-003  0.15827399087069943        0.0000000000000000     
  -5.7809470970994984E-003  0.16603327441390622        0.0000000000000000     
  -1.0798529278859820E-002  0.13560602488126081        0.0000000000000000     
  -1.1015821705274393E-002  0.14306857112564292        0.0000000000000000     
  -1.1221421437571610E-002  0.15063038759262662        0.0000000000000000     
  -1.1415328475751472E-002  0.15829147428221196        0.0000000000000000     
  -1.1597542819813979E-002  0.16605183119439887        0.0000000000000000     
  -1.6246479061354138E-002  0.13563030143130267        0.0000000000000000     
  -1.6573727530695890E-002  0.14309438443610756        0.0000000000000000     
  -1.6883361704941306E-002  0.15065782172613990        0.0000000000000000     
  -1.7175381584090384E-002  0.15832061330139960        0.0000000000000000     
  -1.7449787168143119E-002  0.16608275916188669        0.0000000000000000     
  -2.1726885605891307E-002  0.13566428860136126        0.0000000000000000     
  -2.2164963337973510E-002  0.14313052307075816        0.0000000000000000     
  -2.2579455004700183E-002  0.15069622951305853        0.0000000000000000     
  -2.2970360606071310E-002  0.15836140792826234        0.0000000000000000     
  -2.3337680142086908E-002  0.16612605831636967        0.0000000000000000     
   3.2656169435263394E-016  0.16602708882040873        0.0000000000000000     
   3.6385824908613529E-016  0.17388882883685647        0.0000000000000000     
   3.9096330339827290E-016  0.18185699440660516        0.0000000000000000     
   4.0934053022190220E-016  0.18993158552965486        0.0000000000000000     
   4.2067044292437572E-016  0.19811260220600554        0.0000000000000000     
  -5.7809470970994984E-003  0.16603327441390622        0.0000000000000000     
  -5.8654928501871637E-003  0.17389527917259295        0.0000000000000000     
  -5.9434597397789073E-003  0.18186350657721342        0.0000000000000000     
  -6.0148477658747259E-003  0.18993795662776766        0.0000000000000000     
  -6.0796569284746185E-003  0.19811862932425567        0.0000000000000000     
  -1.1597542819813979E-002  0.16605183119439887        0.0000000000000000     
  -1.1767385845669442E-002  0.17391463017980258        0.0000000000000000     
  -1.1924178929228174E-002  0.18188304308903838        0.0000000000000000     
  -1.2067922070490168E-002  0.18995706992210612        0.0000000000000000     
  -1.2198615269455431E-002  0.19813671067900590        0.0000000000000000     
  -1.7449787168143119E-002  0.16608275916188669        0.0000000000000000     
  -1.7705678986446476E-002  0.17394688185848539        0.0000000000000000     
  -1.7942157568347408E-002  0.18191560394207987        0.0000000000000000     
  -1.8159222913845922E-002  0.18998892541267023        0.0000000000000000     
  -1.8356875022942018E-002  0.19816684627025641        0.0000000000000000     
  -2.3337680142086908E-002  0.16612605831636967        0.0000000000000000     
  -2.3680372272518246E-002  0.17399203420864129        0.0000000000000000     
  -2.3997395657136600E-002  0.18196118913633810        0.0000000000000000     
  -2.4288750295941974E-002  0.19003352309946001        0.0000000000000000     
  -2.4554436188934374E-002  0.19820903609800708        0.0000000000000000     
   4.2067044292437572E-016  0.19811260220600554        0.0000000000000000     
   4.2088728335887282E-016  0.20637459310854450        0.0000000000000000     
   4.1145472445824893E-016  0.21469210691015886        0.0000000000000000     
   3.9256250160268902E-016  0.22306514361084870        0.0000000000000000     
   3.6299088734814688E-016  0.23149370321061394        0.0000000000000000     
  -6.0796569284746185E-003  0.19811862932425567        0.0000000000000000     
  -6.1377279520997341E-003  0.20638033097791789        0.0000000000000000     
  -6.1889015612712163E-003  0.21469786789999484        0.0000000000000000     
  -6.2331777559890660E-003  0.22307124009048657        0.0000000000000000     
  -6.2705565362532866E-003  0.23150044754939300        0.0000000000000000     
  -1.2198615269455431E-002  0.19813671067900590        0.0000000000000000     
  -1.2315745022519786E-002  0.20639754458603807        0.0000000000000000     
  -1.2418797826079063E-002  0.21471515086950282        0.0000000000000000     
  -1.2507773680133257E-002  0.22308952952940020        0.0000000000000000     
  -1.2582672584682375E-002  0.23152068056573022        0.0000000000000000     
  -1.8356875022942018E-002  0.19816684627025641        0.0000000000000000     
  -1.8534051211259731E-002  0.20642623393290502        0.0000000000000000     
  -1.8689688794423124E-002  0.21474395581868277        0.0000000000000000     
  -1.8823787772432172E-002  0.22312001192758960        0.0000000000000000     
  -1.8936348145286896E-002  0.23155440225962556        0.0000000000000000     
  -2.4554436188934374E-002  0.19820903609800708        0.0000000000000000     
  -2.4792646518319583E-002  0.20646639901851882        0.0000000000000000     
  -2.5001574466303404E-002  0.21478428274753467        0.0000000000000000     
  -2.5181220032885827E-002  0.22316268728505476        0.0000000000000000     
  -2.5331583218066861E-002  0.23160161263107898        0.0000000000000000     
   3.6299088734814688E-016  0.23149370321061394        0.0000000000000000     
   3.3870475868447159E-016  0.23994428863304221        0.0000000000000000     
   3.3816265759822883E-016  0.24838340280172105        0.0000000000000000     
   3.5971117577637823E-016  0.25681104571665042        0.0000000000000000     
   4.0375688903360185E-016  0.26522721737783034        0.0000000000000000     
  -6.2705565362532866E-003  0.23150044754939300        0.0000000000000000     
  -6.3021285378069315E-003  0.23995228284087836        0.0000000000000000     
  -6.3289843963930618E-003  0.24839353852910659        0.0000000000000000     
  -6.3511241120116765E-003  0.25682421461407778        0.0000000000000000     
  -6.3685476846627740E-003  0.26524431109579188        0.0000000000000000     
  -1.2582672584682375E-002  0.23152068056573022        0.0000000000000000     
  -1.2645946361013564E-002  0.23997626546438663        0.0000000000000000     
  -1.2700046830413989E-002  0.24842394571126322        0.0000000000000000     
  -1.2744973992883652E-002  0.25686372130635987        0.0000000000000000     
  -1.2780727848422539E-002  0.26529559224967669        0.0000000000000000     
  -1.8936348145286896E-002  0.23155440225962556        0.0000000000000000     
  -1.9031453469619566E-002  0.24001623650356710        0.0000000000000000     
  -1.9113187302062452E-002  0.24847462434819079        0.0000000000000000     
  -1.9181549642615561E-002  0.25692956579349663        0.0000000000000000     
  -1.9236540491278896E-002  0.26538106083948454        0.0000000000000000     
  -2.5331583218066861E-002  0.23160161263107898        0.0000000000000000     
  -2.5458649863624921E-002  0.24007219595841972        0.0000000000000000     
  -2.5568405811338443E-002  0.24854557443988945        0.0000000000000000     
  -2.5660851061207416E-002  0.25702174807548805        0.0000000000000000     
  -2.5735985613231840E-002  0.26550071686521565        0.0000000000000000     
   4.0375688903360185E-016  0.26522721737783034        0.0000000000000000     
   4.4907653984349594E-016  0.27357018261999072        0.0000000000000000     
   4.7032690242421182E-016  0.28177820627786138        0.0000000000000000     
   4.6951375079484770E-016  0.28985128835144225        0.0000000000000000     
   4.4582393332603942E-016  0.29778942884073345        0.0000000000000000     
  -6.3685476846627740E-003  0.26524431109579188        0.0000000000000000     
  -6.3852375701674673E-003  0.27359244144743661        0.0000000000000000     
  -6.4051762243468669E-003  0.28180721914219953        0.0000000000000000     
  -6.4283636472009754E-003  0.28988864418008048        0.0000000000000000     
  -6.4547998387297877E-003  0.29783671656107963        0.0000000000000000     
  -1.2780727848422539E-002  0.26529559224967669        0.0000000000000000     
  -1.2814688130041201E-002  0.27365921792977443        0.0000000000000000     
  -1.2854234570750174E-002  0.28189425773521387        0.0000000000000000     
  -1.2899367170549460E-002  0.29000071166599517        0.0000000000000000     
  -1.2950085929439050E-002  0.29797857972211816        0.0000000000000000     
  -1.9236540491278896E-002  0.26538106083948454        0.0000000000000000     
  -1.9288351679620758E-002  0.27377051206700403        0.0000000000000000     
  -1.9347175039209453E-002  0.28203932205690463        0.0000000000000000     
  -1.9413010570044978E-002  0.29018749080918621        0.0000000000000000     
  -1.9485858272127336E-002  0.29821501832384889        0.0000000000000000     
  -2.5735985613231840E-002  0.26550071686521565        0.0000000000000000     
  -2.5806228218906130E-002  0.27392632385912569        0.0000000000000000     
  -2.5883997629724695E-002  0.28224241210727175        0.0000000000000000     
  -2.5969293845687535E-002  0.29044898160965382        0.0000000000000000     
  -2.6062116866794653E-002  0.29854603236627197        0.0000000000000000     
  -1.4452584284990515E-002   5.7339623820614485E-002   0.0000000000000000     
  -1.5257741146914878E-002   6.2992440710029185E-002   0.0000000000000000     
  -1.6012290095270658E-002   6.8801726323417717E-002   0.0000000000000000     
  -1.6716231130057858E-002   7.4767480660780164E-002   0.0000000000000000     
  -1.7369564251276479E-002   8.0889703722116471E-002   0.0000000000000000     
  -1.8176123771737485E-002   5.7220959060352933E-002   0.0000000000000000     
  -1.9169156650520786E-002   6.2903198503475810E-002   0.0000000000000000     
  -2.0104574272027376E-002   6.8739358234815612E-002   0.0000000000000000     
  -2.0982376636257266E-002   7.4729438254372310E-002   0.0000000000000000     
  -2.1802563743210442E-002   8.0873438562145933E-002   0.0000000000000000     
  -2.1889600507087908E-002   5.7078038995674048E-002   0.0000000000000000     
  -2.3110230289424962E-002   6.2815440238694009E-002   0.0000000000000000     
  -2.4254616194746819E-002   6.8695411792235275E-002   0.0000000000000000     
  -2.5322758223053476E-002   7.4717953656297839E-002   0.0000000000000000     
  -2.6314656374344939E-002   8.0883065830881701E-002   0.0000000000000000     
  -2.5593014491041781E-002   5.6910863626577830E-002   0.0000000000000000     
  -2.7080962063627406E-002   6.2729165915683768E-002   0.0000000000000000     
  -2.8462415863428979E-002   6.8669886995676735E-002   0.0000000000000000     
  -2.9737375890446512E-002   7.4733026866556723E-002   0.0000000000000000     
  -3.0905842144679972E-002   8.0918585528323775E-002   0.0000000000000000     
  -2.9286365723599106E-002   5.6719432953064294E-002   0.0000000000000000     
  -3.1081351973128127E-002   6.2644375534445074E-002   0.0000000000000000     
  -3.2727973278073870E-002   6.8662783845139977E-002   0.0000000000000000     
  -3.4226229638436342E-002   7.4774657885149004E-002   0.0000000000000000     
  -3.5576121054215537E-002   8.0979997654472155E-002   0.0000000000000000     
  -1.7369564251276479E-002   8.0889703722116471E-002   0.0000000000000000     
  -1.7987887316913583E-002   8.7175750000858948E-002   0.0000000000000000     
  -1.8586798184956246E-002   9.3632973990439849E-002   0.0000000000000000     
  -1.9166296855404472E-002  0.10026137569085919        0.0000000000000000     
  -1.9726383328258247E-002  0.10706095510211695        0.0000000000000000     
  -2.1802563743210442E-002   8.0873438562145933E-002   0.0000000000000000     
  -2.2581084791297435E-002   8.7178054040926239E-002   0.0000000000000000     
  -2.3333888978928758E-002   9.3649979573503003E-002   0.0000000000000000     
  -2.4060976306104424E-002  0.10028921515987622        0.0000000000000000     
  -2.4762346772824417E-002  0.10709576080004594        0.0000000000000000     
  -2.6314656374344939E-002   8.0883065830881701E-002   0.0000000000000000     
  -2.7252886488764505E-002   8.7202000820930436E-002   0.0000000000000000     
  -2.8160024406455472E-002   9.3686011131387636E-002   0.0000000000000000     
  -2.9036070127417848E-002  0.10033509676225327        0.0000000000000000     
  -2.9881023651651621E-002  0.10714925771352737        0.0000000000000000     
  -3.0905842144679972E-002   8.0918585528323775E-002   0.0000000000000000     
  -3.2003292409314793E-002   8.7247590340871525E-002   0.0000000000000000     
  -3.3065204467536392E-002   9.3741068664093707E-002   0.0000000000000000     
  -3.4091578319344736E-002  0.10039902049799028        0.0000000000000000     
  -3.5082413964739864E-002  0.10722144584256126        0.0000000000000000     
  -3.5576121054215537E-002   8.0979997654472155E-002   0.0000000000000000     
  -3.6832302552948309E-002   8.7314822600749548E-002   0.0000000000000000     
  -3.8049429162171501E-002   9.3815152171621230E-002   0.0000000000000000     
  -3.9227500881885119E-002  0.10048098636708727        0.0000000000000000     
  -4.0366517712089142E-002  0.10731232518714759        0.0000000000000000     
  -1.9726383328258247E-002  0.10706095510211695        0.0000000000000000     
  -2.0264200001152734E-002  0.11401253964582747        0.0000000000000000     
  -2.0776889271723074E-002  0.12109695674360504        0.0000000000000000     
  -2.1264451139969262E-002  0.12831420639544963        0.0000000000000000     
  -2.1726885605891307E-002  0.13566428860136126        0.0000000000000000     
  -2.4762346772824417E-002  0.10709576080004594        0.0000000000000000     
  -2.5435437718149205E-002  0.11405202867889078        0.0000000000000000     
  -2.6077686481139235E-002  0.12114043098128939        0.0000000000000000     
  -2.6689093061794521E-002  0.12836096770724176        0.0000000000000000     
  -2.7269657460115053E-002  0.13571363885674792        0.0000000000000000     
  -2.9881023651651621E-002  0.10714925771352737        0.0000000000000000     
  -3.0692059191054819E-002  0.11411145335646405        0.0000000000000000     
  -3.1466350957525459E-002  0.12120464306231735        0.0000000000000000     
  -3.2203898951063549E-002  0.12842882683108731        0.0000000000000000     
  -3.2904703171669075E-002  0.13578400466277391        0.0000000000000000     
  -3.5082413964739864E-002  0.10722144584256126        0.0000000000000000     
  -3.6034064419869588E-002  0.11419081367854726        0.0000000000000000     
  -3.6942882700881752E-002  0.12128959298668894        0.0000000000000000     
  -3.7808868807776355E-002  0.12851778376698619        0.0000000000000000     
  -3.8632022740553391E-002  0.13587538601943919        0.0000000000000000     
  -4.0366517712089142E-002  0.10731232518714759        0.0000000000000000     
  -4.1461453404593500E-002  0.11429010964514047        0.0000000000000000     
  -4.2507281711208100E-002  0.12139528075440412        0.0000000000000000     
  -4.3504002631932923E-002  0.12862783851493859        0.0000000000000000     
  -4.4451616166767988E-002  0.13598778292674379        0.0000000000000000     
  -2.1726885605891307E-002  0.13566428860136126        0.0000000000000000     
  -2.2164963337973510E-002  0.14313052307075816        0.0000000000000000     
  -2.2579455004700183E-002  0.15069622951305853        0.0000000000000000     
  -2.2970360606071310E-002  0.15836140792826234        0.0000000000000000     
  -2.3337680142086908E-002  0.16612605831636967        0.0000000000000000     
  -2.7269657460115053E-002  0.13571363885674792        0.0000000000000000     
  -2.7820021829666870E-002  0.14318221741763948        0.0000000000000000     
  -2.8340828324016010E-002  0.15075047637774805        0.0000000000000000     
  -2.8832076943162480E-002  0.15841841573707366        0.0000000000000000     
  -2.9293767687106263E-002  0.16618603549561625        0.0000000000000000     
  -3.2904703171669075E-002  0.13578400466277391        0.0000000000000000     
  -3.3569395708335587E-002  0.14325469786479639        0.0000000000000000     
  -3.4198608650056583E-002  0.15082542774457403        0.0000000000000000     
  -3.4792341996832093E-002  0.15849619430210679        0.0000000000000000     
  -3.5350595748662096E-002  0.16626699753739477        0.0000000000000000     
  -3.8632022740553391E-002  0.13587538601943919        0.0000000000000000     
  -3.9413084973979648E-002  0.14334796441222888        0.0000000000000000     
  -4.0152795982821912E-002  0.15092108361353651        0.0000000000000000     
  -4.0851155767080150E-002  0.15859474362336193        0.0000000000000000     
  -4.1508164326754395E-002  0.16636894444170525        0.0000000000000000     
  -4.4451616166767988E-002  0.13598778292674379        0.0000000000000000     
  -4.5351089626599068E-002  0.14346201705993700        0.0000000000000000     
  -4.6203390322311966E-002  0.15103744398463539        0.0000000000000000     
  -4.7008518253906666E-002  0.15871406370083893        0.0000000000000000     
  -4.7766473421383168E-002  0.16649187620854766        0.0000000000000000     
  -2.3337680142086908E-002  0.16612605831636967        0.0000000000000000     
  -2.3680372272518246E-002  0.17399203420864129        0.0000000000000000     
  -2.3997395657136600E-002  0.18196118913633810        0.0000000000000000     
  -2.4288750295941974E-002  0.19003352309946001        0.0000000000000000     
  -2.4554436188934374E-002  0.19820903609800708        0.0000000000000000     
  -2.9293767687106263E-002  0.16618603549561625        0.0000000000000000     
  -2.9724813026743836E-002  0.17405411780715266        0.0000000000000000     
  -3.0124125432971660E-002  0.18202344482545960        0.0000000000000000     
  -3.0491704905789729E-002  0.19009401655053723        0.0000000000000000     
  -3.0827551445198047E-002  0.19826583298238543        0.0000000000000000     
  -3.5350595748662096E-002  0.16626699753739477        0.0000000000000000     
  -3.5872348571982314E-002  0.17413716323090164        0.0000000000000000     
  -3.6356579133228477E-002  0.18210601716309130        0.0000000000000000     
  -3.6803287432400557E-002  0.19017355933396371        0.0000000000000000     
  -3.7212473469498596E-002  0.19833978974351882        0.0000000000000000     
  -4.1508164326754395E-002  0.16636894444170525        0.0000000000000000     
  -4.2122978908233674E-002  0.17424117047988827        0.0000000000000000     
  -4.2694756757907036E-002  0.18220890614923299        0.0000000000000000     
  -4.3223497875774480E-002  0.19027215144973941        0.0000000000000000     
  -4.3709202261836000E-002  0.19843090638140748        0.0000000000000000     
  -4.7766473421383168E-002  0.16649187620854766        0.0000000000000000     
  -4.8476704035497926E-002  0.17436613955411256        0.0000000000000000     
  -4.9138658307007359E-002  0.18233211178388484        0.0000000000000000     
  -4.9752336235911472E-002  0.19038979289786437        0.0000000000000000     
  -5.0317737822210273E-002  0.19853918289605116        0.0000000000000000     
  -2.4554436188934374E-002  0.19820903609800708        0.0000000000000000     
  -2.4792646518319583E-002  0.20646639901851882        0.0000000000000000     
  -2.5001574466303404E-002  0.21478428274753467        0.0000000000000000     
  -2.5181220032885827E-002  0.22316268728505476        0.0000000000000000     
  -2.5331583218066861E-002  0.23160161263107898        0.0000000000000000     
  -3.0827551445198047E-002  0.19826583298238543        0.0000000000000000     
  -3.1128949773441109E-002  0.20651976993583915        0.0000000000000000     
  -3.1393184612763400E-002  0.21483670322573353        0.0000000000000000     
  -3.1620255963164909E-002  0.22321663285206858        0.0000000000000000     
  -3.1810163824645646E-002  0.23165955881484424        0.0000000000000000     
  -3.7212473469498596E-002  0.19833978974351882        0.0000000000000000     
  -3.7580379806366096E-002  0.20658807677782601        0.0000000000000000     
  -3.7903249004846602E-002  0.21490178882295449        0.0000000000000000     
  -3.8181081064940121E-002  0.22328092587890416        0.0000000000000000     
  -3.8413875986646653E-002  0.23172548794567510        0.0000000000000000     
  -4.3709202261836000E-002  0.19843090638140748        0.0000000000000000     
  -4.4146936617094526E-002  0.20667131954447934        0.0000000000000000     
  -4.4531767642553031E-002  0.21497953953919738        0.0000000000000000     
  -4.4863695338211468E-002  0.22335556636556139        0.0000000000000000     
  -4.5142719704069870E-002  0.23179940002357166        0.0000000000000000     
  -5.0317737822210273E-002  0.19853918289605116        0.0000000000000000     
  -5.0828620205626437E-002  0.20676949823579915        0.0000000000000000     
  -5.1278740525882667E-002  0.21506995537446227        0.0000000000000000     
  -5.1668098782978948E-002  0.22344055431204049        0.0000000000000000     
  -5.1996694976915309E-002  0.23188129504853378        0.0000000000000000     
  -2.5331583218066861E-002  0.23160161263107898        0.0000000000000000     
  -2.5458649863624921E-002  0.24007219595841972        0.0000000000000000     
  -2.5568405811338443E-002  0.24854557443988945        0.0000000000000000     
  -2.5660851061207416E-002  0.25702174807548805        0.0000000000000000     
  -2.5735985613231840E-002  0.26550071686521565        0.0000000000000000     
  -3.1810163824645646E-002  0.23165955881484424        0.0000000000000000     
  -3.1970524371998446E-002  0.24013965956428307        0.0000000000000000     
  -3.2108953780016110E-002  0.24863111355060763        0.0000000000000000     
  -3.2225452048698658E-002  0.25713392077381803        0.0000000000000000     
  -3.2320019178046090E-002  0.26564808123391409        0.0000000000000000     
  -3.8413875986646653E-002  0.23172548794567510        0.0000000000000000     
  -3.8610065823708906E-002  0.24021414305649566        0.0000000000000000     
  -3.8778082629869613E-002  0.24872555924459400        0.0000000000000000     
  -3.8917926405128769E-002  0.25725973650997014        0.0000000000000000     
  -3.9029597149486353E-002  0.26581667485262417        0.0000000000000000     
  -4.5142719704069870E-002  0.23179940002357166        0.0000000000000000     
  -4.5377274218756335E-002  0.24029564643505749        0.0000000000000000     
  -4.5575792360898933E-002  0.24882891152184841        0.0000000000000000     
  -4.5738274130497726E-002  0.25739919528394445        0.0000000000000000     
  -4.5864719527552639E-002  0.26600649772134566        0.0000000000000000     
  -5.1996694976915309E-002  0.23188129504853378        0.0000000000000000     
  -5.2272149557140692E-002  0.24038416969996845        0.0000000000000000     
  -5.2502082973104096E-002  0.24894117038237087        0.0000000000000000     
  -5.2686495224805507E-002  0.25755229709574096        0.0000000000000000     
  -5.2825386312244940E-002  0.26621754984007878        0.0000000000000000     
  -2.5735985613231840E-002  0.26550071686521565        0.0000000000000000     
  -2.5806228218906130E-002  0.27392632385912569        0.0000000000000000     
  -2.5883997629724695E-002  0.28224241210727175        0.0000000000000000     
  -2.5969293845687535E-002  0.29044898160965382        0.0000000000000000     
  -2.6062116866794653E-002  0.29854603236627197        0.0000000000000000     
  -3.2320019178046090E-002  0.26564808123391409        0.0000000000000000     
  -3.2407697886738022E-002  0.27412000346889109        0.0000000000000000     
  -3.2503530893454112E-002  0.28249609601674419        0.0000000000000000     
  -3.2607518198194352E-002  0.29077635887747338        0.0000000000000000     
  -3.2719659800958728E-002  0.29896079205107862        0.0000000000000000     
  -3.9029597149486353E-002  0.26581667485262417        0.0000000000000000     
  -3.9132140821957151E-002  0.27434490105905229        0.0000000000000000     
  -3.9244603381555901E-002  0.28279294191575105        0.0000000000000000     
  -3.9366984828282631E-002  0.29116079742272044        0.0000000000000000     
  -3.9499285162137306E-002  0.29944846757996035        0.0000000000000000     
  -4.5864719527552639E-002  0.26600649772134566        0.0000000000000000     
  -4.5979557024563501E-002  0.27460101662960917        0.0000000000000000     
  -4.6107215094030075E-002  0.28313294980429238        0.0000000000000000     
  -4.6247693735952368E-002  0.29160229724539488        0.0000000000000000     
  -4.6400992950330386E-002  0.30000905895291707        0.0000000000000000     
  -5.2825386312244940E-002  0.26621754984007878        0.0000000000000000     
  -5.2949946494557087E-002  0.27488835018056190        0.0000000000000000     
  -5.3091366030876636E-002  0.28351611968236795        0.0000000000000000     
  -5.3249644921203598E-002  0.29210085834549693        0.0000000000000000     
  -5.3424783165537962E-002  0.30064256616994878        0.0000000000000000     
  -2.9286365723599106E-002   5.6719432953064294E-002   0.0000000000000000     
  -3.1081351973128127E-002   6.2644375534445074E-002   0.0000000000000000     
  -3.2727973278073870E-002   6.8662783845139977E-002   0.0000000000000000     
  -3.4226229638436342E-002   7.4774657885149004E-002   0.0000000000000000     
  -3.5576121054215537E-002   8.0979997654472155E-002   0.0000000000000000     
  -3.3117178014997965E-002   5.6610050062428564E-002   0.0000000000000000     
  -3.5196958770365064E-002   6.2618173542923108E-002   0.0000000000000000     
  -3.7093606991728624E-002   6.8698071290133209E-002   0.0000000000000000     
  -3.8807122679088639E-002   7.4849743304058858E-002   0.0000000000000000     
  -4.0337505832445136E-002   8.1073189584700070E-002   0.0000000000000000     
  -3.7232975175476447E-002   5.6689018041965800E-002   0.0000000000000000     
  -3.9513341207776165E-002   6.2707664389063084E-002   0.0000000000000000     
  -4.1601635557440377E-002   6.8799718280164651E-002   0.0000000000000000     
  -4.3497858224469055E-002   7.4965179715270516E-002   0.0000000000000000     
  -4.5202009208862241E-002   8.1204048694380707E-002   0.0000000000000000     
  -4.1633757205034552E-002   5.6956336891676007E-002   0.0000000000000000     
  -4.4030499285361437E-002   6.2912848072864958E-002   0.0000000000000000     
  -4.6252058975209114E-002   6.8967724815234263E-002   0.0000000000000000     
  -4.8298436274577583E-002   7.5120967118783979E-002   0.0000000000000000     
  -5.0169631183466859E-002   8.1372574983514065E-002   0.0000000000000000     
  -4.6319524103672273E-002   5.7412006611559166E-002   0.0000000000000000     
  -4.8748433003120872E-002   6.3233724594328744E-002   0.0000000000000000     
  -5.1044877245034863E-002   6.9202090895342114E-002   0.0000000000000000     
  -5.3208856829414224E-002   7.5317105514599234E-002   0.0000000000000000     
  -5.5240371756258982E-002   8.1578768452100145E-002   0.0000000000000000     
  -3.5576121054215537E-002   8.0979997654472155E-002   0.0000000000000000     
  -3.6832302552948309E-002   8.7314822600749548E-002   0.0000000000000000     
  -3.8049429162171501E-002   9.3815152171621230E-002   0.0000000000000000     
  -3.9227500881885119E-002  0.10048098636708727        0.0000000000000000     
  -4.0366517712089142E-002  0.10731232518714759        0.0000000000000000     
  -4.0337505832445136E-002   8.1073189584700070E-002   0.0000000000000000     
  -4.1755251024142855E-002   8.7415518687637708E-002   0.0000000000000000     
  -4.3130852826526581E-002   9.3923839168452733E-002   0.0000000000000000     
  -4.4464311239596321E-002  0.10059815102714507        0.0000000000000000     
  -4.5755626263352063E-002  0.10743845426371480        0.0000000000000000     
  -4.5202009208862241E-002   8.1204048694380707E-002   0.0000000000000000     
  -4.6787471927376242E-002   8.7561499688609365E-002   0.0000000000000000     
  -4.8327629796767399E-002   9.4082707169070717E-002   0.0000000000000000     
  -4.9822482817035725E-002  0.10076767113576472        0.0000000000000000     
  -5.1272030988181221E-002  0.10761639158869142        0.0000000000000000     
  -5.0169631183466859E-002   8.1372574983514065E-002   0.0000000000000000     
  -5.1928965262648452E-002   8.7752765603664448E-002   0.0000000000000000     
  -5.3639760072893942E-002   9.4291756173475155E-002   0.0000000000000000     
  -5.5302015614203344E-002  0.10098954669294614        0.0000000000000000     
  -5.6915731886576615E-002  0.10784613716207744        0.0000000000000000     
  -5.5240371756258982E-002   8.1578768452100145E-002   0.0000000000000000     
  -5.7179731029959519E-002   8.7989316432803028E-002   0.0000000000000000     
  -5.9067243654906232E-002   9.4550986181666102E-002   0.0000000000000000     
  -6.0902909631099150E-002  0.10126377769868937        0.0000000000000000     
  -6.2686728958538246E-002  0.10812769098387283        0.0000000000000000     
  -4.0366517712089142E-002  0.10731232518714759        0.0000000000000000     
  -4.1461453404593500E-002  0.11429010964514047        0.0000000000000000     
  -4.2507281711208100E-002  0.12139528075440412        0.0000000000000000     
  -4.3504002631932923E-002  0.12862783851493859        0.0000000000000000     
  -4.4451616166767988E-002  0.13598778292674379        0.0000000000000000     
  -4.5755626263352063E-002  0.10743845426371480        0.0000000000000000     
  -4.6997942034947920E-002  0.11442426948636986        0.0000000000000000     
  -4.8184402691538036E-002  0.12153511730331824        0.0000000000000000     
  -4.9315008233122383E-002  0.12877099771455991        0.0000000000000000     
  -5.0389758659700974E-002  0.13613191072009495        0.0000000000000000     
  -5.1272030988181221E-002  0.10761639158869142        0.0000000000000000     
  -5.2667246200654223E-002  0.11460822143236173        0.0000000000000000     
  -5.3999100344905113E-002  0.12172251357128656        0.0000000000000000     
  -5.5267593420933847E-002  0.12895926800546592        0.0000000000000000     
  -5.6472725428740454E-002  0.13631848473489985        0.0000000000000000     
  -5.6915731886576615E-002  0.10784613716207744        0.0000000000000000     
  -5.8469365901712395E-002  0.11484196548311607        0.0000000000000000     
  -5.9951374671309295E-002  0.12195746955830915        0.0000000000000000     
  -6.1361758195367294E-002  0.12919264938765659        0.0000000000000000     
  -6.2700516473886442E-002  0.13654750497115850        0.0000000000000000     
  -6.2686728958538246E-002  0.10812769098387283        0.0000000000000000     
  -6.4404301138122427E-002  0.11512550163863289        0.0000000000000000     
  -6.6041225670750617E-002  0.12223998526438588        0.0000000000000000     
  -6.7597502556422759E-002  0.12947114186113193        0.0000000000000000     
  -6.9073131795138909E-002  0.13681897142887095        0.0000000000000000     
  -4.4451616166767988E-002  0.13598778292674379        0.0000000000000000     
  -4.5351089626599068E-002  0.14346201705993700        0.0000000000000000     
  -4.6203390322311966E-002  0.15103744398463539        0.0000000000000000     
  -4.7008518253906666E-002  0.15871406370083893        0.0000000000000000     
  -4.7766473421383168E-002  0.16649187620854766        0.0000000000000000     
  -5.0389758659700974E-002  0.13613191072009495        0.0000000000000000     
  -5.1410018375976627E-002  0.14360638800267522        0.0000000000000000     
  -5.2377151786652164E-002  0.15118296124505268        0.0000000000000000     
  -5.3291158891727586E-002  0.15886163044722731        0.0000000000000000     
  -5.4152039691202906E-002  0.16664239560919908        0.0000000000000000     
  -5.6472725428740454E-002  0.13631848473489985        0.0000000000000000     
  -5.7616479931895087E-002  0.14379060943519806        0.0000000000000000     
  -5.8700840493967905E-002  0.15136608778197022        0.0000000000000000     
  -5.9725807114958902E-002  0.15904491977521640        0.0000000000000000     
  -6.0691379794868064E-002  0.16682710541493662        0.0000000000000000     
  -6.2700516473886442E-002  0.13654750497115850        0.0000000000000000     
  -6.3970474294354457E-002  0.14401468135750550        0.0000000000000000     
  -6.5174456444259177E-002  0.15158682359538808        0.0000000000000000     
  -6.6312462923600587E-002  0.15926393168480635        0.0000000000000000     
  -6.7384493732378661E-002  0.16704600562576022        0.0000000000000000     
  -6.9073131795138909E-002  0.13681897142887095        0.0000000000000000     
  -7.0472001463354736E-002  0.14427860376959753        0.0000000000000000     
  -7.1797999637525992E-002  0.15184516868530620        0.0000000000000000     
  -7.3051126317652634E-002  0.15951866617599697        0.0000000000000000     
  -7.4231381503734706E-002  0.16729909624166989        0.0000000000000000     
  -4.7766473421383168E-002  0.16649187620854766        0.0000000000000000     
  -4.8476704035497926E-002  0.17436613955411256        0.0000000000000000     
  -4.9138658307007359E-002  0.18233211178388484        0.0000000000000000     
  -4.9752336235911472E-002  0.19038979289786437        0.0000000000000000     
  -5.0317737822210273E-002  0.19853918289605116        0.0000000000000000     
  -5.4152039691202906E-002  0.16664239560919908        0.0000000000000000     
  -5.4959766781835596E-002  0.17451806582836818        0.0000000000000000     
  -5.5714312760383147E-002  0.18248145020213480        0.0000000000000000     
  -5.6415677626845573E-002  0.19053254873049882        0.0000000000000000     
  -5.7063861381222866E-002  0.19867136141346026        0.0000000000000000     
  -6.0691379794868064E-002  0.16682710541493662        0.0000000000000000     
  -6.1598409975307217E-002  0.17470294467744882        0.0000000000000000     
  -6.2447749097888125E-002  0.18266273753907089        0.0000000000000000     
  -6.3239397162610803E-002  0.19070648399980303        0.0000000000000000     
  -6.3973354169475249E-002  0.19883418405964509        0.0000000000000000     
  -6.7384493732378661E-002  0.16704600562576022        0.0000000000000000     
  -6.8392633615912773E-002  0.17492077610135431        0.0000000000000000     
  -6.9338967319522299E-002  0.18287597379469325        0.0000000000000000     
  -7.0223494843207168E-002  0.19091159870577701        0.0000000000000000     
  -7.1046216186967409E-002  0.19902765083460558        0.0000000000000000     
  -7.4231381503734706E-002  0.16729909624166989        0.0000000000000000     
  -7.5342437703652315E-002  0.17517156010008483        0.0000000000000000     
  -7.6387967425285627E-002  0.18312115896900177        0.0000000000000000     
  -7.7367970668634628E-002  0.19114789284842074        0.0000000000000000     
  -7.8282447433699345E-002  0.19925176173834169        0.0000000000000000     
  -5.0317737822210273E-002  0.19853918289605116        0.0000000000000000     
  -5.0828620205626437E-002  0.20676949823579915        0.0000000000000000     
  -5.1278740525882667E-002  0.21506995537446227        0.0000000000000000     
  -5.1668098782978948E-002  0.22344055431204049        0.0000000000000000     
  -5.1996694976915309E-002  0.23188129504853378        0.0000000000000000     
  -5.7063861381222866E-002  0.19867136141346026        0.0000000000000000     
  -5.7651699920282455E-002  0.20688987056936975        0.0000000000000000     
  -5.8172029140791809E-002  0.21518005851657773        0.0000000000000000     
  -5.8624849042750886E-002  0.22354192525508418        0.0000000000000000     
  -5.9010159626159721E-002  0.23197547078488917        0.0000000000000000     
  -6.3973354169475249E-002  0.19883418405964509        0.0000000000000000     
  -6.4642445109383287E-002  0.20703969426277541        0.0000000000000000     
  -6.5239494973236736E-002  0.21531687115337220        0.0000000000000000     
  -6.5764503761035584E-002  0.22366571473143557        0.0000000000000000     
  -6.6217471472779871E-002  0.23208622499696543        0.0000000000000000     
  -7.1046216186967409E-002  0.19902765083460558        0.0000000000000000     
  -7.1800855772928898E-002  0.20721896931601611        0.0000000000000000     
  -7.2481138023217428E-002  0.21548039328484581        0.0000000000000000     
  -7.3087062937833056E-002  0.22381192274109463        0.0000000000000000     
  -7.3618630516775738E-002  0.23221355768476259        0.0000000000000000     
  -7.8282447433699345E-002  0.19925176173834169        0.0000000000000000     
  -7.9126931910919282E-002  0.20742769572909187        0.0000000000000000     
  -7.9896958290733927E-002  0.21567062491099839        0.0000000000000000     
  -8.0592526573143294E-002  0.22398054928406133        0.0000000000000000     
  -8.1213636758147370E-002  0.23235746884828068        0.0000000000000000     
  -5.1996694976915309E-002  0.23188129504853378        0.0000000000000000     
  -5.2272149557140692E-002  0.24038416969996845        0.0000000000000000     
  -5.2502082973104096E-002  0.24894117038237087        0.0000000000000000     
  -5.2686495224805507E-002  0.25755229709574096        0.0000000000000000     
  -5.2825386312244940E-002  0.26621754984007878        0.0000000000000000     
  -5.9010159626159721E-002  0.23197547078488917        0.0000000000000000     
  -5.9333563738754369E-002  0.24048079085739504        0.0000000000000000     
  -5.9600664228270928E-002  0.24905798122400441        0.0000000000000000     
  -5.9811461094709382E-002  0.25770704188471710        0.0000000000000000     
  -5.9965954338069762E-002  0.26642797283953329        0.0000000000000000     
  -6.6217471472779871E-002  0.23208622499696543        0.0000000000000000     
  -6.6600388663489718E-002  0.24058658791350362        0.0000000000000000     
  -6.6915245888185274E-002  0.24917498944459196        0.0000000000000000     
  -6.7162043146866565E-002  0.25785142959023039        0.0000000000000000     
  -6.7340780439533579E-002  0.26661590835041893        0.0000000000000000     
  -7.3618630516775738E-002  0.23221355768476259        0.0000000000000000     
  -7.4072624331346718E-002  0.24070156086829408        0.0000000000000000     
  -7.4445827952847141E-002  0.24929219504413347        0.0000000000000000     
  -7.4738241381277021E-002  0.25798546021228069        0.0000000000000000     
  -7.4949864616636386E-002  0.26678135637273576        0.0000000000000000     
  -8.1213636758147370E-002  0.23235746884828068        0.0000000000000000     
  -8.1750270742325395E-002  0.24082570972176651        0.0000000000000000     
  -8.2192410422256529E-002  0.24940959802262896        0.0000000000000000     
  -8.2540055797940812E-002  0.25810913375086808        0.0000000000000000     
  -8.2793206869378216E-002  0.26692431690648372        0.0000000000000000     
  -5.2825386312244940E-002  0.26621754984007878        0.0000000000000000     
  -5.2949946494557087E-002  0.27488835018056190        0.0000000000000000     
  -5.3091366030876636E-002  0.28351611968236795        0.0000000000000000     
  -5.3249644921203598E-002  0.29210085834549693        0.0000000000000000     
  -5.3424783165537962E-002  0.30064256616994878        0.0000000000000000     
  -5.9965954338069762E-002  0.26642797283953329        0.0000000000000000     
  -6.0101418076752851E-002  0.27517770745502074        0.0000000000000000     
  -6.0255126429159478E-002  0.28391317909774760        0.0000000000000000     
  -6.0427079395289650E-002  0.29263438776771383        0.0000000000000000     
  -6.0617276975143353E-002  0.30134133346491943        0.0000000000000000     
  -6.7340780439533579E-002  0.26661590835041893        0.0000000000000000     
  -6.7492080615965747E-002  0.27543989419609621        0.0000000000000000     
  -6.7656566525942513E-002  0.28429485559820100        0.0000000000000000     
  -6.7834238169463892E-002  0.29318079255673324        0.0000000000000000     
  -6.8025095546529885E-002  0.30209770507169287        0.0000000000000000     
  -7.4949864616636386E-002  0.26678135637273576        0.0000000000000000     
  -7.5121934112195782E-002  0.27567491040378833        0.0000000000000000     
  -7.5295686321225769E-002  0.28466114918372809        0.0000000000000000     
  -7.5471121243726375E-002  0.29374007271255498        0.0000000000000000     
  -7.5648238879697544E-002  0.30291168099026905        0.0000000000000000     
  -8.2793206869378216E-002  0.26692431690648372        0.0000000000000000     
  -8.2990978565442949E-002  0.27588275607809698        0.0000000000000000     
  -8.3172485815009217E-002  0.28501205985432876        0.0000000000000000     
  -8.3337728618077020E-002  0.29431222823517916        0.0000000000000000     
  -8.3486706974646344E-002  0.30378326122064803        0.0000000000000000     
  -4.6319524103672273E-002   5.7412006611559166E-002   0.0000000000000000     
  -4.8748433003120872E-002   6.3233724594328744E-002   0.0000000000000000     
  -5.1044877245034863E-002   6.9202090895342114E-002   0.0000000000000000     
  -5.3208856829414224E-002   7.5317105514599234E-002   0.0000000000000000     
  -5.5240371756258982E-002   8.1578768452100145E-002   0.0000000000000000     
  -5.0604171686411653E-002   5.8112872484946156E-002   0.0000000000000000     
  -5.3247894283063923E-002   6.3740069307445510E-002   0.0000000000000000     
  -5.5758822927856742E-002   6.9577467927504799E-002   0.0000000000000000     
  -5.8136957620790082E-002   7.5625068345124030E-002   0.0000000000000000     
  -6.0382298361863977E-002   8.1882870560303203E-002   0.0000000000000000     
  -5.3801595768274736E-002   5.9115779795167821E-002   0.0000000000000000     
  -5.7109635047200021E-002   6.4501657566206280E-002   0.0000000000000000     
  -6.0172628584613877E-002   7.0168507318739026E-002   0.0000000000000000     
  -6.2990576380516278E-002   7.6116329052766080E-002   0.0000000000000000     
  -6.5563478434907216E-002   8.2345122768287454E-002   0.0000000000000000     
  -5.5911796349261515E-002   6.0420728542224168E-002   0.0000000000000000     
  -6.0333655295529198E-002   6.5518489370611055E-002   0.0000000000000000     
  -6.4286294215306294E-002   7.0975209069044809E-002   0.0000000000000000     
  -6.7769713108592811E-002   7.6790887637525437E-002   0.0000000000000000     
  -7.0783911975388733E-002   8.2965525076052926E-002   0.0000000000000000     
  -5.6934773429371997E-002   6.2027718726115191E-002   0.0000000000000000     
  -6.2919955028051422E-002   6.6790564720659848E-002   0.0000000000000000     
  -6.8099819819933974E-002   7.1997573178422120E-002   0.0000000000000000     
  -7.2474367805019660E-002   7.7648744099402048E-002   0.0000000000000000     
  -7.6043598983308452E-002   8.3744077483599605E-002   0.0000000000000000     
  -5.5240371756258982E-002   8.1578768452100145E-002   0.0000000000000000     
  -5.7179731029959519E-002   8.7989316432803028E-002   0.0000000000000000     
  -5.9067243654906232E-002   9.4550986181666102E-002   0.0000000000000000     
  -6.0902909631099150E-002  0.10126377769868937        0.0000000000000000     
  -6.2686728958538246E-002  0.10812769098387283        0.0000000000000000     
  -6.0382298361863977E-002   8.1882870560303203E-002   0.0000000000000000     
  -6.2530226094889049E-002   8.8317647573857308E-002   0.0000000000000000     
  -6.4616121763675899E-002   9.4896172386601405E-002   0.0000000000000000     
  -6.6639985368224533E-002  0.10161844499853542        0.0000000000000000     
  -6.8601816908534966E-002  0.10848446540965942        0.0000000000000000     
  -6.5563478434907216E-002   8.2345122768287454E-002   0.0000000000000000     
  -6.7970907323016680E-002   8.8784254424659578E-002   0.0000000000000000     
  -7.0292435620074548E-002   9.5363089981238852E-002   0.0000000000000000     
  -7.2528063326080847E-002  0.10208162943802533        0.0000000000000000     
  -7.4677790441035591E-002  0.10893987279501899        0.0000000000000000     
  -7.0783911975388733E-002   8.2965525076052926E-002   0.0000000000000000     
  -7.3501774714342397E-002   8.9389136985209783E-002   0.0000000000000000     
  -7.6096185224102206E-002   9.5951738965578501E-002   0.0000000000000000     
  -7.8567143504668119E-002  0.10265333101715909        0.0000000000000000     
  -8.0914649556040150E-002  0.10949391313995153        0.0000000000000000     
  -7.6043598983308452E-002   8.3744077483599605E-002   0.0000000000000000     
  -7.9122828268866241E-002   9.0132295255507977E-002   0.0000000000000000     
  -8.2027370575758873E-002   9.6662119339620350E-002   0.0000000000000000     
  -8.4757225903986336E-002  0.10333354973593670        0.0000000000000000     
  -8.7312394253548642E-002  0.11014658644445707        0.0000000000000000     
  -6.2686728958538246E-002  0.10812769098387283        0.0000000000000000     
  -6.4404301138122427E-002  0.11512550163863289        0.0000000000000000     
  -6.6041225670750617E-002  0.12223998526438588        0.0000000000000000     
  -6.7597502556422759E-002  0.12947114186113193        0.0000000000000000     
  -6.9073131795138909E-002  0.13681897142887095        0.0000000000000000     
  -6.8601816908534966E-002  0.10848446540965942        0.0000000000000000     
  -7.0487601098031788E-002  0.11547929655351462        0.0000000000000000     
  -7.2283322650139620E-002  0.12258800136364228        0.0000000000000000     
  -7.3988981564858447E-002  0.12981057984004241        0.0000000000000000     
  -7.5604577842188270E-002  0.13714703198271502        0.0000000000000000     
  -7.4677790441035591E-002  0.10893987279501899        0.0000000000000000     
  -7.6734814969587894E-002  0.11592381688236378        0.0000000000000000     
  -7.8692334916386886E-002  0.12301945853020364        0.0000000000000000     
  -8.0550350281432564E-002  0.13022679773853857        0.0000000000000000     
  -8.2308861064724917E-002  0.13754583450736860        0.0000000000000000     
  -8.0914649556040150E-002  0.10949391313995153        0.0000000000000000     
  -8.3145942752790788E-002  0.11645906262518033        0.0000000000000000     
  -8.5268262469492428E-002  0.12353435676406994        0.0000000000000000     
  -8.7281608706145125E-002  0.13071979555662042        0.0000000000000000     
  -8.9185981462748851E-002  0.13801537900283167        0.0000000000000000     
  -8.7312394253548642E-002  0.11014658644445707        0.0000000000000000     
  -8.9720984447640401E-002  0.11708503378196430        0.0000000000000000     
  -9.2011105309456220E-002  0.12413269606524124        0.0000000000000000     
  -9.4182756838996129E-002  0.13128957329428795        0.0000000000000000     
  -9.6235939036260071E-002  0.13855566546910433        0.0000000000000000     
  -6.9073131795138909E-002  0.13681897142887095        0.0000000000000000     
  -7.0472001463354736E-002  0.14427860376959753        0.0000000000000000     
  -7.1797999637525992E-002  0.15184516868530620        0.0000000000000000     
  -7.3051126317652634E-002  0.15951866617599697        0.0000000000000000     
  -7.4231381503734706E-002  0.16729909624166989        0.0000000000000000     
  -7.5604577842188270E-002  0.13714703198271502        0.0000000000000000     
  -7.7135296473259340E-002  0.14459501669179350        0.0000000000000000     
  -7.8586322449201898E-002  0.15215219286741136        0.0000000000000000     
  -7.9957655770015956E-002  0.15981856050956850        0.0000000000000000     
  -8.1249296435701474E-002  0.16759411961826501        0.0000000000000000     
  -8.2308861064724917E-002  0.13754583450736860        0.0000000000000000     
  -8.3974594358431645E-002  0.14497656014441279        0.0000000000000000     
  -8.5554277254720465E-002  0.15251896595739026        0.0000000000000000     
  -8.7047909753591377E-002  0.16017305194630096        0.0000000000000000     
  -8.8455491855044366E-002  0.16793881811114494        0.0000000000000000     
  -8.9185981462748851E-002  0.13801537900283167        0.0000000000000000     
  -9.0989895118871691E-002  0.14542323412745539        0.0000000000000000     
  -9.2701864054081720E-002  0.15294548795524290        0.0000000000000000     
  -9.4321888268378923E-002  0.16058214048619437        0.0000000000000000     
  -9.5849967761763313E-002  0.16833319172030969        0.0000000000000000     
  -9.6235939036260071E-002  0.13855566546910433        0.0000000000000000     
  -9.8181198754579452E-002  0.14593503864092122        0.0000000000000000     
 -0.10002908284728562       0.15343175886096938        0.0000000000000000     
 -0.10177959131437860       0.16104582612924873        0.0000000000000000     
 -0.10343272415585834       0.16877724044575931        0.0000000000000000     
  -7.4231381503734706E-002  0.16729909624166989        0.0000000000000000     
  -7.5342437703652315E-002  0.17517156010008483        0.0000000000000000     
  -7.6387967425285627E-002  0.18312115896900177        0.0000000000000000     
  -7.7367970668634628E-002  0.19114789284842074        0.0000000000000000     
  -7.8282447433699345E-002  0.19925176173834169        0.0000000000000000     
  -8.1249296435701474E-002  0.16759411961826501        0.0000000000000000     
  -8.2465949857394361E-002  0.17546131179311306        0.0000000000000000     
  -8.3612321446230362E-002  0.18340257863372483        0.0000000000000000     
  -8.4688411202209490E-002  0.19141792014010042        0.0000000000000000     
  -8.5694219125331789E-002  0.19950733631223974        0.0000000000000000     
  -8.8455491855044366E-002  0.16793881811114494        0.0000000000000000     
  -8.9781297696007442E-002  0.17579604629991175        0.0000000000000000     
  -9.1029601413408628E-002  0.18372451836059076        0.0000000000000000     
  -9.2200403007247952E-002  0.19172423429318219        0.0000000000000000     
  -9.3293702477525400E-002  0.19979519409768581        0.0000000000000000     
  -9.5849967761763313E-002  0.16833319172030969        0.0000000000000000     
  -9.7288481219491588E-002  0.17617576362048085        0.0000000000000000     
  -9.8639807326820511E-002  0.18408697814959962        0.0000000000000000     
  -9.9903946083750042E-002  0.19206683530766602        0.0000000000000000     
 -0.10108089749028019       0.20011533509468007        0.0000000000000000     
 -0.10343272415585834       0.16877724044575931        0.0000000000000000     
 -0.10498750042784682       0.17660046375482041        0.0000000000000000     
 -0.10644293918646594       0.18448995800075130        0.0000000000000000     
 -0.10779904043171573       0.19244572318355196        0.0000000000000000     
 -0.10905580416359614       0.20046775930322244        0.0000000000000000     
  -7.8282447433699345E-002  0.19925176173834169        0.0000000000000000     
  -7.9126931910919282E-002  0.20742769572909187        0.0000000000000000     
  -7.9896958290733927E-002  0.21567062491099839        0.0000000000000000     
  -8.0592526573143294E-002  0.22398054928406133        0.0000000000000000     
  -8.1213636758147370E-002  0.23235746884828068        0.0000000000000000     
  -8.5694219125331789E-002  0.19950733631223974        0.0000000000000000     
  -8.6628184580730128E-002  0.20766593892224111        0.0000000000000000     
  -8.7488746933537448E-002  0.21588883974220291        0.0000000000000000     
  -8.8275906183753750E-002  0.22417603877212511        0.0000000000000000     
  -8.8989662331379019E-002  0.23252753601200776        0.0000000000000000     
  -9.3293702477525400E-002  0.19979519409768581        0.0000000000000000     
  -9.4312124839737124E-002  0.20793376431570237        0.0000000000000000     
  -9.5258295109379290E-002  0.21613631148883219        0.0000000000000000     
  -9.6132213286451884E-002  0.22440283561707539        0.0000000000000000     
  -9.6933879370954962E-002  0.23273333670043189        0.0000000000000000     
 -0.10108089749028019       0.20011533509468007        0.0000000000000000     
 -0.10217875268794022       0.20823117190947560        0.0000000000000000     
 -0.10320560281825940       0.21641304015088625        0.0000000000000000     
 -0.10416144788123773       0.22466093981891216        0.0000000000000000     
 -0.10504628787687521       0.23297487091355323        0.0000000000000000     
 -0.10905580416359614       0.20046775930322244        0.0000000000000000     
 -0.11022806812533945       0.20855816170356078        0.0000000000000000     
 -0.11133067006017780       0.21671902572836510        0.0000000000000000     
 -0.11236360996811125       0.22495035137763539        0.0000000000000000     
 -0.11332688784913977       0.23325213865137168        0.0000000000000000     
  -8.1213636758147370E-002  0.23235746884828068        0.0000000000000000     
  -8.1750270742325395E-002  0.24082570972176651        0.0000000000000000     
  -8.2192410422256529E-002  0.24940959802262896        0.0000000000000000     
  -8.2540055797940812E-002  0.25810913375086808        0.0000000000000000     
  -8.2793206869378216E-002  0.26692431690648372        0.0000000000000000     
  -8.8989662331379019E-002  0.23252753601200776        0.0000000000000000     
  -8.9616608545598442E-002  0.24097355280784880        0.0000000000000000     
  -9.0143337995597275E-002  0.24954431050564627        0.0000000000000000     
  -9.0569850681375449E-002  0.25823980910540012        0.0000000000000000     
  -9.0896146602932992E-002  0.26706004860711052        0.0000000000000000     
  -9.6933879370954962E-002  0.23273333670043189        0.0000000000000000     
  -9.7654918390338658E-002  0.24115960846046883        0.0000000000000000     
  -9.8286955372053189E-002  0.24971344461875308        0.0000000000000000     
  -9.8829990316098543E-002  0.25839484517528466        0.0000000000000000     
  -9.9284023222474704E-002  0.26720381013006361        0.0000000000000000     
 -0.10504628787687521       0.23297487091355323        0.0000000000000000     
 -0.10586520027654600       0.24138387667962660        0.0000000000000000     
 -0.10662326255162430       0.24991700036194942        0.0000000000000000     
 -0.10732047470211006       0.25857424196052153        0.0000000000000000     
 -0.10795683672800335       0.26735560147534321        0.0000000000000000     
 -0.11332688784913977       0.23325213865137168        0.0000000000000000     
 -0.11424745420422050       0.24164635746532220        0.0000000000000000     
 -0.11515225953431060       0.25015497773523526        0.0000000000000000     
 -0.11604130383941007       0.25877799946111091        0.0000000000000000     
 -0.11691458711951891       0.26751542264294909        0.0000000000000000     
  -8.2793206869378216E-002  0.26692431690648372        0.0000000000000000     
  -8.2990978565442949E-002  0.27588275607809698        0.0000000000000000     
  -8.3172485815009217E-002  0.28501205985432876        0.0000000000000000     
  -8.3337728618077020E-002  0.29431222823517916        0.0000000000000000     
  -8.3486706974646344E-002  0.30378326122064803        0.0000000000000000     
  -9.0896146602932992E-002  0.26706004860711052        0.0000000000000000     
  -9.1152474235918685E-002  0.27606905534729431        0.0000000000000000     
  -9.1369082055981266E-002  0.28533085566246869        0.0000000000000000     
  -9.1545970063120777E-002  0.29484544955263353        0.0000000000000000     
  -9.1683138257337177E-002  0.30461283701778885        0.0000000000000000     
  -9.9284023222474704E-002  0.26720381013006361        0.0000000000000000     
  -9.9659681383834381E-002  0.27623943233965237        0.0000000000000000     
  -9.9967592092830349E-002  0.28560080466061305        0.0000000000000000     
 -0.10020775534946254       0.29528792709294577        0.0000000000000000     
 -0.10038017115373095       0.30530079963665052        0.0000000000000000     
 -0.10795683672800335       0.26735560147534321        0.0000000000000000     
 -0.10851260000919011       0.27639388705517104        0.0000000000000000     
 -0.10896801592555642       0.28582190684876202        0.0000000000000000     
 -0.10932308447710229       0.29563966085611604        0.0000000000000000     
 -0.10957780566382766       0.30584714907723309        0.0000000000000000     
 -0.11691458711951891       0.26751542264294909        0.0000000000000000     
 -0.11771123011198582       0.27653241949385038        0.0000000000000000     
 -0.11837035355415952       0.28599416222691548        0.0000000000000000     
 -0.11889195744604003       0.29590065084214412        0.0000000000000000     
 -0.11927604178762732       0.30625188533953657        0.0000000000000000     
 </DataArray>
 <DataArray  type="Float64" Name="stress" NumberOfComponents="3" format="ascii">
   12364877499.193928        334082317.32036400        2999187273.7958565     
   10892548343.045240        580346026.99738216        2006760185.7496240     
   9364004153.2740707        639226291.26612043        1303852872.2043824     
   7779244929.8804264        510723110.12659121        890465333.16013587     
   6138270672.8642941        194836483.57879400        766597568.61688054     
   8903057132.0390129       -124544234.10407972        2475096046.3865199     
   8110233726.2889814        235719249.60679007        1751690047.7425203     
   7265763223.0263948        423825741.60917449        1235153365.5117567     
   6369645622.2512703        439775241.90308380        925485999.69422448     
   5421880923.9636030        283567750.48851705        822687950.28993070     
   6507710750.4313774       -263228589.86434031        1913781746.8544221     
   6158248929.1149578        140191418.09085464        1464726096.4075942     
   5761707946.3959360        386680888.03738046        1139889304.2862353     
   5318087802.2743101        476239819.97522855        939271370.49035859     
   4827388496.7500858        408868213.90440869        862872295.01995015     
   5178838354.3710194       -81970749.960415125        1315244375.1995716     
   5036593951.5231915        293762532.44960785        1145868331.7448428     
   4851838323.3827057        527791730.55075824        1018060688.5278263     
   4624571469.9495583        620116844.34303892        931821445.54852736     
   4354793391.2237492        570737873.82645333        887150602.80694079     
   4916439943.8579245        419229285.60768867        679483931.42197287     
   4745268793.5136700        696432592.68302548        795116753.75426543     
   4536154353.9866991        847158269.14930129        869667518.23651659     
   4289096625.2770028        871406315.00650644        903136224.86873341     
   4004095607.3845863        769176730.25464034        895522873.65089595     
   6138270672.8642941        194836483.57879400        766597568.61688054     
   5798393583.1368408        179909514.61025929        585507169.39453733     
   5455806586.8512001        155949523.78111410        447303887.81099582     
   5110509684.0073977        122956511.09141517        351987723.86624062     
   4762502874.6054010        80930476.541081190        299558677.56027943     
   5421880923.9636030        283567750.48851705        822687950.28993070     
   5177523691.7370586        259137909.90634990        677277394.58847964     
   4932564377.4718828        232701129.19538999        564649505.08285332     
   4687002981.1680775        204257408.35566592        484804281.77306014     
   4440839502.8256330        173806747.38716173        437741724.65909475     
   4827388496.7500858        408868213.90440869        862872295.01995015     
   4649681260.7588434        366274543.32892275        755600711.44552505     
   4473479767.2485142        328700014.35647130        671007342.62396169     
   4298784016.2190962        296144626.98705888        609092188.55526471     
   4125594007.6705785        268608381.22065294        569855249.23942208     
   4354793391.2237492        570737873.82645333        887150602.80694079     
   4214866290.2021880        501319414.87795377        820477119.96567357     
   4078552756.1810818        443946179.26430941        766377400.43430519     
   3945852789.1604295        398618166.98551250        724851444.21282983     
   3816766389.1402364        365335378.04157305        695899251.30124629     
   4004095607.3845863        769176730.25464034        895522873.65089595     
   3873078780.0670915        664272524.55346096        871906620.14892912     
   3747783344.2695932        578439623.91894269        850759678.51388431     
   3628209299.9920940        511678028.35108340        832082048.74577272     
   3514356647.2345953        463987737.84989345        815873730.84458387     
   4762502874.6054010        80930476.541081190        299558677.56027943     
   4531949789.1678114        70623918.316323757        248164548.71600199     
   4301787945.9826059        61621500.932848215        203792693.73713276     
   4072017345.0497980        53923224.390691996        166443112.62365964     
   3842637986.3693843        47529088.689859867        136115805.37558576     
   4440839502.8256330        173806747.38716173        437741724.65909475     
   4225316406.4068875        152826698.30538201        389270453.93227947     
   4010579016.6265159        134465671.35152173        347801552.62924355     
   3796627333.4845324        118723666.52560854        313335020.75000978     
   3583461356.9809227        105600683.82763064        285870858.29455084     
   4125594007.6705785        268608381.22065294        569855249.23942208     
   3925044030.4374938        236937780.33190346        524767045.08037609     
   3725674224.2287703        209201082.85770512        486661305.90350711     
   3527484589.0444155        185398288.79805696        455538031.70880973     
   3330475124.8844266        165529398.15296769        431397222.49629259     
   3816766389.1402364        365335378.04157305        695899251.30124629     
   3631132661.2596231        322957164.39588642        654654322.16029406     
   3447073568.7893691        285827735.45138848        620371953.55990684     
   3264589111.7294626        253947091.20804763        593052145.50008106     
   3083679290.0799084        227315231.66589653        572694897.98081112     
   3514356647.2345953        463987737.84989345        815873730.84458387     
   3343582298.8732777        410884850.49732196        778932285.17204726     
   3174777050.3083067        364345629.13257277        748933495.59845316     
   3007940901.5396628        324370073.75558758        725877362.12380540     
   2843073852.5673723        290958184.36643350        709763884.74810719     
   3842637986.3693843        47529088.689859867        136115805.37558576     
   3656990182.4908686        51907079.686133623        117224582.83617970     
   3469403439.8258066        49821941.393898010        102172766.05907254     
   3279877758.3741932        41273673.813173532        90960355.044309735     
   3088413138.1360445        26262276.943989158        83587349.791844562     
   3583461356.9809227        105600683.82763064        285870858.29455084     
   3405720308.4455819        101576735.88529181        267140143.85095540     
   3226185788.2379022        91574549.035173655        252591052.12563190     
   3044857796.3579111        75594123.277336836        242223583.11856365     
   2861736332.8055820        53635458.611706853        236037736.82976222     
   3330475124.8844266        165529398.15296769        431397222.49629259     
   3161618594.4235363        153396840.09141898        412996727.78178191     
   2991114059.4045353        135770933.50283647        399120072.74147624     
   2818961519.8274240        112651678.38721812        389767257.37537462     
   2645160975.6922035        84039074.744576335        384938281.68348730     
   3083679290.0799084        227315231.66589653        572694897.98081112     
   2924685040.4247441        207367392.30451727        554794334.62862456     
   2764188253.3256922        182411094.79684353        541759827.90659428     
   2602188928.7827449        152446339.14284551        533591377.81472540     
   2438687066.7959027        117473125.34254944        530288984.35300213     
   2843073852.5673723        290958184.36643350        709763884.74810719     
   2694919646.4492054        263488392.52458811        692532964.39150548     
   2545408370.0013728        231495032.91719604        680510317.62100899     
   2394540023.2238631        194978105.54421258        673695944.43661177     
   2242314606.1166811        153937610.40565252        672089844.83831346     
   3088413138.1360445        26262276.943989158        83587349.791844562     
   2892553957.8441143        9158428.2014973164        45357582.797682479     
   2698123331.3779445       -3183574.4551299810        17010374.107182194     
   2505121258.7375631       -10763731.025797844       -1454276.2796434858     
   2313547739.9229360       -13582041.510607600       -10036368.362791998     
   2861736332.8055820        53635458.611706853        236037736.82976222     
   2688542588.3972497        34322019.806667089        202184749.82786316     
   2516922695.9584217        20254754.233286023        176394060.60102442     
   2346876655.4890947        11433661.891585827        158665669.14927033     
   2178404466.9892755        7858742.7815785408        148999575.47257397     
   2645160975.6922035        84039074.744576335        384938281.68348730     
   2489431922.8000641        60955822.566774130        355631589.17485660     
   2335422020.0211549        43603070.766420245        332566933.91269565     
   2183131267.3554735        31980819.343490601        315744315.89702034     
   2032559664.8030322        26089068.298023224        305163735.12781221     
   2438687066.7959027        117473125.34254944        530288984.35300213     
   2295221961.0525346        89059836.481787801        505698100.83866405     
   2153621303.5661206        66861375.144190192        485528994.04220122     
   2013885094.3366847        50877741.329851627        469781663.96361840     
   1876013333.3641860        41108935.038657188        458456110.60292119     
   2242314606.1166811        153937610.40565252        672089844.83831346     
   2105912703.1546674        118634061.55167711        652384284.81928551     
   1971520546.5933375        90029667.366663814        635280240.98953259     
   1839138136.4327002        68124427.850614250        620777713.34907079     
   1708765472.6727562        52918343.003549278        608876701.89789033     
   2313547739.9229360       -13582041.510607600       -10036368.362791998     
   2183522489.7096105       -1162570.0301775932       -11096137.422295094     
   2049941192.0780900       -596589.94374215603       -13183141.957159219     
   1912803847.0283940       -11884101.251217842       -16297381.967386939     
   1772110454.5605123       -35025103.952647328       -20438857.452970564     
   2178404466.9892755        7858742.7815785408        148999575.47257397     
   2043835897.9748397        13729277.048324108        140958192.22289956     
   1907215038.0004416        12758841.448519945        131960477.03550659     
   1768541887.0660770        4947435.9821485281        122006429.91041040     
   1627816445.1717443       -9704939.3507497311        111096050.84757002     
   2032559664.8030322        26089068.298023224        305163735.12781221     
   1893650358.5236039        25471439.811883211        291895120.22256577     
   1754192517.7424371        23025362.986606836        277741076.91724390     
   1614186142.4595413        18750837.822235584        262701605.21185061     
   1473631232.6749179        12647864.318776727        246776705.10638124     
   1876013333.3641860        41108935.038657188        458456110.60292119     
   1732965871.3559008        34063918.260503769        441714646.57668984     
   1590873631.3041067        30202974.670643568        424158657.68803805     
   1449736613.2088022        29526104.269081712        405788143.93695492     
   1309554817.0699954        32033307.055857837        386603105.32344705     
   1708765472.6727562        52918343.003549278        608876701.89789033     
   1561782436.4717360        39506712.394192517        590416771.28528988     
   1417258378.6854277        34291676.500542223        571213219.34789956     
   1275193299.3138499        37273235.322669029        551266046.08573210     
   1135587198.3569887        48451388.860500276        530575251.49877459     
   1772110454.5605123       -35025103.952647328       -20438857.452970564     
   1747431501.1435204       -16417722.068984985       -12421223.244076284     
   1730887091.5424061        29304805.867614746       -43953885.304323860     
   1722477225.7571671        102142479.85713756       -115036843.63370690     
   1722201903.7878435        202095299.89968884       -225670098.23223948     
   1627816445.1717443       -9704939.3507497311        111096050.84757002     
   1509573598.1994331       -14406965.199571073        129080726.58981758     
   1395496605.4887249       -5222810.1763941646        120022566.88151690     
   1285585467.0395670        17847525.718621850        83921571.722702563     
   1179840182.8520219        54804042.485659063        20777741.113360453     
   1473631232.6749179        12647864.318776727        246776705.10638124     
   1297560094.4862001       -4642888.5608544946        270098284.56859630     
   1121686121.0047650       -21276425.749540150        278884489.39890152     
   946009312.23059440       -37252747.247332275        273135319.59730589     
   770529668.16372180       -52571853.054147482        252850775.16380042     
   1309554817.0699954        32033307.055857837        386603105.32344705     
   1111390990.0037787        12874507.847095609        410631450.69229048     
   909455638.09053922       -18856040.851752460        432631882.24785167     
   703748761.33027947       -63158339.040662438        452604399.99011475     
   494270359.72299182       -120032386.71966639        470549003.91909039     
   1135587198.3569887        48451388.860500276        530575251.49877459     
   951066284.75218415        38145224.024283767        550680224.96089768     
   758805156.74605274        2038344.5169719756        581264745.42834949     
   558803814.33859432       -59869249.661429822        622328812.90111518     
   351062257.52980936       -147577558.51091442        673872427.37923133     
   1722201903.7878435        202095299.89968884       -225670098.23223948     
   1453106272.8628349        185234985.36042249       -97562621.193275198     
   1152029696.8724575        61771520.603237271        59683309.000781491     
   818972175.81667984       -168295094.37190366        246067692.34994727     
   453933709.69553316       -504964859.56500846        461590528.85418242     
   1179840182.8520219        54804042.485659063        20777741.113360453     
   974012889.27683473        10936198.753107369        153140915.17566976     
   730525395.71485674       -158465644.93545842        311266094.62737411     
   449377702.16608083       -453401488.57999557        495153279.46843505     
   130569808.63048279       -873871332.18060601        704802469.69889605     
   770529668.16372180       -52571853.054147482        252850775.16380042     
   618323718.32205665       -126341324.06486118        382843848.84113097     
   422778313.57215834       -344575644.76966852        535222480.14212257     
   183893453.91403672       -707274815.16855383        709986669.06678784     
  -98330860.652300537       -1214438835.2614968        907136415.61512506     
   494270359.72299182       -120032386.71966639        470549003.91909039     
   386038759.99850935       -226597583.09343714        591546179.80312181     
   228788450.44438940       -496558478.89936733        731552465.54509211     
   22519431.060614467       -929915074.13745594        890567861.14503992     
  -232768298.15280065       -1526667368.8077161        1068592366.6029154     
   351062257.52980936       -147577558.51091442        673872427.37923133     
   277158014.30619061       -289832578.33267784        779247908.06161737     
   148555806.33151543       -614414147.32461262        900256050.83625627     
  -34744366.394237638       -1121322265.4868240        1036896855.7031372     
  -272742503.87106448       -1810556932.8192642        1189170322.6622517     
   4916439943.8579245        419229285.60768867        679483931.42197287     
   4745268793.5136700        696432592.68302548        795116753.75426543     
   4536154353.9866991        847158269.14930129        869667518.23651659     
   4289096625.2770028        871406315.00650644        903136224.86873341     
   4004095607.3845863        769176730.25464034        895522873.65089595     
   5012856242.9051170        809787846.05546868        1007301368.4921139     
   4705565231.0444241        906651772.25394166        1025093955.0317725     
   4375094721.4022789        926250705.84758520        1020877793.8419491     
   4021444713.9786820        868584646.83638668        994652884.92264342     
   3644615208.7736378        733653595.22035635        946419228.27385390     
   4904352736.8366442        1138870464.9685540        1272851431.4415369     
   4515437035.2325344        1071743561.8220646        1210028205.4900441     
   4118105627.2482500        976564304.07498026        1144269541.9296246     
   3712358512.8837786        853332691.72729039        1075575440.7602801     
   3298195692.1391277        702048724.77900577        1003945901.9820222     
   4590929425.6525021        1406477142.3469348        1476134120.2702491     
   4174884206.0780106        1191707961.3873961        1349919505.1290760     
   3765187071.5246096        998099063.83149695        1239842762.4995484     
   3361838021.9922905        825650449.67921972        1145903892.3816538     
   2964837057.4810710        674362118.93058395        1068102894.7753990     
   4072586309.3526921        1612607878.1906171        1617149434.9782383     
   3683906743.5808430        1266544970.9499369        1444767853.9488776     
   3316339054.2313533        990854985.11712289        1307597455.5517170     
   2969883241.3042254        785537920.69217932        1205638239.7867546     
   2644539304.7994580        650593777.67510486        1138890206.6539888     
   4004095607.3845863        769176730.25464034        895522873.65089595     
   3873078780.0670915        664272524.55346096        871906620.14892912     
   3747783344.2695932        578439623.91894269        850759678.51388431     
   3628209299.9920940        511678028.35108340        832082048.74577272     
   3514356647.2345953        463987737.84989345        815873730.84458387     
   3644615208.7736378        733653595.22035635        946419228.27385390     
   3525398364.3100820        646915434.86632657        933017386.10820520     
   3410180199.8518558        573506207.86339140        922030977.65238726     
   3298960715.3989568        513425914.21155262        913460002.90640938     
   3191739910.9513869        466674553.91080117        907304461.87027276     
   3298195692.1391277        702048724.77900577        1003945901.9820222     
   3190624892.9378304        633430428.49462056        998748641.05224025     
   3085330062.2271881        572398693.84575438        995912935.67520678     
   2982311200.0072088        518953520.83242518        995438785.85092175     
   2881568306.2778845        473094909.45462257        997326191.57938242     
   2964837057.4810710        674362118.93058395        1068102894.7753990     
   2868758365.9503417        623817505.43833601        1069100384.9810385     
   2773232931.3955994        575117081.86604404        1072405552.5823374     
   2678260753.8168445        528260848.21371299        1078018397.5792944     
   2583841833.2140865        483248804.48135746        1085938919.9719062     
   2644539304.7994580        650593777.67510486        1138890206.6539888     
   2559798783.3476148        618076665.69749343        1144072617.8946021     
   2473888807.3570857        581661371.92425990        1151508828.3737874     
   2386809376.8278799        541347896.35543966        1161198838.0915365     
   2298560491.7599883        497136238.99099904        1173142647.0478518     
   3514356647.2345953        463987737.84989345        815873730.84458387     
   3343582298.8732777        410884850.49732196        778932285.17204726     
   3174777050.3083067        364345629.13257277        748933495.59845316     
   3007940901.5396628        324370073.75558758        725877362.12380540     
   2843073852.5673723        290958184.36643350        709763884.74810719     
   3191739910.9513869        466674553.91080117        907304461.87027276     
   3038725685.6453433        415028707.67282474        876656292.46637595     
   2887543686.0396657        369490280.43606937        852390859.82576275     
   2738193912.1343617        330059272.20055330        834508163.94842505     
   2590676363.9294243        296735682.96626741        823008204.83437586     
   2881568306.2778845        473094909.45462257        997326191.57938242     
   2744714434.4966316        422426173.47207665        972811611.99883151     
   2609555914.3197861        377408609.50420773        954119849.84589362     
   2476092745.7473307        338042217.55099052        941250905.12057126     
   2344324928.7792811        304326997.61244971        934204777.82286215     
   2583841833.2140865        483248804.48135746        1085938919.9719062     
   2461548545.4271550        433077247.89511478        1067398243.7694026     
   2340813735.1486502        388100616.33695906        1054120465.6588506     
   2221637402.3785796        348318909.80691993        1046105585.6402416     
   2104019547.1169395        313732128.30497909        1043353603.7135839     
   2298560491.7599883        497136238.99099904        1173142647.0478518     
   2189228018.4369011        446981930.94190443        1160416187.7781012     
   2081317148.5262704        401566300.93434322        1152392707.2646286     
   1974827882.0281069        360889348.96832597        1149072205.5074337     
   1869760218.9423985        324951075.04383534        1150454682.5065265     
   2843073852.5673723        290958184.36643350        709763884.74810719     
   2694919646.4492054        263488392.52458811        692532964.39150548     
   2545408370.0013728        231495032.91719604        680510317.62100899     
   2394540023.2238631        194978105.54421258        673695944.43661177     
   2242314606.1166811        153937610.40565252        672089844.83831346     
   2590676363.9294243        296735682.96626741        823008204.83437586     
   2455428575.0009713        268154011.47657514        806325080.40732801     
   2319048114.1930165        235796767.05521709        794618283.22808409     
   2181534981.5055623        199663949.70219302        787887813.29662561     
   2042889176.9386110        159755559.41750360        786133670.61297405     
   2344324928.7792811        304326997.61244971        934204777.82286215     
   2221320853.2168021        274434635.32777017        918331247.51724660     
   2097408504.2250004        241514694.94534612        907202098.12112164     
   1972587881.8038630        205567176.46515369        900817329.63448417     
   1846858985.9534032        166592079.88720328        899176942.05734074     
   2104019547.1169395        313732128.30497909        1043353603.7135839     
   1992596481.0967009        282330264.07818455        1028551465.7212653     
   1880489540.0973151        248648816.58756495        1018261762.3001301     
   1767698724.1187713        212687785.83309007        1012484493.4501762     
   1654224033.1610792        174447171.81477636        1011219659.1714096     
   1869760218.9423985        324951075.04383534        1150454682.5065265     
   1769255458.6406727        291840897.72782421        1136985735.0193720     
   1668291221.8099704        257199131.98189077        1127797275.7650979     
   1566867508.4502857        221025777.80602121        1122889304.7437010     
   1464984318.5616193        183320835.20020217        1122261821.9551754     
   2242314606.1166811        153937610.40565252        672089844.83831346     
   2105912703.1546674        118634061.55167711        652384284.81928551     
   1971520546.5933375        90029667.366663814        635280240.98953259     
   1839138136.4327002        68124427.850614250        620777713.34907079     
   1708765472.6727562        52918343.003549278        608876701.89789033     
   2042889176.9386110        159755559.41750360        786133670.61297405     
   1913553188.9438281        124195150.95237070        770193393.44785190     
   1786375171.8491497        95827978.820925593        757146194.59388888     
   1661355125.6545749        74654043.023153305        746992074.05108345     
   1538493050.3601124        60673343.559083402        739731031.81944180     
   1846858985.9534032        166592079.88720328        899176942.05734074     
   1725421947.5597944        131024722.20109791        887174876.32876933     
   1606291104.5657055        103144682.51340306        878357451.03324401     
   1489466456.9711382        82951960.824105263        872724666.17075455     
   1374948004.7760916        70446557.133214355        870276521.74130690     
   1654224033.1610792        174447171.81477636        1011219659.1714096     
   1541518979.0025730        139122775.29787618        1003328733.4620529     
   1431268344.7430103        111979778.44411552        998914010.30760920     
   1323472130.3823755        93018181.253456116        997975489.70808351     
   1218130335.9206848        82237983.725931466        1000513171.6634847     
   1464984318.5616193        183320835.20020217        1122261821.9551754     
   1361844283.2721562        148489310.24268919        1118654964.8476784     
   1261306892.3810539        122333266.61303961        1118815872.4169843     
   1163372145.8882976        104852704.31120661        1122744544.6630790     
   1068040043.7938968        96047623.337227345        1130440981.5859690     
   1708765472.6727562        52918343.003549278        608876701.89789033     
   1561782436.4717360        39506712.394192517        590416771.28528988     
   1417258378.6854277        34291676.500542223        571213219.34789956     
   1275193299.3138499        37273235.322669029        551266046.08573210     
   1135587198.3569887        48451388.860500276        530575251.49877459     
   1538493050.3601124        60673343.559083402        739731031.81944180     
   1390967626.9242768        44808880.413294852        726740547.21381497     
   1244920655.0679307        33872589.199119329        714642501.26075864     
   1100352134.7910647        27864469.916552544        703436893.96026218     
   957262066.09367907        26784522.565588593        693123725.31234026     
   1374948004.7760916        70446557.133214355        870276521.74130690     
   1231554651.1835935        53531598.574459970        861611535.16821313     
   1088659222.3353424        38276389.163182259        855475047.22503769     
   946261718.23132980        24680928.899371207        851867057.91177607     
   804362138.87155831        12745217.783033520        850787567.22842968     
   1218130335.9206848        82237983.725931466        1000513171.6634847     
   1083543509.2496676        65674866.877647340        995029735.14847183     
   948474080.48765004        47503076.392690688        993710857.24072778     
   812922049.63464153        27722612.271100551        996556537.94025767     
   676887416.69063377        6333474.5128340125        1003566777.2470416     
   1068040043.7938968        96047623.337227345        1130440981.5859690     
   946934201.12250268        81238685.322849602        1126995147.1545968     
   824365229.52487361        61552650.887700528        1129349931.3078427     
   700333129.00100505        36989520.031750381        1137505334.0457022     
   574837899.55089521        7549292.7549903095        1151461355.3681834     
   1135587198.3569887        48451388.860500276        530575251.49877459     
   951066284.75218415        38145224.024283767        550680224.96089768     
   758805156.74605274        2038344.5169719756        581264745.42834949     
   558803814.33859432       -59869249.661429822        622328812.90111518     
   351062257.52980936       -147577558.51091442        673872427.37923133     
   957262066.09367907        26784522.565588593        693123725.31234026     
   796969733.89999747        9533984.2378689051        712155795.88988674     
   627939667.53702021       -36842334.654163331        740948237.50715923     
   450171867.00476635       -112344434.11045718        779501050.16416216     
   263666332.30321303       -216972314.13106561        827814233.86089325     
   804362138.87155831        12745217.783033520        850787567.22842968     
   666243599.61585081       -12066130.578135610        867582961.85878134     
   518389806.42289156       -69328325.396815062        893419551.56325650     
   360800759.29268861       -159041366.67295969        928297336.34186411     
   193476458.22523779       -281205254.40662050        972216316.19459426     
   676887416.69063377        6333474.5128340125        1003566777.2470416     
   558887881.89975750       -26655120.423726678        1016961722.8675787     
   430155573.40367413       -95419627.710983008        1038678687.5966421     
   290690491.20237970       -199960047.34894475        1068717671.4342315     
   140492635.29587522       -340276379.33759665        1107078674.3803470     
   574837899.55089521        7549292.7549903095        1151461355.3681834     
   474902580.75171268       -34232985.298893154        1160292078.9162765     
   363236968.47934270       -115116241.59672344        1176725645.6073089     
   239841062.73382464       -235100476.13839161        1200762055.4412634     
   104714863.51512814       -394185688.92398804        1232401308.4181380     
   351062257.52980936       -147577558.51091442        673872427.37923133     
   277158014.30619061       -289832578.33267784        779247908.06161737     
   148555806.33151543       -614414147.32461262        900256050.83625627     
  -34744366.394237638       -1121322265.4868240        1036896855.7031372     
  -272742503.87106448       -1810556932.8192642        1189170322.6622517     
   263666332.30321303       -216972314.13106561        827814233.86089325     
   224664411.41740215       -357748083.29537892        879099641.17476273     
   141389912.64256310       -646099112.08976960        941258961.11991858     
   13842835.978714168       -1082025400.5142262        1014292193.6963565     
  -157976818.57417423       -1665526948.5687649        1098199338.9040542     
   193476458.22523779       -281205254.40662050        972216316.19459426     
   175780432.64590171       -424580701.02291030        981574601.47900569     
   124237216.03958958       -680780117.72910523        997048049.93372726     
   38846808.406300187       -1049803504.5252284        1018636661.5587592     
  -80390790.253957868       -1531650861.4112542        1046340436.3541113     
   140492635.29587522       -340276379.33759665        1107078674.3803470     
   130506077.99168181       -490330431.51526242        1086672788.9743471     
   97097716.522569120       -718457164.24266875        1067623317.2776979     
   40267550.888532341       -1024656577.5198349        1049930259.2903974     
  -39984418.910442710       -1408928671.3467605        1033593615.0124488     
   104714863.51512814       -394185688.92398804        1232401308.4181380     
   88841347.454762846       -554997274.77240443        1194394203.6607885     
   59971414.091513127       -759130251.63044631        1152984763.1518173     
   18105063.425391674       -1006584619.4980608        1108172986.8912284     
  -36757704.543612182       -1297360378.3752723        1059958874.8790361     
   4072586309.3526921        1612607878.1906171        1617149434.9782383     
   3683906743.5808430        1266544970.9499369        1444767853.9488776     
   3316339054.2313533        990854985.11712289        1307597455.5517170     
   2969883241.3042254        785537920.69217932        1205638239.7867546     
   2644539304.7994580        650593777.67510486        1138890206.6539888     
   3365243847.8107328        1353834955.2469645        1520278364.6092839     
   3081199947.5985909        1088582100.3568385        1398609853.0700188     
   2812696837.9223766        875131880.58645844        1303570658.7866666     
   2559734518.7820773        713484295.93580151        1235160781.7592213     
   2322312990.1776958        603639346.40487397        1193380221.9876947     
   2753967899.9427814        1123881986.4055104        1445664537.6802363     
   2550040049.9295425        932083299.25771403        1368209495.4302166     
   2356081904.5657802        773516960.94151258        1308801905.0598199     
   2172093463.8514929        648182971.45689762        1267441766.5690522     
   1998074727.7866857        556081330.80387688        1244129079.9579077     
   2238758465.7488489        922748971.66626501        1393307954.1910987     
   2090427050.5736897        797048567.65254676        1353566781.0294695     
   1946494254.1615644        686010226.18227696        1323291194.3711855     
   1806960076.5124772        589633947.25546694        1302481194.2162397     
   1671824517.6264224        507919730.87209803        1291136780.5646341     
   1819615545.2289302        750435911.02922177        1363208614.1418629     
   1702360949.5310357        683477905.54133236        1354681709.8677833     
   1583933886.7097321        612611676.30876064        1347038526.7207561     
   1464334356.7650232        537837223.33149743        1340279064.7007875     
   1343562359.6969085        459154546.60955065        1334403323.8078735     
   2644539304.7994580        650593777.67510486        1138890206.6539888     
   2559798783.3476148        618076665.69749343        1144072617.8946021     
   2473888807.3570857        581661371.92425990        1151508828.3737874     
   2386809376.8278799        541347896.35543966        1161198838.0915365     
   2298560491.7599883        497136238.99099904        1173142647.0478518     
   2322312990.1776958        603639346.40487397        1193380221.9876947     
   2242302370.7190957        564381802.58795738        1197440149.5085094     
   2162155883.5621152        524671366.44310653        1204440148.2100167     
   2081873528.7067566        484508037.97033513        1214380218.0922139     
   2001455306.1530218        443891817.16963053        1227260359.1550949     
   1998074727.7866857        556081330.80387688        1244129079.9579077     
   1924754787.2988145        510671588.24090087        1248272375.0726182     
   1852332565.9528718        468254242.81767470        1256042013.3101385     
   1780808063.7488527        428829294.53419989        1267437994.6704667     
   1710181280.6867595        392396743.39047819        1282460319.1536059     
   1671824517.6264224        507919730.87209803        1291136780.5646341     
   1607156033.0867703        456946022.65630817        1296569294.5869224     
   1544418854.5293524        412410001.04796517        1306314423.6741409     
   1483612981.9541550        374311666.04702473        1320372167.8262911     
   1424738415.3611917        342651017.65352845        1338742527.0433705     
   1343562359.6969085        459154546.60955065        1334403323.8078735     
   1289506108.0829647        403205105.83419681        1342330908.0514269     
   1238414749.2915554        357138641.13395977        1355257379.3020365     
   1190288283.3226743        320955152.50881666        1373182737.5596941     
   1145126710.1763303        294654639.95879722        1396106982.8244021     
   2298560491.7599883        497136238.99099904        1173142647.0478518     
   2189228018.4369011        446981930.94190443        1160416187.7781012     
   2081317148.5262704        401566300.93434322        1152392707.2646286     
   1974827882.0281069        360889348.96832597        1149072205.5074337     
   1869760218.9423985        324951075.04383534        1150454682.5065265     
   2001455306.1530218        443891817.16963053        1227260359.1550949     
   1906150522.5905228        400335119.64708865        1218001082.0635092     
   1811987425.3510966        360584043.20146251        1213306831.2945809     
   1718966014.4347529        324638587.83276880        1213177606.8483074     
   1627086289.8414772        292498753.54097974        1217613408.7246988     
   1710181280.6867595        392396743.39047819        1282460319.1536059     
   1628510037.0745010        355319411.45138735        1276341654.3025630     
   1547700562.6959319        321114643.62459147        1274650063.3405597     
   1467752857.5510547        289782439.91010511        1277385546.2675920     
   1388666921.6398668        261322800.30790743        1284548103.0836606     
   1424738415.3611917        342651017.65352845        1338742527.0433705     
   1356306561.8888333        311934806.35479516        1335437904.4952607     
   1288456560.5607686        283158102.20371407        1336422403.4025645     
   1221188411.3770199        256320905.20034552        1341696023.7652874     
   1154502114.3375669        231423215.34463659        1351258765.5834229     
   1145126710.1763303        294654639.95879722        1396106982.8244021     
   1089540097.0335135        270181304.35729229        1395289832.6416047     
   1034255418.9456152        246714418.93884629        1398623851.4806006     
   979272675.91263890        224253983.70347363        1406109039.3413899     
   924591867.93457484        202799998.65114474        1417745396.2239785     
   1869760218.9423985        324951075.04383534        1150454682.5065265     
   1769255458.6406727        291840897.72782421        1136985735.0193720     
   1668291221.8099704        257199131.98189077        1127797275.7650979     
   1566867508.4502857        221025777.80602121        1122889304.7437010     
   1464984318.5616193        183320835.20020217        1122261821.9551754     
   1627086289.8414772        292498753.54097974        1217613408.7246988     
   1538719103.7113211        262589303.77810484        1205170588.0001891     
   1449986026.6360998        231460217.53168091        1197045245.1240628     
   1360887058.6158161        199111494.80171347        1193237380.0963142     
   1271422199.6504629        165543135.58818313        1193746992.9169352     
   1388666921.6398668        261322800.30790743        1284548103.0836606     
   1312542994.2969928        234645783.48289081        1273240592.3030407     
   1236146761.5929661        207061082.12069622        1266287548.9862926     
   1159478223.5277922        178568696.22134620        1263688973.1334209     
   1082537380.1014628        149168625.78481108        1265444864.7444239     
   1154502114.3375669        231423215.34463659        1351258765.5834229     
   1090727130.3976889        208010336.84218827        1341195747.9279144     
   1026773426.6805710        184001725.74894452        1335524187.3517833     
   962641003.18621564        159397382.06490973        1334244083.8550224     
   898329859.91462517        134197305.79008779        1337355437.4376357     
   924591867.93457484        202799998.65114474        1417745396.2239785     
   873271512.01340353        182682963.85598463        1409036054.8748159     
   821866021.89890456        162282148.41639632        1404755160.2205303     
   770375397.59108806        141597552.33241746        1404902712.2611225     
   718799639.08994317        120629175.60401113        1409478710.9965787     
   1464984318.5616193        183320835.20020217        1122261821.9551754     
   1361844283.2721562        148489310.24268919        1118654964.8476784     
   1261306892.3810539        122333266.61303961        1118815872.4169843     
   1163372145.8882976        104852704.31120661        1122744544.6630790     
   1068040043.7938968        96047623.337227345        1130440981.5859690     
   1271422199.6504629        165543135.58818313        1193746992.9169352     
   1179322585.5184910        133979505.37287557        1194685382.4044845     
   1089431822.0337117        109778710.64819330        1199594509.3189571     
   1001749909.1961036        92940751.414087981        1208474373.6603463     
   916276847.00568521        83465627.670612484        1221324975.4286573     
   1082537380.1014628        149168625.78481108        1265444864.7444239     
   1002058109.2701949        121046866.95465937        1270469074.7839878     
   923393895.33494222        98975297.777898699        1279666995.0005956     
   846544738.29569983        82953918.254506320        1293038625.3942416     
   771510638.15247238        72982728.384494007        1310583965.9649405     
   898329859.91462517        134197305.79008779        1337355437.4376357     
   830050854.52726555        109691394.98805991        1346006041.9861834     
   763193112.28475809        89923028.002193093        1359033329.4618995     
   697756633.18708754        74892204.832458794        1376437299.8647811     
   633741417.23426342        64598925.478878379        1398217953.1948321     
   718799639.08994317        120629175.60401113        1409478710.9965787     
   663300821.28970945        99913089.473072350        1421296284.0110779     
   608829472.88314855        82621901.321046516        1437693512.7028687     
   555385593.87026918        68755611.147957787        1458670397.0719554     
   502969184.25105846        58314218.953763932        1484226937.1183295     
   1068040043.7938968        96047623.337227345        1130440981.5859690     
   946934201.12250268        81238685.322849602        1126995147.1545968     
   824365229.52487361        61552650.887700528        1129349931.3078427     
   700333129.00100505        36989520.031750381        1137505334.0457022     
   574837899.55089521        7549292.7549903095        1151461355.3681834     
   916276847.00568521        83465627.670612484        1221324975.4286573     
   810344379.77160943        68938714.277205497        1218606556.9955046     
   702919126.85509932        49435848.609014839        1221694264.6323776     
   594001088.25613296        24957030.665972710        1230588098.3392625     
   483590263.97472334       -4497739.5518832505        1245288058.1161857     
   771510638.15247238        72982728.384494007        1310583965.9649405     
   680767282.02831292        58742560.313863754        1308558363.9810996     
   588501483.46549726        39427584.114380807        1312344395.5526845     
   494713242.46402323        15037799.786037087        1321942060.6796980     
   399402559.02389258       -14426792.671164408        1337351359.3621306     
   633741417.23426342        64598925.478878379        1398217953.1948321     
   558202907.89260364        50650223.432793140        1396850568.1113913     
   481112299.35606939        31527857.403799042        1401300324.0687823     
   402469591.62466812        7231827.3919145167        1411567221.0670018     
   322274784.69840634       -22237866.602843910        1427651259.1060562     
   502969184.25105846        58314218.953763932        1484226937.1183295     
   442651257.36447448        44661703.633976623        1483483169.3863750     
   380751574.52681333        25736668.477265492        1488562050.1806543     
   317270135.73808026        1539113.4836479276        1499463579.5011690     
   252206940.99826622       -27930961.346906245        1516187757.3479266     
   574837899.55089521        7549292.7549903095        1151461355.3681834     
   474902580.75171268       -34232985.298893154        1160292078.9162765     
   363236968.47934270       -115116241.59672344        1176725645.6073089     
   239841062.73382464       -235100476.13839161        1200762055.4412634     
   104714863.51512814       -394185688.92398804        1232401308.4181380     
   483590263.97472334       -4497739.5518832505        1245288058.1161857     
   403057227.73175228       -42308409.414385229        1243357943.9428048     
   312597700.65066993       -113207382.07059161        1247833294.3947949     
   212211682.73148343       -217194657.52048114        1258714109.4721785     
   101899173.97418213       -354270235.76408112        1276000389.1749377     
   399402559.02389258       -14426792.671164408        1337351359.3621306     
   334850723.85843641       -49292178.785878852        1326764843.8748448     
   262176200.48992968       -111233192.24410085        1321386414.4953871     
   181378988.91838163       -200249833.04579240        1321216071.2237647     
   92459089.143778488       -316342101.19099814        1326253814.0599761     
   322274784.69840634       -22237866.602843910        1427651259.1060562     
   270283069.13176137       -55184293.413392812        1410512778.7124205     
   211972467.99713486       -109193672.11721605        1397385005.9090750     
   147342981.29451525       -184266002.71434286        1388267940.6960156     
   76394609.023907200       -280401285.20477545        1383161583.0732503     
   252206940.99826622       -27930961.346906245        1516187757.3479266     
   209354263.55173296       -59984753.296889424        1494601748.4555211     
   161986503.17227703       -107088821.68995351        1475829068.6358604     
   110103659.85989127       -169243166.52611148        1459869717.8889410     
   53705733.614579082       -246447787.80536318        1446723696.2147689     
   104714863.51512814       -394185688.92398804        1232401308.4181380     
   88841347.454762846       -554997274.77240443        1194394203.6607885     
   59971414.091513127       -759130251.63044631        1152984763.1518173     
   18105063.425391674       -1006584619.4980608        1108172986.8912284     
  -36757704.543612182       -1297360378.3752723        1059958874.8790361     
   101899173.97418213       -354270235.76408112        1276000389.1749377     
   83826809.696317226       -496563113.74009001        1221654059.2049236     
   53995655.107375741       -678051959.41968191        1164745095.3102002     
   12405710.207364738       -898736772.80283892        1105273497.4907618     
  -40943025.003706217       -1158617553.8895457        1043239265.7466077     
   92459089.143778488       -316342101.19099814        1326253814.0599761     
   74587024.725281864       -439396526.87153590        1257012157.0344079     
   46193796.987511456       -597521496.94964719        1186047567.9110372     
   7279405.9304947853       -790717011.42524600        1113360046.6898477     
  -42156148.445791721       -1018983070.2984165        1038949593.3708569     
   76394609.023907200       -280401285.20477545        1383161583.0732503     
   61121992.541652828       -383497514.16675484        1300468497.1492405     
   36565839.731931090       -517538864.22029477        1216892180.9543252     
   2726150.5947582722       -682525335.36533833        1132432634.4885054     
  -40397074.869861960       -878456927.60187626        1047089857.7517822     
   53705733.614579082       -246447787.80536318        1446723696.2147689     
   43431713.145419389       -328866075.62578845        1352023079.5494282     
   25111783.340610266       -438104061.23171455        1257278934.4400742     
  -1254055.7998258770       -574161744.62306416        1162491260.8867323     
  -35665804.275922656       -737039125.79994631        1067660058.8893825     
   1819615545.2289302        750435911.02922177        1363208614.1418629     
   1702360949.5310357        683477905.54133236        1354681709.8677833     
   1583933886.7097321        612611676.30876064        1347038526.7207561     
   1464334356.7650232        537837223.33149743        1340279064.7007875     
   1343562359.6969085        459154546.60955065        1334403323.8078735     
   1426427967.4707696        581341825.83654308        1395729705.5635543     
   1320359995.7666612        525685214.24136388        1373720255.3481216     
   1213412673.7200058        467097434.83769196        1356824165.4102330     
   1105586001.3308051        405578487.62553793        1345041435.7498829     
   996879978.59905362        341128372.60488236        1338372066.3670781     
   992096184.01320589        399904478.93404329        1431135737.8481736     
   909299519.58999348        359174666.21770918        1395985711.2690582     
   825916621.60508871        316490741.62907076        1370178684.1179683     
   741947490.05849886        271852705.16814524        1353714656.3949094     
   657392124.95021796        225260556.83491808        1346593628.0998759     
   516620194.85623986        206123870.32172203        1469426710.9957201     
   469179521.00102633        183946261.47036034        1421478077.6305833     
   421445730.36497903        160791596.68288773        1387102082.8439670     
   373418822.94810623        136659875.95932832        1366298726.6358643     
   325098798.75040191        111551099.29966389        1359068009.0062785     
  -1.2837716238041987E-004  -4.1820942313592951E-004   1510602625.0061877     
  -2.3717291866717631E-004  -6.7400297797161291E-004   1450197354.4327054     
  -3.2030239266761214E-004  -8.4632392669073322E-004   1407594361.5882270     
  -3.7172645913788717E-004  -9.1191934955706490E-004   1382793646.4727478     
  -3.9748424332184177E-004  -8.9196049813566154E-004   1375795209.0862727     
   1343562359.6969085        459154546.60955065        1334403323.8078735     
   1289506108.0829647        403205105.83419681        1342330908.0514269     
   1238414749.2915554        357138641.13395977        1355257379.3020365     
   1190288283.3226743        320955152.50881666        1373182737.5596941     
   1145126710.1763303        294654639.95879722        1396106982.8244021     
   996879978.59905362        341128372.60488236        1338372066.3670781     
   959370139.92129695        300075997.03320485        1351490622.4703104     
   924083970.86043823        266435853.51785162        1368900517.2396352     
   891021471.41648328        240207942.05884591        1390601750.6750507     
   860182641.58942437        221392262.65615934        1416594322.7765567     
   657392124.95021796        225260556.83491808        1346593628.0998759     
   634407132.52018642        198498776.46036661        1364038395.6562192     
   612904586.50142491        176678484.12338093        1385066953.5376916     
   592884486.89392865        159799679.82394597        1409679301.7442963     
   574346833.69770098        147862363.56207287        1437875440.2760296     
   325098798.75040191        111551099.29966389        1359068009.0062785     
   314617085.87963665        98473444.115699947        1379974227.6091566     
   304876596.21451151        87866532.950533777        1403756688.1962063     
   295877329.75501961        79730365.804146439        1430415390.7674236     
   287619286.50116438        74064942.676547408        1459950335.3228116     
  -3.9748424332184177E-004  -8.9196049813566154E-004   1375795209.0862727     
  -3.4939999611520553E-004  -7.8927249351597065E-004   1399298118.3291190     
  -2.9747266920794374E-004  -6.7377422322752796E-004   1424969721.2151749     
  -2.4673486696992318E-004  -5.6154714577949874E-004   1452810017.7444389     
  -1.8977493569279460E-004  -4.2996741698189098E-004   1482819007.9169152     
   1145126710.1763303        294654639.95879722        1396106982.8244021     
   1089540097.0335135        270181304.35729229        1395289832.6416047     
   1034255418.9456152        246714418.93884629        1398623851.4806006     
   979272675.91263890        224253983.70347363        1406109039.3413899     
   924591867.93457484        202799998.65114474        1417745396.2239785     
   860182641.58942437        221392262.65615934        1416594322.7765567     
   817447533.11232674        202723716.36905631        1415895223.2112997     
   774938875.92641795        184810007.71924838        1419591160.6791697     
   732656670.03169084        167651136.70671213        1427682135.1801698     
   690600915.42815328        151247103.33147690        1440168146.7142947     
   574346833.69770098        147862363.56207287        1437875440.2760296     
   545159995.63299179        135207636.31338674        1437206326.9372883     
   516124125.09573138        123056134.15619703        1441176118.6430113     
   487239222.08592498        111407857.09051856        1449784815.3931911     
   458505286.60357100        100262805.11635086        1463032417.1878345     
   287619286.50116438        74064942.676547408        1459950335.3228116     
   272677484.59550184        67633064.190258607        1459223143.8195739     
   257811166.45356014        61452798.249705270        1463378725.3721225     
   243020332.07533729        55524144.854881808        1472417079.9804640     
   228304981.46082845        49847104.005771756        1486338207.6446009     
  -1.8977493569279460E-004  -4.2996741698189098E-004   1482819007.9169152     
  -1.3569731419113518E-004  -3.0383205109350267E-004   1481945673.8581469     
  -1.0060633644851864E-004  -2.4167938712564791E-004   1486198980.8665047     
  -7.9240643350993322E-005  -2.2319600380359174E-004   1495578928.9419880     
  -6.7436898556214863E-005  -2.4005522844264545E-004   1510085518.0845935     
   924591867.93457484        202799998.65114474        1417745396.2239785     
   873271512.01340353        182682963.85598463        1409036054.8748159     
   821866021.89890456        162282148.41639632        1404755160.2205303     
   770375397.59108806        141597552.33241746        1404902712.2611225     
   718799639.08994317        120629175.60401113        1409478710.9965787     
   690600915.42815328        151247103.33147690        1440168146.7142947     
   652269425.98948050        136206960.48575020        1432016736.7895048     
   613874085.90581763        120953982.15672198        1428256725.4757392     
   575414895.17716539        105488168.34439619        1428888112.7729998     
   536891853.80352116        89809519.048764184        1433910898.6812813     
   458505286.60357100        100262805.11635086        1463032417.1878345     
   433056811.97926193        90267798.719627142        1455463769.4938047     
   407565770.25829738        80130902.000718474        1452249472.3269503     
   382032161.44067705        69852114.959622085        1453389525.6872761     
   356455985.52639675        59431437.596326523        1458883929.5747793     
   228304981.46082845        49847104.005771756        1486338207.6446009     
   215633669.98274881        44865478.557619020        1479377152.9877195     
   202941074.95634073        39812907.948373631        1476733400.7741675     
   190227196.38161266        34689392.178060055        1478406951.0039425     
   177492034.25856161        29494931.246672310        1484397803.6770487     
  -6.7436898556214863E-005  -2.4005522844264545E-004   1510085518.0845935     
  -6.3548067906772350E-005  -2.8884861535594477E-004   1503756887.2712510     
  -4.6620216844493178E-005  -2.9209693272194969E-004   1501708510.8173850     
  -1.6927851062279172E-005  -2.5279686768817176E-004   1503940388.7230065     
   1.7019352959913108E-005  -2.0139567669230518E-004   1510452520.9881046     
   718799639.08994317        120629175.60401113        1409478710.9965787     
   663300821.28970945        99913089.473072350        1421296284.0110779     
   608829472.88314855        82621901.321046516        1437693512.7028687     
   555385593.87026918        68755611.147957787        1458670397.0719554     
   502969184.25105846        58314218.953763932        1484226937.1183295     
   536891853.80352116        89809519.048764184        1433910898.6812813     
   494926619.65998787        74170118.212576076        1447332315.0809722     
   453731987.56171232        61099390.860573530        1465412982.0097342     
   413307957.50869167        50597336.992758602        1488152899.4675751     
   373654529.50092000        42663956.609104127        1515552067.4544868     
   356455985.52639675        59431437.596326523        1458883929.5747793     
   328251748.90180320        48936946.213554136        1473609510.7864962     
   300561246.97404170        40154903.820216864        1493073937.3790722     
   273384479.74312013        33085310.416347899        1517277209.3525050     
   246721447.20903236        27728166.001926258        1546219326.7068024     
   177492034.25856161        29494931.246672310        1484397803.6770487     
   163276209.01514432        24213573.475973271        1500127871.1276402     
   149317251.12014374        19788440.199995331        1520676378.8108785     
   135615160.57356501        16219531.418758772        1546043326.7267535     
   122169937.37539338        13506847.132212967        1576228714.8752794     
   1.7019352959913108E-005  -2.0139567669230518E-004   1510452520.9881046     
   2.1136938353440477E-005  -1.3354701959673756E-004   1526887396.1044128     
   1.2947518515202722E-005  -1.0602782388332968E-004   1548220306.3051546     
   1.3267775156921514E-005  -5.0143039903399925E-005   1574451251.5903180     
   6.6796385272777278E-006  -1.7980122885069502E-005   1605580231.9599123     
   502969184.25105846        58314218.953763932        1484226937.1183295     
   442651257.36447448        44661703.633976623        1483483169.3863750     
   380751574.52681333        25736668.477265492        1488562050.1806543     
   317270135.73808026        1539113.4836479276        1499463579.5011690     
   252206940.99826622       -27930961.346906245        1516187757.3479266     
   373654529.50092000        42663956.609104127        1515552067.4544868     
   329308949.52463055        32692429.675886527        1513922973.2775197     
   283777052.58502012        18766512.864927977        1517908192.4161086     
   237058838.68211114        886206.17631101608        1527507724.8702416     
   189154307.81589437       -20948490.390001282        1542721570.6399374     
   246721447.20903236        27728166.001926258        1546219326.7068024     
   217752970.68392837        21259054.417502321        1544166251.5705564     
   187993616.18328363        12153682.914609164        1547519154.5391779     
   157443383.70710513        412051.49327010661        1556278035.6126657     
   126102273.25538611       -13965839.846537247        1570442894.7910213     
   122169937.37539338        13506847.132212967        1576228714.8752794     
   107983320.84238093        10361577.858869515        1574213004.2654815     
   93401265.321608394        5898178.6263245307        1577394936.5498657     
   78423770.813053414        116649.43450529501        1585774511.7284381     
   63050837.316742450       -6983009.7165005170        1599351729.8011928     
   6.6796385272777278E-006  -1.7980122885069502E-005   1605580231.9599123     
  -4.9411024722328397E-006   8.5096764799565576E-006   1604063231.3622935     
  -1.9993164633016214E-005   2.5643406811912097E-005   1607535538.4481750     
  -2.9898245051890378E-005   5.8892908864645590E-005   1615997153.2175617     
  -4.5567945021702852E-005   7.2927012414251350E-005   1629448075.6704426     
   252206940.99826622       -27930961.346906245        1516187757.3479266     
   209354263.55173296       -59984753.296889424        1494601748.4555211     
   161986503.17227703       -107088821.68995351        1475829068.6358604     
   110103659.85989127       -169243166.52611148        1459869717.8889410     
   53705733.614579082       -246447787.80536318        1446723696.2147689     
   189154307.81589437       -20948490.390001282        1542721570.6399374     
   156195173.87145618       -45234722.110335968        1516622247.1214366     
   119849727.72730947       -80808661.163025439        1493527498.7095661     
   80117969.383478761       -127670307.54799908        1473437325.4043384     
   36999898.839939184       -185819661.26533425        1456351727.2057607     
   126102273.25538611       -13965839.846537247        1570442894.7910213     
   103583100.05273938       -30320586.165329546        1541147155.8351912     
   78806385.383623600       -54200470.705684587        1515047238.0198896     
   51772129.248034358       -85605493.467615813        1492143141.3451273     
   22480331.645975061       -124535654.45111591        1472434865.8109045     
   63050837.316742450       -6983009.7165005170        1599351729.8011928     
   51518042.095591895       -15242345.461841483        1568176474.5967932     
   38856476.141200304       -27264250.317985777        1540388286.5668275     
   25066139.453568548       -43048724.284929171        1515987165.7112958     
   10147032.032698024       -62595767.362671450        1494973112.0301964     
  -4.5567945021702852E-005   7.2927012414251350E-005   1629448075.6704426     
   9.0586878657602050E-006   1.0929901672374309E-004   1597710203.4062474     
   5.0509047493935692E-005   1.0175011016894292E-004   1569550644.3503807     
   8.2740590935491577E-005   6.3124871630215366E-005   1544969398.5028486     
   9.3880946972423954E-005  -4.5110435533533141E-005   1523966465.8636396     
   53705733.614579082       -246447787.80536318        1446723696.2147689     
   43431713.145419389       -328866075.62578845        1352023079.5494282     
   25111783.340610266       -438104061.23171455        1257278934.4400742     
  -1254055.7998258770       -574161744.62306416        1162491260.8867323     
  -35665804.275922656       -737039125.79994631        1067660058.8893825     
   36999898.839939184       -185819661.26533425        1456351727.2057607     
   32178745.450850800       -246768068.54182374        1353866262.8511901     
   21323160.060027719       -327831249.15742743        1250664252.2613025     
   4433142.6674894094       -429009203.11208189        1146745695.4360948     
  -18491306.726792902       -550301930.40588176        1042110592.3755711     
   22480331.645975061       -124535654.45111591        1472434865.8109045     
   21189137.361759633       -164591053.57623252        1364511277.3233478     
   15874988.409726664       -218056301.59407079        1255198124.8091562     
   6537884.7898859531       -284931398.50460577        1144495408.2683239     
  -6822173.4977686256       -365216344.30784875        1032403127.7008641     
   10147032.032698024       -62595767.362671450        1494973112.0301964     
   10462888.878146533       -82335030.729016185        1383958122.9658940     
   8767268.3897127956       -108779218.54163384        1270880552.0836241     
   5060170.5673764646       -141928330.80059281        1155740399.3834152     
  -658404.58884666860       -181782367.50584644        1038537664.8652401     
   9.3880946972423954E-005  -4.5110435533533141E-005   1523966465.8636396     
   2.6078040825673317E-005  -1.2540335070731679E-004   1412206799.7788205     
  -8.0064160429698786E-006  -9.3995324344466375E-005   1297711534.0847337     
  -3.3398192636388633E-005  -3.2917807673810445E-005   1180480668.7813685     
  -3.0195626219200686E-005   1.2416807508925856E-004   1060514203.8687317     
  -1.2837716238041987E-004  -4.1820942313592951E-004   1510602625.0061877     
  -2.3717291866717631E-004  -6.7400297797161291E-004   1450197354.4327054     
  -3.2030239266761214E-004  -8.4632392669073322E-004   1407594361.5882270     
  -3.7172645913788717E-004  -9.1191934955706490E-004   1382793646.4727478     
  -3.9748424332184177E-004  -8.9196049813566154E-004   1375795209.0862727     
  -516620194.85654855       -206123870.32263812        1469426710.9954271     
  -469179521.00150973       -183946261.47169027        1421478077.6303382     
  -421445730.36559415       -160791596.68448925        1387102082.8437746     
  -373418822.94879824       -136659875.96101904        1366298726.6357379     
  -325098798.75112367       -111551099.30128680        1359068009.0062284     
  -992096184.01362729       -399904478.93505400        1431135737.8476303     
  -909299519.59051681       -359174666.21902853        1395985711.2685919     
  -825916621.60568070       -316490741.63057894        1370178684.1176062     
  -741947490.05911231       -271852705.16969067        1353714656.3946657     
  -657392124.95081496       -225260556.83637452        1346593628.0997770     
  -1426427967.4713638       -581341825.83766627        1395729705.5627925     
  -1320359995.7672598       -525685214.24268514        1373720255.3474698     
  -1213412673.7205768       -467097434.83910501        1356824165.4097157     
  -1105586001.3313150       -405578487.62693143        1345041435.7495327     
  -996879978.59947276       -341128372.60615718        1338372066.3669255     
  -1819615545.2297609       -750435911.03048015        1363208614.1409225     
  -1702360949.5317369       -683477905.54266191        1354681709.8669646     
  -1583933886.7102871       -612611676.31008446        1347038526.7201040     
  -1464334356.7654037       -537837223.33273196        1340279064.7003391     
  -1343562359.6970923       -459154546.61061829        1334403323.8076699     
  -3.9748424332184177E-004  -8.9196049813566154E-004   1375795209.0862727     
  -3.4939999611520553E-004  -7.8927249351597065E-004   1399298118.3291190     
  -2.9747266920794374E-004  -6.7377422322752796E-004   1424969721.2151749     
  -2.4673486696992318E-004  -5.6154714577949874E-004   1452810017.7444389     
  -1.8977493569279460E-004  -4.2996741698189098E-004   1482819007.9169152     
  -325098798.75112367       -111551099.30128680        1359068009.0062284     
  -314617085.88027537       -98473444.117151380        1379974227.6091316     
  -304876596.21505839       -87866532.951785490        1403756688.1962028     
  -295877329.75547975       -79730365.805214226        1430415390.7674417     
  -287619286.50152928       -74064942.677404612        1459950335.3228476     
  -657392124.95081496       -225260556.83637452        1346593628.0997770     
  -634407132.52071083       -198498776.46165720        1364038395.6561611     
  -612904586.50187874       -176678484.12451503        1385066953.5376720     
  -592884486.89431655       -159799679.82493803        1409679301.7443075     
  -574346833.69802606       -147862363.56293309        1437875440.2760718     
  -996879978.59947276       -341128372.60615718        1338372066.3669255     
  -959370139.92166018       -300075997.03432506        1351490622.4702122     
  -924083970.86075556       -266435853.51885152        1368900517.2395854     
  -891021471.41676366       -240207942.05975321        1390601750.6750412     
  -860182641.58967698       -221392262.65700617        1416594322.7765834     
  -1343562359.6970923       -459154546.61061829        1334403323.8076699     
  -1289506108.0831206       -403205105.83513969        1342330908.0512834     
  -1238414749.2916973       -357138641.13482410        1355257379.3019397     
  -1190288283.3228123       -320955152.50963473        1373182737.5596395     
  -1145126710.1764812       -294654639.95962524        1396106982.8243804     
  -1.8977493569279460E-004  -4.2996741698189098E-004   1482819007.9169152     
  -1.3569731419113518E-004  -3.0383205109350267E-004   1481945673.8581469     
  -1.0060633644851864E-004  -2.4167938712564791E-004   1486198980.8665047     
  -7.9240643350993322E-005  -2.2319600380359174E-004   1495578928.9419880     
  -6.7436898556214863E-005  -2.4005522844264545E-004   1510085518.0845935     
  -287619286.50152928       -74064942.677404612        1459950335.3228476     
  -272677484.59578556       -67633064.190946996        1459223143.8195887     
  -257811166.45377484       -61452798.250264272        1463378725.3721161     
  -243020332.07550576       -55524144.855386980        1472417079.9804356     
  -228304981.46097249       -49847104.006296247        1486338207.6445484     
  -574346833.69802606       -147862363.56293309        1437875440.2760718     
  -545159995.63325667       -135207636.31412488        1437206326.9373095     
  -516124125.09594697       -123056134.15685038        1441176118.6430008     
  -487239222.08609718       -111407857.09111041        1449784815.3931499     
  -458505286.60370898       -100262805.11690518        1463032417.1877577     
  -860182641.58967698       -221392262.65700617        1416594322.7765834     
  -817447533.11254871       -202723716.36984485        1415895223.2113054     
  -774938875.92660761       -184810007.71997267        1419591160.6791506     
  -732656670.03184867       -167651136.70737347        1427682135.1801200     
  -690600915.42827618       -151247103.33206171        1440168146.7142093     
  -1145126710.1764812       -294654639.95962524        1396106982.8243804     
  -1089540097.0336719       -270181304.35813588        1395289832.6415830     
  -1034255418.9457639       -246714418.93965116        1398623851.4805713     
  -979272675.91276622       -224253983.70419985        1406109039.3413484     
  -924591867.93467152       -202799998.65175995        1417745396.2239146     
  -6.7436898556214863E-005  -2.4005522844264545E-004   1510085518.0845935     
  -6.3548067906772350E-005  -2.8884861535594477E-004   1503756887.2712510     
  -4.6620216844493178E-005  -2.9209693272194969E-004   1501708510.8173850     
  -1.6927851062279172E-005  -2.5279686768817176E-004   1503940388.7230065     
   1.7019352959913108E-005  -2.0139567669230518E-004   1510452520.9881046     
  -228304981.46097249       -49847104.006296247        1486338207.6445484     
  -215633669.98286611       -44865478.558172137        1479377152.9876883     
  -202941074.95641568       -39812907.948899463        1476733400.7741594     
  -190227196.38163319       -34689392.178520955        1478406951.0039537     
  -177492034.25851816       -29494931.247032311        1484397803.6770802     
  -458505286.60370898       -100262805.11690518        1463032417.1877577     
  -433056811.97936249       -90267798.720151901        1455463769.4937625     
  -407565770.25835460       -80130902.001195282        1452249472.3269408     
  -382032161.44068211       -69852114.960022449        1453389525.6872954     
  -356455985.52634919       -59431437.596648671        1458883929.5748203     
  -690600915.42827618       -151247103.33206171        1440168146.7142093     
  -652269425.98955989       -136206960.48625451        1432016736.7894614     
  -613874085.90585744       -120953982.15715820        1428256725.4757342     
  -575414895.17716050       -105488168.34474765        1428888112.7730308     
  -536891853.80348063       -89809519.049060121        1433910898.6813450     
  -924591867.93467152       -202799998.65175995        1417745396.2239146     
  -873271512.01345193       -182682963.85645545        1409036054.8747942     
  -821866021.89892089       -162282148.41677928        1404755160.2205405     
  -770375397.59106934       -141597552.33269954        1404902712.2611501     
  -718799639.08990717       -120629175.60425347        1409478710.9966323     
   1.7019352959913108E-005  -2.0139567669230518E-004   1510452520.9881046     
   2.1136938353440477E-005  -1.3354701959673756E-004   1526887396.1044128     
   1.2947518515202722E-005  -1.0602782388332968E-004   1548220306.3051546     
   1.3267775156921514E-005  -5.0143039903399925E-005   1574451251.5903180     
   6.6796385272777278E-006  -1.7980122885069502E-005   1605580231.9599123     
  -177492034.25851816       -29494931.247032311        1484397803.6770802     
  -163276209.01510623       -24213573.476244956        1500127871.1276634     
  -149317251.12011290       -19788440.200183418        1520676378.8108912     
  -135615160.57353950       -16219531.418857917        1546043326.7267573     
  -122169937.37538758       -13506847.132267840        1576228714.8752756     
  -356455985.52634919       -59431437.596648671        1458883929.5748203     
  -328251748.90176356       -48936946.213792033        1473609510.7865279     
  -300561246.97401893       -40154903.820408188        1493073937.3790901     
  -273384479.74310637       -33085310.416463241        1517277209.3525157     
  -246721447.20903540       -27728166.001990430        1546219326.7067971     
  -536891853.80348063       -89809519.049060121        1433910898.6813450     
  -494926619.65996486       -74170118.212823942        1447332315.0810120     
  -453731987.56169778       -61099390.860751510        1465412982.0097604     
  -413307957.50869256       -50597336.992884368        1488152899.4675825     
  -373654529.50094271       -42663956.609202549        1515552067.4544797     
  -718799639.08990717       -120629175.60425347        1409478710.9966323     
  -663300821.28969407       -99913089.473287567        1421296284.0111165     
  -608829472.88315737       -82621901.321244031        1437693512.7028906     
  -555385593.87029064       -68755611.148099467        1458670397.0719554     
  -502969184.25109792       -58314218.953869030        1484226937.1183143     
   6.6796385272777278E-006  -1.7980122885069502E-005   1605580231.9599123     
  -4.9411024722328397E-006   8.5096764799565576E-006   1604063231.3622935     
  -1.9993164633016214E-005   2.5643406811912097E-005   1607535538.4481750     
  -2.9898245051890378E-005   5.8892908864645590E-005   1615997153.2175617     
  -4.5567945021702852E-005   7.2927012414251350E-005   1629448075.6704426     
  -122169937.37538758       -13506847.132267840        1576228714.8752756     
  -107983320.84239553       -10361577.858872231        1574213004.2654777     
  -93401265.321649835       -5898178.6262978278        1577394936.5498664     
  -78423770.813123941       -116649.43445588276        1585774511.7284436     
  -63050837.316831656        6983009.7166069821        1599351729.8011990     
  -246721447.20903540       -27728166.001990430        1546219326.7067971     
  -217752970.68394068       -21259054.417517662        1544166251.5705469     
  -187993616.18331334       -12153682.914603919        1547519154.5391698     
  -157443383.70715207       -412051.49324402213        1556278035.6126664     
  -126102273.25545403        13965839.846573494        1570442894.7910404     
  -373654529.50094271       -42663956.609202549        1515552067.4544797     
  -329308949.52463782       -32692429.675916165        1513922973.2775021     
  -283777052.58502406       -18766512.864937901        1517908192.4160836     
  -237058838.68211880       -886206.17631717026        1527507724.8702304     
  -189154307.81590664        20948490.389989279        1542721570.6399364     
  -502969184.25109792       -58314218.953869030        1484226937.1183143     
  -442651257.36447370       -44661703.634029686        1483483169.3863468     
  -380751574.52677786       -25736668.477283165        1488562050.1806209     
  -317270135.73802102       -1539113.4836672097        1499463579.5011427     
  -252206940.99818763        27930961.346869871        1516187757.3479140     
  -4.5567945021702852E-005   7.2927012414251350E-005   1629448075.6704426     
   9.0586878657602050E-006   1.0929901672374309E-004   1597710203.4062474     
   5.0509047493935692E-005   1.0175011016894292E-004   1569550644.3503807     
   8.2740590935491577E-005   6.3124871630215366E-005   1544969398.5028486     
   9.3880946972423954E-005  -4.5110435533533141E-005   1523966465.8636396     
  -63050837.316831656        6983009.7166069821        1599351729.8011990     
  -51518042.095585503        15242345.461994115        1568176474.5967932     
  -38856476.141115323        27264250.318128679        1540388286.5668116     
  -25066139.453413535        43048724.285036668        1515987165.7112637     
  -10147032.032484252        62595767.362702280        1494973112.0301359     
  -126102273.25545403        13965839.846573494        1570442894.7910404     
  -103583100.05273379        30320586.165399499        1541147155.8351927     
  -78806385.383545473        54200470.705782972        1515047238.0198736     
  -51772129.247893140        85605493.467715204        1492143141.3450799     
  -22480331.645772673        124535654.45120659        1472434865.8108141     
  -189154307.81590664        20948490.389989279        1542721570.6399364     
  -156195173.87142614        45234722.110351644        1516622247.1214347     
  -119849727.72724947        80808661.163031802        1493527498.7095611     
  -80117969.383355305        127670307.54810566        1473437325.4043071     
  -36999898.839766271        185819661.26549438        1456351727.2056870     
  -252206940.99818763        27930961.346869871        1516187757.3479140     
  -209354263.55166548        59984753.296846360        1494601748.4555340     
  -161986503.17221069        107088821.68993178        1475829068.6358759     
  -110103659.85980143        169243166.52619797        1459869717.8889430     
  -53705733.614451423        246447787.80560136        1446723696.2147381     
   9.3880946972423954E-005  -4.5110435533533141E-005   1523966465.8636396     
   2.6078040825673317E-005  -1.2540335070731679E-004   1412206799.7788205     
  -8.0064160429698786E-006  -9.3995324344466375E-005   1297711534.0847337     
  -3.3398192636388633E-005  -3.2917807673810445E-005   1180480668.7813685     
  -3.0195626219200686E-005   1.2416807508925856E-004   1060514203.8687317     
  -10147032.032484252        62595767.362702280        1494973112.0301359     
  -10462888.878056999        82335030.728911474        1383958122.9658709     
  -8767268.3897129670        108779218.54151306        1270880552.0836458     
  -5060170.5674413294        141928330.80053982        1155740399.3834772     
   658404.58873723447        181782367.50592020        1038537664.8653535     
  -22480331.645772673        124535654.45120659        1472434865.8108141     
  -21189137.361646652        164591053.57627639        1364511277.3233068     
  -15874988.409698308        218056301.59408846        1255198124.8091605     
  -6537884.7899467945        284931398.50457311        1144495408.2683978     
   6822173.4976189435        365216344.30777717        1032403127.7009820     
  -36999898.839766271        185819661.26549438        1456351727.2056870     
  -32178745.450729460        246768068.54201001        1353866262.8511386     
  -21323160.059988111        327831249.15754634        1250664252.2612867     
  -4433142.6675485373        429009203.11207592        1146745695.4361200     
   18491306.726608515        550301930.40565991        1042110592.3756461     
  -53705733.614451423        246447787.80560136        1446723696.2147381     
  -43431713.145317271        328866075.62607884        1352023079.5493667     
  -25111783.340572536        438104061.23192573        1257278934.4400101     
   1254055.7997646928        574161744.62307906        1162491260.8866684     
   35665804.275699198        737039125.79955947        1067660058.8893210     
  -1819615545.2297609       -750435911.03048015        1363208614.1409225     
  -1702360949.5317369       -683477905.54266191        1354681709.8669646     
  -1583933886.7102871       -612611676.31008446        1347038526.7201040     
  -1464334356.7654037       -537837223.33273196        1340279064.7003391     
  -1343562359.6970923       -459154546.61061829        1334403323.8076699     
  -2238758465.7499118       -922748971.66779697        1393307954.1900740     
  -2090427050.5745280       -797048567.65411389        1353566781.0286458     
  -1946494254.1621594       -686010226.18380654        1323291194.3705873     
  -1806960076.5128036       -589633947.25687325        1302481194.2158940     
  -1671824517.6264627       -507919730.87332499        1291136780.5645633     
  -2753967899.9439063       -1123881986.4072669        1445664537.6791360     
  -2550040049.9304008       -932083299.25949204        1368209495.4293892     
  -2356081904.5663400       -773516960.94322336        1308801905.0592792     
  -2172093463.8517389       -648182971.45847702        1267441766.5688064     
  -1998074727.7865930       -556081330.80524790        1244129079.9579673     
  -3365243847.8117638       -1353834955.2488952        1520278364.6081049     
  -3081199947.5993500       -1088582100.3587923        1398609853.0691907     
  -2812696837.9228344       -875131880.58833981        1303570658.7861845     
  -2559734518.7822108       -713484295.93754268        1235160781.7590821     
  -2322312990.1774902       -603639346.40640676        1193380221.9878881     
  -4072586309.3534651       -1612607878.1926775        1617149434.9769816     
  -3683906743.5813761       -1266544970.9520156        1444767853.9480515     
  -3316339054.2316275       -990854985.11913764        1307597455.5512977     
  -2969883241.3042197       -785537920.69406629        1205638239.7867177     
  -2644539304.7991514       -650593777.67679155        1138890206.6543155     
  -1343562359.6970923       -459154546.61061829        1334403323.8076699     
  -1289506108.0831206       -403205105.83513969        1342330908.0512834     
  -1238414749.2916973       -357138641.13482410        1355257379.3019397     
  -1190288283.3228123       -320955152.50963473        1373182737.5596395     
  -1145126710.1764812       -294654639.95962524        1396106982.8243804     
  -1671824517.6264627       -507919730.87332499        1291136780.5645633     
  -1607156033.0868044       -456946022.65739667        1296569294.5868912     
  -1544418854.5293882       -412410001.04893506        1306314423.6741359     
  -1483612981.9542050       -374311666.04791701        1320372167.8262999     
  -1424738415.3612638       -342651017.65437526        1338742527.0433822     
  -1998074727.7865930       -556081330.80524790        1244129079.9579673     
  -1924754787.2987533       -510671588.24213827        1248272375.0727026     
  -1852332565.9528430       -468254242.81878531        1256042013.3102334     
  -1780808063.7488592       -428829294.53518772        1267437994.6705589     
  -1710181280.6867995       -392396743.39134282        1282460319.1536765     
  -2322312990.1774902       -603639346.40640676        1193380221.9878881     
  -2242302370.7189655       -564381802.58936131        1197440149.5087261     
  -2162155883.5620546       -524671366.44435400        1204440148.2102334     
  -2081873528.7067647       -484508037.97142547        1214380218.0924132     
  -2001455306.1530910       -443891817.17054808        1227260359.1552603     
  -2644539304.7991514       -650593777.67679155        1138890206.6543155     
  -2559798783.3474360       -618076665.69904852        1144072617.8949516     
  -2473888807.3570294       -581661371.92566609        1151508828.3741353     
  -2386809376.8279295       -541347896.35664296        1161198838.0918627     
  -2298560491.7601366       -497136238.99196935        1173142647.0481374     
  -1145126710.1764812       -294654639.95962524        1396106982.8243804     
  -1089540097.0336719       -270181304.35813588        1395289832.6415830     
  -1034255418.9457639       -246714418.93965116        1398623851.4805713     
  -979272675.91276622       -224253983.70419985        1406109039.3413484     
  -924591867.93467152       -202799998.65175995        1417745396.2239146     
  -1424738415.3612638       -342651017.65437526        1338742527.0433822     
  -1356306561.8888974       -311934806.35556418        1335437904.4952636     
  -1288456560.5608349       -283158102.20443445        1336422403.4025571     
  -1221188411.3770702       -256320905.20096034        1341696023.7652647     
  -1154502114.3376036       -231423215.34515217        1351258765.5833814     
  -1710181280.6867995       -392396743.39134282        1282460319.1536765     
  -1628510037.0745273       -355319411.45212966        1276341654.3026109     
  -1547700562.6959450       -321114643.62521917        1274650063.3405819     
  -1467752857.5510588       -289782439.91062284        1277385546.2675900     
  -1388666921.6398661       -261322800.30834013        1284548103.0836349     
  -2001455306.1530910       -443891817.17054808        1227260359.1552603     
  -1906150522.5905507       -400335119.64780021        1218001082.0636232     
  -1811987425.3510988       -360584043.20201874        1213306831.2946448     
  -1718966014.4347367       -324638587.83320057        1213177606.8483284     
  -1627086289.8414569       -292498753.54132831        1217613408.7246754     
  -2298560491.7601366       -497136238.99196935        1173142647.0481374     
  -2189228018.4369769       -446981930.94260502        1160416187.7783022     
  -2081317148.5262959       -401566300.93483627        1152392707.2647471     
  -1974827882.0280948       -360889348.96866846        1149072205.5074801     
  -1869760218.9423804       -324951075.04411966        1150454682.5065022     
  -924591867.93467152       -202799998.65175995        1417745396.2239146     
  -873271512.01345193       -182682963.85645545        1409036054.8747942     
  -821866021.89892089       -162282148.41677928        1404755160.2205405     
  -770375397.59106934       -141597552.33269954        1404902712.2611501     
  -718799639.08990717       -120629175.60425347        1409478710.9966323     
  -1154502114.3376036       -231423215.34515217        1351258765.5833814     
  -1090727130.3976967       -208010336.84258944        1341195747.9279001     
  -1026773426.6805606       -184001725.74926239        1335524187.3517890     
  -962641003.18619204       -159397382.06515732        1334244083.8550460     
  -898329859.91459632       -134197305.79030228        1337355437.4376791     
  -1388666921.6398661       -261322800.30834013        1284548103.0836349     
  -1312542994.2969739       -234645783.48323151        1273240592.3030231     
  -1236146761.5929418       -207061082.12098122        1266287548.9862909     
  -1159478223.5277591       -178568696.22156510        1263688973.1334348     
  -1082537380.1014309       -149168625.78500143        1265444864.7444475     
  -1627086289.8414569       -292498753.54132831        1217613408.7246754     
  -1538719103.7112875       -262589303.77838865        1205170588.0001760     
  -1449986026.6360564       -231460217.53191349        1197045245.1240516     
  -1360887058.6157660       -199111494.80190304        1193237380.0963054     
  -1271422199.6504104       -165543135.58834729        1193746992.9169438     
  -1869760218.9423804       -324951075.04411966        1150454682.5065022     
  -1769255458.6406295       -291840897.72804099        1136985735.0193450     
  -1668291221.8099101       -257199131.98207003        1127797275.7650678     
  -1566867508.4502096       -221025777.80615938        1122889304.7436724     
  -1464984318.5615325       -183320835.20032936        1122261821.9551625     
  -718799639.08990717       -120629175.60425347        1409478710.9966323     
  -663300821.28969407       -99913089.473287567        1421296284.0111165     
  -608829472.88315737       -82621901.321244031        1437693512.7028906     
  -555385593.87029064       -68755611.148099467        1458670397.0719554     
  -502969184.25109792       -58314218.953869030        1484226937.1183143     
  -898329859.91459632       -134197305.79030228        1337355437.4376791     
  -830050854.52726078       -109691394.98826495        1346006041.9862196     
  -763193112.28476393       -89923028.002352208        1359033329.4619217     
  -697756633.18711448       -74892204.832594424        1376437299.8647943     
  -633741417.23430538       -64598925.478982598        1398217953.1948426     
  -1082537380.1014309       -149168625.78500143        1265444864.7444475     
  -1002058109.2701762       -121046866.95483693        1270469074.7840061     
  -923393895.33493233       -98975297.778041422        1279666995.0006144     
  -846544738.29570305       -82953918.254625320        1293038625.3942716     
  -771510638.15248311       -72982728.384580553        1310583965.9649737     
  -1271422199.6504104       -165543135.58834729        1193746992.9169438     
  -1179322585.5184438       -133979505.37302628        1194685382.4044962     
  -1089431822.0336583       -109778710.64829504        1199594509.3189738     
  -1001749909.1960608       -92940751.414193690        1208474373.6603744     
  -916276847.00563776       -83465627.670681536        1221324975.4287009     
  -1464984318.5615325       -183320835.20032936        1122261821.9551625     
  -1361844283.2720628       -148489310.24280769        1118654964.8476796     
  -1261306892.3809414       -122333266.61311412        1118815872.4169958     
  -1163372145.8881769       -104852704.31127414        1122744544.6631124     
  -1068040043.7937582       -96047623.337258995        1130440981.5860355     
  -502969184.25109792       -58314218.953869030        1484226937.1183143     
  -442651257.36447370       -44661703.634029686        1483483169.3863468     
  -380751574.52677786       -25736668.477283165        1488562050.1806209     
  -317270135.73802102       -1539113.4836672097        1499463579.5011427     
  -252206940.99818763        27930961.346869871        1516187757.3479140     
  -633741417.23430538       -64598925.478982598        1398217953.1948426     
  -558202907.89257574       -50650223.432826400        1396850568.1113861     
  -481112299.35598850       -31527857.403804749        1401300324.0687559     
  -402469591.62453181       -7231827.3918927759        1411567221.0669672     
  -322274784.69823092        22237866.602841571        1427651259.1060152     
  -771510638.15248311       -72982728.384580553        1310583965.9649737     
  -680767282.02825618       -58742560.313893378        1308558363.9811137     
  -588501483.46537650       -39427584.114360392        1312344395.5526810     
  -494713242.46384513       -15037799.785992593        1321942060.6796699     
  -399402559.02366358        14426792.671213135        1337351359.3620858     
  -916276847.00563776       -83465627.670681536        1221324975.4287009     
  -810344379.77151561       -68938714.277235627        1218606556.9955378     
  -702919126.85495293       -49435848.608982116        1221694264.6323831     
  -594001088.25594735       -24957030.665922344        1230588098.3392408     
  -483590263.97450066        4497739.5519417226        1245288058.1161039     
  -1068040043.7937582       -96047623.337258995        1130440981.5860355     
  -946934201.12235332       -81238685.322851449        1126995147.1546533     
  -824365229.52471280       -61552650.887655586        1129349931.3078697     
  -700333129.00083554       -36989520.031673700        1137505334.0456855     
  -574837899.55072975       -7549292.7549273670        1151461355.3681066     
  -252206940.99818763        27930961.346869871        1516187757.3479140     
  -209354263.55166548        59984753.296846360        1494601748.4555340     
  -161986503.17221069        107088821.68993178        1475829068.6358759     
  -110103659.85980143        169243166.52619797        1459869717.8889430     
  -53705733.614451423        246447787.80560136        1446723696.2147381     
  -322274784.69823092        22237866.602841571        1427651259.1060152     
  -270283069.13163584        55184293.413367987        1410512778.7124104     
  -211972467.99704143        109193672.11723118        1397385005.9090784     
  -147342981.29445076        184266002.71441311        1388267940.6960313     
  -76394609.023850724        280401285.20495892        1383161583.0732608     
  -399402559.02366358        14426792.671213135        1337351359.3620858     
  -334850723.85826498        49292178.785918668        1326764843.8748152     
  -262176200.48981377        111233192.24414061        1321386414.4953840     
  -181378988.91830364        200249833.04589361        1321216071.2237904     
  -92459089.143732384        316342101.19117856        1326253814.0600197     
  -483590263.97450066        4497739.5519417226        1245288058.1161039     
  -403057227.73156655        42308409.414460897        1243357943.9427507     
  -312597700.65052998        113207382.07066067        1247833294.3947799     
  -212211682.73136955        217194657.52060366        1258714109.4721959     
  -101899173.97409822        354270235.76424956        1276000389.1750035     
  -574837899.55072975       -7549292.7549273670        1151461355.3681066     
  -474902580.75154191        34232985.298987716        1160292078.9162202     
  -363236968.47917926        115116241.59682406        1176725645.6072731     
  -239841062.73365092        235100476.13854325        1200762055.4412730     
  -104714863.51494661        394185688.92418242        1232401308.4182174     
  -53705733.614451423        246447787.80560136        1446723696.2147381     
  -43431713.145317271        328866075.62607884        1352023079.5493667     
  -25111783.340572536        438104061.23192573        1257278934.4400101     
   1254055.7997646928        574161744.62307906        1162491260.8866684     
   35665804.275699198        737039125.79955947        1067660058.8893210     
  -76394609.023850724        280401285.20495892        1383161583.0732608     
  -61121992.541583061        383497514.16706717        1300468497.1491985     
  -36565839.731899053        517538864.22056669        1216892180.9542389     
  -2726150.5947934985        682525335.36546659        1132432634.4883819     
   40397074.869737685        878456927.60179234        1047089857.7516118     
  -92459089.143732384        316342101.19117856        1326253814.0600197     
  -74587024.725227475        439396526.87181532        1257012157.0343912     
  -46193796.987479270        597521496.94992661        1186047567.9109547     
  -7279405.9304809570        790717011.42553902        1113360046.6896961     
   42156148.445757449        1018983070.2986195        1038949593.3706416     
  -101899173.97409822        354270235.76424956        1276000389.1750035     
  -83826809.696233720        496563113.74037480        1221654059.2049322     
  -53995655.107312500        678051959.42001987        1164745095.3101470     
  -12405710.207315683        898736772.80325556        1105273497.4906404     
   40943025.003747523        1158617553.8900375        1043239265.7464079     
  -104714863.51494661        394185688.92418242        1232401308.4182174     
  -88841347.454614431        554997274.77270198        1194394203.6608372     
  -59971414.091396928        759130251.63083911        1152984763.1518238     
  -18105063.425286233        1006584619.4986317        1108172986.8911858     
   36757704.543719053        1297360378.3760505        1059958874.8789130     
  -4072586309.3534651       -1612607878.1926775        1617149434.9769816     
  -3683906743.5813761       -1266544970.9520156        1444767853.9480515     
  -3316339054.2316275       -990854985.11913764        1307597455.5512977     
  -2969883241.3042197       -785537920.69406629        1205638239.7867177     
  -2644539304.7991514       -650593777.67679155        1138890206.6543155     
  -4590929425.6533909       -1406477142.3505688        1476134120.2693653     
  -4174884206.0785093       -1191707961.3902698        1349919505.1285918     
  -3765187071.5247631       -998099063.83373976        1239842762.4994159     
  -3361838021.9921427       -825650449.68098557        1145903892.3818357     
  -2964837057.4806604       -674362118.93200517        1068102894.7758520     
  -4904352736.8376884       -1138870464.9737663        1272851431.4413452     
  -4515437035.2330923       -1071743561.8257626        1210028205.4901416     
  -4118105627.2484303       -976564304.07750607        1144269541.9299517     
  -3712358512.8836875       -853332691.72899270        1075575440.7607796     
  -3298195692.1388683       -702048724.78023028        1003945901.9826226     
  -5012856242.9063444       -809787846.06227458        1007301368.4929352     
  -4705565231.0451288       -906651772.25849307        1025093955.0326997     
  -4375094721.4026327       -926250705.85042691        1020877793.8429071     
  -4021444713.9788508       -868584646.83808851        994652884.92354941     
  -3644615208.7737851       -733653595.22146559        946419228.27463210     
  -4916439943.8593731       -419229285.61609364        679483931.42411852     
  -4745268793.5146151       -696432592.68845153        795116753.75626886     
  -4536154353.9873734       -847158269.15251350        869667518.23827982     
  -4289096625.2776299       -871406315.00826049        903136224.87014723     
  -4004095607.3854036       -769176730.25571465        895522873.65187597     
  -2644539304.7991514       -650593777.67679155        1138890206.6543155     
  -2559798783.3474360       -618076665.69904852        1144072617.8949516     
  -2473888807.3570294       -581661371.92566609        1151508828.3741353     
  -2386809376.8279295       -541347896.35664296        1161198838.0918627     
  -2298560491.7601366       -497136238.99196935        1173142647.0481374     
  -2964837057.4806604       -674362118.93200517        1068102894.7758520     
  -2868758365.9500699       -623817505.43959045        1069100384.9814423     
  -2773232931.3954701       -575117081.86714578        1072405552.5826980     
  -2678260753.8168645       -528260848.21467996        1078018397.5796177     
  -2583841833.2142467       -483248804.48217571        1085938919.9721987     
  -3298195692.1388683       -702048724.78023028        1003945901.9826226     
  -3190624892.9376416       -633430428.49561703        998748641.05270541     
  -3085330062.2270861       -572398693.84658420        995912935.67556822     
  -2982311200.0072126       -518953520.83314443        995438785.85121417     
  -2881568306.2780070       -473094909.45528197        997326191.57963967     
  -3644615208.7737851       -733653595.22146559        946419228.27463210     
  -3525398364.3101559       -646915434.86712670        933017386.10874033     
  -3410180199.8518810       -573506207.86397648        922030977.65274382     
  -3298960715.3989658       -513425914.21202528        913460002.90665126     
  -3191739910.9514103       -466674553.91127706        907304461.87045455     
  -4004095607.3854036       -769176730.25571465        895522873.65187597     
  -3873078780.0676026       -664272524.55411077        871906620.14954460     
  -3747783344.2698474       -578439623.91931951        850759678.51422882     
  -3628209299.9921346       -511678028.35133719        832082048.74593151     
  -3514356647.2344656       -463987737.85016787        815873730.84464788     
  -2298560491.7601366       -497136238.99196935        1173142647.0481374     
  -2189228018.4369769       -446981930.94260502        1160416187.7783022     
  -2081317148.5262959       -401566300.93483627        1152392707.2647471     
  -1974827882.0280948       -360889348.96866846        1149072205.5074801     
  -1869760218.9423804       -324951075.04411966        1150454682.5065022     
  -2583841833.2142467       -483248804.48217571        1085938919.9721987     
  -2461548545.4272633       -433077247.89575624        1067398243.7696142     
  -2340813735.1487184       -388100616.33747101        1054120465.6589792     
  -2221637402.3786035       -348318909.80728555        1046105585.6402925     
  -2104019547.1169395       -313732128.30526561        1043353603.7135597     
  -2881568306.2780070       -473094909.45528197        997326191.57963967     
  -2744714434.4967246       -422426173.47265500        972811611.99902022     
  -2609555914.3198428       -377408609.50469720        954119849.84601617     
  -2476092745.7473536       -338042217.55138189        941250905.12062907     
  -2344324928.7792687       -304326997.61274743        934204777.82285607     
  -3191739910.9514103       -466674553.91127706        907304461.87045455     
  -3038725685.6453652       -415028707.67331004        876656292.46651566     
  -2887543686.0396733       -369490280.43654335        852390859.82586098     
  -2738193912.1343369       -330059272.20095491        834508163.94848406     
  -2590676363.9293652       -296735682.96657032        823008204.83438826     
  -3514356647.2344656       -463987737.85016787        815873730.84464788     
  -3343582298.8731804       -410884850.49771416        778932285.17210996     
  -3174777050.3082161       -364345629.13300514        748933495.59851336     
  -3007940901.5395551       -324370073.75596976        725877362.12386179     
  -2843073852.5672235       -290958184.36670172        709763884.74815595     
  -1869760218.9423804       -324951075.04411966        1150454682.5065022     
  -1769255458.6406295       -291840897.72804099        1136985735.0193450     
  -1668291221.8099101       -257199131.98207003        1127797275.7650678     
  -1566867508.4502096       -221025777.80615938        1122889304.7436724     
  -1464984318.5615325       -183320835.20032936        1122261821.9551625     
  -2104019547.1169395       -313732128.30526561        1043353603.7135597     
  -1992596481.0966666       -282330264.07841158        1028551465.7212434     
  -1880489540.0972409       -248648816.58772051        1018261762.3001100     
  -1767698724.1186786       -212687785.83323407        1012484493.4501612     
  -1654224033.1609578       -174447171.81487823        1011219659.1714038     
  -2344324928.7792687       -304326997.61274743        934204777.82285607     
  -2221320853.2167435       -274434635.32798392        918331247.51724219     
  -2097408504.2248988       -241514694.94548273        907202098.12111771     
  -1972587881.8037379       -205567176.46526951        900817329.63448310     
  -1846858985.9532580       -166592079.88731301        899176942.05733752     
  -2590676363.9293652       -296735682.96657032        823008204.83438826     
  -2455428575.0008636       -268154011.47676432        806325080.40734410     
  -2319048114.1928711       -235796767.05533248        794618283.22809482     
  -2181534981.5053968       -199663949.70228964        787887813.29663682     
  -2042889176.9384296       -159755559.41760063        786133670.61297166     
  -2843073852.5672235       -290958184.36670172        709763884.74815595     
  -2694919646.4490294       -263488392.52477849        692532964.39154649     
  -2545408370.0011630       -231495032.91727471        680510317.62103713     
  -2394540023.2236514       -194978105.54429424        673695944.43662143     
  -2242314606.1164718       -153937610.40574300        672089844.83830070     
  -1464984318.5615325       -183320835.20032936        1122261821.9551625     
  -1361844283.2720628       -148489310.24280769        1118654964.8476796     
  -1261306892.3809414       -122333266.61311412        1118815872.4169958     
  -1163372145.8881769       -104852704.31127414        1122744544.6631124     
  -1068040043.7937582       -96047623.337258995        1130440981.5860355     
  -1654224033.1609578       -174447171.81487823        1011219659.1714038     
  -1541518979.0024323       -139122775.29798299        1003328733.4620572     
  -1431268344.7428441       -111979778.44420177        998914010.30763066     
  -1323472130.3821864       -93018181.253532588        997975489.70812666     
  -1218130335.9204619       -82237983.725962758        1000513171.6635478     
  -1846858985.9532580       -166592079.88731301        899176942.05733752     
  -1725421947.5596192       -131024722.20121682        887174876.32878220     
  -1606291104.5655000       -103144682.51351625        878357451.03326964     
  -1489466456.9709001       -82951960.824209034        872724666.17080092     
  -1374948004.7758126       -70446557.133287311        870276521.74137163     
  -2042889176.9384296       -159755559.41760063        786133670.61297166     
  -1913553188.9436226       -124195150.95249230        770193393.44786167     
  -1786375171.8489132       -95827978.821057439        757146194.59391129     
  -1661355125.6543136       -74654043.023308754        746992074.05112433     
  -1538493050.3598030       -60673343.559200406        739731031.81950009     
  -2242314606.1164718       -153937610.40574300        672089844.83830070     
  -2105912703.1544335       -118634061.55180657        652384284.81928813     
  -1971520546.5930824       -90029667.366823792        635280240.98955572     
  -1839138136.4324167       -68124427.850788176        620777713.34910154     
  -1708765472.6724308       -52918343.003691435        608876701.89793384     
  -1068040043.7937582       -96047623.337258995        1130440981.5860355     
  -946934201.12235332       -81238685.322851449        1126995147.1546533     
  -824365229.52471280       -61552650.887655586        1129349931.3078697     
  -700333129.00083554       -36989520.031673700        1137505334.0456855     
  -574837899.55072975       -7549292.7549273670        1151461355.3681066     
  -1218130335.9204619       -82237983.725962758        1000513171.6635478     
  -1083543509.2494822       -65674866.877669930        995029735.14852476     
  -948474080.48750114       -47503076.392714292        993710857.24075341     
  -812922049.63451433       -27722612.271061927        996556537.94024122     
  -676887416.69052410       -6333474.5127444863        1003566777.2469755     
  -1374948004.7758126       -70446557.133287311        870276521.74137163     
  -1231554651.1833813       -53531598.574532807        861611535.16826046     
  -1088659222.3351803       -38276389.163215220        855475047.22506595     
  -946261718.23121524       -24680928.899357200        851867057.91177571     
  -804362138.87148547       -12745217.782935053        850787567.22839701     
  -1538493050.3598030       -60673343.559200406        739731031.81950009     
  -1390967626.9240515       -44808880.413427174        726740547.21386719     
  -1244920655.0677626       -33872589.199199557        714642501.26080239     
  -1100352134.7909491       -27864469.916548908        703436893.96029592     
  -957262066.09359884       -26784522.565452874        693123725.31235981     
  -1708765472.6724308       -52918343.003691435        608876701.89793384     
  -1561782436.4714859       -39506712.394330680        590416771.28534114     
  -1417258378.6852431       -34291676.500651777        571213219.34796238     
  -1275193299.3137009       -37273235.322642207        551266046.08580184     
  -1135587198.3568716       -48451388.860331893        530575251.49886423     
  -574837899.55072975       -7549292.7549273670        1151461355.3681066     
  -474902580.75154191        34232985.298987716        1160292078.9162202     
  -363236968.47917926        115116241.59682406        1176725645.6072731     
  -239841062.73365092        235100476.13854325        1200762055.4412730     
  -104714863.51494661        394185688.92418242        1232401308.4182174     
  -676887416.69052410       -6333474.5127444863        1003566777.2469755     
  -558887881.89960110        26655120.423874319        1016961722.8675338     
  -430155573.40346545        95419627.711185902        1038678687.5966306     
  -290690491.20212907        199960047.34917241        1068717671.4342642     
  -140492635.29558039        340276379.33785999        1107078674.3804350     
  -804362138.87148547       -12745217.782935053        850787567.22839701     
  -666243599.61568892        12066130.578345716        867582961.85876536     
  -518389806.42265379        69328325.397088766        893419551.56327152     
  -360800759.29238987        159041366.67326644        928297336.34190369     
  -193476458.22488752        281205254.40690547        972216316.19466865     
  -957262066.09359884       -26784522.565452874        693123725.31235981     
  -796969733.89981079       -9533984.2375797331        712155795.88991296     
  -627939667.53675914        36842334.654503971        740948237.50719237     
  -450171867.00443631        112344434.11083162        779501050.16419578     
  -263666332.30284441        216972314.13137773        827814233.86092579     
  -1135587198.3568716       -48451388.860331893        530575251.49886423     
  -951066284.75196707       -38145224.023932219        550680224.96097207     
  -758805156.74576485       -2038344.5165342093        581264745.42839694     
  -558803814.33826900        59869249.661845058        622328812.90114272     
  -351062257.52947044        147577558.51122260        673872427.37920821     
  -104714863.51494661        394185688.92418242        1232401308.4182174     
  -88841347.454614431        554997274.77270198        1194394203.6608372     
  -59971414.091396928        759130251.63083911        1152984763.1518238     
  -18105063.425286233        1006584619.4986317        1108172986.8911858     
   36757704.543719053        1297360378.3760505        1059958874.8789130     
  -140492635.29558039        340276379.33785999        1107078674.3804350     
  -130506077.99147233        490330431.51552343        1086672788.9744084     
  -97097716.522423536        718457164.24300349        1067623317.2777306     
  -40267550.888423383        1024656577.5203152        1049930259.2903949     
   39984418.910517931        1408928671.3474293        1033593615.0124002     
  -193476458.22488752        281205254.40690547        972216316.19466865     
  -175780432.64565077        424580701.02315211        981574601.47906852     
  -124237216.03941515        680780117.72938406        997048049.93378878     
  -38846808.406178892        1049803504.5256195        1018636661.5588108     
   80390790.254050851        1531650861.4118416        1046340436.3541651     
  -263666332.30284441        216972314.13137773        827814233.86092579     
  -224664411.41712654        357748083.29558986        879099641.17480934     
  -141389912.64235976        646099112.08997583        941258961.11998618     
  -13842835.978532493        1082025400.5145612        1014292193.6964475     
   157976818.57433444        1665526948.5692725        1098199338.9042015     
  -351062257.52947044        147577558.51122260        673872427.37920821     
  -277158014.30591643        289832578.33285332        779247908.06163526     
  -148555806.33127075        614414147.32476759        900256050.83632421     
   34744366.394485950        1121322265.4870853        1036896855.7032748     
   272742503.87134856        1810556932.8197227        1189170322.6624875     
  -4916439943.8593731       -419229285.61609364        679483931.42411852     
  -4745268793.5146151       -696432592.68845153        795116753.75626886     
  -4536154353.9873734       -847158269.15251350        869667518.23827982     
  -4289096625.2776299       -871406315.00826049        903136224.87014723     
  -4004095607.3854036       -769176730.25571465        895522873.65187597     
  -5178838354.3715858        81970749.952829599        1315244375.2011006     
  -5036593951.5236769       -293762532.45467496        1145868331.7462745     
  -4851838323.3832970       -527791730.55393267        1018060688.5290471     
  -4624571469.9504404       -620116844.34494388        931821445.54942083     
  -4354793391.2251081       -570737873.82770205        887150602.80739248     
  -6507710750.4302101        263228589.85782766        1913781746.8551693     
  -6158248929.1141758       -140191418.09532452        1464726096.4083478     
  -5761707946.3956861       -386680888.04029489        1139889304.2868629     
  -5318087802.2747364       -476239819.97707272        939271370.49072266     
  -4827388496.7513361       -408868213.90565991        862872295.01992285     
  -8903057132.0352478        124544234.09890747        2475096046.3863320     
  -8110233726.2861118       -235719249.61040926        1751690047.7424958     
  -7265763223.0245419       -423825741.61159706        1235153365.5117352     
  -6369645622.2505217       -439775241.90464163        925485999.69405854     
  -5421880923.9640656       -283567750.48955369        822687950.28945732     
  -12364877499.186689       -334082317.32394075        2999187273.7945886     
  -10892548343.039478       -580346026.99990940        2006760185.7487080     
  -9364004153.2698498       -639226291.26783657        1303852872.2036536     
  -7779244929.8778019       -510723110.12767053        890465333.15941763     
  -6138270672.8633242       -194836483.57942200        766597568.61601079     
  -4004095607.3854036       -769176730.25571465        895522873.65187597     
  -3873078780.0676026       -664272524.55411077        871906620.14954460     
  -3747783344.2698474       -578439623.91931951        850759678.51422882     
  -3628209299.9921346       -511678028.35133719        832082048.74593151     
  -3514356647.2344656       -463987737.85016787        815873730.84464788     
  -4354793391.2251081       -570737873.82770205        887150602.80739248     
  -4214866290.2030253       -501319414.87863386        820477119.96592057     
  -4078552756.1814528       -443946179.26459873        766377400.43438554     
  -3945852789.1603918       -398618166.98560393        724851444.21279514     
  -3816766389.1398439       -365335378.04164708        695899251.30114257     
  -4827388496.7513361       -408868213.90565991        862872295.01992285     
  -4649681260.7594643       -366274543.32946277        755600711.44542730     
  -4473479767.2485819       -328700014.35653830        671007342.62379563     
  -4298784016.2186785       -296144626.98688960        609092188.55502808     
  -4125594007.6697531       -268608381.22049367        569855249.23912299     
  -5421880923.9640656       -283567750.48955369        822687950.28945732     
  -5177523691.7369251       -259137909.90659761        677277394.58806074     
  -4932564377.4712315       -232701129.19513607        564649505.08245718     
  -4687002981.1669884       -204257408.35517049        484804281.77263385     
  -4440839502.8241901       -173806747.38669133        437741724.65860212     
  -6138270672.8633242       -194836483.57942200        766597568.61601079     
  -5798393583.1354036       -179909514.61004496        585507169.39383149     
  -5455806586.8494034       -155949523.78038692        447303887.81036395     
  -5110509684.0053225       -122956511.09046578        351987723.86561155     
  -4762502874.6031523       -80930476.540246725        299558677.55957234     
  -3514356647.2344656       -463987737.85016787        815873730.84464788     
  -3343582298.8731804       -410884850.49771416        778932285.17210996     
  -3174777050.3082161       -364345629.13300514        748933495.59851336     
  -3007940901.5395551       -324370073.75596976        725877362.12386179     
  -2843073852.5672235       -290958184.36670172        709763884.74815595     
  -3816766389.1398439       -365335378.04164708        695899251.30114257     
  -3631132661.2593088       -322957164.39613438        654654322.16027641     
  -3447073568.7890987       -285827735.45171463        620371953.55994475     
  -3264589111.7292175       -253947091.20837820        593052145.50016129     
  -3083679290.0796661       -227315231.66615522        572694897.98091531     
  -4125594007.6697531       -268608381.22049367        569855249.23912299     
  -3925044030.4368258       -236937780.33195972        524767045.08024639     
  -3725674224.2282438       -209201082.85791314        486661305.90351081     
  -3527484589.0439959       -185398288.79831803        455538031.70890599     
  -3330475124.8840985       -165529398.15320909        431397222.49644566     
  -4440839502.8241901       -173806747.38669133        437741724.65860212     
  -4225316406.4057431       -152826698.30521393        389270453.93203038     
  -4010579016.6256490       -134465671.35159469        347801552.62920153     
  -3796627333.4839101       -118723666.52581382        313335020.75010580     
  -3583461356.9805126       -105600683.82784224        285870858.29474735     
  -4762502874.6031523       -80930476.540246725        299558677.55957234     
  -4531949789.1660461       -70623918.315881014        248164548.71562791     
  -4301787945.9813051       -61621500.932729483        203792693.73702773     
  -4072017345.0489259       -53923224.390787840        166443112.62375379     
  -3842637986.3689198       -47529088.690086842        136115805.37581638     
  -2843073852.5672235       -290958184.36670172        709763884.74815595     
  -2694919646.4490294       -263488392.52477849        692532964.39154649     
  -2545408370.0011630       -231495032.91727471        680510317.62103713     
  -2394540023.2236514       -194978105.54429424        673695944.43662143     
  -2242314606.1164718       -153937610.40574300        672089844.83830070     
  -3083679290.0796661       -227315231.66615522        572694897.98091531     
  -2924685040.4244862       -207367392.30467618        554794334.62870479     
  -2764188253.3254251       -182411094.79693365        541759827.90664625     
  -2602188928.7824826       -152446339.14290941        533591377.81473839     
  -2438687066.7956591       -117473125.34262943        530288984.35298127     
  -3330475124.8840985       -165529398.15320909        431397222.49644566     
  -3161618594.4232101       -153396840.09159076        412996727.78189176     
  -2991114059.4042115       -135770933.50293005        399120072.74154317     
  -2818961519.8271194       -112651678.38729286        389767257.37540281     
  -2645160975.6919227       -84039074.744645476        384938281.68346548     
  -3583461356.9805126       -105600683.82784224        285870858.29474735     
  -3405720308.4451857       -101576735.88544941        267140143.85110345     
  -3226185788.2375340       -91574549.035313845        252591052.12573060     
  -3044857796.3575640       -75594123.277441740        242223583.11861145     
  -2861736332.8052464       -53635458.611756206        236037736.82975662     
  -3842637986.3689198       -47529088.690086842        136115805.37581638     
  -3656990182.4904208       -51907079.686305523        117224582.83635008     
  -3469403439.8253717       -49821941.394002199        102172766.05920511     
  -3279877758.3737926       -41273673.813265443        90960355.044363052     
  -3088413138.1356583       -26262276.944033146        83587349.791852251     
  -2242314606.1164718       -153937610.40574300        672089844.83830070     
  -2105912703.1544335       -118634061.55180657        652384284.81928813     
  -1971520546.5930824       -90029667.366823792        635280240.98955572     
  -1839138136.4324167       -68124427.850788176        620777713.34910154     
  -1708765472.6724308       -52918343.003691435        608876701.89793384     
  -2438687066.7956591       -117473125.34262943        530288984.35298127     
  -2295221961.0522666       -89059836.481880665        505698100.83866405     
  -2153621303.5658364       -66861375.144313931        485528994.04222143     
  -2013885094.3363624       -50877741.329946995        469781663.96365464     
  -1876013333.3638420       -41108935.038750529        458456110.60296893     
  -2645160975.6919227       -84039074.744645476        384938281.68346548     
  -2489431922.7997704       -60955822.566854119        355631589.17486238     
  -2335422020.0208397       -43603070.766479731        332566933.91272128     
  -2183131267.3551512       -31980819.343565702        315744315.89705926     
  -2032559664.8026800       -26089068.298047543        305163735.12786412     
  -2861736332.8052464       -53635458.611756206        236037736.82975662     
  -2688542588.3969259       -34322019.806717396        202184749.82788640     
  -2516922695.9580979       -20254754.233328342        176394060.60106373     
  -2346876655.4887738       -11433661.891624331        158665669.14931583     
  -2178404466.9889388       -7858742.7815324068        148999575.47262809     
  -3088413138.1356583       -26262276.944033146        83587349.791852251     
  -2892553957.8437428       -9158428.2014789581        45357582.797719628     
  -2698123331.3776016        3183574.4551494122        17010374.107236639     
  -2505121258.7372336        10763731.025869250       -1454276.2795747907     
  -2313547739.9226360        13582041.510697603       -10036368.362733070     
  -1708765472.6724308       -52918343.003691435        608876701.89793384     
  -1561782436.4714859       -39506712.394330680        590416771.28534114     
  -1417258378.6852431       -34291676.500651777        571213219.34796238     
  -1275193299.3137009       -37273235.322642207        551266046.08580184     
  -1135587198.3568716       -48451388.860331893        530575251.49886423     
  -1876013333.3638420       -41108935.038750529        458456110.60296893     
  -1732965871.3556175       -34063918.260590374        441714646.57675612     
  -1590873631.3038793       -30202974.670696020        424158657.68812180     
  -1449736613.2086251       -29526104.269085467        405788143.93706280     
  -1309554817.0698442       -32033307.055735886        386603105.32357836     
  -2032559664.8026800       -26089068.298047543        305163735.12786412     
  -1893650358.5232961       -25471439.811890841        291895120.22263050     
  -1754192517.7421820       -23025362.986634493        277741076.91732812     
  -1614186142.4593320       -18750837.822250366        262701605.21195984     
  -1473631232.6747441       -12647864.318744600        246776705.10653046     
  -2178404466.9889388       -7858742.7815324068        148999575.47262809     
  -2043835897.9745343       -13729277.048284292        140958192.22295690     
  -1907215038.0001640       -12758841.448492885        131960477.03557937     
  -1768541887.0658255       -4947435.9821444750        122006429.91050148     
  -1627816445.1715493        9704939.3506816626        111096050.84770548     
  -2313547739.9226360        13582041.510697603       -10036368.362733070     
  -2183522489.7093081        1162570.0302749872       -11096137.422247695     
  -2049941192.0778069        596589.94376373291       -13183141.957111822     
  -1912803847.0281243        11884101.251189709       -16297381.967321927     
  -1772110454.5602620        35025103.952549100       -20438857.452886019     
  -1135587198.3568716       -48451388.860331893        530575251.49886423     
  -951066284.75196707       -38145224.023932219        550680224.96097207     
  -758805156.74576485       -2038344.5165342093        581264745.42839694     
  -558803814.33826900        59869249.661845058        622328812.90114272     
  -351062257.52947044        147577558.51122260        673872427.37920821     
  -1309554817.0698442       -32033307.055735886        386603105.32357836     
  -1111390990.0035858       -12874507.846884608        410631450.69238913     
  -909455638.09030879        18856040.852014780        432631882.24789715     
  -703748761.33001614        63158339.040956199        452604399.99010080     
  -494270359.72272807        120032386.71991539        470549003.91901255     
  -1473631232.6747441       -12647864.318744600        246776705.10653046     
  -1297560094.4860189        4642888.5609304309        270098284.56870133     
  -1121686121.0045841        21276425.749642730        278884489.39894700     
  -946009312.23042524        37252747.247441709        273135319.59728378     
  -770529668.16354024        52571853.054308534        252850775.16369027     
  -1627816445.1715493        9704939.3506816626        111096050.84770548     
  -1509573598.1992769        14406965.199502170        129080726.58990118     
  -1395496605.4885905        5222810.1763721108        120022566.88155647     
  -1285585467.0394621       -17847525.718621016        83921571.722675338     
  -1179840182.8519115       -54804042.485536098        20777741.113260213     
  -1772110454.5602620        35025103.952549100       -20438857.452886019     
  -1747431501.1433702        16417722.068796754       -12421223.243996859     
  -1730887091.5423465       -29304805.867859960       -43953885.304278381     
  -1722477225.7571661       -102142479.85732287       -115036843.63370450     
  -1722201903.7878580       -202095299.89969313       -225670098.23229328     
  -351062257.52947044        147577558.51122260        673872427.37920821     
  -277158014.30591643        289832578.33285332        779247908.06163526     
  -148555806.33127075        614414147.32476759        900256050.83632421     
   34744366.394485950        1121322265.4870853        1036896855.7032748     
   272742503.87134856        1810556932.8197227        1189170322.6624875     
  -494270359.72272807        120032386.71991539        470549003.91901255     
  -386038759.99826759        226597583.09362957        591546179.80309045     
  -228788450.44411525        496558478.89963859        731552465.54512107     
  -22519431.060302258        929915074.13787484        890567861.14510453     
   232768298.15319231        1526667368.8083663        1068592366.6030434     
  -770529668.16354024        52571853.054308534        252850775.16369027     
  -618323718.32189691        126341324.06505895        382843848.84108806     
  -422778313.57199311        344575644.77001119        535222480.14214051     
  -183893453.91387412        707274815.16902220        709986669.06681406     
   98330860.652516127        1214438835.2622542        907136415.61515582     
  -1179840182.8519115       -54804042.485536098        20777741.113260213     
  -974012889.27684116       -10936198.752924383        153140915.17564461     
  -730525395.71493423        158465644.93579909        311266094.62736452     
  -449377702.16621590        453401488.58056891        495153279.46841848     
  -130569808.63068581        873871332.18137121        704802469.69880068     
  -1722201903.7878580       -202095299.89969313       -225670098.23229328     
  -1453106272.8630924       -185234985.36032659       -97562621.193254709     
  -1152029696.8728826       -61771520.602811992        59683309.000808388     
  -818972175.81736553        168295094.37241566        246067692.34988418     
  -453933709.69639987        504964859.56576097        461590528.85401332     
 </DataArray>
 <DataArray  type="Float64" Name="VM" NumberOfComponents="1" format="ascii">
   13261081876.920992     
   11168895338.895231     
   9338498986.7081318     
   7693064092.9308929     
   6187356829.2245302     
   9938161968.4330215     
   8551313964.6287403     
   7380266763.1314459     
   6366643399.7031174     
   5474502647.3999729     
   7424303721.5393229     
   6596712625.9080753     
   5917508014.4846029     
   5350034503.0223656     
   4871420018.3259230     
   5695717906.2754936     
   5283280719.8707981     
   4936342955.9350395     
   4637704726.9180317     
   4377856810.8136663     
   4865296964.1387930     
   4646984655.2687759     
   4440776684.5327940     
   4226714807.4913640     
   3993800315.5168624     
   6187356829.2245302     
   5799914252.7787094     
   5435030600.8510828     
   5086820536.1076326     
   4750974421.0417271     
   5474502647.3999729     
   5187323527.0747766     
   4918639552.1259394     
   4664490167.9963293     
   4422021015.1198893     
   4871420018.3259230     
   4665129182.8570204     
   4472178957.2050447     
   4290357065.7568908     
   4118095708.6829000     
   4377856810.8136663     
   4233553213.4112659     
   4096709147.8027215     
   3966357386.7338915     
   3841822890.2347078     
   3993800315.5168624     
   3892284787.5292473     
   3792622061.0113826     
   3694093089.7469602     
   3596153320.9994974     
   4750974421.0417271     
   4517549059.7635908     
   4285870798.0659070     
   4055584618.3645020     
   3826365268.0216775     
   4422021015.1198893     
   4205414133.8509502     
   3990794109.6267858     
   3777864662.2897639     
   3566384341.9490747     
   4118095708.6829000     
   3918961633.7943316     
   3722299842.3097119     
   3527899536.5322061     
   3335638422.6822038     
   3841822890.2347078     
   3660934617.0677223     
   3483292771.6729975     
   3308795978.3717666     
   3137470516.9813089     
   3596153320.9994974     
   3434348286.2631917     
   3276880384.9652562     
   3123768915.0047603     
   2975198196.1404824     
   3826365268.0216775     
   3636986756.5617456     
   3449305417.2747722     
   3263242310.9310932     
   3078772026.7967391     
   3566384341.9490747     
   3387830909.2591615     
   3211328517.6760468     
   3036892640.2742939     
   2864622575.4726167     
   3335638422.6822038     
   3169555066.0417976     
   3006157216.7949538     
   2845598223.4249830     
   2688154518.3596730     
   3137470516.9813089     
   2985580307.4341521     
   2837305594.2593064     
   2692970888.6063409     
   2553063566.4324532     
   2975198196.1404824     
   2839144890.3664513     
   2707900885.0220399     
   2581967115.1537890     
   2462033571.4735250     
   3078772026.7967391     
   2889053990.3325872     
   2699877290.0761051     
   2510521693.8037043     
   2320433688.8315225     
   2864622575.4726167     
   2694401428.4972873     
   2525405918.9989238     
   2357255131.3388987     
   2189746762.0091705     
   2688154518.3596730     
   2535480826.5178528     
   2384547748.3933487     
   2235251662.7240005     
   2087660546.7042511     
   2553063566.4324532     
   2416351613.4881430     
   2281617034.6775222     
   2148940257.0210919     
   2018549250.6487842     
   2462033571.4735250     
   2340069473.7245407     
   2219965364.9110513     
   2101874091.7193635     
   1986063258.9551189     
   2320433688.8315225     
   2184188564.4880958     
   2050366700.5914199     
   1918981124.8779781     
   1790230101.0311673     
   2189746762.0091705     
   2051584976.9089570     
   1914559698.0586343     
   1778671370.0064108     
   1643990700.2278628     
   2087660546.7042511     
   1947802545.7114532     
   1807968737.1733663     
   1668147941.2803710     
   1528334687.5110588     
   2018549250.6487842     
   1878998387.7115421     
   1738813881.6855452     
   1598059766.5251839     
   1456844694.2785907     
   1986063258.9551189     
   1850621560.7467234     
   1714657601.6992652     
   1578499105.3086264     
   1442711106.8163126     
   1790230101.0311673     
   1755829746.2646065     
   1718109838.5198469     
   1685563173.0335150     
   1676768909.8759687     
   1643990700.2278628     
   1533216842.2155299     
   1413486015.9306307     
   1285002917.5657034     
   1153976374.2014279     
   1528334687.5110588     
   1381509114.0190251     
   1231189500.8881037     
   1074882105.2753608     
   910378210.00143147     
   1456844694.2785907     
   1314116295.6469469     
   1185801364.9882183     
   1076220760.9979734     
   991104691.03541148     
   1442711106.8163126     
   1333960130.6273456     
   1260098737.1058350     
   1229300878.2017179     
   1248657238.9713199     
   1676768909.8759687     
   1380296749.2594547     
   1127169822.6964881     
   1009215334.2195466     
   1153023565.7372041     
   1153976374.2014279     
   1004253518.8277313     
   982446760.58124232     
   1160513704.6379161     
   1544357587.0323508     
   910378210.00143147     
   957138665.95497298     
   1141289751.6133075     
   1475249431.7740173     
   1958010024.6097448     
   991104691.03541148     
   1156558899.2351515     
   1420573247.8479655     
   1807076001.2243485     
   2335637709.1086917     
   1248657238.9713199     
   1436255832.6789372     
   1709453489.3662980     
   2108334990.1132190     
   2664782771.2670035     
   4865296964.1387930     
   4646984655.2687759     
   4440776684.5327940     
   4226714807.4913640     
   3993800315.5168624     
   4976856653.4532995     
   4674452414.2930870     
   4367325729.4773817     
   4049875902.3084350     
   3719504084.3682003     
   4962331258.7021170     
   4592485175.1941032     
   4221248061.2906065     
   3848700185.1008582     
   3475513671.1269789     
   4809853372.7169161     
   4397889410.1743679     
   4003303131.2562056     
   3625911977.4600396     
   3266218092.2249312     
   4523770057.5965767     
   4095306332.2198801     
   3717972640.7309389     
   3386002227.0312705     
   3096377284.8437066     
   3993800315.5168624     
   3892284787.5292473     
   3792622061.0113826     
   3694093089.7469602     
   3596153320.9994974     
   3719504084.3682003     
   3630132631.0982575     
   3543007510.9465237     
   3457774368.0881190     
   3374179775.7194843     
   3475513671.1269789     
   3398937917.3632016     
   3325115138.7933760     
   3253998629.7077885     
   3185589113.0812731     
   3266218092.2249312     
   3202853111.5629854     
   3142738921.1355715     
   3086047778.0164952     
   3032972067.6193867     
   3096377284.8437066     
   3046168600.7324495     
   2999567963.9822130     
   2956851456.5006719     
   2918324530.8564458     
   3596153320.9994974     
   3434348286.2631917     
   3276880384.9652562     
   3123768915.0047603     
   2975198196.1404824     
   3374179775.7194843     
   3232726866.2648268     
   3096324080.8322339     
   2965145925.7382092     
   2839531208.4298320     
   3185589113.0812731     
   3064563473.0659008     
   2949302379.0469866     
   2840095727.7750130     
   2737379883.5546303     
   3032972067.6193867     
   2932363126.7172809     
   2838145458.9366961     
   2750667406.5609746     
   2670390945.0893207     
   2918324530.8564458     
   2837897810.5134535     
   2764303998.0546293     
   2697886716.9645824     
   2639063056.0476799     
   2975198196.1404824     
   2839144890.3664513     
   2707900885.0220399     
   2581967115.1537890     
   2462033571.4735250     
   2839531208.4298320     
   2719022516.3472276     
   2604038185.4812942     
   2495132921.6188598     
   2393026027.6357646     
   2737379883.5546303     
   2632483649.3707857     
   2533760791.1762934     
   2441777442.4375610     
   2357228558.0173168     
   2670390945.0893207     
   2580956252.3793793     
   2498210698.7488098     
   2422684769.8931231     
   2354996785.7288303     
   2639063056.0476799     
   2564625620.0602608     
   2497207245.2616820     
   2437262654.2580781     
   2385296255.0740914     
   2462033571.4735250     
   2340069473.7245407     
   2219965364.9110513     
   2101874091.7193635     
   1986063258.9551189     
   2393026027.6357646     
   2284523977.8153043     
   2179207565.5966821     
   2077411533.3117068     
   1979621832.9588125     
   2357228558.0173168     
   2264820793.6075454     
   2177077166.1771717     
   2094464661.8856559     
   2017604533.3410764     
   2354996785.7288303     
   2280609820.3923955     
   2212302654.0850787     
   2150578788.5146236     
   2096069616.8143880     
   2385296255.0740914     
   2329939140.8342519     
   2281843023.0097303     
   2241453113.8360915     
   2209308129.6658812     
   1986063258.9551189     
   1850621560.7467234     
   1714657601.6992652     
   1578499105.3086264     
   1442711106.8163126     
   1979621832.9588125     
   1859818954.0263155     
   1743831361.5725298     
   1632593308.7020991     
   1527314559.0195580     
   2017604533.3410764     
   1918538171.1847658     
   1827699841.2094395     
   1746338518.8786783     
   1675836380.4504991     
   2096069616.8143880     
   2019274788.2195935     
   1954274287.3803761     
   1902222195.0022264     
   1864234016.3600428     
   2209308129.6658812     
   2153302254.8616104     
   2111615186.8508344     
   2085110281.2109749     
   2074547117.2547066     
   1442711106.8163126     
   1333960130.6273456     
   1260098737.1058350     
   1229300878.2017179     
   1248657238.9713199     
   1527314559.0195580     
   1465998291.1264575     
   1437293713.5666435     
   1445239062.2282355     
   1493196045.9082355     
   1675836380.4504991     
   1646258088.7968307     
   1644405360.8019037     
   1672740692.4123459     
   1733934781.9555256     
   1864234016.3600428     
   1852187037.2907760     
   1863261724.9214289     
   1899758892.6764910     
   1964739701.3275831     
   2074547117.2547066     
   2069249819.7994254     
   2083520351.2467933     
   2120063975.1343904     
   2182673501.8277421     
   1248657238.9713199     
   1436255832.6789372     
   1709453489.3662980     
   2108334990.1132190     
   2664782771.2670035     
   1493196045.9082355     
   1605390790.0474250     
   1785130909.1275954     
   2066957874.3143578     
   2480715099.9135427     
   1733934781.9555256     
   1782208350.9812202     
   1883026585.7752075     
   2063308007.3164268     
   2348142104.6279597     
   1964739701.3275831     
   1965711098.0232060     
   2003703535.0215526     
   2097585191.7165544     
   2266118011.8149180     
   2182673501.8277421     
   2155215536.0804038     
   2147911314.8124437     
   2171613864.0506535     
   2237709887.3739047     
   4523770057.5965767     
   4095306332.2198801     
   3717972640.7309389     
   3386002227.0312705     
   3096377284.8437066     
   3941508518.9401541     
   3632216067.2289619     
   3363558833.2204394     
   3132385151.3924456     
   2937370874.1035686     
   3467297631.5736117     
   3257395502.5723233     
   3076665141.9031839     
   2923943070.4859390     
   2798929887.1900959     
   3101872696.6513224     
   2972444932.8195691     
   2859621251.7834811     
   2763457922.8350544     
   2684199986.9734445     
   2843178347.6605830     
   2776172969.8888454     
   2712442000.7306705     
   2652360152.1206746     
   2596339083.7343946     
   3096377284.8437066     
   3046168600.7324495     
   2999567963.9822130     
   2956851456.5006719     
   2918324530.8564458     
   2937370874.1035686     
   2895258334.2175360     
   2857937199.7222948     
   2825671409.0588765     
   2798738577.0212007     
   2798929887.1900959     
   2767146661.3048053     
   2741525123.9574809     
   2722261278.6226606     
   2709564367.6607356     
   2684199986.9734445     
   2664703066.4219275     
   2652875787.9464507     
   2648779160.5244184     
   2652507467.5360932     
   2596339083.7343946     
   2590563975.9521689     
   2594051085.0770674     
   2606657196.8768191     
   2628319570.2173414     
   2918324530.8564458     
   2837897810.5134535     
   2764303998.0546293     
   2697886716.9645824     
   2639063056.0476799     
   2798738577.0212007     
   2735170731.9639068     
   2678859072.5114660     
   2630131439.5496836     
   2589361280.9048920     
   2709564367.6607356     
   2662104365.4624014     
   2622155732.1055603     
   2589997067.6669555     
   2565928016.1312227     
   2652507467.5360932     
   2619918849.6565804     
   2594905860.6786189     
   2577679205.0336041     
   2568453620.3494678     
   2628319570.2173414     
   2608873961.4862638     
   2596889020.5787520     
   2592505914.3314037     
   2595861467.3507748     
   2639063056.0476799     
   2564625620.0602608     
   2497207245.2616820     
   2437262654.2580781     
   2385296255.0740914     
   2589361280.9048920     
   2527818601.6748471     
   2473695855.4395995     
   2427372458.6371632     
   2389254982.4605374     
   2565928016.1312227     
   2516598874.2740092     
   2474960139.4696188     
   2441302823.8811250     
   2415928385.1159873     
   2568453620.3494678     
   2530314122.4364996     
   2500013357.4360142     
   2477753941.8906541     
   2463739171.5269389     
   2595861467.3507748     
   2567604366.4714651     
   2547240909.3764582     
   2534896396.7231722     
   2530692952.8357615     
   2385296255.0740914     
   2329939140.8342519     
   2281843023.0097303     
   2241453113.8360915     
   2209308129.6658812     
   2389254982.4605374     
   2352140876.0284743     
   2323014765.2939849     
   2302231180.8199096     
   2290186943.4662275     
   2415928385.1159873     
   2395777914.0954356     
   2384051606.8316464     
   2380995968.8657255     
   2386868070.8426318     
   2463739171.5269389     
   2458691518.3246713     
   2462282683.5604811     
   2474662714.4284816     
   2495977268.4091821     
   2530692952.8357615     
   2538489226.1929479     
   2555011735.0812545     
   2580339628.4008441     
   2614543381.9127812     
   2209308129.6658812     
   2153302254.8616104     
   2111615186.8508344     
   2085110281.2109749     
   2074547117.2547066     
   2290186943.4662275     
   2249567132.3051748     
   2222476192.7169833     
   2209451707.1383638     
   2210945924.0763321     
   2386868070.8426318     
   2358787769.8900480     
   2343379776.3710938     
   2340965690.5606833     
   2351811771.7147765     
   2495977268.4091821     
   2477792840.0912180     
   2471481823.7487950     
   2477234252.0773616     
   2495212739.6509414     
   2614543381.9127812     
   2603907100.0529475     
   2604474187.2933316     
   2616361494.8835106     
   2639679679.1666059     
   2074547117.2547066     
   2069249819.7994254     
   2083520351.2467933     
   2120063975.1343904     
   2182673501.8277421     
   2210945924.0763321     
   2195248225.3356495     
   2194808737.2114711     
   2211646940.5058513     
   2248671088.7803788     
   2351811771.7147765     
   2326365212.2424188     
   2312673355.2557735     
   2312175418.5365615     
   2326954500.7608299     
   2495212739.6509414     
   2461636147.0825782     
   2436812713.6910033     
   2421709693.9099245     
   2417703467.8087645     
   2639679679.1666059     
   2600286253.7815104     
   2566957129.7914371     
   2540287215.4539022     
   2521088026.3780923     
   2182673501.8277421     
   2155215536.0804038     
   2147911314.8124437     
   2171613864.0506535     
   2237709887.3739047     
   2248671088.7803788     
   2184615087.9970636     
   2137562925.7022009     
   2117526781.2134721     
   2135808548.7199874     
   2326954500.7608299     
   2229718480.0989995     
   2146367650.9316609     
   2085606413.6614907     
   2058007776.8384962     
   2417703467.8087645     
   2290829829.9476104     
   2174991383.8866539     
   2077238538.8118782     
   2006744357.8232455     
   2521088026.3780923     
   2368168416.5968962     
   2223919580.6856112     
   2093585691.0317144     
   1984415690.6739974     
   2843178347.6605830     
   2776172969.8888454     
   2712442000.7306705     
   2652360152.1206746     
   2596339083.7343946     
   2718013439.7742715     
   2643278977.9937582     
   2578116333.7998638     
   2523058027.3263359     
   2478667702.1417909     
   2625239650.6840148     
   2544712758.6312513     
   2480539975.5937519     
   2433170699.2854791     
   2403074157.4084902     
   2584674118.4456258     
   2495888941.1875076     
   2430609403.8319578     
   2389017120.1196012     
   2371300341.0861268     
   2616440496.5576334     
   2511815498.8794169     
   2438024950.7182870     
   2395068852.0742354     
   2382947202.9472709     
   2596339083.7343946     
   2590563975.9521689     
   2594051085.0770674     
   2606657196.8768191     
   2628319570.2173414     
   2478667702.1417909     
   2490408284.9972358     
   2510054984.6645665     
   2537500417.9143877     
   2572685242.2138729     
   2403074157.4084902     
   2428527819.2639546     
   2460449483.9353690     
   2498778181.9505186     
   2543476091.6605368     
   2371300341.0861268     
   2406384447.3599091     
   2446524133.5436907     
   2491701123.3678622     
   2541903402.6810126     
   2382947202.9472709     
   2423655435.8815608     
   2468119956.3919415     
   2516340764.4784102     
   2568317860.1409745     
   2628319570.2173414     
   2608873961.4862638     
   2596889020.5787520     
   2592505914.3314037     
   2595861467.3507748     
   2572685242.2138729     
   2560835649.1696982     
   2556792078.2043810     
   2560642656.3603592     
   2572470951.2589736     
   2543476091.6605368     
   2537411438.8288665     
   2539484298.0260930     
   2549737148.2902627     
   2568209544.2087870     
   2541903402.6810126     
   2539386102.6898313     
   2545354927.7021246     
   2559821182.9340010     
   2582795260.6999593     
   2568317860.1409745     
   2566805201.1792073     
   2574172145.0178719     
   2590418691.6569667     
   2615544841.0964866     
   2595861467.3507748     
   2567604366.4714651     
   2547240909.3764582     
   2534896396.7231722     
   2530692952.8357615     
   2572470951.2589736     
   2550917463.8881178     
   2537118949.8155556     
   2531144861.2029371     
   2533061785.5259547     
   2568209544.2087870     
   2551807152.9166870     
   2543021391.0559206     
   2541882270.2895975     
   2548418182.6472983     
   2582795260.6999593     
   2569923455.1530271     
   2564549684.4658079     
   2566681166.9323087     
   2576324664.4262323     
   2615544841.0964866     
   2604583330.9854312     
   2601035438.8943076     
   2604901164.8231344     
   2616180508.7718930     
   2530692952.8357615     
   2538489226.1929479     
   2555011735.0812545     
   2580339628.4008441     
   2614543381.9127812     
   2533061785.5259547     
   2549128731.5924120     
   2573749934.9342861     
   2606965368.5509825     
   2648809269.7424221     
   2548418182.6472983     
   2570730512.5241227     
   2601478391.0232677     
   2640677771.1822443     
   2688341832.6736674     
   2576324664.4262323     
   2602775980.8114114     
   2637631971.2145410     
   2680896274.5634222     
   2732571807.4081063     
   2616180508.7718930     
   2644646547.4893885     
   2681596231.8303776     
   2727029561.7948399     
   2780946537.3827915     
   2614543381.9127812     
   2603907100.0529475     
   2604474187.2933316     
   2616361494.8835106     
   2639679679.1666059     
   2648809269.7424221     
   2640953535.4817381     
   2643424281.8137722     
   2656280697.5104299     
   2679580232.4557676     
   2688341832.6736674     
   2682645582.0423703     
   2686568647.5372167     
   2700134753.3909245     
   2723367512.7595563     
   2732571807.4081063     
   2728568971.2164440     
   2733629829.5649796     
   2747759734.6729231     
   2770964150.2507501     
   2780946537.3827915     
   2778319015.2726035     
   2784333227.5648317     
   2798989174.2594843     
   2822286855.3565431     
   2639679679.1666059     
   2600286253.7815104     
   2566957129.7914371     
   2540287215.4539022     
   2521088026.3780923     
   2679580232.4557676     
   2633237110.3076177     
   2592769187.7987571     
   2558515182.2732873     
   2530939412.0961933     
   2723367512.7595563     
   2672113987.9670300     
   2626694478.0235567     
   2587259958.9799190     
   2554017893.3439403     
   2770964150.2507501     
   2716837142.7062316     
   2668651490.5383134     
   2626444712.7514400     
   2590268358.8167243     
   2822286855.3565431     
   2767315248.0708261     
   2718541461.0673285     
   2675965494.3460617     
   2639587347.9070048     
   2521088026.3780923     
   2368168416.5968962     
   2223919580.6856112     
   2093585691.0317144     
   1984415690.6739974     
   2530939412.0961933     
   2359816139.2857709     
   2192578760.0290427     
   2032497842.0936821     
   1884404893.1876380     
   2554017893.3439403     
   2369957766.4443722     
   2185824605.2132435     
   2003172661.8266315     
   1824419525.5464993     
   2590268358.8167243     
   2398701784.2941551     
   2204149634.8884430     
   2007011472.3820131     
   1807928931.2135401     
   2639587347.9070048     
   2446013928.0111656     
   2247702310.6029096     
   2044652495.6822176     
   1836864483.2491019     
   2616440496.5576334     
   2511815498.8794169     
   2438024950.7182870     
   2395068852.0742354     
   2382947202.9472709     
   2584674118.4451571     
   2495888941.1871347     
   2430609403.8316817     
   2389017120.1194377     
   2371300341.0860877     
   2625239650.6832166     
   2544712758.6305842     
   2480539975.5932531     
   2433170699.2851624     
   2403074157.4083962     
   2718013439.7732921     
   2643278977.9929142     
   2578116333.7991877     
   2523058027.3258772     
   2478667702.1416030     
   2843178347.6595821     
   2776172969.8879104     
   2712442000.7298732     
   2652360152.1200762     
   2596339083.7340722     
   2382947202.9472709     
   2423655435.8815608     
   2468119956.3919415     
   2516340764.4784102     
   2568317860.1409745     
   2371300341.0860877     
   2406384447.3599010     
   2446524133.5437102     
   2491701123.3679113     
   2541903402.6810870     
   2403074157.4083962     
   2428527819.2639089     
   2460449483.9353733     
   2498778181.9505630     
   2543476091.6606255     
   2478667702.1416030     
   2490408284.9971132     
   2510054984.6645074     
   2537500417.9143834     
   2572685242.2139220     
   2596339083.7340722     
   2590563975.9519234     
   2594051085.0768862     
   2606657196.8767014     
   2628319570.2172766     
   2568317860.1409745     
   2566805201.1792073     
   2574172145.0178719     
   2590418691.6569667     
   2615544841.0964866     
   2541903402.6810870     
   2539386102.6898646     
   2545354927.7021174     
   2559821182.9339533     
   2582795260.6998672     
   2543476091.6606255     
   2537411438.8289123     
   2539484298.0260787     
   2549737148.2901912     
   2568209544.2086496     
   2572685242.2139220     
   2560835649.1697063     
   2556792078.2043424     
   2560642656.3602648     
   2572470951.2588158     
   2628319570.2172766     
   2608873961.4861979     
   2596889020.5786729     
   2592505914.3313046     
   2595861467.3506389     
   2615544841.0964866     
   2604583330.9854312     
   2601035438.8943076     
   2604901164.8231344     
   2616180508.7718930     
   2582795260.6998672     
   2569923455.1529684     
   2564549684.4657865     
   2566681166.9323187     
   2576324664.4262757     
   2568209544.2086496     
   2551807152.9166040     
   2543021391.0558896     
   2541882270.2896118     
   2548418182.6473479     
   2572470951.2588158     
   2550917463.8880248     
   2537118949.8155241     
   2531144861.2029634     
   2533061785.5260344     
   2595861467.3506389     
   2567604366.4713974     
   2547240909.3764420     
   2534896396.7231860     
   2530692952.8358192     
   2616180508.7718930     
   2644646547.4893885     
   2681596231.8303776     
   2727029561.7948399     
   2780946537.3827915     
   2576324664.4262757     
   2602775980.8114433     
   2637631971.2145572     
   2680896274.5634255     
   2732571807.4080982     
   2548418182.6473479     
   2570730512.5241618     
   2601478391.0232882     
   2640677771.1822572     
   2688341832.6736565     
   2533061785.5260344     
   2549128731.5924582     
   2573749934.9343166     
   2606965368.5509877     
   2648809269.7424078     
   2530692952.8358192     
   2538489226.1929893     
   2555011735.0812764     
   2580339628.4008369     
   2614543381.9127545     
   2780946537.3827915     
   2778319015.2726035     
   2784333227.5648317     
   2798989174.2594843     
   2822286855.3565431     
   2732571807.4080982     
   2728568971.2164383     
   2733629829.5649824     
   2747759734.6729350     
   2770964150.2507648     
   2688341832.6736565     
   2682645582.0423546     
   2686568647.5372047     
   2700134753.3909287     
   2723367512.7595940     
   2648809269.7424078     
   2640953535.4817071     
   2643424281.8137293     
   2656280697.5104108     
   2679580232.4557662     
   2614543381.9127545     
   2603907100.0528960     
   2604474187.2932682     
   2616361494.8834572     
   2639679679.1665740     
   2822286855.3565431     
   2767315248.0708261     
   2718541461.0673285     
   2675965494.3460617     
   2639587347.9070048     
   2770964150.2507648     
   2716837142.7062335     
   2668651490.5382867     
   2626444712.7513838     
   2590268358.8166165     
   2723367512.7595940     
   2672113987.9670339     
   2626694478.0235291     
   2587259958.9798355     
   2554017893.3437824     
   2679580232.4557662     
   2633237110.3076129     
   2592769187.7987452     
   2558515182.2732334     
   2530939412.0960703     
   2639679679.1665740     
   2600286253.7815237     
   2566957129.7914567     
   2540287215.4539061     
   2521088026.3780560     
   2639587347.9070048     
   2446013928.0111656     
   2247702310.6029096     
   2044652495.6822176     
   1836864483.2491019     
   2590268358.8166165     
   2398701784.2941093     
   2204149634.8884740     
   2007011472.3821187     
   1807928931.2137482     
   2554017893.3437824     
   2369957766.4442992     
   2185824605.2132511     
   2003172661.8267581     
   1824419525.5466998     
   2530939412.0960703     
   2359816139.2856951     
   2192578760.0290308     
   2032497842.0937297     
   1884404893.1877239     
   2521088026.3780560     
   2368168416.5968246     
   2223919580.6855412     
   2093585691.0316205     
   1984415690.6737955     
   2843178347.6595821     
   2776172969.8879104     
   2712442000.7298732     
   2652360152.1200762     
   2596339083.7340722     
   3101872696.6504536     
   2972444932.8187904     
   2859621251.7828302     
   2763457922.8345842     
   2684199986.9732141     
   3467297631.5728188     
   3257395502.5716424     
   3076665141.9026270     
   2923943070.4855390     
   2798929887.1899018     
   3941508518.9393320     
   3632216067.2282929     
   3363558833.2199054     
   3132385151.3920598     
   2937370874.1033711     
   4523770057.5955935     
   4095306332.2191110     
   3717972640.7303429     
   3386002227.0308371     
   3096377284.8434715     
   2596339083.7340722     
   2590563975.9519234     
   2594051085.0768862     
   2606657196.8767014     
   2628319570.2172766     
   2684199986.9732141     
   2664703066.4217577     
   2652875787.9463296     
   2648779160.5243325     
   2652507467.5360270     
   2798929887.1899018     
   2767146661.3046808     
   2741525123.9574089     
   2722261278.6226258     
   2709564367.6607103     
   2937370874.1033711     
   2895258334.2174463     
   2857937199.7222857     
   2825671409.0589237     
   2798738577.0212798     
   3096377284.8434715     
   3046168600.7323737     
   2999567963.9822655     
   2956851456.5008264     
   2918324530.8566775     
   2628319570.2172766     
   2608873961.4861979     
   2596889020.5786729     
   2592505914.3313046     
   2595861467.3506389     
   2652507467.5360270     
   2619918849.6565065     
   2594905860.6785364     
   2577679205.0335054     
   2568453620.3493481     
   2709564367.6607103     
   2662104365.4623566     
   2622155732.1054912     
   2589997067.6668663     
   2565928016.1311102     
   2798738577.0212798     
   2735170731.9639325     
   2678859072.5114412     
   2630131439.5496154     
   2589361280.9047771     
   2918324530.8566775     
   2837897810.5135927     
   2764303998.0546808     
   2697886716.9645543     
   2639063056.0475707     
   2595861467.3506389     
   2567604366.4713974     
   2547240909.3764420     
   2534896396.7231860     
   2530692952.8358192     
   2568453620.3493481     
   2530314122.4364266     
   2500013357.4359775     
   2477753941.8906517     
   2463739171.5269728     
   2565928016.1311102     
   2516598874.2739167     
   2474960139.4695578     
   2441302823.8810959     
   2415928385.1159801     
   2589361280.9047771     
   2527818601.6747532     
   2473695855.4395132     
   2427372458.6370864     
   2389254982.4604917     
   2639063056.0475707     
   2564625620.0601473     
   2497207245.2615628     
   2437262654.2579613     
   2385296255.0739942     
   2530692952.8358192     
   2538489226.1929893     
   2555011735.0812764     
   2580339628.4008369     
   2614543381.9127545     
   2463739171.5269728     
   2458691518.3247037     
   2462282683.5605001     
   2474662714.4284954     
   2495977268.4091992     
   2415928385.1159801     
   2395777914.0954294     
   2384051606.8316517     
   2380995968.8657584     
   2386868070.8426785     
   2389254982.4604917     
   2352140876.0284410     
   2323014765.2939682     
   2302231180.8199172     
   2290186943.4662681     
   2385296255.0739942     
   2329939140.8341751     
   2281843023.0096717     
   2241453113.8360672     
   2209308129.6659131     
   2614543381.9127545     
   2603907100.0528960     
   2604474187.2932682     
   2616361494.8834572     
   2639679679.1665740     
   2495977268.4091992     
   2477792840.0912004     
   2471481823.7487345     
   2477234252.0772820     
   2495212739.6508474     
   2386868070.8426785     
   2358787769.8900523     
   2343379776.3710604     
   2340965690.5606027     
   2351811771.7146649     
   2290186943.4662681     
   2249567132.3051920     
   2222476192.7169518     
   2209451707.1382852     
   2210945924.0761514     
   2209308129.6659131     
   2153302254.8616362     
   2111615186.8508246     
   2085110281.2109036     
   2074547117.2545419     
   2639679679.1665740     
   2600286253.7815237     
   2566957129.7914567     
   2540287215.4539061     
   2521088026.3780560     
   2495212739.6508474     
   2461636147.0825438     
   2436812713.6910000     
   2421709693.9099526     
   2417703467.8088012     
   2351811771.7146649     
   2326365212.2423453     
   2312673355.2557564     
   2312175418.5366087     
   2326954500.7609277     
   2210945924.0761514     
   2195248225.3355303     
   2194808737.2114305     
   2211646940.5058827     
   2248671088.7805109     
   2074547117.2545419     
   2069249819.7993028     
   2083520351.2467141     
   2120063975.1344025     
   2182673501.8278913     
   2521088026.3780560     
   2368168416.5968246     
   2223919580.6855412     
   2093585691.0316205     
   1984415690.6737955     
   2417703467.8088012     
   2290829829.9475875     
   2174991383.8865714     
   2077238538.8117242     
   2006744357.8229675     
   2326954500.7609277     
   2229718480.0990243     
   2146367650.9315996     
   2085606413.6613567     
   2058007776.8382764     
   2248671088.7805109     
   2184615087.9971356     
   2137562925.7022135     
   2117526781.2134492     
   2135808548.7199464     
   2182673501.8278913     
   2155215536.0805421     
   2147911314.8125749     
   2171613864.0508294     
   2237709887.3741455     
   4523770057.5955935     
   4095306332.2191110     
   3717972640.7303429     
   3386002227.0308371     
   3096377284.8434715     
   4809853372.7161493     
   4397889410.1737423     
   4003303131.2557125     
   3625911977.4596753     
   3266218092.2246943     
   4962331258.7015018     
   4592485175.1937094     
   4221248061.2903800     
   3848700185.1007552     
   3475513671.1269455     
   4976856653.4526138     
   4674452414.2929296     
   4367325729.4775505     
   4049875902.3087716     
   3719504084.3685994     
   4865296964.1375713     
   4646984655.2687416     
   4440776684.5334263     
   4226714807.4923134     
   3993800315.5179310     
   3096377284.8434715     
   3046168600.7323737     
   2999567963.9822655     
   2956851456.5008264     
   2918324530.8566775     
   3266218092.2246943     
   3202853111.5628552     
   3142738921.1355543     
   3086047778.0165954     
   3032972067.6196065     
   3475513671.1269455     
   3398937917.3631701     
   3325115138.7933726     
   3253998629.7078447     
   3185589113.0814161     
   3719504084.3685994     
   3630132631.0984898     
   3543007510.9466372     
   3457774368.0881634     
   3374179775.7194924     
   3993800315.5179310     
   3892284787.5299139     
   3792622061.0117173     
   3694093089.7470145     
   3596153320.9993238     
   2918324530.8566775     
   2837897810.5135927     
   2764303998.0546808     
   2697886716.9645543     
   2639063056.0475707     
   3032972067.6196065     
   2932363126.7174206     
   2838145458.9367495     
   2750667406.5609493     
   2670390945.0892129     
   3185589113.0814161     
   3064563473.0659776     
   2949302379.0469980     
   2840095727.7749653     
   2737379883.5545197     
   3374179775.7194924     
   3232726866.2647939     
   3096324080.8321571     
   2965145925.7380967     
   2839531208.4296856     
   3596153320.9993238     
   3434348286.2630014     
   3276880384.9650531     
   3123768915.0045576     
   2975198196.1402807     
   2639063056.0475707     
   2564625620.0601473     
   2497207245.2615628     
   2437262654.2579613     
   2385296255.0739942     
   2670390945.0892129     
   2580956252.3792653     
   2498210698.7486901     
   2422684769.8930006     
   2354996785.7287140     
   2737379883.5545197     
   2632483649.3706670     
   2533760791.1761665     
   2441777442.4374270     
   2357228558.0171695     
   2839531208.4296856     
   2719022516.3470836     
   2604038185.4811401     
   2495132921.6186981     
   2393026027.6355786     
   2975198196.1402807     
   2839144890.3662496     
   2707900885.0218425     
   2581967115.1535769     
   2462033571.4732947     
   2385296255.0739942     
   2329939140.8341751     
   2281843023.0096717     
   2241453113.8360672     
   2209308129.6659131     
   2354996785.7287140     
   2280609820.3922806     
   2212302654.0849805     
   2150578788.5145512     
   2096069616.8143451     
   2357228558.0171695     
   2264820793.6073933     
   2177077166.1770196     
   2094464661.8855166     
   2017604533.3409526     
   2393026027.6355786     
   2284523977.8151031     
   2179207565.5964684     
   2077411533.3114898     
   1979621832.9586003     
   2462033571.4732947     
   2340069473.7242861     
   2219965364.9107857     
   2101874091.7190769     
   1986063258.9548259     
   2209308129.6659131     
   2153302254.8616362     
   2111615186.8508246     
   2085110281.2109036     
   2074547117.2545419     
   2096069616.8143451     
   2019274788.2195699     
   1954274287.3803396     
   1902222195.0021548     
   1864234016.3599122     
   2017604533.3409526     
   1918538171.1846747     
   1827699841.2093751     
   1746338518.8786201     
   1675836380.4504373     
   1979621832.9586003     
   1859818954.0261648     
   1743831361.5724382     
   1632593308.7020669     
   1527314559.0195754     
   1986063258.9548259     
   1850621560.7465086     
   1714657601.6991341     
   1578499105.3085914     
   1442711106.8163819     
   2074547117.2545419     
   2069249819.7993028     
   2083520351.2467141     
   2120063975.1344025     
   2182673501.8278913     
   1864234016.3599122     
   1852187037.2906780     
   1863261724.9213896     
   1899758892.6765358     
   1964739701.3277402     
   1675836380.4504373     
   1646258088.7967832     
   1644405360.8019030     
   1672740692.4123952     
   1733934781.9556453     
   1527314559.0195754     
   1465998291.1264718     
   1437293713.5666604     
   1445239062.2282617     
   1493196045.9082708     
   1442711106.8163819     
   1333960130.6274014     
   1260098737.1058583     
   1229300878.2017186     
   1248657238.9712470     
   2182673501.8278913     
   2155215536.0805421     
   2147911314.8125749     
   2171613864.0508294     
   2237709887.3741455     
   1964739701.3277402     
   1965711098.0233414     
   2003703535.0216997     
   2097585191.7167614     
   2266118011.8152394     
   1733934781.9556453     
   1782208350.9813390     
   1883026585.7753723     
   2063308007.3166728     
   2348142104.6283774     
   1493196045.9082708     
   1605390790.0474937     
   1785130909.1277323     
   2066957874.3146193     
   2480715099.9140196     
   1248657238.9712470     
   1436255832.6789384     
   1709453489.3664026     
   2108334990.1134970     
   2664782771.2675395     
   4865296964.1375713     
   4646984655.2687416     
   4440776684.5334263     
   4226714807.4923134     
   3993800315.5179310     
   5695717906.2735138     
   5283280719.8700457     
   4936342955.9351234     
   4637704726.9186964     
   4377856810.8147459     
   7424303721.5357723     
   6596712625.9058647     
   5917508014.4835024     
   5350034503.0222101     
   4871420018.3265791     
   9938161968.4271030     
   8551313964.6244268     
   7380266763.1286097     
   6366643399.7016506     
   5474502647.3997459     
   13261081876.911896     
   11168895338.888166     
   9338498986.7029953     
   7693064092.9276028     
   6187356829.2229691     
   3993800315.5179310     
   3892284787.5299139     
   3792622061.0117173     
   3694093089.7470145     
   3596153320.9993238     
   4377856810.8147459     
   4233553213.4119358     
   4096709147.8030024     
   3966357386.7338009     
   3841822890.2342510     
   4871420018.3265791     
   4665129182.8573408     
   4472178957.2050066     
   4290357065.7564592     
   4118095708.6820455     
   5474502647.3997459     
   5187323527.0743713     
   4918639552.1252804     
   4664490167.9953527     
   4422021015.1185398     
   6187356829.2229691     
   5799914252.7771807     
   5435030600.8494930     
   5086820536.1058950     
   4750974421.0397635     
   3596153320.9993238     
   3434348286.2630014     
   3276880384.9650531     
   3123768915.0045576     
   2975198196.1402807     
   3841822890.2342510     
   3660934617.0673137     
   3483292771.6726265     
   3308795978.3714399     
   3137470516.9810281     
   4118095708.6820455     
   3918961633.7936058     
   3722299842.3091087     
   3527899536.5317183     
   3335638422.6818347     
   4422021015.1185398     
   4205414133.8498306     
   3990794109.6258841     
   3777864662.2890759     
   3566384341.9486160     
   4750974421.0397635     
   4517549059.7619877     
   4285870798.0646534     
   4055584618.3635969     
   3826365268.0211272     
   2975198196.1402807     
   2839144890.3662496     
   2707900885.0218425     
   2581967115.1535769     
   2462033571.4732947     
   3137470516.9810281     
   2985580307.4338865     
   2837305594.2590470     
   2692970888.6060748     
   2553063566.4321785     
   3335638422.6818347     
   3169555066.0414457     
   3006157216.7946229     
   2845598223.4246650     
   2688154518.3593602     
   3566384341.9486160     
   3387830909.2587295     
   3211328517.6756392     
   3036892640.2739115     
   2864622575.4722590     
   3826365268.0211272     
   3636986756.5612307     
   3449305417.2742996     
   3263242310.9306526     
   3078772026.7963324     
   2462033571.4732947     
   2340069473.7242861     
   2219965364.9107857     
   2101874091.7190769     
   1986063258.9548259     
   2553063566.4321785     
   2416351613.4878526     
   2281617034.6772161     
   2148940257.0207753     
   2018549250.6484590     
   2688154518.3593602     
   2535480826.5175333     
   2384547748.3930254     
   2235251662.7236686     
   2087660546.7039218     
   2864622575.4722590     
   2694401428.4969468     
   2525405918.9985895     
   2357255131.3385706     
   2189746762.0088706     
   3078772026.7963324     
   2889053990.3322268     
   2699877290.0757728     
   2510521693.8034105     
   2320433688.8312674     
   1986063258.9548259     
   1850621560.7465086     
   1714657601.6991341     
   1578499105.3085914     
   1442711106.8163819     
   2018549250.6484590     
   1878998387.7112918     
   1738813881.6853771     
   1598059766.5251052     
   1456844694.2786131     
   2087660546.7039218     
   1947802545.7111814     
   1807968737.1731462     
   1668147941.2802145     
   1528334687.5109794     
   2189746762.0088706     
   2051584976.9086852     
   1914559698.0583870     
   1778671370.0061820     
   1643990700.2276626     
   2320433688.8312674     
   2184188564.4878416     
   2050366700.5911469     
   1918981124.8776925     
   1790230101.0308635     
   1442711106.8163819     
   1333960130.6274014     
   1260098737.1058583     
   1229300878.2017186     
   1248657238.9712470     
   1456844694.2786131     
   1314116295.6469643     
   1185801364.9881942     
   1076220760.9978893     
   991104691.03524530     
   1528334687.5109794     
   1381509114.0189521     
   1231189500.8880165     
   1074882105.2752442     
   910378210.00125837     
   1643990700.2276626     
   1533216842.2153621     
   1413486015.9304969     
   1285002917.5655940     
   1153976374.2013693     
   1790230101.0308635     
   1755829746.2643592     
   1718109838.5196645     
   1685563173.0334301     
   1676768909.8760030     
   1248657238.9712470     
   1436255832.6789384     
   1709453489.3664026     
   2108334990.1134970     
   2664782771.2675395     
   991104691.03524530     
   1156558899.2350688     
   1420573247.8480349     
   1807076001.2245779     
   2335637709.1091714     
   910378210.00125837     
   957138665.95489776     
   1141289751.6134133     
   1475249431.7742496     
   1958010024.6101823     
   1153976374.2013693     
   1004253518.8278126     
   982446760.58147871     
   1160513704.6383085     
   1544357587.0327599     
   1676768909.8760030     
   1380296749.2597418     
   1127169822.6971092     
   1009215334.2204072     
   1153023565.7380099     
 </DataArray>
 <DataArray  type="Float64" Name="strain" NumberOfComponents="3" format="ascii">
  0.20441088006663033       -5.6256348873963580E-002  0.12996478186448712     
  0.17864074224910043       -4.4790307931936502E-002   8.6959608049150372E-002
  0.15287060443157058       -3.6166249245268345E-002   5.6500291128856572E-002
  0.12710046661404081       -3.0384172813958943E-002   3.8586831103605890E-002
  0.10133032879651094       -2.7444078638008240E-002   3.3219227973398158E-002
  0.14900700670450395       -4.6591022895263068E-002  0.10725416201008253     
  0.13399196585678241       -3.6622514471331746E-002   7.5906568735509217E-002
  0.11897692500906071       -2.9265053754979065E-002   5.3523312505509457E-002
  0.10396188416133909       -2.4518640746204953E-002   4.0104393320083059E-002
   8.8946843313617463E-002  -2.2383275445009398E-002   3.5649811179230328E-002
  0.10977798878984465       -3.6925696916562556E-002   8.2930542363691628E-002
  0.10193652506146170       -2.8454721010727213E-002   6.3471464177662418E-002
   9.4095061333078697E-002  -2.2363858264690006E-002   4.9395203185736869E-002
   8.6253597604695698E-002  -1.8653108678451075E-002   4.0701759387915537E-002
   7.8412133876312712E-002  -1.7322472252010279E-002   3.7391132784197839E-002
   8.6723826322652409E-002  -2.7260370937862016E-002   5.6993922925314772E-002
   8.2474419863138498E-002  -2.0286927550122499E-002   4.9654294375609850E-002
   7.8225013403624644E-002  -1.5462662774400893E-002   4.4115963169539141E-002
   7.3975606944110775E-002  -1.2787576610697141E-002   4.0378929307102851E-002
   6.9726200484596879E-002  -1.2261669059011188E-002   3.8443192788300766E-002
   7.9844519302926964E-002  -1.7595044959161477E-002   2.9444303694952156E-002
   7.5605650261812707E-002  -1.2119134089517924E-002   3.4455059329351501E-002
   7.1366781220698478E-002  -8.5614672841118067E-003   3.7685592456915717E-002
   6.7127912179584179E-002  -6.9220445429432412E-003   3.9135903077645112E-002
   6.2889043138469908E-002  -7.2008658660122626E-003   3.8805991191538824E-002
  0.10133032879651094       -2.7444078638008240E-002   3.3219227973398158E-002
   9.5740345479229383E-002  -2.5993476005513216E-002   2.5371977340429952E-002
   9.0150362161947772E-002  -2.4679874204570768E-002   1.9383168471809820E-002
   8.4560378844666217E-002  -2.3503273235180068E-002   1.5252801367537094E-002
   7.8970395527384607E-002  -2.2463673097342318E-002   1.2980876027612109E-002
   8.8946843313617463E-002  -2.2383275445009398E-002   3.5649811179230328E-002
   8.4996371979419227E-002  -2.1568653293579459E-002   2.9348687098834120E-002
   8.1045900645221103E-002  -2.0784469734102917E-002   2.4468145220256976E-002
   7.7095429311022950E-002  -2.0030724766579286E-002   2.1008185543499272E-002
   7.3144957976824743E-002  -1.9307418391008802E-002   1.8968808068560772E-002
   7.8412133876312712E-002  -1.7322472252010279E-002   3.7391132784197839E-002
   7.5663314962669453E-002  -1.7143830581645508E-002   3.2742697495972750E-002
   7.2914496049026223E-002  -1.6889065263634720E-002   2.9076984847038342E-002
   7.0165677135382978E-002  -1.6558176297977834E-002   2.6393994837394803E-002
   6.7416858221739706E-002  -1.6151163684675340E-002   2.4693727467041626E-002
   6.9726200484596879E-002  -1.2261669059011188E-002   3.8443192788300766E-002
   6.7741174428980033E-002  -1.2719007869711710E-002   3.5554008531845857E-002
   6.5756148373363146E-002  -1.2993660793166918E-002   3.3209687352153225E-002
   6.3771122317746259E-002  -1.3085627829376939E-002   3.1410229249222626E-002
   6.1786096262129407E-002  -1.2994908978341629E-002   3.0155634223054006E-002
   6.2889043138469908E-002  -7.2008658660122626E-003   3.8805991191538824E-002
   6.1229950378350884E-002  -8.2941851577777725E-003   3.7782620206453593E-002
   5.9570857618231846E-002  -9.0982563226989221E-003   3.6866252735601651E-002
   5.7911764858112814E-002  -9.6130793607757462E-003   3.6056888778983484E-002
   5.6252672097993783E-002  -9.8386542720080850E-003   3.5354528336598634E-002
   7.8970395527384607E-002  -2.2463673097342318E-002   1.2980876027612109E-002
   7.5179376894548566E-002  -2.1482683640566991E-002   1.0753797111026753E-002
   7.1388358261712526E-002  -2.0481914714365557E-002   8.8310167286090868E-003
   6.7597339628876513E-002  -1.9461366318737461E-002   7.2125348803585843E-003
   6.3806320996040444E-002  -1.8421038453682592E-002   5.8983515662753838E-003
   7.3144957976824743E-002  -1.9307418391008802E-002   1.8968808068560772E-002
   6.9657806615254558E-002  -1.8579470393611408E-002   1.6868386337065444E-002
   6.6170655253684318E-002  -1.7811800560607216E-002   1.5071400613933889E-002
   6.2683503892114162E-002  -1.7004408891995851E-002   1.3577850899167090E-002
   5.9196352530543894E-002  -1.6157295387777437E-002   1.2387737192763870E-002
   6.7416858221739706E-002  -1.6151163684675340E-002   2.4693727467041626E-002
   6.4232711605632042E-002  -1.5676257146655742E-002   2.2739905286816298E-002
   6.1048564989524309E-002  -1.5141686406848764E-002   2.1088656589151974E-002
   5.7864418373416639E-002  -1.4547451465254463E-002   1.9739981374048421E-002
   5.4680271757308940E-002  -1.3893552321872671E-002   1.8693879641506012E-002
   6.1786096262129407E-002  -1.2994908978341629E-002   3.0155634223054006E-002
   5.8904091865680949E-002  -1.2773043899700007E-002   2.8368353960279410E-002
   5.6022087469232540E-002  -1.2471572253090368E-002   2.6882784654262630E-002
   5.3140083072784138E-002  -1.2090494038513186E-002   2.5698926305003512E-002
   5.0258078676335659E-002  -1.1629809255967932E-002   2.4816778912501815E-002
   5.6252672097993783E-002  -9.8386542720080850E-003   3.5354528336598634E-002
   5.3671947395401348E-002  -9.8698306527443547E-003   3.3753732357455379E-002
   5.1091222692808913E-002  -9.8014580993319861E-003   3.2453784809266306E-002
   4.8510497990216450E-002  -9.6335366117718570E-003   3.1454685692031567E-002
   4.5929773287624043E-002  -9.3660661900629716E-003   3.0756435005751315E-002
   6.3806320996040444E-002  -1.8421038453682592E-002   5.8983515662753838E-003
   6.0690300976417144E-002  -1.7419832917685452E-002   5.0797319229011206E-003
   5.7574280956793955E-002  -1.6516651509230734E-002   4.4274865292264765E-003
   5.4458260937170683E-002  -1.5711494228318072E-002   3.9416153852534219E-003
   5.1342240917547466E-002  -1.5004361074947070E-002   3.6221184909799309E-003
   5.9196352530543894E-002  -1.6157295387777437E-002   1.2387737192763870E-002
   5.6254121461333240E-002  -1.5335655944139714E-002   1.1576072900208068E-002
   5.3311890392122502E-002  -1.4604686457269950E-002   1.0945612258777382E-002
   5.0369659322911833E-002  -1.3964386927167276E-002   1.0496355268471091E-002
   4.7427428253701165E-002  -1.3414757353832796E-002   1.0228301929289696E-002
   5.4680271757308940E-002  -1.3893552321872671E-002   1.8693879641506012E-002
   5.1926659039935180E-002  -1.3251478970594033E-002   1.7896524870543884E-002
   4.9173046322561406E-002  -1.2692721405308735E-002   1.7295203152130637E-002
   4.6419433605187639E-002  -1.2217279626016816E-002   1.6889914486266235E-002
   4.3665820887813844E-002  -1.1825153632718077E-002   1.6680658872951115E-002
   5.0258078676335659E-002  -1.1629809255967932E-002   2.4816778912501815E-002
   4.7707913712223153E-002  -1.1167301997048434E-002   2.4041087833907064E-002
   4.5157748748110654E-002  -1.0780756353347735E-002   2.3476259209285751E-002
   4.2607583783998190E-002  -1.0470172324866299E-002   2.3122293038638102E-002
   4.0057418819885636E-002  -1.0235549911603692E-002   2.2979189321963425E-002
   4.5929773287624043E-002  -9.3660661900629716E-003   3.0756435005751315E-002
   4.3597885478197151E-002  -9.0831250235028915E-003   3.0009761790298572E-002
   4.1265997668770232E-002  -8.8687913013869302E-003   2.9488780430243722E-002
   3.8934109859343327E-002  -8.7230650237157745E-003   2.9193490925586513E-002
   3.6602222049916422E-002  -8.6459461904891954E-003   2.9123893276326918E-002
   5.1342240917547466E-002  -1.5004361074947070E-002   3.6221184909799309E-003
   4.8163440489727760E-002  -1.4310129319195619E-002   1.9654952545662407E-003
   4.4984640061908054E-002  -1.3543676231141888E-002   7.3711621131122840E-004
   4.1805839634088376E-002  -1.2705001810784447E-002  -6.3018638784551051E-005
   3.8627039206268643E-002  -1.1794106058124809E-002  -4.3490929572098658E-004
   4.7427428253701165E-002  -1.3414757353832796E-002   1.0228301929289696E-002
   4.4637433040920826E-002  -1.2870679278541797E-002   8.7613391592074041E-003
   4.1847437828140599E-002  -1.2247034242570676E-002   7.6437426260443919E-003
   3.9057442615360316E-002  -1.1543822245919044E-002   6.8755123298017140E-003
   3.6267447402580033E-002  -1.0761043288586736E-002   6.4566482704782047E-003
   4.3665820887813844E-002  -1.1825153632718077E-002   1.6680658872951115E-002
   4.1185752933833863E-002  -1.1431229237887419E-002   1.5410702197577120E-002
   3.8705684979853813E-002  -1.0950392253998770E-002   1.4411233802883477E-002
   3.6225617025873770E-002  -1.0382642681052524E-002   1.3682253688870882E-002
   3.3745549071893755E-002  -9.7279805190481072E-003   1.3223761855538529E-002
   4.0057418819885636E-002  -1.0235549911603692E-002   2.2979189321963425E-002
   3.7808400168466635E-002  -9.9917791972328751E-003   2.1913584369675443E-002
   3.5559381517047725E-002  -9.6537502654274326E-003   2.1039589741828721E-002
   3.3310362865628822E-002  -9.2214631161858969E-003   2.0357205438423464E-002
   3.1061344214209814E-002  -8.6949177495099783E-003   1.9866431459459918E-002
   3.6602222049916422E-002  -8.6459461904891954E-003   2.9123893276326918E-002
   3.4505374744819406E-002  -8.5523291565787196E-003   2.8269985675502374E-002
   3.2408527439722307E-002  -8.3571082768556237E-003   2.7528810442879748E-002
   3.0311680134625263E-002  -8.0602835513199286E-003   2.6900367578459733E-002
   2.8214832829528191E-002  -7.6618549799712943E-003   2.6384657082241914E-002
   3.8627039206268643E-002  -1.1794106058124809E-002  -4.3490929572098658E-004
   3.6397854345311065E-002  -1.0936988615717680E-002  -4.8083262163278739E-004
   3.4168669484353542E-002  -1.0259649126119486E-002  -5.7126948481023287E-004
   3.1939484623395992E-002  -9.7620875893289355E-003  -7.0621988525343404E-004
   2.9710299762438441E-002  -9.4443040053466820E-003  -8.8568382296205783E-004
   3.6267447402580033E-002  -1.0761043288586736E-002   6.4566482704782047E-003
   3.3995285247672369E-002  -9.9903582057354612E-003   6.1081883296589812E-003
   3.1723123092764760E-002  -9.3234278325268760E-003   5.7182873382052857E-003
   2.9450960937857207E-002  -8.7602521689612439E-003   5.2869452961177843E-003
   2.7178798782949487E-002  -8.3008312150378849E-003   4.8141622033947007E-003
   3.3745549071893755E-002  -9.7279805190481072E-003   1.3223761855538529E-002
   3.1433482109667316E-002  -9.0437277957532980E-003   1.2648788542977851E-002
   2.9121415147440918E-002  -8.3872065389354045E-003   1.2035446666413901E-002
   2.6809348185214514E-002  -7.7584167485937813E-003   1.1383736225846861E-002
   2.4497281222988082E-002  -7.1573584247283106E-003   1.0693657221276520E-002
   3.1061344214209814E-002  -8.6949177495099783E-003   1.9866431459459918E-002
   2.8712444931295829E-002  -8.0970973857711070E-003   1.9140968018323226E-002
   2.6363545648381895E-002  -7.4509852453431419E-003   1.8380208499814983E-002
   2.4014646365467962E-002  -6.7565813282259822E-003   1.7584152903934714E-002
   2.1665747082553970E-002  -6.0138856344190139E-003   1.6752801230682707E-002
   2.8214832829528191E-002  -7.6618549799712943E-003   2.6384657082241914E-002
   2.5832173712557971E-002  -7.1504669757888051E-003   2.5584726755695897E-002
   2.3449514595587750E-002  -6.5147639517514344E-003   2.4752572838408982E-002
   2.1066855478617488E-002  -5.7547459078580998E-003   2.3888195330381723E-002
   1.8684196361647309E-002  -4.8704128441099392E-003   2.2991594231613566E-002
   2.9710299762438441E-002  -9.4443040053466820E-003  -8.8568382296205783E-004
   2.9205946962736928E-002  -9.0107862068673494E-003  -5.3825300724330560E-004
   2.8701594163035360E-002  -8.1660220265851180E-003  -1.9046683631873673E-003
   2.8197241363333764E-002  -6.9100114645002098E-003  -4.9849298907939654E-003
   2.7692888563632279E-002  -5.2427545206110704E-003  -9.7790375900637105E-003
   2.7178798782949487E-002  -8.3008312150378849E-003   4.8141622033947007E-003
   2.5231594795988410E-002  -7.7879840776566844E-003   5.5934981522254290E-003
   2.3284390809027389E-002  -7.0645298637168619E-003   5.2009778981990662E-003
   2.1337186822066340E-002  -6.1304685732208042E-003   3.6366014413171110E-003
   1.9389982835105402E-002  -4.9858002061657913E-003   9.0036878157895295E-004
   2.4497281222988082E-002  -7.1573584247283106E-003   1.0693657221276520E-002
   2.1649216017574274E-002  -6.5651819484452423E-003   1.1704258997972505E-002
   1.8801150812160453E-002  -5.9630377008494939E-003   1.2084994540619065E-002
   1.5953085606746568E-002  -5.3509256819418427E-003   1.1835863849216588E-002
   1.3105020401332768E-002  -4.7288458917210674E-003   1.0956866923764685E-002
   2.1665747082553970E-002  -6.0138856344190139E-003   1.6752801230682707E-002
   1.8458810627494167E-002  -5.3423798192339667E-003   1.7794029529999256E-002
   1.5251874172434416E-002  -4.8615455379819039E-003   1.8747381564073573E-002
   1.2044937717374636E-002  -4.5713827906624371E-003   1.9612857332904972E-002
   8.8380012623148624E-003  -4.4718915772760659E-003   2.0390456836493917E-002
   1.8684196361647309E-002  -4.8704128441099392E-003   2.2991594231613566E-002
   1.5660378625748317E-002  -4.1195776900228576E-003   2.3862809748305569E-002
   1.2636560889849352E-002  -3.7600533751140641E-003   2.5188138968561813E-002
   9.6127431539503871E-003  -3.7918398993834687E-003   2.6967581892381659E-002
   6.5889254180513945E-003  -4.2149372628309534E-003   2.9201138519766690E-002
   2.7692888563632279E-002  -5.2427545206110704E-003  -9.7790375900637105E-003
   2.3292262954245135E-002  -4.1782816083071328E-003  -4.2277135850419256E-003
   1.8891637344858103E-002  -4.7306231409749988E-003   2.5862767233671979E-003
   1.4491011735470849E-002  -6.8997791186151264E-003   1.0662933335164382E-002
   1.0090386126083928E-002  -1.0685749541227807E-002   2.0002256250347905E-002
   1.9389982835105402E-002  -4.9858002061657913E-003   9.0036878157895295E-004
   1.6178867160848376E-002  -4.6877944671657179E-003   6.6361063242790230E-003
   1.2967751486591572E-002  -6.2937210608319250E-003   1.3488197433852878E-002
   9.7566358123346575E-003  -9.8035799871636631E-003   2.1456642110298851E-002
   6.5455201380777428E-003  -1.5217371246162514E-002   3.0541440353618832E-002
   1.3105020401332768E-002  -4.7288458917210674E-003   1.0956866923764685E-002
   1.0937101925691917E-002  -5.1973073260246361E-003   1.6589900116449008E-002
   8.7691834500509824E-003  -7.8568189806886013E-003   2.3192974139491979E-002
   6.6012649744100482E-003  -1.2707380855712748E-002   3.0766088992894139E-002
   4.4333464987691418E-003  -1.9748992951096778E-002   3.9309244676655419E-002
   8.8380012623148624E-003  -4.4718915772760659E-003   2.0390456836493917E-002
   7.5669672487756745E-003  -5.7068201848831657E-003   2.5633667791468612E-002
   6.2959332352366601E-003  -9.4199169005447364E-003   3.1700606840287325E-002
   5.0248992216975208E-003  -1.5611181724260671E-002   3.8591273982951729E-002
   3.7538652081585688E-003  -2.4280614656031263E-002   4.6305669219459666E-002
   6.5889254180513945E-003  -4.2149372628309534E-003   2.9201138519766690E-002
   6.0684631300998992E-003  -6.2163330437422504E-003   3.3767409349336752E-002
   5.5480008421483207E-003  -1.0983014820401121E-002   3.9011095536237772E-002
   5.0275385541968254E-003  -1.8514982592809211E-002   4.4932197080469277E-002
   4.5070762662452468E-003  -2.8812236360965748E-002   5.1530713982030907E-002
   7.9844519302926964E-002  -1.7595044959161477E-002   2.9444303694952156E-002
   7.5605650261812707E-002  -1.2119134089517924E-002   3.4455059329351501E-002
   7.1366781220698478E-002  -8.5614672841118067E-003   3.7685592456915717E-002
   6.7127912179584179E-002  -6.9220445429432412E-003   3.9135903077645112E-002
   6.2889043138469908E-002  -7.2008658660122626E-003   3.8805991191538824E-002
   7.9498664818141274E-002  -1.1567817113601109E-002   4.3649725967991604E-002
   7.3892828322804027E-002  -8.4169632843230924E-003   4.4420738051376807E-002
   6.8286991827466725E-002  -6.4379618428849761E-003   4.4238037733151131E-002
   6.2681155332129437E-002  -5.6308127892869680E-003   4.3101625013314548E-002
   5.7075318836792177E-002  -5.9955161235289156E-003   4.1011499891867004E-002
   7.6044859955767971E-002  -5.5405892680406577E-003   5.5156895362466596E-002
   6.9898566111431915E-002  -4.7147924791282603E-003   5.2434555571235247E-002
   6.3752272267095927E-002  -4.3144564016582426E-003   4.9585013483617060E-002
   5.7605978422759857E-002  -4.3395810356307192E-003   4.6608269099612139E-002
   5.1459684578423766E-002  -4.7901663810455408E-003   4.3504322419220962E-002
   6.9483104715807015E-002   4.8663857751973794E-004   6.3965811878377465E-002
   6.3622863627696535E-002  -1.0126216739334559E-003   5.8496511888926628E-002
   5.7762622539586007E-002  -2.1909509604314328E-003   5.3726519708313769E-002
   5.1902381451475410E-002  -3.0483492819744582E-003   4.9655835336538334E-002
   4.6042140363364931E-002  -3.5848166385622909E-003   4.6284458773600622E-002
   5.9813399098258446E-002   6.5138664230801613E-003   7.0076475515723657E-002
   5.5065720871597695E-002   2.6895491312614039E-003   6.2606607004451365E-002
   5.0318042644936944E-002  -6.7445519204720195E-005   5.6662556407241077E-002
   4.5570364418276194E-002  -1.7571175283181382E-003   5.2244323724092698E-002
   4.0822686191615443E-002  -2.3794668960788745E-003   4.9351908955006185E-002
   6.2889043138469908E-002  -7.2008658660122626E-003   3.8805991191538824E-002
   6.1229950378350884E-002  -8.2941851577777725E-003   3.7782620206453593E-002
   5.9570857618231846E-002  -9.0982563226989221E-003   3.6866252735601651E-002
   5.7911764858112814E-002  -9.6130793607757462E-003   3.6056888778983484E-002
   5.6252672097993783E-002  -9.8386542720080850E-003   3.5354528336598634E-002
   5.7075318836792177E-002  -5.9955161235289156E-003   4.1011499891867004E-002
   5.5522062230836403E-002  -6.8450679071116322E-003   4.0430753398022226E-002
   5.3968805624880642E-002  -7.4924642015360907E-003   3.9954675698270117E-002
   5.2415549018924854E-002  -7.9377050068022408E-003   3.9583266792611073E-002
   5.0862292412969107E-002  -8.1807903229102474E-003   3.9316526681045155E-002
   5.1459684578423766E-002  -4.7901663810455408E-003   4.3504322419220962E-002
   5.0009929406490738E-002  -5.3959506564454779E-003   4.3279107778930410E-002
   4.8560174234557704E-002  -5.8866720803733702E-003   4.3156227212592296E-002
   4.7110419062624691E-002  -6.2623306528289575E-003   4.3135680720206612E-002
   4.5660663890691636E-002  -6.5229263738123822E-003   4.3217468301773240E-002
   4.6042140363364931E-002  -3.5848166385622909E-003   4.6284458773600622E-002
   4.4693551905314016E-002  -3.9468334057794416E-003   4.6327683349178334E-002
   4.3344963447263102E-002  -4.2808799592105942E-003   4.6470907278567952E-002
   4.1996374989212180E-002  -4.5869562988556743E-003   4.6714130561769429E-002
   4.0647786531161322E-002  -4.8650624247144753E-003   4.7057353198782598E-002
   4.0822686191615443E-002  -2.3794668960788745E-003   4.9351908955006185E-002
   3.9572929727306111E-002  -2.4977161551131832E-003   4.9576480108766086E-002
   3.8323173262996793E-002  -2.6750878380477627E-003   4.9898715896197460E-002
   3.7073416798687468E-002  -2.9115819448820718E-003   5.0318616317299919E-002
   3.5823660334378143E-002  -3.2071984756166239E-003   5.0836181372073574E-002
   5.6252672097993783E-002  -9.8386542720080850E-003   3.5354528336598634E-002
   5.3671947395401348E-002  -9.8698306527443547E-003   3.3753732357455379E-002
   5.1091222692808913E-002  -9.8014580993319861E-003   3.2453784809266306E-002
   4.8510497990216450E-002  -9.6335366117718570E-003   3.1454685692031567E-002
   4.5929773287624043E-002  -9.3660661900629716E-003   3.0756435005751315E-002
   5.0862292412969107E-002  -8.1807903229102474E-003   3.9316526681045155E-002
   4.8570284555724930E-002  -8.2764833003463045E-003   3.7988439340209623E-002
   4.6278276698480753E-002  -8.2795470895971751E-003   3.6936937259116384E-002
   4.3986268841236589E-002  -8.1899816906625851E-003   3.6162020437765084E-002
   4.1694260983992398E-002  -8.0077871035426629E-003   3.5663688876156285E-002
   4.5660663890691636E-002  -6.5229263738123822E-003   4.3217468301773240E-002
   4.3633109707583474E-002  -6.6831359479485458E-003   4.2155169853282701E-002
   4.1605555524475396E-002  -6.7576360798621352E-003   4.1345193493322059E-002
   3.9578001341367228E-002  -6.7464267695534780E-003   4.0787539221891420E-002
   3.7550447158259101E-002  -6.6495080170222431E-003   4.0482207038990692E-002
   4.0647786531161322E-002  -4.8650624247144753E-003   4.7057353198782598E-002
   3.8860422850977017E-002  -5.0897885955505304E-003   4.6253923896674112E-002
   3.7073059170792705E-002  -5.2357250701272652E-003   4.5678553511883525E-002
   3.5285695490608393E-002  -5.3028718484442331E-003   4.5331242044410469E-002
   3.3498331810424095E-002  -5.2912289305017124E-003   4.5211989494255304E-002
   3.5823660334378143E-002  -3.2071984756166239E-003   5.0836181372073574E-002
   3.4252223985905494E-002  -3.4964412431527647E-003   5.0284701470384385E-002
   3.2680787637432790E-002  -3.7138140603922981E-003   4.9937017314800575E-002
   3.1109351288960155E-002  -3.8593169273351026E-003   4.9793128905322129E-002
   2.9537914940487464E-002  -3.9329498439814037E-003   4.9853036241949478E-002
   4.5929773287624043E-002  -9.3660661900629716E-003   3.0756435005751315E-002
   4.3597885478197151E-002  -9.0831250235028915E-003   3.0009761790298572E-002
   4.1265997668770232E-002  -8.8687913013869302E-003   2.9488780430243722E-002
   3.8934109859343327E-002  -8.7230650237157745E-003   2.9193490925586513E-002
   3.6602222049916422E-002  -8.6459461904891954E-003   2.9123893276326918E-002
   4.1694260983992398E-002  -8.0077871035426629E-003   3.5663688876156285E-002
   3.9583039525966646E-002  -7.8079093503952701E-003   3.4940753484317549E-002
   3.7471818067940851E-002  -7.6652944533781298E-003   3.4433458939883643E-002
   3.5360596609915078E-002  -7.5799424124912626E-003   3.4141805242853776E-002
   3.3249375151889332E-002  -7.5518532277346617E-003   3.4065792393228878E-002
   3.7550447158259101E-002  -6.6495080170222431E-003   4.0482207038990692E-002
   3.5649841043641189E-002  -6.5326936772878430E-003   3.9794354059080689E-002
   3.3749234929023271E-002  -6.4617976053692322E-003   3.9312090918581941E-002
   3.1848628814405283E-002  -6.4368198012667542E-003   3.9035417617494315E-002
   2.9948022699787372E-002  -6.4577602649802945E-003   3.8964334155818098E-002
   3.3498331810424095E-002  -5.2912289305017124E-003   4.5211989494255304E-002
   3.1798290031220762E-002  -5.2574780041804298E-003   4.4570563514588164E-002
   3.0098248252017429E-002  -5.2583007573604942E-003   4.4124676366338975E-002
   2.8398206472814071E-002  -5.2936971900423551E-003   4.3874328049507638E-002
   2.6698164693610769E-002  -5.3636673022257886E-003   4.3819518564094419E-002
   2.9537914940487464E-002  -3.9329498439814037E-003   4.9853036241949478E-002
   2.8028386488705426E-002  -3.9822623310729610E-003   4.9269381850839455E-002
   2.6518858036923387E-002  -4.0548039093516730E-003   4.8871215283154246E-002
   2.5009329585141321E-002  -4.1505745788177409E-003   4.8658536538893710E-002
   2.3499801133359310E-002  -4.2695743394713936E-003   4.8631345618057598E-002
   3.6602222049916422E-002  -8.6459461904891954E-003   2.9123893276326918E-002
   3.4505374744819406E-002  -8.5523291565787196E-003   2.8269985675502374E-002
   3.2408527439722307E-002  -8.3571082768556237E-003   2.7528810442879748E-002
   3.0311680134625263E-002  -8.0602835513199286E-003   2.6900367578459733E-002
   2.8214832829528191E-002  -7.6618549799712943E-003   2.6384657082241914E-002
   3.3249375151889332E-002  -7.5518532277346617E-003   3.4065792393228878E-002
   3.1271577394301947E-002  -7.4978467621796274E-003   3.3375047049406914E-002
   2.9293779636714534E-002  -7.3347428788969882E-003   3.2809668432401851E-002
   2.7315981879127149E-002  -7.0625415778869868E-003   3.2369656542213618E-002
   2.5338184121539792E-002  -6.6812428591491724E-003   3.2055011378842480E-002
   2.9948022699787372E-002  -6.4577602649802945E-003   3.8964334155818098E-002
   2.8101908848324419E-002  -6.4433643677806740E-003   3.8444244640913339E-002
   2.6255794996861412E-002  -6.3123774809384775E-003   3.8062156211440573E-002
   2.4409681145398446E-002  -6.0647996044539375E-003   3.7818068867399364E-002
   2.2563567293935452E-002  -5.7006307383268839E-003   3.7711982608789968E-002
   2.6698164693610769E-002  -5.3636673022257886E-003   4.3819518564094419E-002
   2.4996369106886837E-002  -5.3888819733815957E-003   4.3477578450022293E-002
   2.3294573520162929E-002  -5.2900120829797934E-003   4.3286273779996401E-002
   2.1592777933438979E-002  -5.0670576310209419E-003   4.3245604554016950E-002
   1.9890982346715092E-002  -4.7200186175045677E-003   4.3355570772084337E-002
   2.3499801133359310E-002  -4.2695743394713936E-003   4.8631345618057598E-002
   2.1954958169989158E-002  -4.3343995789826284E-003   4.8475048476732729E-002
   2.0410115206619034E-002  -4.2676466850212758E-003   4.8482021138069320E-002
   1.8865272243248923E-002  -4.0693156575880435E-003   4.8652263602066759E-002
   1.7320429279878813E-002  -3.7394064966823626E-003   4.8985775868725323E-002
   2.8214832829528191E-002  -7.6618549799712943E-003   2.6384657082241914E-002
   2.5832173712557971E-002  -7.1504669757888051E-003   2.5584726755695897E-002
   2.3449514595587750E-002  -6.5147639517514344E-003   2.4752572838408982E-002
   2.1066855478617488E-002  -5.7547459078580998E-003   2.3888195330381723E-002
   1.8684196361647309E-002  -4.8704128441099392E-003   2.2991594231613566E-002
   2.5338184121539792E-002  -6.6812428591491724E-003   3.2055011378842480E-002
   2.2958749380004806E-002  -6.2080234610664697E-003   3.1492090379265314E-002
   2.0579314638469917E-002  -5.6600601220209990E-003   3.0967841721299544E-002
   1.8199879896934980E-002  -5.0373528420127808E-003   3.0482265404944697E-002
   1.5820445155400042E-002  -4.3399016210419195E-003   3.0035361430201413E-002
   2.2563567293935452E-002  -5.7006307383268839E-003   3.7711982608789968E-002
   2.0258252860187592E-002  -5.2655799463436348E-003   3.7336499857289235E-002
   1.7952938426439795E-002  -4.8053562922903414E-003   3.7070585379751636E-002
   1.5647623992691973E-002  -4.3199597761671288E-003   3.6914239176176963E-002
   1.3342309558944138E-002  -3.8093903979738997E-003   3.6867461246565286E-002
   1.9890982346715092E-002  -4.7200186175045677E-003   4.3355570772084337E-002
   1.7730684153106226E-002  -4.3231364316208831E-003   4.3117955189767111E-002
   1.5570385959497382E-002  -3.9506524625600725E-003   4.3060803813764870E-002
   1.3410087765888524E-002  -3.6025667103215323E-003   4.3184116644077834E-002
   1.1249789572279727E-002  -3.2788791749059354E-003   4.3487893680705138E-002
   1.7320429279878813E-002  -3.7394064966823626E-003   4.8985775868725323E-002
   1.5376043258760796E-002  -3.3806929168983535E-003   4.8836456376699200E-002
   1.3431657237642725E-002  -3.0959486328293595E-003   4.8938497023339855E-002
   1.1487271216524667E-002  -2.8851736444758525E-003   4.9291897808647095E-002
   9.5428851954066363E-003  -2.7483679518379711E-003   4.9896658732621280E-002
   1.8684196361647309E-002  -4.8704128441099392E-003   2.2991594231613566E-002
   1.5660378625748317E-002  -4.1195776900228576E-003   2.3862809748305569E-002
   1.2636560889849352E-002  -3.7600533751140641E-003   2.5188138968561813E-002
   9.6127431539503871E-003  -3.7918398993834687E-003   2.6967581892381659E-002
   6.5889254180513945E-003  -4.2149372628309534E-003   2.9201138519766690E-002
   1.5820445155400042E-002  -4.3399016210419195E-003   3.0035361430201413E-002
   1.3235158977143946E-002  -3.8259489322021722E-003   3.0860084488561756E-002
   1.0649872798887822E-002  -3.7537372485878240E-003   3.2107756958643568E-002
   8.0645866206317252E-003  -4.1232665701981183E-003   3.3778378840447029E-002
   5.4793004423755454E-003  -4.9345368970338255E-003   3.5871950133972041E-002
   1.3342309558944138E-002  -3.8093903979738997E-003   3.6867461246565286E-002
   1.1164390646488193E-002  -3.5323201743815147E-003   3.7595261680547193E-002
   8.9864717340322683E-003  -3.7474211220613757E-003   3.8714847234407782E-002
   6.8085528215762747E-003  -4.4546932410127714E-003   4.0226217908147448E-002
   4.6306339091203991E-003  -5.6541365312365310E-003   4.2129373701765754E-002
   1.1249789572279727E-002  -3.2788791749059354E-003   4.3487893680705138E-002
   9.4480736337812579E-003  -3.2386914165608988E-003   4.4068341324261746E-002
   7.6463576952828169E-003  -3.7411049955347539E-003   4.5009409795854494E-002
   5.8446417567843863E-003  -4.7861199118276448E-003   4.6311099095483366E-002
   4.0429258182859036E-003  -6.3737361654393199E-003   4.7973409223148376E-002
   9.5428851954066363E-003  -2.7483679518379711E-003   4.9896658732621280E-002
   8.0862079390230102E-003  -2.9450626587401163E-003   5.0279323419705313E-002
   6.6295306826393285E-003  -3.7347888690087705E-003   5.0991444642983386E-002
   5.1728534262557024E-003  -5.1175465826423169E-003   5.2033022402454748E-002
   3.7161761698720763E-003  -7.0933357996421087E-003   5.3404056698119318E-002
   6.5889254180513945E-003  -4.2149372628309534E-003   2.9201138519766690E-002
   6.0684631300998992E-003  -6.2163330437422504E-003   3.3767409349336752E-002
   5.5480008421483207E-003  -1.0983014820401121E-002   3.9011095536237772E-002
   5.0275385541968254E-003  -1.8514982592809211E-002   4.4932197080469277E-002
   4.5070762662452468E-003  -2.8812236360965748E-002   5.1530713982030907E-002
   5.4793004423755454E-003  -4.9345368970338255E-003   3.5871950133972041E-002
   5.5331472734335974E-003  -7.0857901120099931E-003   3.8094317784239717E-002
   5.5869941044915661E-003  -1.1475268098042307E-002   4.0787888315196474E-002
   5.6408409355497013E-003  -1.8102970855130678E-002   4.3952661726842118E-002
   5.6946877666075868E-003  -2.6968898383275208E-002   4.7588638019175677E-002
   4.6306339091203991E-003  -5.6541365312365310E-003   4.2129373701765754E-002
   5.0525773825462472E-003  -7.9552471802780134E-003   4.2534899397423581E-002
   5.4745208559720190E-003  -1.1967521375683035E-002   4.3205415497128183E-002
   5.8964643293978117E-003  -1.7690959117451974E-002   4.4140922000879566E-002
   6.3184078028236390E-003  -2.5125560405584446E-002   4.5341418908678155E-002
   4.0429258182859036E-003  -6.3737361654393199E-003   4.7973409223148376E-002
   4.6267534574376754E-003  -8.8247042485461169E-003   4.7089154188888378E-002
   5.2105810965894957E-003  -1.2459774653323992E-002   4.6263677082033577E-002
   5.7944087357413802E-003  -1.7278947379773243E-002   4.5496977902583891E-002
   6.3782363748930912E-003  -2.3282222427893795E-002   4.4789056650539449E-002
   3.7161761698720763E-003  -7.0933357996421087E-003   5.3404056698119318E-002
   4.2556754981080691E-003  -9.6941613168138874E-003   5.1757082158634171E-002
   4.7951748263441174E-003  -1.2952027930965004E-002   4.9962673069912089E-002
   5.3346741545801657E-003  -1.6866935642094641E-002   4.8020829431953238E-002
   5.8741734828161585E-003  -2.1438884450203144E-002   4.5931551244758229E-002
   5.9813399098258446E-002   6.5138664230801613E-003   7.0076475515723657E-002
   5.5065720871597695E-002   2.6895491312614039E-003   6.2606607004451365E-002
   5.0318042644936944E-002  -6.7445519204720195E-005   5.6662556407241077E-002
   4.5570364418276194E-002  -1.7571175283181382E-003   5.2244323724092698E-002
   4.0822686191615443E-002  -2.3794668960788745E-003   4.9351908955006185E-002
   4.9318222687277397E-002   5.7376966817290764E-003   6.5878729133068969E-002
   4.5910421958192324E-002   2.7370352679543519E-003   6.0606426966367477E-002
   4.2502621229107321E-002   5.2204715349575548E-004   5.6488061880755558E-002
   3.9094820500022283E-002  -9.0726766164702863E-004   5.3523633876232921E-002
   3.5687019770937231E-002  -1.5509091774739137E-003   5.1713142952800106E-002
   4.0280055067018802E-002   4.9615269403779361E-003   6.2645463299476914E-002
   3.7840251002537136E-002   2.7845214046475220E-003   5.9289078135309384E-002
   3.5400446938055441E-002   1.1115398261963075E-003   5.6714749219258863E-002
   3.2960642873573726E-002  -5.7417794975837474E-005   5.4922476551325594E-002
   3.0520838809092045E-002  -7.2235145886881402E-004   5.3912260131509335E-002
   3.2698896237482823E-002   4.1853571990268373E-003   6.0376678014947616E-002
   3.0855208004632095E-002   2.8320075413406642E-003   5.8654560511277015E-002
   2.9011519771781357E-002   1.7010324988967936E-003   5.7342618422751374E-002
   2.7167831538930619E-002   7.9243207169539618E-004   5.6440851749370385E-002
   2.5324143306079884E-002   1.0620625973618847E-004   5.5949260491134148E-002
   2.6574746198669397E-002   3.4091874576757109E-003   5.9072373279480728E-002
   2.4955292964477266E-002   2.8794936780336955E-003   5.8702874094270607E-002
   2.3335839730285066E-002   2.2905251715973490E-003   5.8371669491232764E-002
   2.1716386496092900E-002   1.6422819383665084E-003   5.8078759470367461E-002
   2.0096933261900721E-002   9.3476397834130198E-004   5.7824144031674518E-002
   4.0822686191615443E-002  -2.3794668960788745E-003   4.9351908955006185E-002
   3.9572929727306111E-002  -2.4977161551131832E-003   4.9576480108766086E-002
   3.8323173262996793E-002  -2.6750878380477627E-003   4.9898715896197460E-002
   3.7073416798687468E-002  -2.9115819448820718E-003   5.0318616317299919E-002
   3.5823660334378143E-002  -3.2071984756166239E-003   5.0836181372073574E-002
   3.5687019770937231E-002  -1.5509091774739137E-003   5.1713142952800106E-002
   3.4549797165711812E-002  -1.8051484771295229E-003   5.1889073145368739E-002
   3.3412574560486387E-002  -2.0662566437587987E-003   5.2192406422434057E-002
   3.2275351955260934E-002  -2.3342336773615295E-003   5.2623142783995935E-002
   3.1138129350035543E-002  -2.6090795779379339E-003   5.3181282230054111E-002
   3.0520838809092045E-002  -7.2235145886881402E-004   5.3912260131509335E-002
   2.9525888513775737E-002  -1.1125807991457237E-003   5.4091802919813456E-002
   2.8530938218459489E-002  -1.4574254494697791E-003   5.4428487243439336E-002
   2.7535987923143213E-002  -1.7568854098409317E-003   5.4922313102386891E-002
   2.6541037627826933E-002  -2.0109606802591606E-003   5.5573280496656260E-002
   2.5324143306079884E-002   1.0620625973618847E-004   5.5949260491134148E-002
   2.4501203771497965E-002  -4.2001312116204947E-004   5.6184669432099973E-002
   2.3678264236916050E-002  -8.4859425518067633E-004   5.6606958359212776E-002
   2.2855324702334125E-002  -1.1795371423203617E-003   5.7216127272472619E-002
   2.2032385167752220E-002  -1.4128417825804845E-003   5.8012176171879384E-002
   2.0096933261900721E-002   9.3476397834130198E-004   5.7824144031674518E-002
   1.9475742938878424E-002   2.7255455682179131E-004   5.8167672682228500E-002
   1.8854552615856127E-002  -2.3976306089178168E-004   5.8727819769754913E-002
   1.8233362292833823E-002  -6.0218887479976044E-004   5.9504585294253412E-002
   1.7612171969811519E-002  -8.1472288490169742E-004   6.0497969255724093E-002
   3.5823660334378143E-002  -3.2071984756166239E-003   5.0836181372073574E-002
   3.4252223985905494E-002  -3.4964412431527647E-003   5.0284701470384385E-002
   3.2680787637432790E-002  -3.7138140603922981E-003   4.9937017314800575E-002
   3.1109351288960155E-002  -3.8593169273351026E-003   4.9793128905322129E-002
   2.9537914940487464E-002  -3.9329498439814037E-003   4.9853036241949478E-002
   3.1138129350035543E-002  -2.6090795779379339E-003   5.3181282230054111E-002
   2.9767499778273268E-002  -2.8585006188344697E-003   5.2780046889418730E-002
   2.8396870206510966E-002  -3.0502030733977753E-003   5.2576629356098512E-002
   2.7026240634748705E-002  -3.1841869416276182E-003   5.2571029630093323E-002
   2.5655611062986389E-002  -3.2604522235243905E-003   5.2763247711403616E-002
   2.6541037627826933E-002  -2.0109606802591606E-003   5.5573280496656260E-002
   2.5365236893984747E-002  -2.2205599945160498E-003   5.5308138353111061E-002
   2.4189436160142574E-002  -2.3865920864031345E-003   5.5234836078090925E-002
   2.3013635426300385E-002  -2.5090569559201876E-003   5.5353373671595651E-002
   2.1837834692458244E-002  -2.5879546030675438E-003   5.5663751133625289E-002
   2.2032385167752220E-002  -1.4128417825804845E-003   5.8012176171879384E-002
   2.1045435333039913E-002  -1.5826193701975813E-003   5.7868975861461294E-002
   2.0058485498327575E-002  -1.7229810994086082E-003   5.7911637480777794E-002
   1.9071535663615271E-002  -1.8339269702126746E-003   5.8140161029829121E-002
   1.8084585828902933E-002  -1.9154569826105583E-003   5.8554546508614989E-002
   1.7612171969811519E-002  -8.1472288490169742E-004   6.0497969255724093E-002
   1.6808095095438763E-002  -9.4467874587936262E-004   6.0462559414469541E-002
   1.6004018221066021E-002  -1.0593701124139709E-003   6.0607033564159363E-002
   1.5199941346693280E-002  -1.1587969845053003E-003   6.0931391704793558E-002
   1.4395864472320524E-002  -1.2429593621537949E-003   6.1435633836372405E-002
   2.9537914940487464E-002  -3.9329498439814037E-003   4.9853036241949478E-002
   2.8028386488705426E-002  -3.9822623310729610E-003   4.9269381850839455E-002
   2.6518858036923387E-002  -4.0548039093516730E-003   4.8871215283154246E-002
   2.5009329585141321E-002  -4.1505745788177409E-003   4.8658536538893710E-002
   2.3499801133359310E-002  -4.2695743394713936E-003   4.8631345618057598E-002
   2.5655611062986389E-002  -3.2604522235243905E-003   5.2763247711403616E-002
   2.4332371876298164E-002  -3.3171071222548587E-003   5.2224058813341523E-002
   2.3009132689609926E-002  -3.3922598409858173E-003   5.1871960622042718E-002
   2.1685893502921702E-002  -3.4859103797171900E-003   5.1706953137506950E-002
   2.0362654316233464E-002  -3.5980587384492613E-003   5.1729036359733860E-002
   2.1837834692458244E-002  -2.5879546030675438E-003   5.5663751133625289E-002
   2.0702487654202094E-002  -2.6519519134367842E-003   5.5173758999798428E-002
   1.9567140615945951E-002  -2.7297157726198923E-003   5.4872460456072678E-002
   1.8431793577689808E-002  -2.8212461806165247E-003   5.4759855502448239E-002
   1.7296446539433658E-002  -2.9265431374271289E-003   5.4835944138925036E-002
   1.8084585828902933E-002  -1.9154569826105583E-003   5.8554546508614989E-002
   1.7138733822417207E-002  -1.9867967046186402E-003   5.8118482410209622E-002
   1.6192881815931461E-002  -2.0671717042537799E-003   5.7872714785243945E-002
   1.5247029809445714E-002  -2.1565819815159166E-003   5.7817243633717638E-002
   1.4301177802959981E-002  -2.2550275364049965E-003   5.7952068955630875E-002
   1.4395864472320524E-002  -1.2429593621537949E-003   6.1435633836372405E-002
   1.3641110380943469E-002  -1.3216414958006073E-003   6.1058229044575363E-002
   1.2886356289566428E-002  -1.4046276358879173E-003   6.0872723609556312E-002
   1.2131602198189380E-002  -1.4919177824151489E-003   6.0879117531315308E-002
   1.1376848106812332E-002  -1.5835119353828642E-003   6.1077410809851740E-002
   2.3499801133359310E-002  -4.2695743394713936E-003   4.8631345618057598E-002
   2.1954958169989158E-002  -4.3343995789826284E-003   4.8475048476732729E-002
   2.0410115206619034E-002  -4.2676466850212758E-003   4.8482021138069320E-002
   1.8865272243248923E-002  -4.0693156575880435E-003   4.8652263602066759E-002
   1.7320429279878813E-002  -3.7394064966823626E-003   4.8985775868725323E-002
   2.0362654316233464E-002  -3.5980587384492613E-003   5.1729036359733860E-002
   1.8985478898443806E-002  -3.6636211713778621E-003   5.1769699904194333E-002
   1.7608303480654230E-002  -3.6175139326986711E-003   5.1982428737154807E-002
   1.6231128062864621E-002  -3.4597370224123854E-003   5.2367222858615003E-002
   1.4853952645075025E-002  -3.1902904405182175E-003   5.2924082268575146E-002
   1.7296446539433658E-002  -2.9265431374271289E-003   5.4835944138925036E-002
   1.6095734153063285E-002  -2.9928427637733179E-003   5.5053659907306138E-002
   1.4895021766692877E-002  -2.9673811803763994E-003   5.5452236450025810E-002
   1.3694309380322466E-002  -2.8501583872367273E-003   5.6031673767083803E-002
   1.2493596993952069E-002  -2.6411743843541280E-003   5.6791971858480755E-002
   1.4301177802959981E-002  -2.2550275364049965E-003   5.7952068955630875E-002
   1.3285723933847460E-002  -2.3220643561686627E-003   5.8326928486067950E-002
   1.2270270064735004E-002  -2.3172484280539057E-003   5.8891444276682310E-002
   1.1254816195622498E-002  -2.2405797520611247E-003   5.9645616327473852E-002
   1.0239362326509998E-002  -2.0920583281900107E-003   6.0589444638442722E-002
   1.1376848106812332E-002  -1.5835119353828642E-003   6.1077410809851740E-002
   1.0555448240796461E-002  -1.6512859485640075E-003   6.1589505640480047E-002
   9.7340483747805767E-003  -1.6671156757316341E-003   6.2300052217124313E-002
   8.9126485087646992E-003  -1.6310011168853833E-003   6.3209050539784734E-002
   8.0912486427488217E-003  -1.5429422720258934E-003   6.4316500608460947E-002
   1.7320429279878813E-002  -3.7394064966823626E-003   4.8985775868725323E-002
   1.5376043258760796E-002  -3.3806929168983535E-003   4.8836456376699200E-002
   1.3431657237642725E-002  -3.0959486328293595E-003   4.8938497023339855E-002
   1.1487271216524667E-002  -2.8851736444758525E-003   4.9291897808647095E-002
   9.5428851954066363E-003  -2.7483679518379711E-003   4.9896658732621280E-002
   1.4853952645075025E-002  -3.1902904405182175E-003   5.2924082268575146E-002
   1.3161046091474130E-002  -2.9027433275712888E-003   5.2806284136471870E-002
   1.1468139537873248E-002  -2.6906648241252495E-003   5.2940084800736364E-002
   9.7752329842723529E-003  -2.5540549301811197E-003   5.3325484261368045E-002
   8.0823264306714715E-003  -2.4929136457383372E-003   5.3962482518368049E-002
   1.2493596993952069E-002  -2.6411743843541280E-003   5.6791971858480755E-002
   1.1052408565569230E-002  -2.4247937382438356E-003   5.6704195772514315E-002
   9.6112201371863840E-003  -2.2853810154211396E-003   5.6868257140616330E-002
   8.1700317088035344E-003  -2.2229362158861649E-003   5.7284155962786909E-002
   6.7288432804206988E-003  -2.2374593396388698E-003   5.7951892239025665E-002
   1.0239362326509998E-002  -2.0920583281900107E-003   6.0589444638442722E-002
   9.0501306810460945E-003  -1.9468441489164656E-003   6.0530191284826958E-002
   7.8608990355821615E-003  -1.8800972067170296E-003   6.0723014042980569E-002
   6.6716673901182294E-003  -1.8918175015914321E-003   6.1167912912903417E-002
   5.4824357446543251E-003  -1.9820050335394301E-003   6.1864887894595773E-002
   8.0912486427488217E-003  -1.5429422720258934E-003   6.4316500608460947E-002
   7.1542124379046917E-003  -1.4688945595894287E-003   6.4284270673409583E-002
   6.2171762330605618E-003  -1.4748133980129752E-003   6.4504355507828348E-002
   5.2801400282164318E-003  -1.5606987872962691E-003   6.4976755111717327E-002
   4.3431038233723018E-003  -1.7265507274397685E-003   6.5701469485076824E-002
   9.5428851954066363E-003  -2.7483679518379711E-003   4.9896658732621280E-002
   8.0862079390230102E-003  -2.9450626587401163E-003   5.0279323419705313E-002
   6.6295306826393285E-003  -3.7347888690087705E-003   5.0991444642983386E-002
   5.1728534262557024E-003  -5.1175465826423169E-003   5.2033022402454748E-002
   3.7161761698720763E-003  -7.0933357996421087E-003   5.3404056698119318E-002
   8.0823264306714715E-003  -2.4929136457383372E-003   5.3962482518368049E-002
   6.9291625092677972E-003  -2.7204262955651815E-003   5.3878844237521539E-002
   5.7759985878641229E-003  -3.4497782044298764E-003   5.4072776090441116E-002
   4.6228346664604625E-003  -4.6809693723321028E-003   5.4544278077127736E-002
   3.4696707450567743E-003  -6.4139997992722630E-003   5.5293350197580637E-002
   6.7288432804206988E-003  -2.2374593396388698E-003   5.7951892239025665E-002
   5.8273062915700016E-003  -2.4957899323901633E-003   5.7493143234576605E-002
   4.9257693027193322E-003  -3.1647675398513292E-003   5.7260077961466774E-002
   4.0242323138686559E-003  -4.2443921620217810E-003   5.7252696419696471E-002
   3.1226953250179657E-003  -5.7346637989021954E-003   5.7470998609265633E-002
   5.4824357446543251E-003  -1.9820050335394301E-003   6.1864887894595773E-002
   4.7806392859296529E-003  -2.2711535692153534E-003   6.1122220410871550E-002
   4.0788428272049947E-003  -2.8797568752726085E-003   6.0553350256059915E-002
   3.3770463684803017E-003  -3.8078149517116241E-003   6.0158277430160674E-002
   2.6752499097556642E-003  -5.0553277985324607E-003   5.9937001933174180E-002
   4.3431038233723018E-003  -1.7265507274397685E-003   6.5701469485076824E-002
   3.7891614923466627E-003  -2.0465172060401549E-003   6.4766075766405917E-002
   3.2352191613210513E-003  -2.5947462106939434E-003   6.3952592974220623E-002
   2.6812768302954121E-003  -3.3712377414013145E-003   6.3261021108520776E-002
   2.1273344992698007E-003  -4.3759917981622820E-003   6.2691360169306654E-002
   3.7161761698720763E-003  -7.0933357996421087E-003   5.3404056698119318E-002
   4.2556754981080691E-003  -9.6941613168138874E-003   5.1757082158634171E-002
   4.7951748263441174E-003  -1.2952027930965004E-002   4.9962673069912089E-002
   5.3346741545801657E-003  -1.6866935642094641E-002   4.8020829431953238E-002
   5.8741734828161585E-003  -2.1438884450203144E-002   4.5931551244758229E-002
   3.4696707450567743E-003  -6.4139997992722630E-003   5.5293350197580637E-002
   3.8799290636390704E-003  -8.6951859441497525E-003   5.2938342565546692E-002
   4.2901873822213388E-003  -1.1570844265864910E-002   5.0472287463442012E-002
   4.7004457008036071E-003  -1.5040974764417472E-002   4.7895184891266346E-002
   5.1107040193859588E-003  -1.9105577439807231E-002   4.5207034849019667E-002
   3.1226953250179657E-003  -5.7346637989021954E-003   5.7470998609265633E-002
   3.4400997131123767E-003  -7.6962105714853402E-003   5.4470526804824337E-002
   3.7575041012067600E-003  -1.0189660600765010E-002   5.1395394609478284E-002
   4.0749084893011434E-003  -1.3215013886739908E-002   4.8245602023226739E-002
   4.3923128773955544E-003  -1.6772270429411318E-002   4.5021149046070463E-002
   2.6752499097556642E-003  -5.0553277985324607E-003   5.9937001933174180E-002
   2.9361874465279880E-003  -6.6972351988208445E-003   5.6353634876467093E-002
   3.1971249833003257E-003  -8.8084769356645692E-003   5.2731994508020762E-002
   3.4580625200726633E-003  -1.1389053009062764E-002   4.9072080827835235E-002
   3.7190000568450149E-003  -1.4438963419015294E-002   4.5373893835910561E-002
   2.1273344992698007E-003  -4.3759917981622820E-003   6.2691360169306654E-002
   2.3681922638859321E-003  -5.6982598261569040E-003   5.8587666780475223E-002
   2.6090500285020773E-003  -7.4272932705649608E-003   5.4482087159069881E-002
   2.8499077931182226E-003  -9.5630921313852729E-003   5.0374621305091738E-002
   3.0907655577343540E-003  -1.2105656408619492E-002   4.6265269218539906E-002
   2.6574746198669397E-002   3.4091874576757109E-003   5.9072373279480728E-002
   2.4955292964477266E-002   2.8794936780336955E-003   5.8702874094270607E-002
   2.3335839730285066E-002   2.2905251715973490E-003   5.8371669491232764E-002
   2.1716386496092900E-002   1.6422819383665084E-003   5.8078759470367461E-002
   2.0096933261900721E-002   9.3476397834130198E-004   5.7824144031674518E-002
   2.0867090328663448E-002   2.5568905932552011E-003   6.0481620574420691E-002
   1.9377573858237532E-002   2.1596202585227597E-003   5.9527877731751944E-002
   1.7888057387811636E-002   1.7178938786948372E-003   5.8795713834443430E-002
   1.6398540917385730E-002   1.2317114537716070E-003   5.8285128882494930E-002
   1.4909024446959816E-002   7.0107298375277072E-004   5.7996122875906719E-002
   1.4535414005549883E-002   1.7045937288346913E-003   6.2015881973420853E-002
   1.3359118662078014E-002   1.4397468390118517E-003   6.0492714154992522E-002
   1.2182823318606126E-002   1.1452625857924018E-003   5.9374409645111960E-002
   1.1006527975134255E-002   8.2114096917659286E-004   5.8660968443779410E-002
   9.8302326316623764E-003   4.6738198916421170E-004   5.8352390550994629E-002
   7.5797172293287206E-003   8.5229686441416763E-004   6.3675157476481212E-002
   6.8999273759986369E-003   7.1987341950087436E-004   6.1597383363991946E-002
   6.2201375226685453E-003   5.7263129288990036E-004   6.0107756923238574E-002
   5.5403476693384624E-003   4.1057048458160734E-004   5.9206278154220790E-002
   4.8605578160083786E-003   2.3369099457572207E-004   5.8892947056938733E-002
  -4.8572257327350599E-017  -6.3282712403633923E-015   6.5459447083601463E-002
  -5.8286708792820718E-016  -1.0047518372857667E-014   6.2841885358750571E-002
  -1.1067535776732029E-015  -1.2503886814840826E-014   6.0995755668823176E-002
  -1.6358442378461291E-015  -1.3340023530261647E-014   5.9921058013819070E-002
  -2.1649348980190553E-015  -1.2878587085651816E-014   5.9617792393738489E-002
   2.0096933261900721E-002   9.3476397834130198E-004   5.7824144031674518E-002
   1.9475742938878424E-002   2.7255455682179131E-004   5.8167672682228500E-002
   1.8854552615856127E-002  -2.3976306089178168E-004   5.8727819769754913E-002
   1.8233362292833823E-002  -6.0218887479976044E-004   5.9504585294253412E-002
   1.7612171969811519E-002  -8.1472288490169742E-004   6.0497969255724093E-002
   1.4909024446959816E-002   7.0107298375277072E-004   5.7996122875906719E-002
   1.4489122346855593E-002   2.0441591761359568E-004   5.8564593640380122E-002
   1.4069220246751380E-002  -1.7982229567133079E-004   5.9319022413717531E-002
   1.3649318146647159E-002  -4.5164165610165133E-004   6.0259409195918864E-002
   1.3229416046542944E-002  -6.1104216367779962E-004   6.1385753986984121E-002
   9.8302326316623764E-003   4.6738198916421170E-004   5.8352390550994629E-002
   9.5809583263679401E-003   1.3627727840517800E-004   5.9108330478436166E-002
   9.3316840210735108E-003  -1.1988153045077582E-004   6.0019567986633306E-002
   9.0824097157790797E-003  -3.0109443740387702E-004   6.1086103075586179E-002
   8.8331354104846521E-003  -4.0736144245395733E-004   6.2307935745294613E-002
   4.8605578160083786E-003   2.3369099457572207E-004   5.8892947056938733E-002
   4.7512508774154444E-003   6.8138639196815842E-005   5.9798883196396785E-002
   4.6419439388225240E-003  -5.9940765230328402E-005   6.0829456488502270E-002
   4.5326370002295949E-003  -1.5054721870599082E-004   6.1984666933255030E-002
   4.4233300616366693E-003  -2.0368072123003178E-004   6.3264514530655167E-002
  -2.1649348980190553E-015  -1.2878587085651816E-014   5.9617792393738489E-002
  -1.8769708010069053E-015  -1.1407541578023483E-014   6.0636251794261825E-002
  -1.5890067039947553E-015  -9.7422070410857486E-015   6.1748687919324252E-002
  -1.3045120539345589E-015  -8.1254447614753644E-015   6.2955100768925687E-002
  -1.0130785099704553E-015  -6.2172489379008766E-015   6.4255490343066324E-002
   1.7612171969811519E-002  -8.1472288490169742E-004   6.0497969255724093E-002
   1.6808095095438763E-002  -9.4467874587936262E-004   6.0462559414469541E-002
   1.6004018221066021E-002  -1.0593701124139709E-003   6.0607033564159363E-002
   1.5199941346693280E-002  -1.1587969845053003E-003   6.0931391704793558E-002
   1.4395864472320524E-002  -1.2429593621537949E-003   6.1435633836372405E-002
   1.3229416046542944E-002  -6.1104216367779962E-004   6.1385753986984121E-002
   1.2610506970026830E-002  -7.0850905941069464E-004   6.1355459672489648E-002
   1.1991597893510723E-002  -7.9452758431128312E-004   6.1515616962764016E-002
   1.1372688816994620E-002  -8.6909773837991894E-004   6.1866225857807357E-002
   1.0753779740478503E-002  -9.3221952161615107E-004   6.2407286357619440E-002
   8.8331354104846521E-003  -4.0736144245395733E-004   6.2307935745294613E-002
   8.4099617456495947E-003  -4.7233937294184625E-004   6.2278940833949165E-002
   7.9867880808145372E-003  -5.2968505620870632E-004   6.2450965141197162E-002
   7.5636144159794902E-003  -5.7939849225431550E-004   6.2824008667038286E-002
   7.1404407511444293E-003  -6.2147968107867380E-004   6.3398071411472828E-002
   4.4233300616366693E-003  -2.0368072123003178E-004   6.3264514530655167E-002
   4.2064594223070713E-003  -2.3616968647319908E-004   6.3233002898848201E-002
   3.9895887829774759E-003  -2.6484252810604625E-004   6.3413078099458647E-002
   3.7727181436478796E-003  -2.8969924612865655E-004   6.3804740132486770E-002
   3.5558475043182824E-003  -3.1073984054127979E-004   6.4407988997932708E-002
  -1.0130785099704553E-015  -6.2172489379008766E-015   6.4255490343066324E-002
  -7.4246164771807344E-016  -4.3853809472693683E-015   6.4217645867186368E-002
  -4.6837533851373792E-016  -3.5249581031848720E-015   6.4401955837548541E-002
  -2.0469737016526324E-016  -3.3237301799715624E-015   6.4808420254152815E-002
   7.6327832942979512E-017  -3.6637359812630166E-015   6.5437039116999052E-002
   1.4395864472320524E-002  -1.2429593621537949E-003   6.1435633836372405E-002
   1.3641110380943469E-002  -1.3216414958006073E-003   6.1058229044575363E-002
   1.2886356289566428E-002  -1.4046276358879173E-003   6.0872723609556312E-002
   1.2131602198189380E-002  -1.4919177824151489E-003   6.0879117531315308E-002
   1.1376848106812332E-002  -1.5835119353828642E-003   6.1077410809851740E-002
   1.0753779740478503E-002  -9.3221952161615107E-004   6.2407286357619440E-002
   1.0190122297395923E-002  -9.9123112185156570E-004   6.2054058594211869E-002
   9.6264648543133505E-003  -1.0534707269170551E-003   6.1891124770615369E-002
   9.0628074112307742E-003  -1.1189383368125569E-003   6.1918484886829994E-002
   8.4991499681481980E-003  -1.1876339515382028E-003   6.2136138942855523E-002
   7.1404407511444293E-003  -6.2147968107867380E-004   6.3398071411472828E-002
   6.7662745393895635E-003  -6.6082074790252410E-004   6.3070096678064874E-002
   6.3921083276346977E-003  -7.0231381794617909E-004   6.2930810467501180E-002
   6.0179421158798405E-003  -7.4595889120968387E-004   6.2980212779781969E-002
   5.6437759041249799E-003  -7.9175596769320844E-004   6.3218303614907101E-002
   3.5558475043182824E-003  -3.1073984054127979E-004   6.4407988997932708E-002
   3.3695671069243847E-003  -3.3041037395342698E-004   6.4106343296134516E-002
   3.1832867095304774E-003  -3.5115690897547652E-004   6.3991780700213927E-002
   2.9970063121365774E-003  -3.7297944560706238E-004   6.4064301210170843E-002
   2.8107259147426653E-003  -3.9587798384826955E-004   6.4323904826005446E-002
   7.6327832942979512E-017  -3.6637359812630166E-015   6.5437039116999052E-002
   3.8510861166685117E-016  -4.4964032497318840E-015   6.5162798448420878E-002
   6.8348104953486200E-016  -4.6351811278100286E-015   6.5074035468753344E-002
   9.8185348740287282E-016  -4.1286418728248009E-015   6.5170750177996950E-002
   1.2906342661267445E-015  -3.4416913763379853E-015   6.5452942576151196E-002
   1.1376848106812332E-002  -1.5835119353828642E-003   6.1077410809851740E-002
   1.0555448240796461E-002  -1.6512859485640075E-003   6.1589505640480047E-002
   9.7340483747805767E-003  -1.6671156757316341E-003   6.2300052217124313E-002
   8.9126485087646992E-003  -1.6310011168853833E-003   6.3209050539784734E-002
   8.0912486427488217E-003  -1.5429422720258934E-003   6.4316500608460947E-002
   8.4991499681481980E-003  -1.1876339515382028E-003   6.2136138942855523E-002
   7.8779264032702509E-003  -1.2384644614236717E-003   6.2717733653508800E-002
   7.2567028383923385E-003  -1.2503367567990031E-003   6.3501229220421812E-002
   6.6354792735144018E-003  -1.2232508376641485E-003   6.4486625643594919E-002
   6.0142557086364790E-003  -1.1572067040195311E-003   6.5673922923027761E-002
   5.6437759041249799E-003  -7.9175596769320844E-004   6.3218303614907101E-002
   5.2261777506289499E-003  -8.2564297428311395E-004   6.3856412134081497E-002
   4.8085795971329441E-003  -8.3355783786659421E-004   6.4699870619759792E-002
   4.3909814436369297E-003  -8.1550055844313574E-004   6.5748679071941887E-002
   3.9733832901409083E-003  -7.7147113601305772E-004   6.7002837490628103E-002
   2.8107259147426653E-003  -3.9587798384826955E-004   6.4323904826005446E-002
   2.6002022828725390E-003  -4.1282148714283373E-004   6.5005541082197749E-002
   2.3896786510024188E-003  -4.1677891893412977E-004   6.5895976415138072E-002
   2.1791550191322894E-003  -4.0775027922184542E-004   6.6995210824825985E-002
   1.9686313872621583E-003  -3.8573556800675091E-004   6.8303244311262112E-002
   1.2906342661267445E-015  -3.4416913763379853E-015   6.5452942576151196E-002
   1.0200174038743626E-015  -2.3314683517128287E-015   6.6165120497857888E-002
   7.4593109467002705E-016  -1.8318679906315083E-015   6.7089546606556694E-002
   4.7184478546569153E-016  -9.0205620750793969E-016   6.8226220902247114E-002
   2.0122792321330962E-016  -3.3306690738754696E-016   6.9575143384929539E-002
   8.0912486427488217E-003  -1.5429422720258934E-003   6.4316500608460947E-002
   7.1542124379046917E-003  -1.4688945595894287E-003   6.4284270673409583E-002
   6.2171762330605618E-003  -1.4748133980129752E-003   6.4504355507828348E-002
   5.2801400282164318E-003  -1.5606987872962691E-003   6.4976755111717327E-002
   4.3431038233723018E-003  -1.7265507274397685E-003   6.5701469485076824E-002
   6.0142557086364790E-003  -1.1572067040195311E-003   6.5673922923027761E-002
   5.3250203436977436E-003  -1.1016709196917107E-003   6.5603328842025854E-002
   4.6357849787590291E-003  -1.1061100485096342E-003   6.5776021671364704E-002
   3.9465496138202973E-003  -1.1705240904720388E-003   6.6192001411043810E-002
   3.2573142488815793E-003  -1.2949130455794933E-003   6.6851268061063951E-002
   3.9733832901409083E-003  -7.7147113601305772E-004   6.7002837490628103E-002
   3.5229209059779616E-003  -7.3444727979460334E-004   6.6913870901390782E-002
   3.0724585218150149E-003  -7.3740669900626554E-004   6.7059163363364371E-002
   2.6219961376520683E-003  -7.8034939364769046E-004   6.7438714876548844E-002
   2.1715337534891216E-003  -8.6327536371921809E-004   6.8052525440944256E-002
   1.9686313872621583E-003  -3.8573556800675091E-004   6.8303244311262112E-002
   1.7479141247453344E-003  -3.6722363989741269E-004   6.8215896851504199E-002
   1.5271968622285175E-003  -3.6870334950263317E-004   6.8353780583827517E-002
   1.3064795997116971E-003  -3.9017469682351216E-004   6.8716895508232317E-002
   1.0857623371948767E-003  -4.3163768185872087E-004   6.9305241624718350E-002
   2.0122792321330962E-016  -3.3306690738754696E-016   6.9575143384929539E-002
  -1.2490009027033011E-016   1.6653345369377348E-016   6.9509406692366049E-002
  -4.6143644460983069E-016   5.2735593669694936E-016   6.9659873332754252E-002
  -7.9276862852140084E-016   1.1310397063368782E-015   7.0026543306094341E-002
  -1.1241008124329710E-015   1.4432899320127035E-015   7.0609416612385845E-002
   4.3431038233723018E-003  -1.7265507274397685E-003   6.5701469485076824E-002
   3.7891614923466627E-003  -2.0465172060401549E-003   6.4766075766405917E-002
   3.2352191613210513E-003  -2.5947462106939434E-003   6.3952592974220623E-002
   2.6812768302954121E-003  -3.3712377414013145E-003   6.3261021108520776E-002
   2.1273344992698007E-003  -4.3759917981622820E-003   6.2691360169306654E-002
   3.2573142488815793E-003  -1.2949130455794933E-003   6.6851268061063951E-002
   2.8294265084092829E-003  -1.5348879045295472E-003   6.5720297375262249E-002
   2.4015387679369518E-003  -1.9460596580203049E-003   6.4719524944081203E-002
   1.9736510274646415E-003  -2.5284283060507118E-003   6.3848950767521326E-002
   1.5457632869923243E-003  -3.2819938486219336E-003   6.3108574845582965E-002
   2.1715337534891216E-003  -8.6327536371921809E-004   6.8052525440944256E-002
   1.8779879317056374E-003  -1.0232586030191893E-003   6.6783043419524957E-002
   1.5844421099221496E-003  -1.2973731053461945E-003   6.5652046980861883E-002
   1.2908962881386515E-003  -1.6856188707004352E-003   6.4659536124955522E-002
   9.9735046635516383E-004  -2.1879958990818071E-003   6.3805510851805858E-002
   1.0857623371948767E-003  -4.3163768185872087E-004   6.9305241624718350E-002
   9.3484576223573906E-004  -5.1162930150865094E-004   6.7954313899194374E-002
   7.8392918727660053E-004  -6.4868655267243114E-004   6.6750159084562527E-002
   6.3301261231745506E-004  -8.4280943534999556E-004   6.5692777180822823E-002
   4.8209603735832433E-004  -1.0939979495413477E-003   6.4782168187975178E-002
  -1.1241008124329710E-015   1.4432899320127035E-015   7.0609416612385845E-002
  -3.9551695252271202E-016   1.7763568394002505E-015   6.9234108814270723E-002
   3.3306690738754696E-016   1.4432899320127035E-015   6.8013861255183161E-002
   1.0633854907737827E-015   6.3837823915946501E-016   6.6948673935123437E-002
   1.7902346272080649E-015  -1.2212453270876722E-015   6.6038546854091051E-002
   2.1273344992698007E-003  -4.3759917981622820E-003   6.2691360169306654E-002
   2.3681922638859321E-003  -5.6982598261569040E-003   5.8587666780475223E-002
   2.6090500285020773E-003  -7.4272932705649608E-003   5.4482087159069881E-002
   2.8499077931182226E-003  -9.5630921313852729E-003   5.0374621305091738E-002
   3.0907655577343540E-003  -1.2105656408619492E-002   4.6265269218539906E-002
   1.5457632869923243E-003  -3.2819938486219336E-003   6.3108574845582965E-002
   1.7701527668899653E-003  -4.2736948696179833E-003   5.8667538056884905E-002
   1.9945422467875992E-003  -5.5704699529239288E-003   5.4195450931323108E-002
   2.2189317266852332E-003  -7.1723190985388124E-003   4.9692313468897437E-002
   2.4433212065828602E-003  -9.0792423064640637E-003   4.5158125669608085E-002
   9.9735046635516383E-004  -2.1879958990818071E-003   6.3805510851805858E-002
   1.1761075572438232E-003  -2.8491299130793402E-003   5.9128822017345067E-002
   1.3548646481324651E-003  -3.7136466352831465E-003   5.4391918741730105E-002
   1.5336217390211279E-003  -4.7815460656928585E-003   4.9594801024960708E-002
   1.7123788299097664E-003  -6.0528282043086357E-003   4.4737468867037444E-002
   4.8209603735832433E-004  -1.0939979495413477E-003   6.4782168187975178E-002
   5.8605663494752311E-004  -1.4245649565410023E-003   5.9971518661855405E-002
   6.9001723253671581E-004  -1.8568233176424614E-003   5.5071490590290380E-002
   7.9397783012590505E-004  -2.3907730328467623E-003   5.0082083973281330E-002
   8.9793842771512117E-004  -3.0264141021532076E-003   4.5003298810827069E-002
   1.7902346272080649E-015  -1.2212453270876722E-015   6.6038546854091051E-002
   1.0616507672978059E-015  -2.2204460492503131E-015   6.1195627990415558E-002
   3.3653635433950058E-016  -1.5265566588595902E-015   5.6234166477005132E-002
  -3.9204750557075840E-016  -3.8163916471489756E-016   5.1154162313859303E-002
  -1.1241008124329710E-015   2.2204460492503131E-015   4.5955615500978375E-002
  -4.8572257327350599E-017  -6.3282712403633923E-015   6.5459447083601463E-002
  -5.8286708792820718E-016  -1.0047518372857667E-014   6.2841885358750571E-002
  -1.1067535776732029E-015  -1.2503886814840826E-014   6.0995755668823176E-002
  -1.6358442378461291E-015  -1.3340023530261647E-014   5.9921058013819070E-002
  -2.1649348980190553E-015  -1.2878587085651816E-014   5.9617792393738489E-002
  -7.5797172293292844E-003  -8.5229686442789276E-004   6.3675157476468514E-002
  -6.8999273760000437E-003  -7.1987341952062245E-004   6.1597383363981323E-002
  -6.2201375226707892E-003  -5.7263129291351689E-004   6.0107756923230227E-002
  -5.5403476693415424E-003  -4.1057048460632628E-004   5.9206278154215308E-002
  -4.8605578160122939E-003  -2.3369099459916165E-004   5.8892947056936568E-002
  -1.4535414005551852E-002  -1.7045937288494295E-003   6.2015881973397316E-002
  -1.3359118662080137E-002  -1.4397468390312251E-003   6.0492714154972316E-002
  -1.2182823318608451E-002  -1.1452625858145785E-003   5.9374409645096264E-002
  -1.1006527975136751E-002  -8.2114096919928305E-004   5.8660968443768849E-002
  -9.8302326316650444E-003  -4.6738198918550022E-004   5.8352390550990341E-002
  -2.0867090328667733E-002  -2.5568905932709524E-003   6.0481620574387676E-002
  -1.9377573858240908E-002  -2.1596202585417862E-003   5.9527877731723688E-002
  -1.7888057387814089E-002  -1.7178938787155325E-003   5.8795713834421011E-002
  -1.6398540917387260E-002  -1.2317114537922823E-003   5.8285128882479754E-002
  -1.4909024446960427E-002  -7.0107298377192206E-004   5.7996122875900107E-002
  -2.6574746198676946E-002  -3.4091874576925307E-003   5.9072373279439983E-002
  -2.4955292964482303E-002  -2.8794936780523472E-003   5.8702874094235136E-002
  -2.3335839730287695E-002  -2.2905251716166392E-003   5.8371669491204509E-002
  -2.1716386496093070E-002  -1.6422819383851810E-003   5.8078759470348032E-002
  -2.0096933261898445E-002  -9.3476397835817737E-004   5.7824144031665692E-002
  -2.1649348980190553E-015  -1.2878587085651816E-014   5.9617792393738489E-002
  -1.8769708010069053E-015  -1.1407541578023483E-014   6.0636251794261825E-002
  -1.5890067039947553E-015  -9.7422070410857486E-015   6.1748687919324252E-002
  -1.3045120539345589E-015  -8.1254447614753644E-015   6.2955100768925687E-002
  -1.0130785099704553E-015  -6.2172489379008766E-015   6.4255490343066324E-002
  -4.8605578160122939E-003  -2.3369099459916165E-004   5.8892947056936568E-002
  -4.7512508774188323E-003  -6.8138639217812935E-005   5.9798883196395702E-002
  -4.6419439388253794E-003   5.9940765212200542E-005   6.0829456488502118E-002
  -4.5326370002319255E-003   1.5054721869049541E-004   6.1984666933255807E-002
  -4.4233300616384648E-003   2.0368072121756953E-004   6.3264514530656735E-002
  -9.8302326316650444E-003  -4.6738198918550022E-004   5.8352390550990341E-002
  -9.5809583263702282E-003  -1.3627727842406567E-004   5.9108330478433647E-002
  -9.3316840210754034E-003   1.1988153043414329E-004   6.0019567986632452E-002
  -9.0824097157805872E-003   3.0109443738928279E-004   6.1086103075586658E-002
  -8.8331354104857693E-003   4.0736144244124528E-004   6.2307935745296444E-002
  -1.4909024446960427E-002  -7.0107298377192206E-004   5.7996122875900107E-002
  -1.4489122346856044E-002  -2.0441591763045025E-004   5.8564593640375862E-002
  -1.4069220246751670E-002   1.7982229565625257E-004   5.9319022413715367E-002
  -1.3649318146647296E-002   4.5164165608793140E-004   6.0259409195918455E-002
  -1.3229416046542920E-002   6.1104216366494879E-004   6.1385753986985279E-002
  -2.0096933261898445E-002  -9.3476397835817737E-004   5.7824144031665692E-002
  -1.9475742938876314E-002  -2.7255455683672380E-004   5.8167672682222282E-002
  -1.8854552615854166E-002   2.3976306087808430E-004   5.8727819769750722E-002
  -1.8233362292832032E-002   6.0218887478681593E-004   5.9504585294251039E-002
  -1.7612171969809895E-002   8.1472288488865230E-004   6.0497969255723150E-002
  -1.0130785099704553E-015  -6.2172489379008766E-015   6.4255490343066324E-002
  -7.4246164771807344E-016  -4.3853809472693683E-015   6.4217645867186368E-002
  -4.6837533851373792E-016  -3.5249581031848720E-015   6.4401955837548541E-002
  -2.0469737016526324E-016  -3.3237301799715624E-015   6.4808420254152815E-002
   7.6327832942979512E-017  -3.6637359812630166E-015   6.5437039116999052E-002
  -4.4233300616384648E-003   2.0368072121756953E-004   6.3264514530656735E-002
  -4.2064594223083576E-003   2.3616968646314462E-004   6.3233002898848839E-002
  -3.9895887829782591E-003   2.6484252809780284E-004   6.3413078099458370E-002
  -3.7727181436481615E-003   2.8969924612107928E-004   6.3804740132485549E-002
  -3.5558475043180604E-003   3.1073984053325843E-004   6.4407988997930432E-002
  -8.8331354104857693E-003   4.0736144244124528E-004   6.2307935745296444E-002
  -8.4099617456503198E-003   4.7233937293086892E-004   6.2278940833950081E-002
  -7.9867880808148634E-003   5.2968505619889472E-004   6.2450965141196704E-002
  -7.5636144159794009E-003   5.7939849224531229E-004   6.2824008667036496E-002
  -7.1404407511439574E-003   6.2147968107012508E-004   6.3398071411469498E-002
  -1.3229416046542920E-002   6.1104216366494879E-004   6.1385753986985279E-002
  -1.2610506970026587E-002   7.0850905939866260E-004   6.1355459672489905E-002
  -1.1991597893510264E-002   7.9452758430016007E-004   6.1515616962763198E-002
  -1.1372688816993945E-002   8.6909773836968580E-004   6.1866225857805199E-002
  -1.0753779740477629E-002   9.3221952160701949E-004   6.2407286357615742E-002
  -1.7612171969809895E-002   8.1472288488865230E-004   6.0497969255723150E-002
  -1.6808095095437188E-002   9.4467874586609546E-004   6.0462559414468597E-002
  -1.6004018221064478E-002   1.0593701124013005E-003   6.0607033564158086E-002
  -1.5199941346691772E-002   1.1587969844938338E-003   6.0931391704791768E-002
  -1.4395864472319060E-002   1.2429593621440249E-003   6.1435633836369630E-002
   7.6327832942979512E-017  -3.6637359812630166E-015   6.5437039116999052E-002
   3.8510861166685117E-016  -4.4964032497318840E-015   6.5162798448420878E-002
   6.8348104953486200E-016  -4.6351811278100286E-015   6.5074035468753344E-002
   9.8185348740287282E-016  -4.1286418728248009E-015   6.5170750177996950E-002
   1.2906342661267445E-015  -3.4416913763379853E-015   6.5452942576151196E-002
  -3.5558475043180604E-003   3.1073984053325843E-004   6.4407988997930432E-002
  -3.3695671069235746E-003   3.3041037394479500E-004   6.4106343296133156E-002
  -3.1832867095290974E-003   3.5115690896708740E-004   6.3991780700213580E-002
  -2.9970063121346150E-003   3.7297944559948337E-004   6.4064301210171329E-002
  -2.8107259147401413E-003   3.9587798384205231E-004   6.4323904826006806E-002
  -7.1404407511439574E-003   6.2147968107012508E-004   6.3398071411469498E-002
  -6.7662745393886154E-003   6.6082074789428069E-004   6.3070096678063042E-002
  -6.3921083276332674E-003   7.0231381793851855E-004   6.2930810467500764E-002
  -6.0179421158779228E-003   7.4595889120303641E-004   6.2980212779782802E-002
  -5.6437759041225773E-003   7.9175596768760181E-004   6.3218303614908877E-002
  -1.0753779740477629E-002   9.3221952160701949E-004   6.2407286357615742E-002
  -1.0190122297394726E-002   9.9123112184355822E-004   6.2054058594209996E-002
  -9.6264648543118343E-003   1.0534707269099844E-003   6.1891124770615147E-002
  -9.0628074112289354E-003   1.1189383368066744E-003   6.1918484886831333E-002
  -8.4991499681460435E-003   1.1876339515330681E-003   6.2136138942858285E-002
  -1.4395864472319060E-002   1.2429593621440249E-003   6.1435633836369630E-002
  -1.3641110380941922E-002   1.3216414957930023E-003   6.1058229044574419E-002
  -1.2886356289564787E-002   1.4046276358816168E-003   6.0872723609556756E-002
  -1.2131602198187657E-002   1.4919177824103541E-003   6.0879117531316501E-002
  -1.1376848106810521E-002   1.5835119353786453E-003   6.1077410809854071E-002
   1.2906342661267445E-015  -3.4416913763379853E-015   6.5452942576151196E-002
   1.0200174038743626E-015  -2.3314683517128287E-015   6.6165120497857888E-002
   7.4593109467002705E-016  -1.8318679906315083E-015   6.7089546606556694E-002
   4.7184478546569153E-016  -9.0205620750793969E-016   6.8226220902247114E-002
   2.0122792321330962E-016  -3.3306690738754696E-016   6.9575143384929539E-002
  -2.8107259147401413E-003   3.9587798384205231E-004   6.4323904826006806E-002
  -2.6002022828705458E-003   4.1282148713811528E-004   6.5005541082198748E-002
  -2.3896786510009642E-003   4.1677891893084074E-004   6.5895976415138613E-002
  -2.1791550191313687E-003   4.0775027922006560E-004   6.6995210824826151E-002
  -1.9686313872617871E-003   3.8573556800580722E-004   6.8303244311261946E-002
  -5.6437759041225773E-003   7.9175596768760181E-004   6.3218303614908877E-002
  -5.2261777506270989E-003   8.2564297427895061E-004   6.3856412134082871E-002
  -4.8085795971316075E-003   8.3355783786329130E-004   6.4699870619760569E-002
  -4.3909814436361230E-003   8.1550055844114427E-004   6.5748679071942345E-002
  -3.9733832901406377E-003   7.7147113601200301E-004   6.7002837490627881E-002
  -8.4991499681460435E-003   1.1876339515330681E-003   6.2136138942858285E-002
  -7.8779264032686272E-003   1.2384644614194251E-003   6.2717733653510521E-002
  -7.2567028383912057E-003   1.2503367567959639E-003   6.3501229220422950E-002
  -6.6354792735137868E-003   1.2232508376620564E-003   6.4486625643595238E-002
  -6.0142557086363662E-003   1.1572067040180045E-003   6.5673922923027456E-002
  -1.1376848106810521E-002   1.5835119353786453E-003   6.1077410809854071E-002
  -1.0555448240795129E-002   1.6512859485603437E-003   6.1589505640481712E-002
  -9.7340483747797371E-003   1.6671156757283867E-003   6.2300052217125257E-002
  -8.9126485087643453E-003   1.6310011168831282E-003   6.3209050539784734E-002
  -8.0912486427489536E-003   1.5429422720243391E-003   6.4316500608460281E-002
   2.0122792321330962E-016  -3.3306690738754696E-016   6.9575143384929539E-002
  -1.2490009027033011E-016   1.6653345369377348E-016   6.9509406692366049E-002
  -4.6143644460983069E-016   5.2735593669694936E-016   6.9659873332754252E-002
  -7.9276862852140084E-016   1.1310397063368782E-015   7.0026543306094341E-002
  -1.1241008124329710E-015   1.4432899320127035E-015   7.0609416612385845E-002
  -1.9686313872617871E-003   3.8573556800580722E-004   6.8303244311261946E-002
  -1.7479141247455643E-003   3.6722363989744045E-004   6.8215896851504032E-002
  -1.5271968622293415E-003   3.6870334950328543E-004   6.8353780583827545E-002
  -1.3064795997131196E-003   3.9017469682468831E-004   6.8716895508232553E-002
  -1.0857623371968959E-003   4.3163768186094131E-004   6.9305241624718628E-002
  -3.9733832901406377E-003   7.7147113601200301E-004   6.7002837490627881E-002
  -3.5229209059780900E-003   7.3444727979440905E-004   6.6913870901390365E-002
  -3.0724585218155362E-003   7.3740669900650146E-004   6.7059163363364024E-002
  -2.6219961376529812E-003   7.8034939364836006E-004   6.7438714876548872E-002
  -2.1715337534904348E-003   8.6327536372016178E-004   6.8052525440945089E-002
  -6.0142557086363662E-003   1.1572067040180045E-003   6.5673922923027456E-002
  -5.3250203436977159E-003   1.1016709196912527E-003   6.5603328842025091E-002
  -4.6357849787590447E-003   1.1061100485094885E-003   6.5776021671363621E-002
  -3.9465496138203944E-003   1.1705240904719746E-003   6.6192001411043325E-002
  -3.2573142488817237E-003   1.2949130455793545E-003   6.6851268061063909E-002
  -8.0912486427489536E-003   1.5429422720243391E-003   6.4316500608460281E-002
  -7.1542124379044142E-003   1.4688945595885405E-003   6.4284270673408361E-002
  -6.2171762330598818E-003   1.4748133980125033E-003   6.4504355507826905E-002
  -5.2801400282153476E-003   1.5606987872956515E-003   6.4976755111716189E-002
  -4.3431038233708100E-003   1.7265507274387693E-003   6.5701469485076269E-002
  -1.1241008124329710E-015   1.4432899320127035E-015   7.0609416612385845E-002
  -3.9551695252271202E-016   1.7763568394002505E-015   6.9234108814270723E-002
   3.3306690738754696E-016   1.4432899320127035E-015   6.8013861255183161E-002
   1.0633854907737827E-015   6.3837823915946501E-016   6.6948673935123437E-002
   1.7902346272080649E-015  -1.2212453270876722E-015   6.6038546854091051E-002
  -1.0857623371968959E-003   4.3163768186094131E-004   6.9305241624718628E-002
  -9.3484576223639565E-004   5.1162930151116282E-004   6.7954313899194374E-002
  -7.8392918727589883E-004   6.4868655267438791E-004   6.6750159084561833E-002
  -6.3301261231540895E-004   8.4280943535101210E-004   6.5692777180821421E-002
  -4.8209603735491560E-004   1.0939979495407925E-003   6.4782168187972555E-002
  -2.1715337534904348E-003   8.6327536372016178E-004   6.8052525440945089E-002
  -1.8779879317058941E-003   1.0232586030203272E-003   6.6783043419525012E-002
  -1.5844421099213395E-003   1.2973731053474435E-003   6.5652046980861190E-002
  -1.2908962881367949E-003   1.6856188707013858E-003   6.4659536124953468E-002
  -9.9735046635224429E-004   2.1879958990823067E-003   6.3805510851801944E-002
  -3.2573142488817237E-003   1.2949130455793545E-003   6.6851268061063909E-002
  -2.8294265084088605E-003   1.5348879045296582E-003   6.5720297375262166E-002
  -2.4015387679359834E-003   1.9460596580201106E-003   6.4719524944080981E-002
  -1.9736510274631167E-003   2.5284283060518706E-003   6.3848950767519980E-002
  -1.5457632869902431E-003   3.2819938486237377E-003   6.3108574845579773E-002
  -4.3431038233708100E-003   1.7265507274387693E-003   6.5701469485076269E-002
  -3.7891614923453235E-003   2.0465172060391001E-003   6.4766075766406472E-002
  -3.2352191613198369E-003   2.5947462106932495E-003   6.3952592974221290E-002
  -2.6812768302943470E-003   3.3712377414023068E-003   6.3261021108520860E-002
  -2.1273344992688639E-003   4.3759917981656127E-003   6.2691360169305321E-002
   1.7902346272080649E-015  -1.2212453270876722E-015   6.6038546854091051E-002
   1.0616507672978059E-015  -2.2204460492503131E-015   6.1195627990415558E-002
   3.3653635433950058E-016  -1.5265566588595902E-015   5.6234166477005132E-002
  -3.9204750557075840E-016  -3.8163916471489756E-016   5.1154162313859303E-002
  -1.1241008124329710E-015   2.2204460492503131E-015   4.5955615500978375E-002
  -4.8209603735491560E-004   1.0939979495407925E-003   6.4782168187972555E-002
  -5.8605663494550736E-004   1.4245649565388097E-003   5.9971518661854406E-002
  -6.9001723253611473E-004   1.8568233176404492E-003   5.5071490590291317E-002
  -7.9397783012672123E-004   2.3907730328462037E-003   5.0082083973284008E-002
  -8.9793842771731386E-004   3.0264141021549840E-003   4.5003298810831982E-002
  -9.9735046635224429E-004   2.1879958990823067E-003   6.3805510851801944E-002
  -1.1761075572421596E-003   2.8491299130795067E-003   5.9128822017343291E-002
  -1.3548646481320809E-003   3.7136466352832992E-003   5.4391918741730286E-002
  -1.5336217390219788E-003   4.7815460656926191E-003   4.9594801024963907E-002
  -1.7123788299119036E-003   6.0528282043081916E-003   4.4737468867042551E-002
  -1.5457632869902431E-003   3.2819938486237377E-003   6.3108574845579773E-002
  -1.7701527668888745E-003   4.2736948696204813E-003   5.8667538056882677E-002
  -1.9945422467875333E-003   5.5704699529257121E-003   5.4195450931322428E-002
  -2.2189317266861890E-003   7.1723190985390085E-003   4.9692313468898533E-002
  -2.4433212065848239E-003   9.0792423064612882E-003   4.5158125669611332E-002
  -2.1273344992688639E-003   4.3759917981656127E-003   6.2691360169305321E-002
  -2.3681922638856823E-003   5.6982598261612338E-003   5.8587666780472558E-002
  -2.6090500285025041E-003   7.4272932705682915E-003   5.4482087159067105E-002
  -2.8499077931193172E-003   9.5630921313858280E-003   5.0374621305088962E-002
  -3.0907655577361443E-003   1.2105656408614163E-002   4.6265269218537242E-002
  -2.6574746198676946E-002  -3.4091874576925307E-003   5.9072373279439983E-002
  -2.4955292964482303E-002  -2.8794936780523472E-003   5.8702874094235136E-002
  -2.3335839730287695E-002  -2.2905251716166392E-003   5.8371669491204509E-002
  -2.1716386496093070E-002  -1.6422819383851810E-003   5.8078759470348032E-002
  -2.0096933261898445E-002  -9.3476397835817737E-004   5.7824144031665692E-002
  -3.2698896237492878E-002  -4.1853571990470573E-003   6.0376678014903207E-002
  -3.0855208004638233E-002  -2.8320075413625911E-003   5.8654560511241322E-002
  -2.9011519771783623E-002  -1.7010324989193137E-003   5.7342618422725450E-002
  -2.7167831538929026E-002  -7.9243207171720426E-004   5.6440851749355411E-002
  -2.5324143306074420E-002  -1.0620625975643616E-004   5.5949260491131081E-002
  -4.0280055067028767E-002  -4.9615269404015838E-003   6.2645463299429230E-002
  -3.7840251002542555E-002  -2.7845214046728628E-003   5.9289078135273537E-002
  -3.5400446938056218E-002  -1.1115398262220230E-003   5.6714749219235437E-002
  -3.2960642873569930E-002   5.7417794950742965E-005   5.4922476551314950E-002
  -3.0520838809083642E-002   7.2235145884549934E-004   5.3912260131511916E-002
  -4.9318222687284925E-002  -5.7376966817560965E-003   6.5878729133017885E-002
  -4.5910421958195211E-002  -2.7370352679831206E-003   6.0606426966331596E-002
  -4.2502621229105537E-002  -5.2204715352482597E-004   5.6488061880734665E-002
  -3.9094820500015802E-002   9.0726766161867718E-004   5.3523633876226891E-002
  -3.5687019770926136E-002   1.5509091774473377E-003   5.1713142952808488E-002
  -5.9813399098261028E-002  -6.5138664231106369E-003   7.0076475515669201E-002
  -5.5065720871596197E-002  -2.6895491312933784E-003   6.2606607004415560E-002
  -5.0318042644931435E-002   6.7445519172509849E-005   5.6662556407222897E-002
  -4.5570364418266666E-002   1.7571175282866600E-003   5.2244323724091102E-002
  -4.0822686191601898E-002   2.3794668960492316E-003   4.9351908955020340E-002
  -2.0096933261898445E-002  -9.3476397835817737E-004   5.7824144031665692E-002
  -1.9475742938876314E-002  -2.7255455683672380E-004   5.8167672682222282E-002
  -1.8854552615854166E-002   2.3976306087808430E-004   5.8727819769750722E-002
  -1.8233362292832032E-002   6.0218887478681593E-004   5.9504585294251039E-002
  -1.7612171969809895E-002   8.1472288488865230E-004   6.0497969255723150E-002
  -2.5324143306074420E-002  -1.0620625975643616E-004   5.5949260491131081E-002
  -2.4501203771493091E-002   4.2001312114407774E-004   5.6184669432098613E-002
  -2.3678264236911793E-002   8.4859425516468912E-004   5.6606958359212561E-002
  -2.2855324702330499E-002   1.1795371423057414E-003   5.7216127272472994E-002
  -2.2032385167749188E-002   1.4128417825667317E-003   5.8012176171879898E-002
  -3.0520838809083642E-002   7.2235145884549934E-004   5.3912260131511916E-002
  -2.9525888513768531E-002   1.1125807991247960E-003   5.4091802919817120E-002
  -2.8530938218453459E-002   1.4574254494511274E-003   5.4428487243443444E-002
  -2.7535987923138380E-002   1.7568854098245004E-003   5.4922313102390888E-002
  -2.6541037627823276E-002   2.0109606802449498E-003   5.5573280496659314E-002
  -3.5687019770926136E-002   1.5509091774473377E-003   5.1713142952808488E-002
  -3.4549797165702618E-002   1.8051484771054727E-003   5.1889073145378134E-002
  -3.3412574560479136E-002   2.0662566437377045E-003   5.2192406422443445E-002
  -3.2275351955255618E-002   2.3342336773433982E-003   5.2623142784004567E-002
  -3.1138129350032108E-002   2.6090795779229875E-003   5.3181282230061286E-002
  -4.0822686191601898E-002   2.3794668960492316E-003   4.9351908955020340E-002
  -3.9572929727295356E-002   2.4977161550863713E-003   4.9576480108781240E-002
  -3.8323173262988827E-002   2.6750878380240456E-003   4.9898715896212531E-002
  -3.7073416798682278E-002   2.9115819448622647E-003   5.0318616317314047E-002
  -3.5823660334375756E-002   3.2071984756011918E-003   5.0836181372085953E-002
  -1.7612171969809895E-002   8.1472288488865230E-004   6.0497969255723150E-002
  -1.6808095095437188E-002   9.4467874586609546E-004   6.0462559414468597E-002
  -1.6004018221064478E-002   1.0593701124013005E-003   6.0607033564158086E-002
  -1.5199941346691772E-002   1.1587969844938338E-003   6.0931391704791768E-002
  -1.4395864472319060E-002   1.2429593621440249E-003   6.1435633836369630E-002
  -2.2032385167749188E-002   1.4128417825667317E-003   5.8012176171879898E-002
  -2.1045435333037137E-002   1.5826193701850844E-003   5.7868975861461419E-002
  -2.0058485498325077E-002   1.7229810993969336E-003   5.7911637480777475E-002
  -1.9071535663613033E-002   1.8339269702026782E-003   5.8140161029828143E-002
  -1.8084585828900965E-002   1.9154569826021484E-003   5.8554546508613192E-002
  -2.6541037627823276E-002   2.0109606802449498E-003   5.5573280496659314E-002
  -2.5365236893981475E-002   2.2205599945038096E-003   5.5308138353113143E-002
  -2.4189436160139657E-002   2.3865920863927401E-003   5.5234836078091883E-002
  -2.3013635426297866E-002   2.5090569559115799E-003   5.5353373671595568E-002
  -2.1837834692456065E-002   2.5879546030603273E-003   5.5663751133624179E-002
  -3.1138129350032108E-002   2.6090795779229875E-003   5.3181282230061286E-002
  -2.9767499778270177E-002   2.8585006188227499E-003   5.2780046889423671E-002
  -2.8396870206508221E-002   3.0502030733885153E-003   5.2576629356101273E-002
  -2.7026240634746276E-002   3.1841869416203419E-003   5.2571029630094225E-002
  -2.5655611062984307E-002   3.2604522235184785E-003   5.2763247711402603E-002
  -3.5823660334375756E-002   3.2071984756011918E-003   5.0836181372085953E-002
  -3.4252223985903260E-002   3.4964412431414682E-003   5.0284701470393101E-002
  -3.2680787637430750E-002   3.7138140603842074E-003   4.9937017314805709E-002
  -3.1109351288958240E-002   3.8593169273293329E-003   4.9793128905324141E-002
  -2.9537914940485743E-002   3.9329498439765742E-003   4.9853036241948423E-002
  -1.4395864472319060E-002   1.2429593621440249E-003   6.1435633836369630E-002
  -1.3641110380941922E-002   1.3216414957930023E-003   6.1058229044574419E-002
  -1.2886356289564787E-002   1.4046276358816168E-003   6.0872723609556756E-002
  -1.2131602198187657E-002   1.4919177824103541E-003   6.0879117531316501E-002
  -1.1376848106810521E-002   1.5835119353786453E-003   6.1077410809854071E-002
  -1.8084585828900965E-002   1.9154569826021484E-003   5.8554546508613192E-002
  -1.7138733822415330E-002   1.9867967046119928E-003   5.8118482410209005E-002
  -1.6192881815929698E-002   2.0671717042484300E-003   5.7872714785244195E-002
  -1.5247029809444080E-002   2.1565819815116717E-003   5.7817243633718665E-002
  -1.4301177802958427E-002   2.2550275364012773E-003   5.7952068955632763E-002
  -2.1837834692456065E-002   2.5879546030603273E-003   5.5663751133624179E-002
  -2.0702487654200075E-002   2.6519519134310110E-003   5.5173758999797665E-002
  -1.9567140615944122E-002   2.7297157726150212E-003   5.4872460456072608E-002
  -1.8431793577688163E-002   2.8212461806127118E-003   5.4759855502448843E-002
  -1.7296446539432176E-002   2.9265431374237982E-003   5.4835944138926063E-002
  -2.5655611062984307E-002   3.2604522235184785E-003   5.2763247711402603E-002
  -2.4332371876296180E-002   3.3171071222499598E-003   5.2224058813340954E-002
  -2.3009132689608039E-002   3.3922598409817234E-003   5.1871960622042239E-002
  -2.1685893502919919E-002   3.4859103797137796E-003   5.1706953137506562E-002
  -2.0362654316231771E-002   3.5980587384462637E-003   5.1729036359734228E-002
  -2.9537914940485743E-002   3.9329498439765742E-003   4.9853036241948423E-002
  -2.8028386488703622E-002   3.9822623310691307E-003   4.9269381850838290E-002
  -2.6518858036921486E-002   4.0548039093483840E-003   4.8871215283152941E-002
  -2.5009329585139364E-002   4.1505745788150590E-003   4.8658536538892475E-002
  -2.3499801133357229E-002   4.2695743394688401E-003   4.8631345618057042E-002
  -1.1376848106810521E-002   1.5835119353786453E-003   6.1077410809854071E-002
  -1.0555448240795129E-002   1.6512859485603437E-003   6.1589505640481712E-002
  -9.7340483747797371E-003   1.6671156757283867E-003   6.2300052217125257E-002
  -8.9126485087643453E-003   1.6310011168831282E-003   6.3209050539784734E-002
  -8.0912486427489536E-003   1.5429422720243391E-003   6.4316500608460281E-002
  -1.4301177802958427E-002   2.2550275364012773E-003   5.7952068955632763E-002
  -1.3285723933846354E-002   2.3220643561652210E-003   5.8326928486069518E-002
  -1.2270270064734305E-002   2.3172484280512828E-003   5.8891444276683275E-002
  -1.1254816195622267E-002   2.2405797520589979E-003   5.9645616327474421E-002
  -1.0239362326510178E-002   2.0920583281884841E-003   6.0589444638443180E-002
  -1.7296446539432176E-002   2.9265431374237982E-003   5.4835944138926063E-002
  -1.6095734153062084E-002   2.9928427637702648E-003   5.5053659907306929E-002
  -1.4895021766691998E-002   2.9673811803739708E-003   5.5452236450026629E-002
  -1.3694309380321925E-002   2.8501583872347601E-003   5.6031673767085101E-002
  -1.2493596993951818E-002   2.6411743843527402E-003   5.6791971858482199E-002
  -2.0362654316231771E-002   3.5980587384462637E-003   5.1729036359734228E-002
  -1.8985478898442265E-002   3.6636211713751143E-003   5.1769699904194839E-002
  -1.7608303480652829E-002   3.6175139326967073E-003   5.1982428737155528E-002
  -1.6231128062863379E-002   3.4597370224104095E-003   5.2367222858616225E-002
  -1.4853952645073889E-002   3.1902904405168298E-003   5.2924082268577040E-002
  -2.3499801133357229E-002   4.2695743394688401E-003   4.8631345618057042E-002
  -2.1954958169987007E-002   4.3343995789801859E-003   4.8475048476732785E-002
  -2.0410115206616786E-002   4.2676466850194716E-003   4.8482021138069820E-002
  -1.8865272243246578E-002   4.0693156575863157E-003   4.8652263602068202E-002
  -1.7320429279876343E-002   3.7394064966811413E-003   4.8985775868728210E-002
  -8.0912486427489536E-003   1.5429422720243391E-003   6.4316500608460281E-002
  -7.1542124379044142E-003   1.4688945595885405E-003   6.4284270673408361E-002
  -6.2171762330598818E-003   1.4748133980125033E-003   6.4504355507826905E-002
  -5.2801400282153476E-003   1.5606987872956515E-003   6.4976755111716189E-002
  -4.3431038233708100E-003   1.7265507274387693E-003   6.5701469485076269E-002
  -1.0239362326510178E-002   2.0920583281884841E-003   6.0589444638443180E-002
  -9.0501306810454631E-003   1.9468441489157717E-003   6.0530191284826729E-002
  -7.8608990355807842E-003   1.8800972067165300E-003   6.0723014042979417E-002
  -6.6716673901160662E-003   1.8918175015911129E-003   6.1167912912901912E-002
  -5.4824357446513899E-003   1.9820050335385142E-003   6.1864887894593990E-002
  -1.2493596993951818E-002   2.6411743843527402E-003   5.6791971858482199E-002
  -1.1052408565568137E-002   2.4247937382430584E-003   5.6704195772514926E-002
  -9.6112201371844723E-003   2.2853810154208759E-003   5.6868257140616177E-002
  -8.1700317088007884E-003   2.2229362158860157E-003   5.7284155962785695E-002
  -6.7288432804171253E-003   2.2374593396385367E-003   5.7951892239023722E-002
  -1.4853952645073889E-002   3.1902904405168298E-003   5.2924082268577040E-002
  -1.3161046091472416E-002   2.9027433275703174E-003   5.2806284136473307E-002
  -1.1468139537870970E-002   2.6906648241250622E-003   5.2940084800736600E-002
  -9.7752329842695114E-003   2.5540549301810312E-003   5.3325484261367101E-002
  -8.0823264306680524E-003   2.4929136457381984E-003   5.3962482518364503E-002
  -1.7320429279876343E-002   3.7394064966811413E-003   4.8985775868728210E-002
  -1.5376043258758298E-002   3.3806929168975763E-003   4.8836456376701642E-002
  -1.3431657237640268E-002   3.0959486328293040E-003   4.8938497023341021E-002
  -1.1487271216522224E-002   2.8851736444762827E-003   4.9291897808646373E-002
  -9.5428851954041938E-003   2.7483679518381932E-003   4.9896658732617949E-002
  -4.3431038233708100E-003   1.7265507274387693E-003   6.5701469485076269E-002
  -3.7891614923453235E-003   2.0465172060391001E-003   6.4766075766406472E-002
  -3.2352191613198369E-003   2.5947462106932495E-003   6.3952592974221290E-002
  -2.6812768302943470E-003   3.3712377414023068E-003   6.3261021108520860E-002
  -2.1273344992688639E-003   4.3759917981656127E-003   6.2691360169305321E-002
  -5.4824357446513899E-003   1.9820050335385142E-003   6.1864887894593990E-002
  -4.7806392859274377E-003   2.2711535692143126E-003   6.1122220410871120E-002
  -4.0788428272035132E-003   2.8797568752723934E-003   6.0553350256060068E-002
  -3.3770463684795783E-003   3.8078149517124724E-003   6.0158277430161361E-002
  -2.6752499097556399E-003   5.0553277985352363E-003   5.9937001933174638E-002
  -6.7288432804171253E-003   2.2374593396385367E-003   5.7951892239023722E-002
  -5.8273062915673423E-003   2.4957899323899690E-003   5.7493143234575328E-002
  -4.9257693027175992E-003   3.1647675398514125E-003   5.7260077961466635E-002
  -4.0242323138678622E-003   4.2443921620230786E-003   5.7252696419697581E-002
  -3.1226953250180992E-003   5.7346637989049709E-003   5.7470998609267521E-002
  -8.0823264306680524E-003   2.4929136457381984E-003   5.3962482518364503E-002
  -6.9291625092650806E-003   2.7204262955655145E-003   5.3878844237519201E-002
  -5.7759985878621358E-003   3.4497782044303274E-003   5.4072776090440464E-002
  -4.6228346664591771E-003   4.6809693723335755E-003   5.4544278077128486E-002
  -3.4696707450562179E-003   6.4139997992746500E-003   5.5293350197583482E-002
  -9.5428851954041938E-003   2.7483679518381932E-003   4.9896658732617949E-002
  -8.0862079390206371E-003   2.9450626587408379E-003   5.0279323419702870E-002
  -6.6295306826371081E-003   3.7347888690096309E-003   5.0991444642981831E-002
  -5.1728534262535653E-003   5.1175465826439753E-003   5.2033022402455165E-002
  -3.7161761698700224E-003   7.0933357996444402E-003   5.3404056698122759E-002
  -2.1273344992688639E-003   4.3759917981656127E-003   6.2691360169305321E-002
  -2.3681922638856823E-003   5.6982598261612338E-003   5.8587666780472558E-002
  -2.6090500285025041E-003   7.4272932705682915E-003   5.4482087159067105E-002
  -2.8499077931193172E-003   9.5630921313858280E-003   5.0374621305088962E-002
  -3.0907655577361443E-003   1.2105656408614163E-002   4.6265269218537242E-002
  -2.6752499097556399E-003   5.0553277985352363E-003   5.9937001933174638E-002
  -2.9361874465283870E-003   6.6972351988257017E-003   5.6353634876465275E-002
  -3.1971249833011514E-003   8.8084769356689407E-003   5.2731994508017022E-002
  -3.4580625200738915E-003   1.1389053009065078E-002   4.9072080827829878E-002
  -3.7190000568466663E-003   1.4438963419014517E-002   4.5373893835903178E-002
  -3.1226953250180992E-003   5.7346637989049709E-003   5.7470998609267521E-002
  -3.4400997131128676E-003   7.6962105714897255E-003   5.4470526804823616E-002
  -3.7575041012076213E-003   1.0189660600769507E-002   5.1395394609474704E-002
  -4.0749084893023785E-003   1.3215013886744724E-002   4.8245602023220160E-002
  -4.3923128773971400E-003   1.6772270429414871E-002   4.5021149046061137E-002
  -3.4696707450562179E-003   6.4139997992746500E-003   5.5293350197583482E-002
  -3.8799290636391029E-003   8.6951859441540824E-003   5.2938342565547067E-002
  -4.2901873822219737E-003   1.1570844265870225E-002   5.0472287463439701E-002
  -4.7004457008048726E-003   1.5040974764424172E-002   4.7895184891261086E-002
  -5.1107040193877299E-003   1.9105577439815224E-002   4.5207034849011007E-002
  -3.7161761698700224E-003   7.0933357996444402E-003   5.3404056698122759E-002
  -4.2556754981070838E-003   9.6941613168181062E-003   5.1757082158636281E-002
  -4.7951748263441452E-003   1.2952027930970972E-002   4.9962673069912367E-002
  -5.3346741545812620E-003   1.6866935642103627E-002   4.8020829431951378E-002
  -5.8741734828182679E-003   2.1438884450215578E-002   4.5931551244752900E-002
  -5.9813399098261028E-002  -6.5138664231106369E-003   7.0076475515669201E-002
  -5.5065720871596197E-002  -2.6895491312933784E-003   6.2606607004415560E-002
  -5.0318042644931435E-002   6.7445519172509849E-005   5.6662556407222897E-002
  -4.5570364418266666E-002   1.7571175282866600E-003   5.2244323724091102E-002
  -4.0822686191601898E-002   2.3794668960492316E-003   4.9351908955020340E-002
  -6.9483104715803670E-002  -4.8663857757585971E-004   6.3965811878339163E-002
  -6.3622863627690471E-002   1.0126216738880478E-003   5.8496511888905645E-002
  -5.7762622539577348E-002   2.1909509603948163E-003   5.3726519708308024E-002
  -5.1902381451464114E-002   3.0483492819442862E-003   4.9655835336546217E-002
  -4.6042140363350977E-002   3.5848166385365476E-003   4.6284458773620252E-002
  -7.6044859955759297E-002   5.5405892679590008E-003   5.5156895362458297E-002
  -6.9898566111422727E-002   4.7147924790694185E-003   5.2434555571239466E-002
  -6.3752272267086310E-002   4.3144564016170533E-003   4.9585013483631243E-002
  -5.7605978422749823E-002   4.3395810356018881E-003   4.6608269099633788E-002
  -5.1459684578413316E-002   4.7901663810238360E-003   4.3504322419246982E-002
  -7.9498664818127687E-002   1.1567817113493806E-002   4.3649725968027193E-002
  -7.3892828322793022E-002   8.4169632842507613E-003   4.4420738051416990E-002
  -6.8286991827458413E-002   6.4379618428393806E-003   4.4238037733192639E-002
  -6.2681155332123734E-002   5.6308127892594467E-003   4.3101625013353809E-002
  -5.7075318836789089E-002   5.9955161235111659E-003   4.1011499891900727E-002
  -7.9844519302909089E-002   1.7595044959028638E-002   2.9444303695045138E-002
  -7.5605650261801327E-002   1.2119134089432215E-002   3.4455059329438320E-002
  -7.1366781220693648E-002   8.5614672840616385E-003   3.7685592456992129E-002
  -6.7127912179585858E-002   6.9220445429171405E-003   3.9135903077706383E-002
  -6.2889043138478151E-002   7.2008658659984404E-003   3.8805991191581291E-002
  -4.0822686191601898E-002   2.3794668960492316E-003   4.9351908955020340E-002
  -3.9572929727295356E-002   2.4977161550863713E-003   4.9576480108781240E-002
  -3.8323173262988827E-002   2.6750878380240456E-003   4.9898715896212531E-002
  -3.7073416798682278E-002   2.9115819448622647E-003   5.0318616317314047E-002
  -3.5823660334375756E-002   3.2071984756011918E-003   5.0836181372085953E-002
  -4.6042140363350977E-002   3.5848166385365476E-003   4.6284458773620252E-002
  -4.4693551905303212E-002   3.9468334057571747E-003   4.6327683349195833E-002
  -4.3344963447255441E-002   4.2808799591915886E-003   4.6470907278583579E-002
  -4.1996374989207670E-002   4.5869562988396541E-003   4.6714130561783432E-002
  -4.0647786531159899E-002   4.8650624247016383E-003   4.7057353198795282E-002
  -5.1459684578413316E-002   4.7901663810238360E-003   4.3504322419246982E-002
  -5.0009929406482606E-002   5.3959506564279225E-003   4.3279107778950568E-002
  -4.8560174234551848E-002   5.8866720803590275E-003   4.3156227212607957E-002
  -4.7110419062621159E-002   6.2623306528169897E-003   4.3135680720219283E-002
  -4.5660663890690373E-002   6.5229263738020016E-003   4.3217468301784384E-002
  -5.7075318836789089E-002   5.9955161235111659E-003   4.1011499891900727E-002
  -5.5522062230833634E-002   6.8450679070986703E-003   4.0430753398045416E-002
  -5.3968805624878137E-002   7.4924642015264629E-003   3.9954675698285563E-002
  -5.2415549018922640E-002   7.9377050067944085E-003   3.9583266792621558E-002
  -5.0862292412967122E-002   8.1807903229024342E-003   3.9316526681053031E-002
  -6.2889043138478151E-002   7.2008658659984404E-003   3.8805991191581291E-002
  -6.1229950378356157E-002   8.2941851577695014E-003   3.7782620206480266E-002
  -5.9570857618234191E-002   9.0982563226939123E-003   3.6866252735616584E-002
  -5.7911764858112225E-002   9.6130793607717181E-003   3.6056888778990367E-002
  -5.6252672097990258E-002   9.8386542720028669E-003   3.5354528336601410E-002
  -3.5823660334375756E-002   3.2071984756011918E-003   5.0836181372085953E-002
  -3.4252223985903260E-002   3.4964412431414682E-003   5.0284701470393101E-002
  -3.2680787637430750E-002   3.7138140603842074E-003   4.9937017314805709E-002
  -3.1109351288958240E-002   3.8593169273293329E-003   4.9793128905324141E-002
  -2.9537914940485743E-002   3.9329498439765742E-003   4.9853036241948423E-002
  -4.0647786531159899E-002   4.8650624247016383E-003   4.7057353198795282E-002
  -3.8860422850975608E-002   5.0897885955403788E-003   4.6253923896683286E-002
  -3.7073059170791282E-002   5.2357250701190738E-003   4.5678553511889097E-002
  -3.5285695490606964E-002   5.3028718484382578E-003   4.5331242044412676E-002
  -3.3498331810422666E-002   5.2912289304969384E-003   4.5211989494254257E-002
  -4.5660663890690373E-002   6.5229263738020016E-003   4.3217468301784384E-002
  -4.3633109707582135E-002   6.6831359479393726E-003   4.2155169853290875E-002
  -4.1605555524473890E-002   6.7576360798542595E-003   4.1345193493327367E-002
  -3.9578001341365646E-002   6.7464267695470682E-003   4.0787539221893925E-002
  -3.7550447158257408E-002   6.6495080170172194E-003   4.0482207038990428E-002
  -5.0862292412967122E-002   8.1807903229024342E-003   3.9316526681053031E-002
  -4.8570284555722869E-002   8.2764833003383248E-003   3.7988439340215681E-002
  -4.6278276698478511E-002   8.2795470895893133E-003   3.6936937259120645E-002
  -4.3986268841234175E-002   8.1899816906557694E-003   3.6162020437767645E-002
  -4.1694260983989900E-002   8.0077871035373199E-003   3.5663688876156827E-002
  -5.6252672097990258E-002   9.8386542720028669E-003   3.5354528336601410E-002
  -5.3671947395397768E-002   9.8698306527373325E-003   3.3753732357458099E-002
  -5.1091222692805235E-002   9.8014580993243255E-003   3.2453784809268915E-002
  -4.8510497990212738E-002   9.6335366117649458E-003   3.1454685692034010E-002
  -4.5929773287620212E-002   9.3660661900577535E-003   3.0756435005753424E-002
  -2.9537914940485743E-002   3.9329498439765742E-003   4.9853036241948423E-002
  -2.8028386488703622E-002   3.9822623310691307E-003   4.9269381850838290E-002
  -2.6518858036921486E-002   4.0548039093483840E-003   4.8871215283152941E-002
  -2.5009329585139364E-002   4.1505745788150590E-003   4.8658536538892475E-002
  -2.3499801133357229E-002   4.2695743394688401E-003   4.8631345618057042E-002
  -3.3498331810422666E-002   5.2912289304969384E-003   4.5211989494254257E-002
  -3.1798290031219055E-002   5.2574780041764746E-003   4.4570563514587214E-002
  -3.0098248252015417E-002   5.2583007573575313E-003   4.4124676366338100E-002
  -2.8398206472811806E-002   5.2936971900394911E-003   4.3874328049506986E-002
  -2.6698164693608237E-002   5.3636673022234849E-003   4.3819518564094162E-002
  -3.7550447158257408E-002   6.6495080170172194E-003   4.0482207038990428E-002
  -3.5649841043639136E-002   6.5326936772839850E-003   3.9794354059080495E-002
  -3.3749234929020905E-002   6.4617976053664497E-003   3.9312090918581767E-002
  -3.1848628814402619E-002   6.4368198012641990E-003   3.9035417617494267E-002
  -2.9948022699784402E-002   6.4577602649777410E-003   3.8964334155817959E-002
  -4.1694260983989900E-002   8.0077871035373199E-003   3.5663688876156827E-002
  -3.9583039525963905E-002   7.8079093503915786E-003   3.4940753484318243E-002
  -3.7471818067937861E-002   7.6652944533754826E-003   3.4433458939884108E-002
  -3.5360596609911837E-002   7.5799424124888245E-003   3.4141805242854262E-002
  -3.3249375151885821E-002   7.5518532277321360E-003   3.4065792393228773E-002
  -4.5929773287620212E-002   9.3660661900577535E-003   3.0756435005753424E-002
  -4.3597885478193266E-002   9.0831250234988392E-003   3.0009761790300349E-002
  -4.1265997668766347E-002   8.8687913013845709E-003   2.9488780430244943E-002
  -3.8934109859339386E-002   8.7230650237133528E-003   2.9193490925586929E-002
  -3.6602222049912481E-002   8.6459461904866419E-003   2.9123893276326362E-002
  -2.3499801133357229E-002   4.2695743394688401E-003   4.8631345618057042E-002
  -2.1954958169987007E-002   4.3343995789801859E-003   4.8475048476732785E-002
  -2.0410115206616786E-002   4.2676466850194716E-003   4.8482021138069820E-002
  -1.8865272243246578E-002   4.0693156575863157E-003   4.8652263602068202E-002
  -1.7320429279876343E-002   3.7394064966811413E-003   4.8985775868728210E-002
  -2.6698164693608237E-002   5.3636673022234849E-003   4.3819518564094162E-002
  -2.4996369106883957E-002   5.3888819733791116E-003   4.3477578450022480E-002
  -2.3294573520159727E-002   5.2900120829775243E-003   4.3286273779997331E-002
  -2.1592777933435447E-002   5.0670576310187232E-003   4.3245604554018824E-002
  -1.9890982346711217E-002   4.7200186175029302E-003   4.3355570772087071E-002
  -2.9948022699784402E-002   6.4577602649777410E-003   3.8964334155817959E-002
  -2.8101908848320901E-002   6.4433643677778152E-003   3.8444244640913894E-002
  -2.6255794996857422E-002   6.3123774809355632E-003   3.8062156211441683E-002
  -2.4409681145393956E-002   6.0647996044510162E-003   3.7818068867401376E-002
  -2.2563567293930442E-002   5.7006307383242749E-003   3.7711982608792771E-002
  -3.3249375151885821E-002   7.5518532277321360E-003   3.4065792393228773E-002
  -3.1271577394297916E-002   7.4978467621765743E-003   3.3375047049407337E-002
  -2.9293779636709934E-002   7.3347428788936089E-003   3.2809668432402822E-002
  -2.7315981879122014E-002   7.0625415778830889E-003   3.2369656542215387E-002
  -2.5338184121534050E-002   6.6812428591456752E-003   3.2055011378845005E-002
  -3.6602222049912481E-002   8.6459461904866419E-003   2.9123893276326362E-002
  -3.4505374744814854E-002   8.5523291565753889E-003   2.8269985675502485E-002
  -3.2408527439717255E-002   8.3571082768516824E-003   2.7528810442880747E-002
  -3.0311680134619670E-002   8.0602835513156126E-003   2.6900367578461065E-002
  -2.8214832829522057E-002   7.6618549799672975E-003   2.6384657082243801E-002
  -1.7320429279876343E-002   3.7394064966811413E-003   4.8985775868728210E-002
  -1.5376043258758298E-002   3.3806929168975763E-003   4.8836456376701642E-002
  -1.3431657237640268E-002   3.0959486328293040E-003   4.8938497023341021E-002
  -1.1487271216522224E-002   2.8851736444762827E-003   4.9291897808646373E-002
  -9.5428851954041938E-003   2.7483679518381932E-003   4.9896658732617949E-002
  -1.9890982346711217E-002   4.7200186175029302E-003   4.3355570772087071E-002
  -1.7730684153103020E-002   4.3231364316195786E-003   4.3117955189769408E-002
  -1.5570385959494781E-002   3.9506524625589345E-003   4.3060803813765980E-002
  -1.3410087765886595E-002   3.6025667103215392E-003   4.3184116644077120E-002
  -1.1249789572278346E-002   3.2788791749068791E-003   4.3487893680702272E-002
  -2.2563567293930442E-002   5.7006307383242749E-003   3.7711982608792771E-002
  -2.0258252860183689E-002   5.2655799463413588E-003   3.7336499857291289E-002
  -1.7952938426436929E-002   4.8053562922889814E-003   3.7070585379752857E-002
  -1.5647623992690134E-002   4.3199597761667888E-003   3.6914239176176949E-002
  -1.3342309558943416E-002   3.8093903979751764E-003   3.6867461246563871E-002
  -2.5338184121534050E-002   6.6812428591456752E-003   3.2055011378845005E-002
  -2.2958749380000393E-002   6.2080234610631391E-003   3.1492090379267576E-002
  -2.0579314638466711E-002   5.6600601220188201E-003   3.0967841721301438E-002
  -1.8199879896933075E-002   5.0373528420122639E-003   3.0482265404946158E-002
  -1.5820445155399383E-002   4.3399016210437791E-003   3.0035361430202259E-002
  -2.8214832829522057E-002   7.6618549799672975E-003   2.6384657082243801E-002
  -2.5832173712553114E-002   7.1504669757852524E-003   2.5584726755698117E-002
  -2.3449514595584128E-002   6.5147639517486866E-003   2.4752572838411702E-002
  -2.1066855478615136E-002   5.7547459078578014E-003   2.3888195330384748E-002
  -1.8684196361646199E-002   4.8704128441121597E-003   2.2991594231617452E-002
  -9.5428851954041938E-003   2.7483679518381932E-003   4.9896658732617949E-002
  -8.0862079390206371E-003   2.9450626587408379E-003   5.0279323419702870E-002
  -6.6295306826371081E-003   3.7347888690096309E-003   5.0991444642981831E-002
  -5.1728534262535653E-003   5.1175465826439753E-003   5.2033022402455165E-002
  -3.7161761698700224E-003   7.0933357996444402E-003   5.3404056698122759E-002
  -1.1249789572278346E-002   3.2788791749068791E-003   4.3487893680702272E-002
  -9.4480736337793914E-003   3.2386914165625780E-003   4.4068341324259797E-002
  -7.6463576952803536E-003   3.7411049955370923E-003   4.5009409795853994E-002
  -5.8446417567813470E-003   4.7861199118301861E-003   4.6311099095484781E-002
  -4.0429258182823058E-003   6.3737361654422342E-003   4.7973409223152186E-002
  -1.3342309558943416E-002   3.8093903979751764E-003   3.6867461246563871E-002
  -1.1164390646486545E-002   3.5323201743842070E-003   3.7595261680546499E-002
  -8.9864717340296732E-003   3.7474211220647480E-003   3.8714847234408434E-002
  -6.8085528215728296E-003   4.4546932410163900E-003   4.0226217908149162E-002
  -4.6306339091159859E-003   5.6541365312395286E-003   4.2129373701768974E-002
  -1.5820445155399383E-002   4.3399016210437791E-003   3.0035361430202259E-002
  -1.3235158977142281E-002   3.8259489322060580E-003   3.0860084488562894E-002
  -1.0649872798885173E-002   3.7537372485921955E-003   3.2107756958645005E-002
  -8.0645866206280961E-003   4.1232665702027084E-003   3.3778378840448486E-002
  -5.4793004423709622E-003   4.9345368970371839E-003   3.5871950133973450E-002
  -1.8684196361646199E-002   4.8704128441121597E-003   2.2991594231617452E-002
  -1.5660378625746457E-002   4.1195776900276315E-003   2.3862809748308789E-002
  -1.2636560889846743E-002   3.7600533751199205E-003   2.5188138968563867E-002
  -9.6127431539470426E-003   3.7918398993887631E-003   2.6967581892382853E-002
  -6.5889254180472867E-003   4.2149372628343951E-003   2.9201138519765690E-002
  -3.7161761698700224E-003   7.0933357996444402E-003   5.3404056698122759E-002
  -4.2556754981070838E-003   9.6941613168181062E-003   5.1757082158636281E-002
  -4.7951748263441452E-003   1.2952027930970972E-002   4.9962673069912367E-002
  -5.3346741545812620E-003   1.6866935642103627E-002   4.8020829431951378E-002
  -5.8741734828182679E-003   2.1438884450215578E-002   4.5931551244752900E-002
  -4.0429258182823058E-003   6.3737361654422342E-003   4.7973409223152186E-002
  -4.6267534574354896E-003   8.8247042485494198E-003   4.7089154188891036E-002
  -5.2105810965887428E-003   1.2459774653328842E-002   4.6263677082034993E-002
  -5.7944087357419648E-003   1.7278947379780703E-002   4.5496977902583779E-002
  -6.3782363748951798E-003   2.3282222427904564E-002   4.4789056650537340E-002
  -4.6306339091159859E-003   5.6541365312395286E-003   4.2129373701768974E-002
  -5.0525773825432739E-003   7.9552471802807889E-003   4.2534899397426301E-002
  -5.4745208559705064E-003   1.1967521375686810E-002   4.3205415497130847E-002
  -5.8964643293977458E-003   1.7690959117457886E-002   4.4140922000881801E-002
  -6.3184078028250268E-003   2.5125560405593772E-002   4.5341418908680486E-002
  -5.4793004423709622E-003   4.9345368970371839E-003   3.5871950133973450E-002
  -5.5331472734300577E-003   7.0857901120121303E-003   3.8094317784241737E-002
  -5.5869941044892086E-003   1.1475268098044729E-002   4.0787888315199403E-002
  -5.6408409355483474E-003   1.8102970855135347E-002   4.3952661726846060E-002
  -5.6946877666074550E-003   2.6968898383282869E-002   4.7588638019182061E-002
  -6.5889254180472867E-003   4.2149372628343951E-003   2.9201138519765690E-002
  -6.0684631300962077E-003   6.2163330437438047E-003   3.3767409349337529E-002
  -5.5480008421450178E-003   1.0983014820402481E-002   3.9011095536240714E-002
  -5.0275385541939943E-003   1.8514982592812326E-002   4.4932197080475245E-002
  -4.5070762662428043E-003   2.8812236360971966E-002   5.1530713982041121E-002
  -7.9844519302909089E-002   1.7595044959028638E-002   2.9444303695045138E-002
  -7.5605650261801327E-002   1.2119134089432215E-002   3.4455059329438320E-002
  -7.1366781220693648E-002   8.5614672840616385E-003   3.7685592456992129E-002
  -6.7127912179585858E-002   6.9220445429171405E-003   3.9135903077706383E-002
  -6.2889043138478151E-002   7.2008658659984404E-003   3.8805991191581291E-002
  -8.6723826322623904E-002   2.7260370937738421E-002   5.6993922925381024E-002
  -8.2474419863121234E-002   2.0286927550040468E-002   4.9654294375671898E-002
  -7.8225013403618635E-002   1.5462662774350946E-002   4.4115963169592043E-002
  -7.3975606944115951E-002   1.2787576610669805E-002   4.0378929307141570E-002
  -6.9726200484613282E-002   1.2261669058997171E-002   3.8443192788320341E-002
 -0.10977798878979264        3.6925696916448175E-002   8.2930542363724005E-002
 -0.10193652506142631        2.8454721010648804E-002   6.3471464177695072E-002
  -9.4095061333059948E-002   2.2363858264640178E-002   4.9395203185764062E-002
  -8.6253597604693588E-002   1.8653108678422473E-002   4.0701759387931316E-002
  -7.8412133876327297E-002   1.7322472251995680E-002   3.7391132784196660E-002
 -0.14900700670441533        4.6591022895158027E-002  0.10725416201007440     
 -0.13399196585671649        3.6622514471257070E-002   7.5906568735508148E-002
 -0.11897692500901770        2.9265053754929420E-002   5.3523312505508527E-002
 -0.10396188416131882        2.4518640746175248E-002   4.0104393320075871E-002
  -8.8946843313620003E-002   2.2383275444994438E-002   3.5649811179209817E-002
 -0.20441088006649177        5.6256348873867768E-002  0.12996478186443217     
 -0.17864074224899174        4.4790307931865558E-002   8.6959608049110682E-002
 -0.15287060443149164        3.6166249245218635E-002   5.6500291128824986E-002
 -0.12710046661399169        3.0384172813927836E-002   3.8586831103574762E-002
 -0.10133032879649162        2.7444078637992919E-002   3.3219227973360466E-002
  -6.2889043138478151E-002   7.2008658659984404E-003   3.8805991191581291E-002
  -6.1229950378356157E-002   8.2941851577695014E-003   3.7782620206480266E-002
  -5.9570857618234191E-002   9.0982563226939123E-003   3.6866252735616584E-002
  -5.7911764858112225E-002   9.6130793607717181E-003   3.6056888778990367E-002
  -5.6252672097990258E-002   9.8386542720028669E-003   3.5354528336601410E-002
  -6.9726200484613282E-002   1.2261669058997171E-002   3.8443192788320341E-002
  -6.7741174428990594E-002   1.2719007869704563E-002   3.5554008531856557E-002
  -6.5756148373367893E-002   1.2993660793163955E-002   3.3209687352156708E-002
  -6.3771122317745177E-002   1.3085627829375227E-002   3.1410229249221121E-002
  -6.1786096262122503E-002   1.2994908978338437E-002   3.0155634223049510E-002
  -7.8412133876327297E-002   1.7322472251995680E-002   3.7391132784196660E-002
  -7.5663314962677100E-002   1.7143830581639610E-002   3.2742697495968517E-002
  -7.2914496049027000E-002   1.6889065263633936E-002   2.9076984847031147E-002
  -7.0165677135376858E-002   1.6558176297978566E-002   2.6393994837384551E-002
  -6.7416858221726744E-002   1.6151163684673869E-002   2.4693727467028664E-002
  -8.8946843313620003E-002   2.2383275444994438E-002   3.5649811179209817E-002
  -8.4996371979415772E-002   2.1568653293574665E-002   2.9348687098815964E-002
  -8.1045900645211513E-002   2.0784469734103892E-002   2.4468145220239809E-002
  -7.7095429311007296E-002   2.0030724766582103E-002   2.1008185543480801E-002
  -7.3144957976803038E-002   1.9307418391009426E-002   1.8968808068539424E-002
 -0.10133032879649162        2.7444078637992919E-002   3.3219227973360466E-002
  -9.5740345479206512E-002   2.5993476005509608E-002   2.5371977340399365E-002
  -9.0150362161921460E-002   2.4679874204573904E-002   1.9383168471782439E-002
  -8.4560378844636380E-002   2.3503273235185515E-002   1.5252801367509835E-002
  -7.8970395527351300E-002   2.2463673097344983E-002   1.2980876027581467E-002
  -5.6252672097990258E-002   9.8386542720028669E-003   3.5354528336601410E-002
  -5.3671947395397768E-002   9.8698306527373325E-003   3.3753732357458099E-002
  -5.1091222692805235E-002   9.8014580993243255E-003   3.2453784809268915E-002
  -4.8510497990212738E-002   9.6335366117649458E-003   3.1454685692034010E-002
  -4.5929773287620212E-002   9.3660661900577535E-003   3.0756435005753424E-002
  -6.1786096262122503E-002   1.2994908978338437E-002   3.0155634223049510E-002
  -5.8904091865674468E-002   1.2773043899694303E-002   2.8368353960278647E-002
  -5.6022087469226406E-002   1.2471572253083582E-002   2.6882784654264275E-002
  -5.3140083072778399E-002   1.2090494038506452E-002   2.5698926305006989E-002
  -5.0258078676330323E-002   1.1629809255962409E-002   2.4816778912506332E-002
  -6.7416858221726744E-002   1.6151163684673869E-002   2.4693727467028664E-002
  -6.4232711605620635E-002   1.5676257146651468E-002   2.2739905286810677E-002
  -6.1048564989514498E-002   1.5141686406842665E-002   2.1088656589152134E-002
  -5.7864418373408340E-002   1.4547451465248011E-002   1.9739981374052595E-002
  -5.4680271757302265E-002   1.3893552321867009E-002   1.8693879641512645E-002
  -7.3144957976803038E-002   1.9307418391009426E-002   1.8968808068539424E-002
  -6.9657806615236309E-002   1.8579470393608480E-002   1.6868386337054651E-002
  -6.6170655253669511E-002   1.7811800560601668E-002   1.5071400613932065E-002
  -6.2683503892102768E-002   1.7004408891989321E-002   1.3577850899171250E-002
  -5.9196352530535998E-002   1.6157295387771858E-002   1.2387737192772384E-002
  -7.8970395527351300E-002   2.2463673097344983E-002   1.2980876027581467E-002
  -7.5179376894521366E-002   2.1482683640565547E-002   1.0753797111010543E-002
  -7.1388358261691431E-002   2.0481914714361033E-002   8.8310167286045349E-003
  -6.7597339628861497E-002   1.9461366318731500E-002   7.2125348803626643E-003
  -6.3806320996031562E-002   1.8421038453676486E-002   5.8983515662853758E-003
  -4.5929773287620212E-002   9.3660661900577535E-003   3.0756435005753424E-002
  -4.3597885478193266E-002   9.0831250234988392E-003   3.0009761790300349E-002
  -4.1265997668766347E-002   8.8687913013845709E-003   2.9488780430244943E-002
  -3.8934109859339386E-002   8.7230650237133528E-003   2.9193490925586929E-002
  -3.6602222049912481E-002   8.6459461904866419E-003   2.9123893276326362E-002
  -5.0258078676330323E-002   1.1629809255962409E-002   2.4816778912506332E-002
  -4.7707913712218053E-002   1.1167301997044493E-002   2.4041087833910540E-002
  -4.5157748748105749E-002   1.0780756353344897E-002   2.3476259209288003E-002
  -4.2607583783993500E-002   1.0470172324863924E-002   2.3122293038638664E-002
  -4.0057418819881174E-002   1.0235549911601138E-002   2.2979189321962523E-002
  -5.4680271757302265E-002   1.3893552321867009E-002   1.8693879641512645E-002
  -5.1926659039928880E-002   1.3251478970589536E-002   1.7896524870548644E-002
  -4.9173046322555543E-002   1.2692721405305557E-002   1.7295203152133537E-002
  -4.6419433605182192E-002   1.2217279626014051E-002   1.6889914486267456E-002
  -4.3665820887808821E-002   1.1825153632715524E-002   1.6680658872950171E-002
  -5.9196352530535998E-002   1.6157295387771858E-002   1.2387737192772384E-002
  -5.6254121461325850E-002   1.5335655944135107E-002   1.1576072900214483E-002
  -5.3311890392115660E-002   1.4604686457265773E-002   1.0945612258781660E-002
  -5.0369659322905519E-002   1.3964386927163789E-002   1.0496355268473163E-002
  -4.7427428253695329E-002   1.3414757353830298E-002   1.0228301929289453E-002
  -6.3806320996031562E-002   1.8421038453676486E-002   5.8983515662853758E-003
  -6.0690300976408817E-002   1.7419832917680345E-002   5.0797319229085036E-003
  -5.7574280956786184E-002   1.6516651509226821E-002   4.4274865292322219E-003
  -5.4458260937163550E-002   1.5711494228314540E-002   3.9416153852557326E-003
  -5.1342240917540805E-002   1.5004361074944406E-002   3.6221184909802639E-003
  -3.6602222049912481E-002   8.6459461904866419E-003   2.9123893276326362E-002
  -3.4505374744814854E-002   8.5523291565753889E-003   2.8269985675502485E-002
  -3.2408527439717255E-002   8.3571082768516824E-003   2.7528810442880747E-002
  -3.0311680134619670E-002   8.0602835513156126E-003   2.6900367578461065E-002
  -2.8214832829522057E-002   7.6618549799672975E-003   2.6384657082243801E-002
  -4.0057418819881174E-002   1.0235549911601138E-002   2.2979189321962523E-002
  -3.7808400168461709E-002   9.9917791972299885E-003   2.1913584369675443E-002
  -3.5559381517042368E-002   9.6537502654239493E-003   2.1039589741829595E-002
  -3.3310362865622972E-002   9.2214631161826946E-003   2.0357205438425036E-002
  -3.1061344214203618E-002   8.6949177495067032E-003   1.9866431459461986E-002
  -4.3665820887808821E-002   1.1825153632715524E-002   1.6680658872950171E-002
  -4.1185752933828569E-002   1.1431229237884616E-002   1.5410702197577369E-002
  -3.8705684979848262E-002   1.0950392253996202E-002   1.4411233802884588E-002
  -3.6225617025868025E-002   1.0382642681049662E-002   1.3682253688872568E-002
  -3.3745549071887766E-002   9.7279805190459423E-003   1.3223761855540778E-002
  -4.7427428253695329E-002   1.3414757353830298E-002   1.0228301929289453E-002
  -4.4637433040915178E-002   1.2870679278539340E-002   8.7613391592084103E-003
  -4.1847437828134992E-002   1.2247034242568351E-002   7.6437426260460954E-003
  -3.9057442615354779E-002   1.1543822245916798E-002   6.8755123298036864E-003
  -3.6267447402574648E-002   1.0761043288585820E-002   6.4566482704805500E-003
  -5.1342240917540805E-002   1.5004361074944406E-002   3.6221184909802639E-003
  -4.8163440489721654E-002   1.4310129319194065E-002   1.9654952545678506E-003
  -4.4984640061902448E-002   1.3543676231140500E-002   7.3711621131358762E-004
  -4.1805839634083242E-002   1.2705001810783989E-002  -6.3018638781574265E-005
  -3.8627039206264091E-002   1.1794106058124809E-002  -4.3490929571843306E-004
  -2.8214832829522057E-002   7.6618549799672975E-003   2.6384657082243801E-002
  -2.5832173712553114E-002   7.1504669757852524E-003   2.5584726755698117E-002
  -2.3449514595584128E-002   6.5147639517486866E-003   2.4752572838411702E-002
  -2.1066855478615136E-002   5.7547459078578014E-003   2.3888195330384748E-002
  -1.8684196361646199E-002   4.8704128441121597E-003   2.2991594231617452E-002
  -3.1061344214203618E-002   8.6949177495067032E-003   1.9866431459461986E-002
  -2.8712444931290673E-002   8.0970973857682482E-003   1.9140968018326099E-002
  -2.6363545648377840E-002   7.4509852453411296E-003   1.8380208499818612E-002
  -2.4014646365464992E-002   6.7565813282250350E-003   1.7584152903939387E-002
  -2.1665747082552061E-002   6.0138856344202907E-003   1.6752801230688397E-002
  -3.3745549071887766E-002   9.7279805190459423E-003   1.3223761855540778E-002
  -3.1433482109662146E-002   9.0437277957516327E-003   1.2648788542980655E-002
  -2.9121415147436529E-002   8.3872065389336697E-003   1.2035446666417551E-002
  -2.6809348185210947E-002   7.7584167485924872E-003   1.1383736225851593E-002
  -2.4497281222985348E-002   7.1573584247279776E-003   1.0693657221282987E-002
  -3.6267447402574648E-002   1.0761043288585820E-002   6.4566482704805500E-003
  -3.3995285247667484E-002   9.9903582057346008E-003   6.1081883296614653E-003
  -3.1723123092760271E-002   9.3234278325259393E-003   5.7182873382084394E-003
  -2.9450960937853033E-002   8.7602521689600522E-003   5.2869452961217308E-003
  -2.7178798782945896E-002   8.3008312150357755E-003   4.8141622034005710E-003
  -3.8627039206264091E-002   1.1794106058124809E-002  -4.3490929571843306E-004
  -3.6397854345306513E-002   1.0936988615717791E-002  -4.8083262163073348E-004
  -3.4168669484348935E-002   1.0259649126118431E-002  -5.7126948480817896E-004
  -3.1939484623391357E-002   9.7620875893271175E-003  -7.0621988525061685E-004
  -2.9710299762433778E-002   9.4443040053437954E-003  -8.8568382295839410E-004
  -1.8684196361646199E-002   4.8704128441121597E-003   2.2991594231617452E-002
  -1.5660378625746457E-002   4.1195776900276315E-003   2.3862809748308789E-002
  -1.2636560889846743E-002   3.7600533751199205E-003   2.5188138968563867E-002
  -9.6127431539470426E-003   3.7918398993887631E-003   2.6967581892382853E-002
  -6.5889254180472867E-003   4.2149372628343951E-003   2.9201138519765690E-002
  -2.1665747082552061E-002   6.0138856344202907E-003   1.6752801230688397E-002
  -1.8458810627492009E-002   5.3423798192365202E-003   1.7794029530003530E-002
  -1.5251874172431887E-002   4.8615455379851236E-003   1.8747381564075544E-002
  -1.2044937717371716E-002   4.5713827906660176E-003   1.9612857332904368E-002
  -8.8380012623117121E-003   4.4718915772788970E-003   2.0390456836490545E-002
  -2.4497281222985348E-002   7.1573584247279776E-003   1.0693657221282987E-002
  -2.1649216017571637E-002   6.5651819484456031E-003   1.1704258997977057E-002
  -1.8801150812157948E-002   5.9630377008502988E-003   1.2084994540621036E-002
  -1.5953085606744296E-002   5.3509256819428211E-003   1.1835863849215630E-002
  -1.3105020401330547E-002   4.7288458917228438E-003   1.0956866923759911E-002
  -2.7178798782945896E-002   8.3008312150357755E-003   4.8141622034005710E-003
  -2.5231594795985461E-002   7.7879840776547554E-003   5.5934981522290511E-003
  -2.3284390809025036E-002   7.0645298637158210E-003   5.2009778982007801E-003
  -2.1337186822064598E-002   6.1304685732202942E-003   3.6366014413159314E-003
  -1.9389982835104180E-002   4.9858002061672901E-003   9.0036878157460920E-004
  -2.9710299762433778E-002   9.4443040053437954E-003  -8.8568382295839410E-004
  -2.9205946962733487E-002   9.0107862068634637E-003  -5.3825300723986391E-004
  -2.8701594163033139E-002   8.1660220265807326E-003  -1.9046683631853967E-003
  -2.8197241363332820E-002   6.9100114644971150E-003  -4.9849298907938613E-003
  -2.7692888563632501E-002   5.2427545206110704E-003  -9.7790375900660420E-003
  -6.5889254180472867E-003   4.2149372628343951E-003   2.9201138519765690E-002
  -6.0684631300962077E-003   6.2163330437438047E-003   3.3767409349337529E-002
  -5.5480008421450178E-003   1.0983014820402481E-002   3.9011095536240714E-002
  -5.0275385541939943E-003   1.8514982592812326E-002   4.4932197080475245E-002
  -4.5070762662428043E-003   2.8812236360971966E-002   5.1530713982041121E-002
  -8.8380012623117121E-003   4.4718915772788970E-003   2.0390456836490545E-002
  -7.5669672487726075E-003   5.7068201848851641E-003   2.5633667791467252E-002
  -6.2959332352334474E-003   9.4199169005478867E-003   3.1700606840288581E-002
  -5.0248992216944122E-003   1.5611181724266093E-002   3.8591273982954533E-002
  -3.7538652081552937E-003   2.4280614656040145E-002   4.6305669219465218E-002
  -1.3105020401330547E-002   4.7288458917228438E-003   1.0956866923759911E-002
  -1.0937101925690244E-002   5.1973073260271341E-003   1.6589900116447148E-002
  -8.7691834500499416E-003   7.8568189806934863E-003   2.3192974139492756E-002
  -6.6012649744096805E-003   1.2707380855719742E-002   3.0766088992895277E-002
  -4.4333464987693361E-003   1.9748992951108324E-002   3.9309244676656752E-002
  -1.9389982835104180E-002   4.9858002061672901E-003   9.0036878157460920E-004
  -1.6178867160849396E-002   4.6877944671687988E-003   6.6361063242779336E-003
  -1.2967751486594566E-002   6.2937210608379895E-003   1.3488197433852461E-002
  -9.7566358123397767E-003   9.8035799871738945E-003   2.1456642110298133E-002
  -6.5455201380849523E-003   1.5217371246176281E-002   3.0541440353614696E-002
  -2.7692888563632501E-002   5.2427545206110704E-003  -9.7790375900660420E-003
  -2.3292262954249909E-002   4.1782816083100194E-003  -4.2277135850410374E-003
  -1.8891637344867318E-002   4.7306231409842137E-003   2.5862767233683637E-003
  -1.4491011735484838E-002   6.8997791186270890E-003   1.0662933335161648E-002
  -1.0090386126102135E-002   1.0685749541244682E-002   2.0002256250340578E-002
 </DataArray>
 </PointData>
 </Piece>
 </UnstructuredGrid>
 </VTKFile>
