 <VTKFile type="UnstructuredGrid"  version="0.1"   >
 <UnstructuredGrid>
 <Piece  NumberOfPoints="          1600 "  NumberOfCells="         1024 ">
 <Points>
 <DataArray  type="Float64" NumberOfComponents="3"  format="ascii" >
   0.0000000000000000        0.0000000000000000        0.0000000000000000     
   3.1250000000000000E-002   0.0000000000000000        0.0000000000000000     
   6.2500000000000000E-002   0.0000000000000000        0.0000000000000000     
   9.3750000000000000E-002   0.0000000000000000        0.0000000000000000     
  0.12500000000000000        0.0000000000000000        0.0000000000000000     
   0.0000000000000000        3.1250000000000000E-002   0.0000000000000000     
   3.1250000000000000E-002   3.1250000000000000E-002   0.0000000000000000     
   6.2500000000000000E-002   3.1250000000000000E-002   0.0000000000000000     
   9.3750000000000000E-002   3.1250000000000000E-002   0.0000000000000000     
  0.12500000000000000        3.1250000000000000E-002   0.0000000000000000     
   0.0000000000000000        6.2500000000000000E-002   0.0000000000000000     
   3.1250000000000000E-002   6.2500000000000000E-002   0.0000000000000000     
   6.2500000000000000E-002   6.2500000000000000E-002   0.0000000000000000     
   9.3750000000000000E-002   6.2500000000000000E-002   0.0000000000000000     
  0.12500000000000000        6.2500000000000000E-002   0.0000000000000000     
   0.0000000000000000        9.3750000000000000E-002   0.0000000000000000     
   3.1250000000000000E-002   9.3750000000000000E-002   0.0000000000000000     
   6.2500000000000000E-002   9.3750000000000000E-002   0.0000000000000000     
   9.3750000000000000E-002   9.3750000000000000E-002   0.0000000000000000     
  0.12500000000000000        9.3750000000000000E-002   0.0000000000000000     
   0.0000000000000000       0.12500000000000000        0.0000000000000000     
   3.1250000000000000E-002  0.12500000000000000        0.0000000000000000     
   6.2500000000000000E-002  0.12500000000000000        0.0000000000000000     
   9.3750000000000000E-002  0.12500000000000000        0.0000000000000000     
  0.12500000000000000       0.12500000000000000        0.0000000000000000     
  0.12500000000000000        0.0000000000000000        0.0000000000000000     
  0.15625000000000000        0.0000000000000000        0.0000000000000000     
  0.18750000000000000        0.0000000000000000        0.0000000000000000     
  0.21875000000000000        0.0000000000000000        0.0000000000000000     
  0.25000000000000000        0.0000000000000000        0.0000000000000000     
  0.12500000000000000        3.1250000000000000E-002   0.0000000000000000     
  0.15625000000000000        3.1250000000000000E-002   0.0000000000000000     
  0.18750000000000000        3.1250000000000000E-002   0.0000000000000000     
  0.21875000000000000        3.1250000000000000E-002   0.0000000000000000     
  0.25000000000000000        3.1250000000000000E-002   0.0000000000000000     
  0.12500000000000000        6.2500000000000000E-002   0.0000000000000000     
  0.15625000000000000        6.2500000000000000E-002   0.0000000000000000     
  0.18750000000000000        6.2500000000000000E-002   0.0000000000000000     
  0.21875000000000000        6.2500000000000000E-002   0.0000000000000000     
  0.25000000000000000        6.2500000000000000E-002   0.0000000000000000     
  0.12500000000000000        9.3750000000000000E-002   0.0000000000000000     
  0.15625000000000000        9.3750000000000000E-002   0.0000000000000000     
  0.18750000000000000        9.3750000000000000E-002   0.0000000000000000     
  0.21875000000000000        9.3750000000000000E-002   0.0000000000000000     
  0.25000000000000000        9.3750000000000000E-002   0.0000000000000000     
  0.12500000000000000       0.12500000000000000        0.0000000000000000     
  0.15625000000000000       0.12500000000000000        0.0000000000000000     
  0.18750000000000000       0.12500000000000000        0.0000000000000000     
  0.21875000000000000       0.12500000000000000        0.0000000000000000     
  0.25000000000000000       0.12500000000000000        0.0000000000000000     
  0.25000000000000000        0.0000000000000000        0.0000000000000000     
  0.28125000000000000        0.0000000000000000        0.0000000000000000     
  0.31250000000000000        0.0000000000000000        0.0000000000000000     
  0.34375000000000000        0.0000000000000000        0.0000000000000000     
  0.37500000000000000        0.0000000000000000        0.0000000000000000     
  0.25000000000000000        3.1250000000000000E-002   0.0000000000000000     
  0.28125000000000000        3.1250000000000000E-002   0.0000000000000000     
  0.31250000000000000        3.1250000000000000E-002   0.0000000000000000     
  0.34375000000000000        3.1250000000000000E-002   0.0000000000000000     
  0.37500000000000000        3.1250000000000000E-002   0.0000000000000000     
  0.25000000000000000        6.2500000000000000E-002   0.0000000000000000     
  0.28125000000000000        6.2500000000000000E-002   0.0000000000000000     
  0.31250000000000000        6.2500000000000000E-002   0.0000000000000000     
  0.34375000000000000        6.2500000000000000E-002   0.0000000000000000     
  0.37500000000000000        6.2500000000000000E-002   0.0000000000000000     
  0.25000000000000000        9.3750000000000000E-002   0.0000000000000000     
  0.28125000000000000        9.3750000000000000E-002   0.0000000000000000     
  0.31250000000000000        9.3750000000000000E-002   0.0000000000000000     
  0.34375000000000000        9.3750000000000000E-002   0.0000000000000000     
  0.37500000000000000        9.3750000000000000E-002   0.0000000000000000     
  0.25000000000000000       0.12500000000000000        0.0000000000000000     
  0.28125000000000000       0.12500000000000000        0.0000000000000000     
  0.31250000000000000       0.12500000000000000        0.0000000000000000     
  0.34375000000000000       0.12500000000000000        0.0000000000000000     
  0.37500000000000000       0.12500000000000000        0.0000000000000000     
  0.37500000000000000        0.0000000000000000        0.0000000000000000     
  0.40625000000000000        0.0000000000000000        0.0000000000000000     
  0.43750000000000000        0.0000000000000000        0.0000000000000000     
  0.46875000000000000        0.0000000000000000        0.0000000000000000     
  0.50000000000000000        0.0000000000000000        0.0000000000000000     
  0.37500000000000000        3.1250000000000000E-002   0.0000000000000000     
  0.40625000000000000        3.1250000000000000E-002   0.0000000000000000     
  0.43750000000000000        3.1250000000000000E-002   0.0000000000000000     
  0.46875000000000000        3.1250000000000000E-002   0.0000000000000000     
  0.50000000000000000        3.1250000000000000E-002   0.0000000000000000     
  0.37500000000000000        6.2500000000000000E-002   0.0000000000000000     
  0.40625000000000000        6.2500000000000000E-002   0.0000000000000000     
  0.43750000000000000        6.2500000000000000E-002   0.0000000000000000     
  0.46875000000000000        6.2500000000000000E-002   0.0000000000000000     
  0.50000000000000000        6.2500000000000000E-002   0.0000000000000000     
  0.37500000000000000        9.3750000000000000E-002   0.0000000000000000     
  0.40625000000000000        9.3750000000000000E-002   0.0000000000000000     
  0.43750000000000000        9.3750000000000000E-002   0.0000000000000000     
  0.46875000000000000        9.3750000000000000E-002   0.0000000000000000     
  0.50000000000000000        9.3750000000000000E-002   0.0000000000000000     
  0.37500000000000000       0.12500000000000000        0.0000000000000000     
  0.40625000000000000       0.12500000000000000        0.0000000000000000     
  0.43750000000000000       0.12500000000000000        0.0000000000000000     
  0.46875000000000000       0.12500000000000000        0.0000000000000000     
  0.50000000000000000       0.12500000000000000        0.0000000000000000     
  0.50000000000000000        0.0000000000000000        0.0000000000000000     
  0.53125000000000000        0.0000000000000000        0.0000000000000000     
  0.56250000000000000        0.0000000000000000        0.0000000000000000     
  0.59375000000000000        0.0000000000000000        0.0000000000000000     
  0.62500000000000000        0.0000000000000000        0.0000000000000000     
  0.50000000000000000        3.1250000000000000E-002   0.0000000000000000     
  0.53125000000000000        3.1250000000000000E-002   0.0000000000000000     
  0.56250000000000000        3.1250000000000000E-002   0.0000000000000000     
  0.59375000000000000        3.1250000000000000E-002   0.0000000000000000     
  0.62500000000000000        3.1250000000000000E-002   0.0000000000000000     
  0.50000000000000000        6.2500000000000000E-002   0.0000000000000000     
  0.53125000000000000        6.2500000000000000E-002   0.0000000000000000     
  0.56250000000000000        6.2500000000000000E-002   0.0000000000000000     
  0.59375000000000000        6.2500000000000000E-002   0.0000000000000000     
  0.62500000000000000        6.2500000000000000E-002   0.0000000000000000     
  0.50000000000000000        9.3750000000000000E-002   0.0000000000000000     
  0.53125000000000000        9.3750000000000000E-002   0.0000000000000000     
  0.56250000000000000        9.3750000000000000E-002   0.0000000000000000     
  0.59375000000000000        9.3750000000000000E-002   0.0000000000000000     
  0.62500000000000000        9.3750000000000000E-002   0.0000000000000000     
  0.50000000000000000       0.12500000000000000        0.0000000000000000     
  0.53125000000000000       0.12500000000000000        0.0000000000000000     
  0.56250000000000000       0.12500000000000000        0.0000000000000000     
  0.59375000000000000       0.12500000000000000        0.0000000000000000     
  0.62500000000000000       0.12500000000000000        0.0000000000000000     
  0.62500000000000000        0.0000000000000000        0.0000000000000000     
  0.65625000000000000        0.0000000000000000        0.0000000000000000     
  0.68750000000000000        0.0000000000000000        0.0000000000000000     
  0.71875000000000000        0.0000000000000000        0.0000000000000000     
  0.75000000000000000        0.0000000000000000        0.0000000000000000     
  0.62500000000000000        3.1250000000000000E-002   0.0000000000000000     
  0.65625000000000000        3.1250000000000000E-002   0.0000000000000000     
  0.68750000000000000        3.1250000000000000E-002   0.0000000000000000     
  0.71875000000000000        3.1250000000000000E-002   0.0000000000000000     
  0.75000000000000000        3.1250000000000000E-002   0.0000000000000000     
  0.62500000000000000        6.2500000000000000E-002   0.0000000000000000     
  0.65625000000000000        6.2500000000000000E-002   0.0000000000000000     
  0.68750000000000000        6.2500000000000000E-002   0.0000000000000000     
  0.71875000000000000        6.2500000000000000E-002   0.0000000000000000     
  0.75000000000000000        6.2500000000000000E-002   0.0000000000000000     
  0.62500000000000000        9.3750000000000000E-002   0.0000000000000000     
  0.65625000000000000        9.3750000000000000E-002   0.0000000000000000     
  0.68750000000000000        9.3750000000000000E-002   0.0000000000000000     
  0.71875000000000000        9.3750000000000000E-002   0.0000000000000000     
  0.75000000000000000        9.3750000000000000E-002   0.0000000000000000     
  0.62500000000000000       0.12500000000000000        0.0000000000000000     
  0.65625000000000000       0.12500000000000000        0.0000000000000000     
  0.68750000000000000       0.12500000000000000        0.0000000000000000     
  0.71875000000000000       0.12500000000000000        0.0000000000000000     
  0.75000000000000000       0.12500000000000000        0.0000000000000000     
  0.75000000000000000        0.0000000000000000        0.0000000000000000     
  0.78125000000000000        0.0000000000000000        0.0000000000000000     
  0.81250000000000000        0.0000000000000000        0.0000000000000000     
  0.84375000000000000        0.0000000000000000        0.0000000000000000     
  0.87500000000000000        0.0000000000000000        0.0000000000000000     
  0.75000000000000000        3.1250000000000000E-002   0.0000000000000000     
  0.78125000000000000        3.1250000000000000E-002   0.0000000000000000     
  0.81250000000000000        3.1250000000000000E-002   0.0000000000000000     
  0.84375000000000000        3.1250000000000000E-002   0.0000000000000000     
  0.87500000000000000        3.1250000000000000E-002   0.0000000000000000     
  0.75000000000000000        6.2500000000000000E-002   0.0000000000000000     
  0.78125000000000000        6.2500000000000000E-002   0.0000000000000000     
  0.81250000000000000        6.2500000000000000E-002   0.0000000000000000     
  0.84375000000000000        6.2500000000000000E-002   0.0000000000000000     
  0.87500000000000000        6.2500000000000000E-002   0.0000000000000000     
  0.75000000000000000        9.3750000000000000E-002   0.0000000000000000     
  0.78125000000000000        9.3750000000000000E-002   0.0000000000000000     
  0.81250000000000000        9.3750000000000000E-002   0.0000000000000000     
  0.84375000000000000        9.3750000000000000E-002   0.0000000000000000     
  0.87500000000000000        9.3750000000000000E-002   0.0000000000000000     
  0.75000000000000000       0.12500000000000000        0.0000000000000000     
  0.78125000000000000       0.12500000000000000        0.0000000000000000     
  0.81250000000000000       0.12500000000000000        0.0000000000000000     
  0.84375000000000000       0.12500000000000000        0.0000000000000000     
  0.87500000000000000       0.12500000000000000        0.0000000000000000     
  0.87500000000000000        0.0000000000000000        0.0000000000000000     
  0.90625000000000000        0.0000000000000000        0.0000000000000000     
  0.93750000000000000        0.0000000000000000        0.0000000000000000     
  0.96875000000000000        0.0000000000000000        0.0000000000000000     
   1.0000000000000000        0.0000000000000000        0.0000000000000000     
  0.87500000000000000        3.1250000000000000E-002   0.0000000000000000     
  0.90625000000000000        3.1250000000000000E-002   0.0000000000000000     
  0.93750000000000000        3.1250000000000000E-002   0.0000000000000000     
  0.96875000000000000        3.1250000000000000E-002   0.0000000000000000     
   1.0000000000000000        3.1250000000000000E-002   0.0000000000000000     
  0.87500000000000000        6.2500000000000000E-002   0.0000000000000000     
  0.90625000000000000        6.2500000000000000E-002   0.0000000000000000     
  0.93750000000000000        6.2500000000000000E-002   0.0000000000000000     
  0.96875000000000000        6.2500000000000000E-002   0.0000000000000000     
   1.0000000000000000        6.2500000000000000E-002   0.0000000000000000     
  0.87500000000000000        9.3750000000000000E-002   0.0000000000000000     
  0.90625000000000000        9.3750000000000000E-002   0.0000000000000000     
  0.93750000000000000        9.3750000000000000E-002   0.0000000000000000     
  0.96875000000000000        9.3750000000000000E-002   0.0000000000000000     
   1.0000000000000000        9.3750000000000000E-002   0.0000000000000000     
  0.87500000000000000       0.12500000000000000        0.0000000000000000     
  0.90625000000000000       0.12500000000000000        0.0000000000000000     
  0.93750000000000000       0.12500000000000000        0.0000000000000000     
  0.96875000000000000       0.12500000000000000        0.0000000000000000     
   1.0000000000000000       0.12500000000000000        0.0000000000000000     
   0.0000000000000000       0.12500000000000000        0.0000000000000000     
   3.1250000000000000E-002  0.12500000000000000        0.0000000000000000     
   6.2500000000000000E-002  0.12500000000000000        0.0000000000000000     
   9.3750000000000000E-002  0.12500000000000000        0.0000000000000000     
  0.12500000000000000       0.12500000000000000        0.0000000000000000     
   0.0000000000000000       0.15625000000000000        0.0000000000000000     
   3.1250000000000000E-002  0.15625000000000000        0.0000000000000000     
   6.2500000000000000E-002  0.15625000000000000        0.0000000000000000     
   9.3750000000000000E-002  0.15625000000000000        0.0000000000000000     
  0.12500000000000000       0.15625000000000000        0.0000000000000000     
   0.0000000000000000       0.18750000000000000        0.0000000000000000     
   3.1250000000000000E-002  0.18750000000000000        0.0000000000000000     
   6.2500000000000000E-002  0.18750000000000000        0.0000000000000000     
   9.3750000000000000E-002  0.18750000000000000        0.0000000000000000     
  0.12500000000000000       0.18750000000000000        0.0000000000000000     
   0.0000000000000000       0.21875000000000000        0.0000000000000000     
   3.1250000000000000E-002  0.21875000000000000        0.0000000000000000     
   6.2500000000000000E-002  0.21875000000000000        0.0000000000000000     
   9.3750000000000000E-002  0.21875000000000000        0.0000000000000000     
  0.12500000000000000       0.21875000000000000        0.0000000000000000     
   0.0000000000000000       0.25000000000000000        0.0000000000000000     
   3.1250000000000000E-002  0.25000000000000000        0.0000000000000000     
   6.2500000000000000E-002  0.25000000000000000        0.0000000000000000     
   9.3750000000000000E-002  0.25000000000000000        0.0000000000000000     
  0.12500000000000000       0.25000000000000000        0.0000000000000000     
  0.12500000000000000       0.12500000000000000        0.0000000000000000     
  0.15625000000000000       0.12500000000000000        0.0000000000000000     
  0.18750000000000000       0.12500000000000000        0.0000000000000000     
  0.21875000000000000       0.12500000000000000        0.0000000000000000     
  0.25000000000000000       0.12500000000000000        0.0000000000000000     
  0.12500000000000000       0.15625000000000000        0.0000000000000000     
  0.15625000000000000       0.15625000000000000        0.0000000000000000     
  0.18750000000000000       0.15625000000000000        0.0000000000000000     
  0.21875000000000000       0.15625000000000000        0.0000000000000000     
  0.25000000000000000       0.15625000000000000        0.0000000000000000     
  0.12500000000000000       0.18750000000000000        0.0000000000000000     
  0.15625000000000000       0.18750000000000000        0.0000000000000000     
  0.18750000000000000       0.18750000000000000        0.0000000000000000     
  0.21875000000000000       0.18750000000000000        0.0000000000000000     
  0.25000000000000000       0.18750000000000000        0.0000000000000000     
  0.12500000000000000       0.21875000000000000        0.0000000000000000     
  0.15625000000000000       0.21875000000000000        0.0000000000000000     
  0.18750000000000000       0.21875000000000000        0.0000000000000000     
  0.21875000000000000       0.21875000000000000        0.0000000000000000     
  0.25000000000000000       0.21875000000000000        0.0000000000000000     
  0.12500000000000000       0.25000000000000000        0.0000000000000000     
  0.15625000000000000       0.25000000000000000        0.0000000000000000     
  0.18750000000000000       0.25000000000000000        0.0000000000000000     
  0.21875000000000000       0.25000000000000000        0.0000000000000000     
  0.25000000000000000       0.25000000000000000        0.0000000000000000     
  0.25000000000000000       0.12500000000000000        0.0000000000000000     
  0.28125000000000000       0.12500000000000000        0.0000000000000000     
  0.31250000000000000       0.12500000000000000        0.0000000000000000     
  0.34375000000000000       0.12500000000000000        0.0000000000000000     
  0.37500000000000000       0.12500000000000000        0.0000000000000000     
  0.25000000000000000       0.15625000000000000        0.0000000000000000     
  0.28125000000000000       0.15625000000000000        0.0000000000000000     
  0.31250000000000000       0.15625000000000000        0.0000000000000000     
  0.34375000000000000       0.15625000000000000        0.0000000000000000     
  0.37500000000000000       0.15625000000000000        0.0000000000000000     
  0.25000000000000000       0.18750000000000000        0.0000000000000000     
  0.28125000000000000       0.18750000000000000        0.0000000000000000     
  0.31250000000000000       0.18750000000000000        0.0000000000000000     
  0.34375000000000000       0.18750000000000000        0.0000000000000000     
  0.37500000000000000       0.18750000000000000        0.0000000000000000     
  0.25000000000000000       0.21875000000000000        0.0000000000000000     
  0.28125000000000000       0.21875000000000000        0.0000000000000000     
  0.31250000000000000       0.21875000000000000        0.0000000000000000     
  0.34375000000000000       0.21875000000000000        0.0000000000000000     
  0.37500000000000000       0.21875000000000000        0.0000000000000000     
  0.25000000000000000       0.25000000000000000        0.0000000000000000     
  0.28125000000000000       0.25000000000000000        0.0000000000000000     
  0.31250000000000000       0.25000000000000000        0.0000000000000000     
  0.34375000000000000       0.25000000000000000        0.0000000000000000     
  0.37500000000000000       0.25000000000000000        0.0000000000000000     
  0.37500000000000000       0.12500000000000000        0.0000000000000000     
  0.40625000000000000       0.12500000000000000        0.0000000000000000     
  0.43750000000000000       0.12500000000000000        0.0000000000000000     
  0.46875000000000000       0.12500000000000000        0.0000000000000000     
  0.50000000000000000       0.12500000000000000        0.0000000000000000     
  0.37500000000000000       0.15625000000000000        0.0000000000000000     
  0.40625000000000000       0.15625000000000000        0.0000000000000000     
  0.43750000000000000       0.15625000000000000        0.0000000000000000     
  0.46875000000000000       0.15625000000000000        0.0000000000000000     
  0.50000000000000000       0.15625000000000000        0.0000000000000000     
  0.37500000000000000       0.18750000000000000        0.0000000000000000     
  0.40625000000000000       0.18750000000000000        0.0000000000000000     
  0.43750000000000000       0.18750000000000000        0.0000000000000000     
  0.46875000000000000       0.18750000000000000        0.0000000000000000     
  0.50000000000000000       0.18750000000000000        0.0000000000000000     
  0.37500000000000000       0.21875000000000000        0.0000000000000000     
  0.40625000000000000       0.21875000000000000        0.0000000000000000     
  0.43750000000000000       0.21875000000000000        0.0000000000000000     
  0.46875000000000000       0.21875000000000000        0.0000000000000000     
  0.50000000000000000       0.21875000000000000        0.0000000000000000     
  0.37500000000000000       0.25000000000000000        0.0000000000000000     
  0.40625000000000000       0.25000000000000000        0.0000000000000000     
  0.43750000000000000       0.25000000000000000        0.0000000000000000     
  0.46875000000000000       0.25000000000000000        0.0000000000000000     
  0.50000000000000000       0.25000000000000000        0.0000000000000000     
  0.50000000000000000       0.12500000000000000        0.0000000000000000     
  0.53125000000000000       0.12500000000000000        0.0000000000000000     
  0.56250000000000000       0.12500000000000000        0.0000000000000000     
  0.59375000000000000       0.12500000000000000        0.0000000000000000     
  0.62500000000000000       0.12500000000000000        0.0000000000000000     
  0.50000000000000000       0.15625000000000000        0.0000000000000000     
  0.53125000000000000       0.15625000000000000        0.0000000000000000     
  0.56250000000000000       0.15625000000000000        0.0000000000000000     
  0.59375000000000000       0.15625000000000000        0.0000000000000000     
  0.62500000000000000       0.15625000000000000        0.0000000000000000     
  0.50000000000000000       0.18750000000000000        0.0000000000000000     
  0.53125000000000000       0.18750000000000000        0.0000000000000000     
  0.56250000000000000       0.18750000000000000        0.0000000000000000     
  0.59375000000000000       0.18750000000000000        0.0000000000000000     
  0.62500000000000000       0.18750000000000000        0.0000000000000000     
  0.50000000000000000       0.21875000000000000        0.0000000000000000     
  0.53125000000000000       0.21875000000000000        0.0000000000000000     
  0.56250000000000000       0.21875000000000000        0.0000000000000000     
  0.59375000000000000       0.21875000000000000        0.0000000000000000     
  0.62500000000000000       0.21875000000000000        0.0000000000000000     
  0.50000000000000000       0.25000000000000000        0.0000000000000000     
  0.53125000000000000       0.25000000000000000        0.0000000000000000     
  0.56250000000000000       0.25000000000000000        0.0000000000000000     
  0.59375000000000000       0.25000000000000000        0.0000000000000000     
  0.62500000000000000       0.25000000000000000        0.0000000000000000     
  0.62500000000000000       0.12500000000000000        0.0000000000000000     
  0.65625000000000000       0.12500000000000000        0.0000000000000000     
  0.68750000000000000       0.12500000000000000        0.0000000000000000     
  0.71875000000000000       0.12500000000000000        0.0000000000000000     
  0.75000000000000000       0.12500000000000000        0.0000000000000000     
  0.62500000000000000       0.15625000000000000        0.0000000000000000     
  0.65625000000000000       0.15625000000000000        0.0000000000000000     
  0.68750000000000000       0.15625000000000000        0.0000000000000000     
  0.71875000000000000       0.15625000000000000        0.0000000000000000     
  0.75000000000000000       0.15625000000000000        0.0000000000000000     
  0.62500000000000000       0.18750000000000000        0.0000000000000000     
  0.65625000000000000       0.18750000000000000        0.0000000000000000     
  0.68750000000000000       0.18750000000000000        0.0000000000000000     
  0.71875000000000000       0.18750000000000000        0.0000000000000000     
  0.75000000000000000       0.18750000000000000        0.0000000000000000     
  0.62500000000000000       0.21875000000000000        0.0000000000000000     
  0.65625000000000000       0.21875000000000000        0.0000000000000000     
  0.68750000000000000       0.21875000000000000        0.0000000000000000     
  0.71875000000000000       0.21875000000000000        0.0000000000000000     
  0.75000000000000000       0.21875000000000000        0.0000000000000000     
  0.62500000000000000       0.25000000000000000        0.0000000000000000     
  0.65625000000000000       0.25000000000000000        0.0000000000000000     
  0.68750000000000000       0.25000000000000000        0.0000000000000000     
  0.71875000000000000       0.25000000000000000        0.0000000000000000     
  0.75000000000000000       0.25000000000000000        0.0000000000000000     
  0.75000000000000000       0.12500000000000000        0.0000000000000000     
  0.78125000000000000       0.12500000000000000        0.0000000000000000     
  0.81250000000000000       0.12500000000000000        0.0000000000000000     
  0.84375000000000000       0.12500000000000000        0.0000000000000000     
  0.87500000000000000       0.12500000000000000        0.0000000000000000     
  0.75000000000000000       0.15625000000000000        0.0000000000000000     
  0.78125000000000000       0.15625000000000000        0.0000000000000000     
  0.81250000000000000       0.15625000000000000        0.0000000000000000     
  0.84375000000000000       0.15625000000000000        0.0000000000000000     
  0.87500000000000000       0.15625000000000000        0.0000000000000000     
  0.75000000000000000       0.18750000000000000        0.0000000000000000     
  0.78125000000000000       0.18750000000000000        0.0000000000000000     
  0.81250000000000000       0.18750000000000000        0.0000000000000000     
  0.84375000000000000       0.18750000000000000        0.0000000000000000     
  0.87500000000000000       0.18750000000000000        0.0000000000000000     
  0.75000000000000000       0.21875000000000000        0.0000000000000000     
  0.78125000000000000       0.21875000000000000        0.0000000000000000     
  0.81250000000000000       0.21875000000000000        0.0000000000000000     
  0.84375000000000000       0.21875000000000000        0.0000000000000000     
  0.87500000000000000       0.21875000000000000        0.0000000000000000     
  0.75000000000000000       0.25000000000000000        0.0000000000000000     
  0.78125000000000000       0.25000000000000000        0.0000000000000000     
  0.81250000000000000       0.25000000000000000        0.0000000000000000     
  0.84375000000000000       0.25000000000000000        0.0000000000000000     
  0.87500000000000000       0.25000000000000000        0.0000000000000000     
  0.87500000000000000       0.12500000000000000        0.0000000000000000     
  0.90625000000000000       0.12500000000000000        0.0000000000000000     
  0.93750000000000000       0.12500000000000000        0.0000000000000000     
  0.96875000000000000       0.12500000000000000        0.0000000000000000     
   1.0000000000000000       0.12500000000000000        0.0000000000000000     
  0.87500000000000000       0.15625000000000000        0.0000000000000000     
  0.90625000000000000       0.15625000000000000        0.0000000000000000     
  0.93750000000000000       0.15625000000000000        0.0000000000000000     
  0.96875000000000000       0.15625000000000000        0.0000000000000000     
   1.0000000000000000       0.15625000000000000        0.0000000000000000     
  0.87500000000000000       0.18750000000000000        0.0000000000000000     
  0.90625000000000000       0.18750000000000000        0.0000000000000000     
  0.93750000000000000       0.18750000000000000        0.0000000000000000     
  0.96875000000000000       0.18750000000000000        0.0000000000000000     
   1.0000000000000000       0.18750000000000000        0.0000000000000000     
  0.87500000000000000       0.21875000000000000        0.0000000000000000     
  0.90625000000000000       0.21875000000000000        0.0000000000000000     
  0.93750000000000000       0.21875000000000000        0.0000000000000000     
  0.96875000000000000       0.21875000000000000        0.0000000000000000     
   1.0000000000000000       0.21875000000000000        0.0000000000000000     
  0.87500000000000000       0.25000000000000000        0.0000000000000000     
  0.90625000000000000       0.25000000000000000        0.0000000000000000     
  0.93750000000000000       0.25000000000000000        0.0000000000000000     
  0.96875000000000000       0.25000000000000000        0.0000000000000000     
   1.0000000000000000       0.25000000000000000        0.0000000000000000     
   0.0000000000000000       0.25000000000000000        0.0000000000000000     
   3.1250000000000000E-002  0.25000000000000000        0.0000000000000000     
   6.2500000000000000E-002  0.25000000000000000        0.0000000000000000     
   9.3750000000000000E-002  0.25000000000000000        0.0000000000000000     
  0.12500000000000000       0.25000000000000000        0.0000000000000000     
   0.0000000000000000       0.28125000000000000        0.0000000000000000     
   3.1250000000000000E-002  0.28125000000000000        0.0000000000000000     
   6.2500000000000000E-002  0.28125000000000000        0.0000000000000000     
   9.3750000000000000E-002  0.28125000000000000        0.0000000000000000     
  0.12500000000000000       0.28125000000000000        0.0000000000000000     
   0.0000000000000000       0.31250000000000000        0.0000000000000000     
   3.1250000000000000E-002  0.31250000000000000        0.0000000000000000     
   6.2500000000000000E-002  0.31250000000000000        0.0000000000000000     
   9.3750000000000000E-002  0.31250000000000000        0.0000000000000000     
  0.12500000000000000       0.31250000000000000        0.0000000000000000     
   0.0000000000000000       0.34375000000000000        0.0000000000000000     
   3.1250000000000000E-002  0.34375000000000000        0.0000000000000000     
   6.2500000000000000E-002  0.34375000000000000        0.0000000000000000     
   9.3750000000000000E-002  0.34375000000000000        0.0000000000000000     
  0.12500000000000000       0.34375000000000000        0.0000000000000000     
   0.0000000000000000       0.37500000000000000        0.0000000000000000     
   3.1250000000000000E-002  0.37500000000000000        0.0000000000000000     
   6.2500000000000000E-002  0.37500000000000000        0.0000000000000000     
   9.3750000000000000E-002  0.37500000000000000        0.0000000000000000     
  0.12500000000000000       0.37500000000000000        0.0000000000000000     
  0.12500000000000000       0.25000000000000000        0.0000000000000000     
  0.15625000000000000       0.25000000000000000        0.0000000000000000     
  0.18750000000000000       0.25000000000000000        0.0000000000000000     
  0.21875000000000000       0.25000000000000000        0.0000000000000000     
  0.25000000000000000       0.25000000000000000        0.0000000000000000     
  0.12500000000000000       0.28125000000000000        0.0000000000000000     
  0.15625000000000000       0.28125000000000000        0.0000000000000000     
  0.18750000000000000       0.28125000000000000        0.0000000000000000     
  0.21875000000000000       0.28125000000000000        0.0000000000000000     
  0.25000000000000000       0.28125000000000000        0.0000000000000000     
  0.12500000000000000       0.31250000000000000        0.0000000000000000     
  0.15625000000000000       0.31250000000000000        0.0000000000000000     
  0.18750000000000000       0.31250000000000000        0.0000000000000000     
  0.21875000000000000       0.31250000000000000        0.0000000000000000     
  0.25000000000000000       0.31250000000000000        0.0000000000000000     
  0.12500000000000000       0.34375000000000000        0.0000000000000000     
  0.15625000000000000       0.34375000000000000        0.0000000000000000     
  0.18750000000000000       0.34375000000000000        0.0000000000000000     
  0.21875000000000000       0.34375000000000000        0.0000000000000000     
  0.25000000000000000       0.34375000000000000        0.0000000000000000     
  0.12500000000000000       0.37500000000000000        0.0000000000000000     
  0.15625000000000000       0.37500000000000000        0.0000000000000000     
  0.18750000000000000       0.37500000000000000        0.0000000000000000     
  0.21875000000000000       0.37500000000000000        0.0000000000000000     
  0.25000000000000000       0.37500000000000000        0.0000000000000000     
  0.25000000000000000       0.25000000000000000        0.0000000000000000     
  0.28125000000000000       0.25000000000000000        0.0000000000000000     
  0.31250000000000000       0.25000000000000000        0.0000000000000000     
  0.34375000000000000       0.25000000000000000        0.0000000000000000     
  0.37500000000000000       0.25000000000000000        0.0000000000000000     
  0.25000000000000000       0.28125000000000000        0.0000000000000000     
  0.28125000000000000       0.28125000000000000        0.0000000000000000     
  0.31250000000000000       0.28125000000000000        0.0000000000000000     
  0.34375000000000000       0.28125000000000000        0.0000000000000000     
  0.37500000000000000       0.28125000000000000        0.0000000000000000     
  0.25000000000000000       0.31250000000000000        0.0000000000000000     
  0.28125000000000000       0.31250000000000000        0.0000000000000000     
  0.31250000000000000       0.31250000000000000        0.0000000000000000     
  0.34375000000000000       0.31250000000000000        0.0000000000000000     
  0.37500000000000000       0.31250000000000000        0.0000000000000000     
  0.25000000000000000       0.34375000000000000        0.0000000000000000     
  0.28125000000000000       0.34375000000000000        0.0000000000000000     
  0.31250000000000000       0.34375000000000000        0.0000000000000000     
  0.34375000000000000       0.34375000000000000        0.0000000000000000     
  0.37500000000000000       0.34375000000000000        0.0000000000000000     
  0.25000000000000000       0.37500000000000000        0.0000000000000000     
  0.28125000000000000       0.37500000000000000        0.0000000000000000     
  0.31250000000000000       0.37500000000000000        0.0000000000000000     
  0.34375000000000000       0.37500000000000000        0.0000000000000000     
  0.37500000000000000       0.37500000000000000        0.0000000000000000     
  0.37500000000000000       0.25000000000000000        0.0000000000000000     
  0.40625000000000000       0.25000000000000000        0.0000000000000000     
  0.43750000000000000       0.25000000000000000        0.0000000000000000     
  0.46875000000000000       0.25000000000000000        0.0000000000000000     
  0.50000000000000000       0.25000000000000000        0.0000000000000000     
  0.37500000000000000       0.28125000000000000        0.0000000000000000     
  0.40625000000000000       0.28125000000000000        0.0000000000000000     
  0.43750000000000000       0.28125000000000000        0.0000000000000000     
  0.46875000000000000       0.28125000000000000        0.0000000000000000     
  0.50000000000000000       0.28125000000000000        0.0000000000000000     
  0.37500000000000000       0.31250000000000000        0.0000000000000000     
  0.40625000000000000       0.31250000000000000        0.0000000000000000     
  0.43750000000000000       0.31250000000000000        0.0000000000000000     
  0.46875000000000000       0.31250000000000000        0.0000000000000000     
  0.50000000000000000       0.31250000000000000        0.0000000000000000     
  0.37500000000000000       0.34375000000000000        0.0000000000000000     
  0.40625000000000000       0.34375000000000000        0.0000000000000000     
  0.43750000000000000       0.34375000000000000        0.0000000000000000     
  0.46875000000000000       0.34375000000000000        0.0000000000000000     
  0.50000000000000000       0.34375000000000000        0.0000000000000000     
  0.37500000000000000       0.37500000000000000        0.0000000000000000     
  0.40625000000000000       0.37500000000000000        0.0000000000000000     
  0.43750000000000000       0.37500000000000000        0.0000000000000000     
  0.46875000000000000       0.37500000000000000        0.0000000000000000     
  0.50000000000000000       0.37500000000000000        0.0000000000000000     
  0.50000000000000000       0.25000000000000000        0.0000000000000000     
  0.53125000000000000       0.25000000000000000        0.0000000000000000     
  0.56250000000000000       0.25000000000000000        0.0000000000000000     
  0.59375000000000000       0.25000000000000000        0.0000000000000000     
  0.62500000000000000       0.25000000000000000        0.0000000000000000     
  0.50000000000000000       0.28125000000000000        0.0000000000000000     
  0.53125000000000000       0.28125000000000000        0.0000000000000000     
  0.56250000000000000       0.28125000000000000        0.0000000000000000     
  0.59375000000000000       0.28125000000000000        0.0000000000000000     
  0.62500000000000000       0.28125000000000000        0.0000000000000000     
  0.50000000000000000       0.31250000000000000        0.0000000000000000     
  0.53125000000000000       0.31250000000000000        0.0000000000000000     
  0.56250000000000000       0.31250000000000000        0.0000000000000000     
  0.59375000000000000       0.31250000000000000        0.0000000000000000     
  0.62500000000000000       0.31250000000000000        0.0000000000000000     
  0.50000000000000000       0.34375000000000000        0.0000000000000000     
  0.53125000000000000       0.34375000000000000        0.0000000000000000     
  0.56250000000000000       0.34375000000000000        0.0000000000000000     
  0.59375000000000000       0.34375000000000000        0.0000000000000000     
  0.62500000000000000       0.34375000000000000        0.0000000000000000     
  0.50000000000000000       0.37500000000000000        0.0000000000000000     
  0.53125000000000000       0.37500000000000000        0.0000000000000000     
  0.56250000000000000       0.37500000000000000        0.0000000000000000     
  0.59375000000000000       0.37500000000000000        0.0000000000000000     
  0.62500000000000000       0.37500000000000000        0.0000000000000000     
  0.62500000000000000       0.25000000000000000        0.0000000000000000     
  0.65625000000000000       0.25000000000000000        0.0000000000000000     
  0.68750000000000000       0.25000000000000000        0.0000000000000000     
  0.71875000000000000       0.25000000000000000        0.0000000000000000     
  0.75000000000000000       0.25000000000000000        0.0000000000000000     
  0.62500000000000000       0.28125000000000000        0.0000000000000000     
  0.65625000000000000       0.28125000000000000        0.0000000000000000     
  0.68750000000000000       0.28125000000000000        0.0000000000000000     
  0.71875000000000000       0.28125000000000000        0.0000000000000000     
  0.75000000000000000       0.28125000000000000        0.0000000000000000     
  0.62500000000000000       0.31250000000000000        0.0000000000000000     
  0.65625000000000000       0.31250000000000000        0.0000000000000000     
  0.68750000000000000       0.31250000000000000        0.0000000000000000     
  0.71875000000000000       0.31250000000000000        0.0000000000000000     
  0.75000000000000000       0.31250000000000000        0.0000000000000000     
  0.62500000000000000       0.34375000000000000        0.0000000000000000     
  0.65625000000000000       0.34375000000000000        0.0000000000000000     
  0.68750000000000000       0.34375000000000000        0.0000000000000000     
  0.71875000000000000       0.34375000000000000        0.0000000000000000     
  0.75000000000000000       0.34375000000000000        0.0000000000000000     
  0.62500000000000000       0.37500000000000000        0.0000000000000000     
  0.65625000000000000       0.37500000000000000        0.0000000000000000     
  0.68750000000000000       0.37500000000000000        0.0000000000000000     
  0.71875000000000000       0.37500000000000000        0.0000000000000000     
  0.75000000000000000       0.37500000000000000        0.0000000000000000     
  0.75000000000000000       0.25000000000000000        0.0000000000000000     
  0.78125000000000000       0.25000000000000000        0.0000000000000000     
  0.81250000000000000       0.25000000000000000        0.0000000000000000     
  0.84375000000000000       0.25000000000000000        0.0000000000000000     
  0.87500000000000000       0.25000000000000000        0.0000000000000000     
  0.75000000000000000       0.28125000000000000        0.0000000000000000     
  0.78125000000000000       0.28125000000000000        0.0000000000000000     
  0.81250000000000000       0.28125000000000000        0.0000000000000000     
  0.84375000000000000       0.28125000000000000        0.0000000000000000     
  0.87500000000000000       0.28125000000000000        0.0000000000000000     
  0.75000000000000000       0.31250000000000000        0.0000000000000000     
  0.78125000000000000       0.31250000000000000        0.0000000000000000     
  0.81250000000000000       0.31250000000000000        0.0000000000000000     
  0.84375000000000000       0.31250000000000000        0.0000000000000000     
  0.87500000000000000       0.31250000000000000        0.0000000000000000     
  0.75000000000000000       0.34375000000000000        0.0000000000000000     
  0.78125000000000000       0.34375000000000000        0.0000000000000000     
  0.81250000000000000       0.34375000000000000        0.0000000000000000     
  0.84375000000000000       0.34375000000000000        0.0000000000000000     
  0.87500000000000000       0.34375000000000000        0.0000000000000000     
  0.75000000000000000       0.37500000000000000        0.0000000000000000     
  0.78125000000000000       0.37500000000000000        0.0000000000000000     
  0.81250000000000000       0.37500000000000000        0.0000000000000000     
  0.84375000000000000       0.37500000000000000        0.0000000000000000     
  0.87500000000000000       0.37500000000000000        0.0000000000000000     
  0.87500000000000000       0.25000000000000000        0.0000000000000000     
  0.90625000000000000       0.25000000000000000        0.0000000000000000     
  0.93750000000000000       0.25000000000000000        0.0000000000000000     
  0.96875000000000000       0.25000000000000000        0.0000000000000000     
   1.0000000000000000       0.25000000000000000        0.0000000000000000     
  0.87500000000000000       0.28125000000000000        0.0000000000000000     
  0.90625000000000000       0.28125000000000000        0.0000000000000000     
  0.93750000000000000       0.28125000000000000        0.0000000000000000     
  0.96875000000000000       0.28125000000000000        0.0000000000000000     
   1.0000000000000000       0.28125000000000000        0.0000000000000000     
  0.87500000000000000       0.31250000000000000        0.0000000000000000     
  0.90625000000000000       0.31250000000000000        0.0000000000000000     
  0.93750000000000000       0.31250000000000000        0.0000000000000000     
  0.96875000000000000       0.31250000000000000        0.0000000000000000     
   1.0000000000000000       0.31250000000000000        0.0000000000000000     
  0.87500000000000000       0.34375000000000000        0.0000000000000000     
  0.90625000000000000       0.34375000000000000        0.0000000000000000     
  0.93750000000000000       0.34375000000000000        0.0000000000000000     
  0.96875000000000000       0.34375000000000000        0.0000000000000000     
   1.0000000000000000       0.34375000000000000        0.0000000000000000     
  0.87500000000000000       0.37500000000000000        0.0000000000000000     
  0.90625000000000000       0.37500000000000000        0.0000000000000000     
  0.93750000000000000       0.37500000000000000        0.0000000000000000     
  0.96875000000000000       0.37500000000000000        0.0000000000000000     
   1.0000000000000000       0.37500000000000000        0.0000000000000000     
   0.0000000000000000       0.37500000000000000        0.0000000000000000     
   3.1250000000000000E-002  0.37500000000000000        0.0000000000000000     
   6.2500000000000000E-002  0.37500000000000000        0.0000000000000000     
   9.3750000000000000E-002  0.37500000000000000        0.0000000000000000     
  0.12500000000000000       0.37500000000000000        0.0000000000000000     
   0.0000000000000000       0.40625000000000000        0.0000000000000000     
   3.1250000000000000E-002  0.40625000000000000        0.0000000000000000     
   6.2500000000000000E-002  0.40625000000000000        0.0000000000000000     
   9.3750000000000000E-002  0.40625000000000000        0.0000000000000000     
  0.12500000000000000       0.40625000000000000        0.0000000000000000     
   0.0000000000000000       0.43750000000000000        0.0000000000000000     
   3.1250000000000000E-002  0.43750000000000000        0.0000000000000000     
   6.2500000000000000E-002  0.43750000000000000        0.0000000000000000     
   9.3750000000000000E-002  0.43750000000000000        0.0000000000000000     
  0.12500000000000000       0.43750000000000000        0.0000000000000000     
   0.0000000000000000       0.46875000000000000        0.0000000000000000     
   3.1250000000000000E-002  0.46875000000000000        0.0000000000000000     
   6.2500000000000000E-002  0.46875000000000000        0.0000000000000000     
   9.3750000000000000E-002  0.46875000000000000        0.0000000000000000     
  0.12500000000000000       0.46875000000000000        0.0000000000000000     
   0.0000000000000000       0.50000000000000000        0.0000000000000000     
   3.1250000000000000E-002  0.50000000000000000        0.0000000000000000     
   6.2500000000000000E-002  0.50000000000000000        0.0000000000000000     
   9.3750000000000000E-002  0.50000000000000000        0.0000000000000000     
  0.12500000000000000       0.50000000000000000        0.0000000000000000     
  0.12500000000000000       0.37500000000000000        0.0000000000000000     
  0.15625000000000000       0.37500000000000000        0.0000000000000000     
  0.18750000000000000       0.37500000000000000        0.0000000000000000     
  0.21875000000000000       0.37500000000000000        0.0000000000000000     
  0.25000000000000000       0.37500000000000000        0.0000000000000000     
  0.12500000000000000       0.40625000000000000        0.0000000000000000     
  0.15625000000000000       0.40625000000000000        0.0000000000000000     
  0.18750000000000000       0.40625000000000000        0.0000000000000000     
  0.21875000000000000       0.40625000000000000        0.0000000000000000     
  0.25000000000000000       0.40625000000000000        0.0000000000000000     
  0.12500000000000000       0.43750000000000000        0.0000000000000000     
  0.15625000000000000       0.43750000000000000        0.0000000000000000     
  0.18750000000000000       0.43750000000000000        0.0000000000000000     
  0.21875000000000000       0.43750000000000000        0.0000000000000000     
  0.25000000000000000       0.43750000000000000        0.0000000000000000     
  0.12500000000000000       0.46875000000000000        0.0000000000000000     
  0.15625000000000000       0.46875000000000000        0.0000000000000000     
  0.18750000000000000       0.46875000000000000        0.0000000000000000     
  0.21875000000000000       0.46875000000000000        0.0000000000000000     
  0.25000000000000000       0.46875000000000000        0.0000000000000000     
  0.12500000000000000       0.50000000000000000        0.0000000000000000     
  0.15625000000000000       0.50000000000000000        0.0000000000000000     
  0.18750000000000000       0.50000000000000000        0.0000000000000000     
  0.21875000000000000       0.50000000000000000        0.0000000000000000     
  0.25000000000000000       0.50000000000000000        0.0000000000000000     
  0.25000000000000000       0.37500000000000000        0.0000000000000000     
  0.28125000000000000       0.37500000000000000        0.0000000000000000     
  0.31250000000000000       0.37500000000000000        0.0000000000000000     
  0.34375000000000000       0.37500000000000000        0.0000000000000000     
  0.37500000000000000       0.37500000000000000        0.0000000000000000     
  0.25000000000000000       0.40625000000000000        0.0000000000000000     
  0.28125000000000000       0.40625000000000000        0.0000000000000000     
  0.31250000000000000       0.40625000000000000        0.0000000000000000     
  0.34375000000000000       0.40625000000000000        0.0000000000000000     
  0.37500000000000000       0.40625000000000000        0.0000000000000000     
  0.25000000000000000       0.43750000000000000        0.0000000000000000     
  0.28125000000000000       0.43750000000000000        0.0000000000000000     
  0.31250000000000000       0.43750000000000000        0.0000000000000000     
  0.34375000000000000       0.43750000000000000        0.0000000000000000     
  0.37500000000000000       0.43750000000000000        0.0000000000000000     
  0.25000000000000000       0.46875000000000000        0.0000000000000000     
  0.28125000000000000       0.46875000000000000        0.0000000000000000     
  0.31250000000000000       0.46875000000000000        0.0000000000000000     
  0.34375000000000000       0.46875000000000000        0.0000000000000000     
  0.37500000000000000       0.46875000000000000        0.0000000000000000     
  0.25000000000000000       0.50000000000000000        0.0000000000000000     
  0.28125000000000000       0.50000000000000000        0.0000000000000000     
  0.31250000000000000       0.50000000000000000        0.0000000000000000     
  0.34375000000000000       0.50000000000000000        0.0000000000000000     
  0.37500000000000000       0.50000000000000000        0.0000000000000000     
  0.37500000000000000       0.37500000000000000        0.0000000000000000     
  0.40625000000000000       0.37500000000000000        0.0000000000000000     
  0.43750000000000000       0.37500000000000000        0.0000000000000000     
  0.46875000000000000       0.37500000000000000        0.0000000000000000     
  0.50000000000000000       0.37500000000000000        0.0000000000000000     
  0.37500000000000000       0.40625000000000000        0.0000000000000000     
  0.40625000000000000       0.40625000000000000        0.0000000000000000     
  0.43750000000000000       0.40625000000000000        0.0000000000000000     
  0.46875000000000000       0.40625000000000000        0.0000000000000000     
  0.50000000000000000       0.40625000000000000        0.0000000000000000     
  0.37500000000000000       0.43750000000000000        0.0000000000000000     
  0.40625000000000000       0.43750000000000000        0.0000000000000000     
  0.43750000000000000       0.43750000000000000        0.0000000000000000     
  0.46875000000000000       0.43750000000000000        0.0000000000000000     
  0.50000000000000000       0.43750000000000000        0.0000000000000000     
  0.37500000000000000       0.46875000000000000        0.0000000000000000     
  0.40625000000000000       0.46875000000000000        0.0000000000000000     
  0.43750000000000000       0.46875000000000000        0.0000000000000000     
  0.46875000000000000       0.46875000000000000        0.0000000000000000     
  0.50000000000000000       0.46875000000000000        0.0000000000000000     
  0.37500000000000000       0.50000000000000000        0.0000000000000000     
  0.40625000000000000       0.50000000000000000        0.0000000000000000     
  0.43750000000000000       0.50000000000000000        0.0000000000000000     
  0.46875000000000000       0.50000000000000000        0.0000000000000000     
  0.50000000000000000       0.50000000000000000        0.0000000000000000     
  0.50000000000000000       0.37500000000000000        0.0000000000000000     
  0.53125000000000000       0.37500000000000000        0.0000000000000000     
  0.56250000000000000       0.37500000000000000        0.0000000000000000     
  0.59375000000000000       0.37500000000000000        0.0000000000000000     
  0.62500000000000000       0.37500000000000000        0.0000000000000000     
  0.50000000000000000       0.40625000000000000        0.0000000000000000     
  0.53125000000000000       0.40625000000000000        0.0000000000000000     
  0.56250000000000000       0.40625000000000000        0.0000000000000000     
  0.59375000000000000       0.40625000000000000        0.0000000000000000     
  0.62500000000000000       0.40625000000000000        0.0000000000000000     
  0.50000000000000000       0.43750000000000000        0.0000000000000000     
  0.53125000000000000       0.43750000000000000        0.0000000000000000     
  0.56250000000000000       0.43750000000000000        0.0000000000000000     
  0.59375000000000000       0.43750000000000000        0.0000000000000000     
  0.62500000000000000       0.43750000000000000        0.0000000000000000     
  0.50000000000000000       0.46875000000000000        0.0000000000000000     
  0.53125000000000000       0.46875000000000000        0.0000000000000000     
  0.56250000000000000       0.46875000000000000        0.0000000000000000     
  0.59375000000000000       0.46875000000000000        0.0000000000000000     
  0.62500000000000000       0.46875000000000000        0.0000000000000000     
  0.50000000000000000       0.50000000000000000        0.0000000000000000     
  0.53125000000000000       0.50000000000000000        0.0000000000000000     
  0.56250000000000000       0.50000000000000000        0.0000000000000000     
  0.59375000000000000       0.50000000000000000        0.0000000000000000     
  0.62500000000000000       0.50000000000000000        0.0000000000000000     
  0.62500000000000000       0.37500000000000000        0.0000000000000000     
  0.65625000000000000       0.37500000000000000        0.0000000000000000     
  0.68750000000000000       0.37500000000000000        0.0000000000000000     
  0.71875000000000000       0.37500000000000000        0.0000000000000000     
  0.75000000000000000       0.37500000000000000        0.0000000000000000     
  0.62500000000000000       0.40625000000000000        0.0000000000000000     
  0.65625000000000000       0.40625000000000000        0.0000000000000000     
  0.68750000000000000       0.40625000000000000        0.0000000000000000     
  0.71875000000000000       0.40625000000000000        0.0000000000000000     
  0.75000000000000000       0.40625000000000000        0.0000000000000000     
  0.62500000000000000       0.43750000000000000        0.0000000000000000     
  0.65625000000000000       0.43750000000000000        0.0000000000000000     
  0.68750000000000000       0.43750000000000000        0.0000000000000000     
  0.71875000000000000       0.43750000000000000        0.0000000000000000     
  0.75000000000000000       0.43750000000000000        0.0000000000000000     
  0.62500000000000000       0.46875000000000000        0.0000000000000000     
  0.65625000000000000       0.46875000000000000        0.0000000000000000     
  0.68750000000000000       0.46875000000000000        0.0000000000000000     
  0.71875000000000000       0.46875000000000000        0.0000000000000000     
  0.75000000000000000       0.46875000000000000        0.0000000000000000     
  0.62500000000000000       0.50000000000000000        0.0000000000000000     
  0.65625000000000000       0.50000000000000000        0.0000000000000000     
  0.68750000000000000       0.50000000000000000        0.0000000000000000     
  0.71875000000000000       0.50000000000000000        0.0000000000000000     
  0.75000000000000000       0.50000000000000000        0.0000000000000000     
  0.75000000000000000       0.37500000000000000        0.0000000000000000     
  0.78125000000000000       0.37500000000000000        0.0000000000000000     
  0.81250000000000000       0.37500000000000000        0.0000000000000000     
  0.84375000000000000       0.37500000000000000        0.0000000000000000     
  0.87500000000000000       0.37500000000000000        0.0000000000000000     
  0.75000000000000000       0.40625000000000000        0.0000000000000000     
  0.78125000000000000       0.40625000000000000        0.0000000000000000     
  0.81250000000000000       0.40625000000000000        0.0000000000000000     
  0.84375000000000000       0.40625000000000000        0.0000000000000000     
  0.87500000000000000       0.40625000000000000        0.0000000000000000     
  0.75000000000000000       0.43750000000000000        0.0000000000000000     
  0.78125000000000000       0.43750000000000000        0.0000000000000000     
  0.81250000000000000       0.43750000000000000        0.0000000000000000     
  0.84375000000000000       0.43750000000000000        0.0000000000000000     
  0.87500000000000000       0.43750000000000000        0.0000000000000000     
  0.75000000000000000       0.46875000000000000        0.0000000000000000     
  0.78125000000000000       0.46875000000000000        0.0000000000000000     
  0.81250000000000000       0.46875000000000000        0.0000000000000000     
  0.84375000000000000       0.46875000000000000        0.0000000000000000     
  0.87500000000000000       0.46875000000000000        0.0000000000000000     
  0.75000000000000000       0.50000000000000000        0.0000000000000000     
  0.78125000000000000       0.50000000000000000        0.0000000000000000     
  0.81250000000000000       0.50000000000000000        0.0000000000000000     
  0.84375000000000000       0.50000000000000000        0.0000000000000000     
  0.87500000000000000       0.50000000000000000        0.0000000000000000     
  0.87500000000000000       0.37500000000000000        0.0000000000000000     
  0.90625000000000000       0.37500000000000000        0.0000000000000000     
  0.93750000000000000       0.37500000000000000        0.0000000000000000     
  0.96875000000000000       0.37500000000000000        0.0000000000000000     
   1.0000000000000000       0.37500000000000000        0.0000000000000000     
  0.87500000000000000       0.40625000000000000        0.0000000000000000     
  0.90625000000000000       0.40625000000000000        0.0000000000000000     
  0.93750000000000000       0.40625000000000000        0.0000000000000000     
  0.96875000000000000       0.40625000000000000        0.0000000000000000     
   1.0000000000000000       0.40625000000000000        0.0000000000000000     
  0.87500000000000000       0.43750000000000000        0.0000000000000000     
  0.90625000000000000       0.43750000000000000        0.0000000000000000     
  0.93750000000000000       0.43750000000000000        0.0000000000000000     
  0.96875000000000000       0.43750000000000000        0.0000000000000000     
   1.0000000000000000       0.43750000000000000        0.0000000000000000     
  0.87500000000000000       0.46875000000000000        0.0000000000000000     
  0.90625000000000000       0.46875000000000000        0.0000000000000000     
  0.93750000000000000       0.46875000000000000        0.0000000000000000     
  0.96875000000000000       0.46875000000000000        0.0000000000000000     
   1.0000000000000000       0.46875000000000000        0.0000000000000000     
  0.87500000000000000       0.50000000000000000        0.0000000000000000     
  0.90625000000000000       0.50000000000000000        0.0000000000000000     
  0.93750000000000000       0.50000000000000000        0.0000000000000000     
  0.96875000000000000       0.50000000000000000        0.0000000000000000     
   1.0000000000000000       0.50000000000000000        0.0000000000000000     
   0.0000000000000000       0.50000000000000000        0.0000000000000000     
   3.1250000000000000E-002  0.50000000000000000        0.0000000000000000     
   6.2500000000000000E-002  0.50000000000000000        0.0000000000000000     
   9.3750000000000000E-002  0.50000000000000000        0.0000000000000000     
  0.12500000000000000       0.50000000000000000        0.0000000000000000     
   0.0000000000000000       0.53125000000000000        0.0000000000000000     
   3.1250000000000000E-002  0.53125000000000000        0.0000000000000000     
   6.2500000000000000E-002  0.53125000000000000        0.0000000000000000     
   9.3750000000000000E-002  0.53125000000000000        0.0000000000000000     
  0.12500000000000000       0.53125000000000000        0.0000000000000000     
   0.0000000000000000       0.56250000000000000        0.0000000000000000     
   3.1250000000000000E-002  0.56250000000000000        0.0000000000000000     
   6.2500000000000000E-002  0.56250000000000000        0.0000000000000000     
   9.3750000000000000E-002  0.56250000000000000        0.0000000000000000     
  0.12500000000000000       0.56250000000000000        0.0000000000000000     
   0.0000000000000000       0.59375000000000000        0.0000000000000000     
   3.1250000000000000E-002  0.59375000000000000        0.0000000000000000     
   6.2500000000000000E-002  0.59375000000000000        0.0000000000000000     
   9.3750000000000000E-002  0.59375000000000000        0.0000000000000000     
  0.12500000000000000       0.59375000000000000        0.0000000000000000     
   0.0000000000000000       0.62500000000000000        0.0000000000000000     
   3.1250000000000000E-002  0.62500000000000000        0.0000000000000000     
   6.2500000000000000E-002  0.62500000000000000        0.0000000000000000     
   9.3750000000000000E-002  0.62500000000000000        0.0000000000000000     
  0.12500000000000000       0.62500000000000000        0.0000000000000000     
  0.12500000000000000       0.50000000000000000        0.0000000000000000     
  0.15625000000000000       0.50000000000000000        0.0000000000000000     
  0.18750000000000000       0.50000000000000000        0.0000000000000000     
  0.21875000000000000       0.50000000000000000        0.0000000000000000     
  0.25000000000000000       0.50000000000000000        0.0000000000000000     
  0.12500000000000000       0.53125000000000000        0.0000000000000000     
  0.15625000000000000       0.53125000000000000        0.0000000000000000     
  0.18750000000000000       0.53125000000000000        0.0000000000000000     
  0.21875000000000000       0.53125000000000000        0.0000000000000000     
  0.25000000000000000       0.53125000000000000        0.0000000000000000     
  0.12500000000000000       0.56250000000000000        0.0000000000000000     
  0.15625000000000000       0.56250000000000000        0.0000000000000000     
  0.18750000000000000       0.56250000000000000        0.0000000000000000     
  0.21875000000000000       0.56250000000000000        0.0000000000000000     
  0.25000000000000000       0.56250000000000000        0.0000000000000000     
  0.12500000000000000       0.59375000000000000        0.0000000000000000     
  0.15625000000000000       0.59375000000000000        0.0000000000000000     
  0.18750000000000000       0.59375000000000000        0.0000000000000000     
  0.21875000000000000       0.59375000000000000        0.0000000000000000     
  0.25000000000000000       0.59375000000000000        0.0000000000000000     
  0.12500000000000000       0.62500000000000000        0.0000000000000000     
  0.15625000000000000       0.62500000000000000        0.0000000000000000     
  0.18750000000000000       0.62500000000000000        0.0000000000000000     
  0.21875000000000000       0.62500000000000000        0.0000000000000000     
  0.25000000000000000       0.62500000000000000        0.0000000000000000     
  0.25000000000000000       0.50000000000000000        0.0000000000000000     
  0.28125000000000000       0.50000000000000000        0.0000000000000000     
  0.31250000000000000       0.50000000000000000        0.0000000000000000     
  0.34375000000000000       0.50000000000000000        0.0000000000000000     
  0.37500000000000000       0.50000000000000000        0.0000000000000000     
  0.25000000000000000       0.53125000000000000        0.0000000000000000     
  0.28125000000000000       0.53125000000000000        0.0000000000000000     
  0.31250000000000000       0.53125000000000000        0.0000000000000000     
  0.34375000000000000       0.53125000000000000        0.0000000000000000     
  0.37500000000000000       0.53125000000000000        0.0000000000000000     
  0.25000000000000000       0.56250000000000000        0.0000000000000000     
  0.28125000000000000       0.56250000000000000        0.0000000000000000     
  0.31250000000000000       0.56250000000000000        0.0000000000000000     
  0.34375000000000000       0.56250000000000000        0.0000000000000000     
  0.37500000000000000       0.56250000000000000        0.0000000000000000     
  0.25000000000000000       0.59375000000000000        0.0000000000000000     
  0.28125000000000000       0.59375000000000000        0.0000000000000000     
  0.31250000000000000       0.59375000000000000        0.0000000000000000     
  0.34375000000000000       0.59375000000000000        0.0000000000000000     
  0.37500000000000000       0.59375000000000000        0.0000000000000000     
  0.25000000000000000       0.62500000000000000        0.0000000000000000     
  0.28125000000000000       0.62500000000000000        0.0000000000000000     
  0.31250000000000000       0.62500000000000000        0.0000000000000000     
  0.34375000000000000       0.62500000000000000        0.0000000000000000     
  0.37500000000000000       0.62500000000000000        0.0000000000000000     
  0.37500000000000000       0.50000000000000000        0.0000000000000000     
  0.40625000000000000       0.50000000000000000        0.0000000000000000     
  0.43750000000000000       0.50000000000000000        0.0000000000000000     
  0.46875000000000000       0.50000000000000000        0.0000000000000000     
  0.50000000000000000       0.50000000000000000        0.0000000000000000     
  0.37500000000000000       0.53125000000000000        0.0000000000000000     
  0.40625000000000000       0.53125000000000000        0.0000000000000000     
  0.43750000000000000       0.53125000000000000        0.0000000000000000     
  0.46875000000000000       0.53125000000000000        0.0000000000000000     
  0.50000000000000000       0.53125000000000000        0.0000000000000000     
  0.37500000000000000       0.56250000000000000        0.0000000000000000     
  0.40625000000000000       0.56250000000000000        0.0000000000000000     
  0.43750000000000000       0.56250000000000000        0.0000000000000000     
  0.46875000000000000       0.56250000000000000        0.0000000000000000     
  0.50000000000000000       0.56250000000000000        0.0000000000000000     
  0.37500000000000000       0.59375000000000000        0.0000000000000000     
  0.40625000000000000       0.59375000000000000        0.0000000000000000     
  0.43750000000000000       0.59375000000000000        0.0000000000000000     
  0.46875000000000000       0.59375000000000000        0.0000000000000000     
  0.50000000000000000       0.59375000000000000        0.0000000000000000     
  0.37500000000000000       0.62500000000000000        0.0000000000000000     
  0.40625000000000000       0.62500000000000000        0.0000000000000000     
  0.43750000000000000       0.62500000000000000        0.0000000000000000     
  0.46875000000000000       0.62500000000000000        0.0000000000000000     
  0.50000000000000000       0.62500000000000000        0.0000000000000000     
  0.50000000000000000       0.50000000000000000        0.0000000000000000     
  0.53125000000000000       0.50000000000000000        0.0000000000000000     
  0.56250000000000000       0.50000000000000000        0.0000000000000000     
  0.59375000000000000       0.50000000000000000        0.0000000000000000     
  0.62500000000000000       0.50000000000000000        0.0000000000000000     
  0.50000000000000000       0.53125000000000000        0.0000000000000000     
  0.53125000000000000       0.53125000000000000        0.0000000000000000     
  0.56250000000000000       0.53125000000000000        0.0000000000000000     
  0.59375000000000000       0.53125000000000000        0.0000000000000000     
  0.62500000000000000       0.53125000000000000        0.0000000000000000     
  0.50000000000000000       0.56250000000000000        0.0000000000000000     
  0.53125000000000000       0.56250000000000000        0.0000000000000000     
  0.56250000000000000       0.56250000000000000        0.0000000000000000     
  0.59375000000000000       0.56250000000000000        0.0000000000000000     
  0.62500000000000000       0.56250000000000000        0.0000000000000000     
  0.50000000000000000       0.59375000000000000        0.0000000000000000     
  0.53125000000000000       0.59375000000000000        0.0000000000000000     
  0.56250000000000000       0.59375000000000000        0.0000000000000000     
  0.59375000000000000       0.59375000000000000        0.0000000000000000     
  0.62500000000000000       0.59375000000000000        0.0000000000000000     
  0.50000000000000000       0.62500000000000000        0.0000000000000000     
  0.53125000000000000       0.62500000000000000        0.0000000000000000     
  0.56250000000000000       0.62500000000000000        0.0000000000000000     
  0.59375000000000000       0.62500000000000000        0.0000000000000000     
  0.62500000000000000       0.62500000000000000        0.0000000000000000     
  0.62500000000000000       0.50000000000000000        0.0000000000000000     
  0.65625000000000000       0.50000000000000000        0.0000000000000000     
  0.68750000000000000       0.50000000000000000        0.0000000000000000     
  0.71875000000000000       0.50000000000000000        0.0000000000000000     
  0.75000000000000000       0.50000000000000000        0.0000000000000000     
  0.62500000000000000       0.53125000000000000        0.0000000000000000     
  0.65625000000000000       0.53125000000000000        0.0000000000000000     
  0.68750000000000000       0.53125000000000000        0.0000000000000000     
  0.71875000000000000       0.53125000000000000        0.0000000000000000     
  0.75000000000000000       0.53125000000000000        0.0000000000000000     
  0.62500000000000000       0.56250000000000000        0.0000000000000000     
  0.65625000000000000       0.56250000000000000        0.0000000000000000     
  0.68750000000000000       0.56250000000000000        0.0000000000000000     
  0.71875000000000000       0.56250000000000000        0.0000000000000000     
  0.75000000000000000       0.56250000000000000        0.0000000000000000     
  0.62500000000000000       0.59375000000000000        0.0000000000000000     
  0.65625000000000000       0.59375000000000000        0.0000000000000000     
  0.68750000000000000       0.59375000000000000        0.0000000000000000     
  0.71875000000000000       0.59375000000000000        0.0000000000000000     
  0.75000000000000000       0.59375000000000000        0.0000000000000000     
  0.62500000000000000       0.62500000000000000        0.0000000000000000     
  0.65625000000000000       0.62500000000000000        0.0000000000000000     
  0.68750000000000000       0.62500000000000000        0.0000000000000000     
  0.71875000000000000       0.62500000000000000        0.0000000000000000     
  0.75000000000000000       0.62500000000000000        0.0000000000000000     
  0.75000000000000000       0.50000000000000000        0.0000000000000000     
  0.78125000000000000       0.50000000000000000        0.0000000000000000     
  0.81250000000000000       0.50000000000000000        0.0000000000000000     
  0.84375000000000000       0.50000000000000000        0.0000000000000000     
  0.87500000000000000       0.50000000000000000        0.0000000000000000     
  0.75000000000000000       0.53125000000000000        0.0000000000000000     
  0.78125000000000000       0.53125000000000000        0.0000000000000000     
  0.81250000000000000       0.53125000000000000        0.0000000000000000     
  0.84375000000000000       0.53125000000000000        0.0000000000000000     
  0.87500000000000000       0.53125000000000000        0.0000000000000000     
  0.75000000000000000       0.56250000000000000        0.0000000000000000     
  0.78125000000000000       0.56250000000000000        0.0000000000000000     
  0.81250000000000000       0.56250000000000000        0.0000000000000000     
  0.84375000000000000       0.56250000000000000        0.0000000000000000     
  0.87500000000000000       0.56250000000000000        0.0000000000000000     
  0.75000000000000000       0.59375000000000000        0.0000000000000000     
  0.78125000000000000       0.59375000000000000        0.0000000000000000     
  0.81250000000000000       0.59375000000000000        0.0000000000000000     
  0.84375000000000000       0.59375000000000000        0.0000000000000000     
  0.87500000000000000       0.59375000000000000        0.0000000000000000     
  0.75000000000000000       0.62500000000000000        0.0000000000000000     
  0.78125000000000000       0.62500000000000000        0.0000000000000000     
  0.81250000000000000       0.62500000000000000        0.0000000000000000     
  0.84375000000000000       0.62500000000000000        0.0000000000000000     
  0.87500000000000000       0.62500000000000000        0.0000000000000000     
  0.87500000000000000       0.50000000000000000        0.0000000000000000     
  0.90625000000000000       0.50000000000000000        0.0000000000000000     
  0.93750000000000000       0.50000000000000000        0.0000000000000000     
  0.96875000000000000       0.50000000000000000        0.0000000000000000     
   1.0000000000000000       0.50000000000000000        0.0000000000000000     
  0.87500000000000000       0.53125000000000000        0.0000000000000000     
  0.90625000000000000       0.53125000000000000        0.0000000000000000     
  0.93750000000000000       0.53125000000000000        0.0000000000000000     
  0.96875000000000000       0.53125000000000000        0.0000000000000000     
   1.0000000000000000       0.53125000000000000        0.0000000000000000     
  0.87500000000000000       0.56250000000000000        0.0000000000000000     
  0.90625000000000000       0.56250000000000000        0.0000000000000000     
  0.93750000000000000       0.56250000000000000        0.0000000000000000     
  0.96875000000000000       0.56250000000000000        0.0000000000000000     
   1.0000000000000000       0.56250000000000000        0.0000000000000000     
  0.87500000000000000       0.59375000000000000        0.0000000000000000     
  0.90625000000000000       0.59375000000000000        0.0000000000000000     
  0.93750000000000000       0.59375000000000000        0.0000000000000000     
  0.96875000000000000       0.59375000000000000        0.0000000000000000     
   1.0000000000000000       0.59375000000000000        0.0000000000000000     
  0.87500000000000000       0.62500000000000000        0.0000000000000000     
  0.90625000000000000       0.62500000000000000        0.0000000000000000     
  0.93750000000000000       0.62500000000000000        0.0000000000000000     
  0.96875000000000000       0.62500000000000000        0.0000000000000000     
   1.0000000000000000       0.62500000000000000        0.0000000000000000     
   0.0000000000000000       0.62500000000000000        0.0000000000000000     
   3.1250000000000000E-002  0.62500000000000000        0.0000000000000000     
   6.2500000000000000E-002  0.62500000000000000        0.0000000000000000     
   9.3750000000000000E-002  0.62500000000000000        0.0000000000000000     
  0.12500000000000000       0.62500000000000000        0.0000000000000000     
   0.0000000000000000       0.65625000000000000        0.0000000000000000     
   3.1250000000000000E-002  0.65625000000000000        0.0000000000000000     
   6.2500000000000000E-002  0.65625000000000000        0.0000000000000000     
   9.3750000000000000E-002  0.65625000000000000        0.0000000000000000     
  0.12500000000000000       0.65625000000000000        0.0000000000000000     
   0.0000000000000000       0.68750000000000000        0.0000000000000000     
   3.1250000000000000E-002  0.68750000000000000        0.0000000000000000     
   6.2500000000000000E-002  0.68750000000000000        0.0000000000000000     
   9.3750000000000000E-002  0.68750000000000000        0.0000000000000000     
  0.12500000000000000       0.68750000000000000        0.0000000000000000     
   0.0000000000000000       0.71875000000000000        0.0000000000000000     
   3.1250000000000000E-002  0.71875000000000000        0.0000000000000000     
   6.2500000000000000E-002  0.71875000000000000        0.0000000000000000     
   9.3750000000000000E-002  0.71875000000000000        0.0000000000000000     
  0.12500000000000000       0.71875000000000000        0.0000000000000000     
   0.0000000000000000       0.75000000000000000        0.0000000000000000     
   3.1250000000000000E-002  0.75000000000000000        0.0000000000000000     
   6.2500000000000000E-002  0.75000000000000000        0.0000000000000000     
   9.3750000000000000E-002  0.75000000000000000        0.0000000000000000     
  0.12500000000000000       0.75000000000000000        0.0000000000000000     
  0.12500000000000000       0.62500000000000000        0.0000000000000000     
  0.15625000000000000       0.62500000000000000        0.0000000000000000     
  0.18750000000000000       0.62500000000000000        0.0000000000000000     
  0.21875000000000000       0.62500000000000000        0.0000000000000000     
  0.25000000000000000       0.62500000000000000        0.0000000000000000     
  0.12500000000000000       0.65625000000000000        0.0000000000000000     
  0.15625000000000000       0.65625000000000000        0.0000000000000000     
  0.18750000000000000       0.65625000000000000        0.0000000000000000     
  0.21875000000000000       0.65625000000000000        0.0000000000000000     
  0.25000000000000000       0.65625000000000000        0.0000000000000000     
  0.12500000000000000       0.68750000000000000        0.0000000000000000     
  0.15625000000000000       0.68750000000000000        0.0000000000000000     
  0.18750000000000000       0.68750000000000000        0.0000000000000000     
  0.21875000000000000       0.68750000000000000        0.0000000000000000     
  0.25000000000000000       0.68750000000000000        0.0000000000000000     
  0.12500000000000000       0.71875000000000000        0.0000000000000000     
  0.15625000000000000       0.71875000000000000        0.0000000000000000     
  0.18750000000000000       0.71875000000000000        0.0000000000000000     
  0.21875000000000000       0.71875000000000000        0.0000000000000000     
  0.25000000000000000       0.71875000000000000        0.0000000000000000     
  0.12500000000000000       0.75000000000000000        0.0000000000000000     
  0.15625000000000000       0.75000000000000000        0.0000000000000000     
  0.18750000000000000       0.75000000000000000        0.0000000000000000     
  0.21875000000000000       0.75000000000000000        0.0000000000000000     
  0.25000000000000000       0.75000000000000000        0.0000000000000000     
  0.25000000000000000       0.62500000000000000        0.0000000000000000     
  0.28125000000000000       0.62500000000000000        0.0000000000000000     
  0.31250000000000000       0.62500000000000000        0.0000000000000000     
  0.34375000000000000       0.62500000000000000        0.0000000000000000     
  0.37500000000000000       0.62500000000000000        0.0000000000000000     
  0.25000000000000000       0.65625000000000000        0.0000000000000000     
  0.28125000000000000       0.65625000000000000        0.0000000000000000     
  0.31250000000000000       0.65625000000000000        0.0000000000000000     
  0.34375000000000000       0.65625000000000000        0.0000000000000000     
  0.37500000000000000       0.65625000000000000        0.0000000000000000     
  0.25000000000000000       0.68750000000000000        0.0000000000000000     
  0.28125000000000000       0.68750000000000000        0.0000000000000000     
  0.31250000000000000       0.68750000000000000        0.0000000000000000     
  0.34375000000000000       0.68750000000000000        0.0000000000000000     
  0.37500000000000000       0.68750000000000000        0.0000000000000000     
  0.25000000000000000       0.71875000000000000        0.0000000000000000     
  0.28125000000000000       0.71875000000000000        0.0000000000000000     
  0.31250000000000000       0.71875000000000000        0.0000000000000000     
  0.34375000000000000       0.71875000000000000        0.0000000000000000     
  0.37500000000000000       0.71875000000000000        0.0000000000000000     
  0.25000000000000000       0.75000000000000000        0.0000000000000000     
  0.28125000000000000       0.75000000000000000        0.0000000000000000     
  0.31250000000000000       0.75000000000000000        0.0000000000000000     
  0.34375000000000000       0.75000000000000000        0.0000000000000000     
  0.37500000000000000       0.75000000000000000        0.0000000000000000     
  0.37500000000000000       0.62500000000000000        0.0000000000000000     
  0.40625000000000000       0.62500000000000000        0.0000000000000000     
  0.43750000000000000       0.62500000000000000        0.0000000000000000     
  0.46875000000000000       0.62500000000000000        0.0000000000000000     
  0.50000000000000000       0.62500000000000000        0.0000000000000000     
  0.37500000000000000       0.65625000000000000        0.0000000000000000     
  0.40625000000000000       0.65625000000000000        0.0000000000000000     
  0.43750000000000000       0.65625000000000000        0.0000000000000000     
  0.46875000000000000       0.65625000000000000        0.0000000000000000     
  0.50000000000000000       0.65625000000000000        0.0000000000000000     
  0.37500000000000000       0.68750000000000000        0.0000000000000000     
  0.40625000000000000       0.68750000000000000        0.0000000000000000     
  0.43750000000000000       0.68750000000000000        0.0000000000000000     
  0.46875000000000000       0.68750000000000000        0.0000000000000000     
  0.50000000000000000       0.68750000000000000        0.0000000000000000     
  0.37500000000000000       0.71875000000000000        0.0000000000000000     
  0.40625000000000000       0.71875000000000000        0.0000000000000000     
  0.43750000000000000       0.71875000000000000        0.0000000000000000     
  0.46875000000000000       0.71875000000000000        0.0000000000000000     
  0.50000000000000000       0.71875000000000000        0.0000000000000000     
  0.37500000000000000       0.75000000000000000        0.0000000000000000     
  0.40625000000000000       0.75000000000000000        0.0000000000000000     
  0.43750000000000000       0.75000000000000000        0.0000000000000000     
  0.46875000000000000       0.75000000000000000        0.0000000000000000     
  0.50000000000000000       0.75000000000000000        0.0000000000000000     
  0.50000000000000000       0.62500000000000000        0.0000000000000000     
  0.53125000000000000       0.62500000000000000        0.0000000000000000     
  0.56250000000000000       0.62500000000000000        0.0000000000000000     
  0.59375000000000000       0.62500000000000000        0.0000000000000000     
  0.62500000000000000       0.62500000000000000        0.0000000000000000     
  0.50000000000000000       0.65625000000000000        0.0000000000000000     
  0.53125000000000000       0.65625000000000000        0.0000000000000000     
  0.56250000000000000       0.65625000000000000        0.0000000000000000     
  0.59375000000000000       0.65625000000000000        0.0000000000000000     
  0.62500000000000000       0.65625000000000000        0.0000000000000000     
  0.50000000000000000       0.68750000000000000        0.0000000000000000     
  0.53125000000000000       0.68750000000000000        0.0000000000000000     
  0.56250000000000000       0.68750000000000000        0.0000000000000000     
  0.59375000000000000       0.68750000000000000        0.0000000000000000     
  0.62500000000000000       0.68750000000000000        0.0000000000000000     
  0.50000000000000000       0.71875000000000000        0.0000000000000000     
  0.53125000000000000       0.71875000000000000        0.0000000000000000     
  0.56250000000000000       0.71875000000000000        0.0000000000000000     
  0.59375000000000000       0.71875000000000000        0.0000000000000000     
  0.62500000000000000       0.71875000000000000        0.0000000000000000     
  0.50000000000000000       0.75000000000000000        0.0000000000000000     
  0.53125000000000000       0.75000000000000000        0.0000000000000000     
  0.56250000000000000       0.75000000000000000        0.0000000000000000     
  0.59375000000000000       0.75000000000000000        0.0000000000000000     
  0.62500000000000000       0.75000000000000000        0.0000000000000000     
  0.62500000000000000       0.62500000000000000        0.0000000000000000     
  0.65625000000000000       0.62500000000000000        0.0000000000000000     
  0.68750000000000000       0.62500000000000000        0.0000000000000000     
  0.71875000000000000       0.62500000000000000        0.0000000000000000     
  0.75000000000000000       0.62500000000000000        0.0000000000000000     
  0.62500000000000000       0.65625000000000000        0.0000000000000000     
  0.65625000000000000       0.65625000000000000        0.0000000000000000     
  0.68750000000000000       0.65625000000000000        0.0000000000000000     
  0.71875000000000000       0.65625000000000000        0.0000000000000000     
  0.75000000000000000       0.65625000000000000        0.0000000000000000     
  0.62500000000000000       0.68750000000000000        0.0000000000000000     
  0.65625000000000000       0.68750000000000000        0.0000000000000000     
  0.68750000000000000       0.68750000000000000        0.0000000000000000     
  0.71875000000000000       0.68750000000000000        0.0000000000000000     
  0.75000000000000000       0.68750000000000000        0.0000000000000000     
  0.62500000000000000       0.71875000000000000        0.0000000000000000     
  0.65625000000000000       0.71875000000000000        0.0000000000000000     
  0.68750000000000000       0.71875000000000000        0.0000000000000000     
  0.71875000000000000       0.71875000000000000        0.0000000000000000     
  0.75000000000000000       0.71875000000000000        0.0000000000000000     
  0.62500000000000000       0.75000000000000000        0.0000000000000000     
  0.65625000000000000       0.75000000000000000        0.0000000000000000     
  0.68750000000000000       0.75000000000000000        0.0000000000000000     
  0.71875000000000000       0.75000000000000000        0.0000000000000000     
  0.75000000000000000       0.75000000000000000        0.0000000000000000     
  0.75000000000000000       0.62500000000000000        0.0000000000000000     
  0.78125000000000000       0.62500000000000000        0.0000000000000000     
  0.81250000000000000       0.62500000000000000        0.0000000000000000     
  0.84375000000000000       0.62500000000000000        0.0000000000000000     
  0.87500000000000000       0.62500000000000000        0.0000000000000000     
  0.75000000000000000       0.65625000000000000        0.0000000000000000     
  0.78125000000000000       0.65625000000000000        0.0000000000000000     
  0.81250000000000000       0.65625000000000000        0.0000000000000000     
  0.84375000000000000       0.65625000000000000        0.0000000000000000     
  0.87500000000000000       0.65625000000000000        0.0000000000000000     
  0.75000000000000000       0.68750000000000000        0.0000000000000000     
  0.78125000000000000       0.68750000000000000        0.0000000000000000     
  0.81250000000000000       0.68750000000000000        0.0000000000000000     
  0.84375000000000000       0.68750000000000000        0.0000000000000000     
  0.87500000000000000       0.68750000000000000        0.0000000000000000     
  0.75000000000000000       0.71875000000000000        0.0000000000000000     
  0.78125000000000000       0.71875000000000000        0.0000000000000000     
  0.81250000000000000       0.71875000000000000        0.0000000000000000     
  0.84375000000000000       0.71875000000000000        0.0000000000000000     
  0.87500000000000000       0.71875000000000000        0.0000000000000000     
  0.75000000000000000       0.75000000000000000        0.0000000000000000     
  0.78125000000000000       0.75000000000000000        0.0000000000000000     
  0.81250000000000000       0.75000000000000000        0.0000000000000000     
  0.84375000000000000       0.75000000000000000        0.0000000000000000     
  0.87500000000000000       0.75000000000000000        0.0000000000000000     
  0.87500000000000000       0.62500000000000000        0.0000000000000000     
  0.90625000000000000       0.62500000000000000        0.0000000000000000     
  0.93750000000000000       0.62500000000000000        0.0000000000000000     
  0.96875000000000000       0.62500000000000000        0.0000000000000000     
   1.0000000000000000       0.62500000000000000        0.0000000000000000     
  0.87500000000000000       0.65625000000000000        0.0000000000000000     
  0.90625000000000000       0.65625000000000000        0.0000000000000000     
  0.93750000000000000       0.65625000000000000        0.0000000000000000     
  0.96875000000000000       0.65625000000000000        0.0000000000000000     
   1.0000000000000000       0.65625000000000000        0.0000000000000000     
  0.87500000000000000       0.68750000000000000        0.0000000000000000     
  0.90625000000000000       0.68750000000000000        0.0000000000000000     
  0.93750000000000000       0.68750000000000000        0.0000000000000000     
  0.96875000000000000       0.68750000000000000        0.0000000000000000     
   1.0000000000000000       0.68750000000000000        0.0000000000000000     
  0.87500000000000000       0.71875000000000000        0.0000000000000000     
  0.90625000000000000       0.71875000000000000        0.0000000000000000     
  0.93750000000000000       0.71875000000000000        0.0000000000000000     
  0.96875000000000000       0.71875000000000000        0.0000000000000000     
   1.0000000000000000       0.71875000000000000        0.0000000000000000     
  0.87500000000000000       0.75000000000000000        0.0000000000000000     
  0.90625000000000000       0.75000000000000000        0.0000000000000000     
  0.93750000000000000       0.75000000000000000        0.0000000000000000     
  0.96875000000000000       0.75000000000000000        0.0000000000000000     
   1.0000000000000000       0.75000000000000000        0.0000000000000000     
   0.0000000000000000       0.75000000000000000        0.0000000000000000     
   3.1250000000000000E-002  0.75000000000000000        0.0000000000000000     
   6.2500000000000000E-002  0.75000000000000000        0.0000000000000000     
   9.3750000000000000E-002  0.75000000000000000        0.0000000000000000     
  0.12500000000000000       0.75000000000000000        0.0000000000000000     
   0.0000000000000000       0.78125000000000000        0.0000000000000000     
   3.1250000000000000E-002  0.78125000000000000        0.0000000000000000     
   6.2500000000000000E-002  0.78125000000000000        0.0000000000000000     
   9.3750000000000000E-002  0.78125000000000000        0.0000000000000000     
  0.12500000000000000       0.78125000000000000        0.0000000000000000     
   0.0000000000000000       0.81250000000000000        0.0000000000000000     
   3.1250000000000000E-002  0.81250000000000000        0.0000000000000000     
   6.2500000000000000E-002  0.81250000000000000        0.0000000000000000     
   9.3750000000000000E-002  0.81250000000000000        0.0000000000000000     
  0.12500000000000000       0.81250000000000000        0.0000000000000000     
   0.0000000000000000       0.84375000000000000        0.0000000000000000     
   3.1250000000000000E-002  0.84375000000000000        0.0000000000000000     
   6.2500000000000000E-002  0.84375000000000000        0.0000000000000000     
   9.3750000000000000E-002  0.84375000000000000        0.0000000000000000     
  0.12500000000000000       0.84375000000000000        0.0000000000000000     
   0.0000000000000000       0.87500000000000000        0.0000000000000000     
   3.1250000000000000E-002  0.87500000000000000        0.0000000000000000     
   6.2500000000000000E-002  0.87500000000000000        0.0000000000000000     
   9.3750000000000000E-002  0.87500000000000000        0.0000000000000000     
  0.12500000000000000       0.87500000000000000        0.0000000000000000     
  0.12500000000000000       0.75000000000000000        0.0000000000000000     
  0.15625000000000000       0.75000000000000000        0.0000000000000000     
  0.18750000000000000       0.75000000000000000        0.0000000000000000     
  0.21875000000000000       0.75000000000000000        0.0000000000000000     
  0.25000000000000000       0.75000000000000000        0.0000000000000000     
  0.12500000000000000       0.78125000000000000        0.0000000000000000     
  0.15625000000000000       0.78125000000000000        0.0000000000000000     
  0.18750000000000000       0.78125000000000000        0.0000000000000000     
  0.21875000000000000       0.78125000000000000        0.0000000000000000     
  0.25000000000000000       0.78125000000000000        0.0000000000000000     
  0.12500000000000000       0.81250000000000000        0.0000000000000000     
  0.15625000000000000       0.81250000000000000        0.0000000000000000     
  0.18750000000000000       0.81250000000000000        0.0000000000000000     
  0.21875000000000000       0.81250000000000000        0.0000000000000000     
  0.25000000000000000       0.81250000000000000        0.0000000000000000     
  0.12500000000000000       0.84375000000000000        0.0000000000000000     
  0.15625000000000000       0.84375000000000000        0.0000000000000000     
  0.18750000000000000       0.84375000000000000        0.0000000000000000     
  0.21875000000000000       0.84375000000000000        0.0000000000000000     
  0.25000000000000000       0.84375000000000000        0.0000000000000000     
  0.12500000000000000       0.87500000000000000        0.0000000000000000     
  0.15625000000000000       0.87500000000000000        0.0000000000000000     
  0.18750000000000000       0.87500000000000000        0.0000000000000000     
  0.21875000000000000       0.87500000000000000        0.0000000000000000     
  0.25000000000000000       0.87500000000000000        0.0000000000000000     
  0.25000000000000000       0.75000000000000000        0.0000000000000000     
  0.28125000000000000       0.75000000000000000        0.0000000000000000     
  0.31250000000000000       0.75000000000000000        0.0000000000000000     
  0.34375000000000000       0.75000000000000000        0.0000000000000000     
  0.37500000000000000       0.75000000000000000        0.0000000000000000     
  0.25000000000000000       0.78125000000000000        0.0000000000000000     
  0.28125000000000000       0.78125000000000000        0.0000000000000000     
  0.31250000000000000       0.78125000000000000        0.0000000000000000     
  0.34375000000000000       0.78125000000000000        0.0000000000000000     
  0.37500000000000000       0.78125000000000000        0.0000000000000000     
  0.25000000000000000       0.81250000000000000        0.0000000000000000     
  0.28125000000000000       0.81250000000000000        0.0000000000000000     
  0.31250000000000000       0.81250000000000000        0.0000000000000000     
  0.34375000000000000       0.81250000000000000        0.0000000000000000     
  0.37500000000000000       0.81250000000000000        0.0000000000000000     
  0.25000000000000000       0.84375000000000000        0.0000000000000000     
  0.28125000000000000       0.84375000000000000        0.0000000000000000     
  0.31250000000000000       0.84375000000000000        0.0000000000000000     
  0.34375000000000000       0.84375000000000000        0.0000000000000000     
  0.37500000000000000       0.84375000000000000        0.0000000000000000     
  0.25000000000000000       0.87500000000000000        0.0000000000000000     
  0.28125000000000000       0.87500000000000000        0.0000000000000000     
  0.31250000000000000       0.87500000000000000        0.0000000000000000     
  0.34375000000000000       0.87500000000000000        0.0000000000000000     
  0.37500000000000000       0.87500000000000000        0.0000000000000000     
  0.37500000000000000       0.75000000000000000        0.0000000000000000     
  0.40625000000000000       0.75000000000000000        0.0000000000000000     
  0.43750000000000000       0.75000000000000000        0.0000000000000000     
  0.46875000000000000       0.75000000000000000        0.0000000000000000     
  0.50000000000000000       0.75000000000000000        0.0000000000000000     
  0.37500000000000000       0.78125000000000000        0.0000000000000000     
  0.40625000000000000       0.78125000000000000        0.0000000000000000     
  0.43750000000000000       0.78125000000000000        0.0000000000000000     
  0.46875000000000000       0.78125000000000000        0.0000000000000000     
  0.50000000000000000       0.78125000000000000        0.0000000000000000     
  0.37500000000000000       0.81250000000000000        0.0000000000000000     
  0.40625000000000000       0.81250000000000000        0.0000000000000000     
  0.43750000000000000       0.81250000000000000        0.0000000000000000     
  0.46875000000000000       0.81250000000000000        0.0000000000000000     
  0.50000000000000000       0.81250000000000000        0.0000000000000000     
  0.37500000000000000       0.84375000000000000        0.0000000000000000     
  0.40625000000000000       0.84375000000000000        0.0000000000000000     
  0.43750000000000000       0.84375000000000000        0.0000000000000000     
  0.46875000000000000       0.84375000000000000        0.0000000000000000     
  0.50000000000000000       0.84375000000000000        0.0000000000000000     
  0.37500000000000000       0.87500000000000000        0.0000000000000000     
  0.40625000000000000       0.87500000000000000        0.0000000000000000     
  0.43750000000000000       0.87500000000000000        0.0000000000000000     
  0.46875000000000000       0.87500000000000000        0.0000000000000000     
  0.50000000000000000       0.87500000000000000        0.0000000000000000     
  0.50000000000000000       0.75000000000000000        0.0000000000000000     
  0.53125000000000000       0.75000000000000000        0.0000000000000000     
  0.56250000000000000       0.75000000000000000        0.0000000000000000     
  0.59375000000000000       0.75000000000000000        0.0000000000000000     
  0.62500000000000000       0.75000000000000000        0.0000000000000000     
  0.50000000000000000       0.78125000000000000        0.0000000000000000     
  0.53125000000000000       0.78125000000000000        0.0000000000000000     
  0.56250000000000000       0.78125000000000000        0.0000000000000000     
  0.59375000000000000       0.78125000000000000        0.0000000000000000     
  0.62500000000000000       0.78125000000000000        0.0000000000000000     
  0.50000000000000000       0.81250000000000000        0.0000000000000000     
  0.53125000000000000       0.81250000000000000        0.0000000000000000     
  0.56250000000000000       0.81250000000000000        0.0000000000000000     
  0.59375000000000000       0.81250000000000000        0.0000000000000000     
  0.62500000000000000       0.81250000000000000        0.0000000000000000     
  0.50000000000000000       0.84375000000000000        0.0000000000000000     
  0.53125000000000000       0.84375000000000000        0.0000000000000000     
  0.56250000000000000       0.84375000000000000        0.0000000000000000     
  0.59375000000000000       0.84375000000000000        0.0000000000000000     
  0.62500000000000000       0.84375000000000000        0.0000000000000000     
  0.50000000000000000       0.87500000000000000        0.0000000000000000     
  0.53125000000000000       0.87500000000000000        0.0000000000000000     
  0.56250000000000000       0.87500000000000000        0.0000000000000000     
  0.59375000000000000       0.87500000000000000        0.0000000000000000     
  0.62500000000000000       0.87500000000000000        0.0000000000000000     
  0.62500000000000000       0.75000000000000000        0.0000000000000000     
  0.65625000000000000       0.75000000000000000        0.0000000000000000     
  0.68750000000000000       0.75000000000000000        0.0000000000000000     
  0.71875000000000000       0.75000000000000000        0.0000000000000000     
  0.75000000000000000       0.75000000000000000        0.0000000000000000     
  0.62500000000000000       0.78125000000000000        0.0000000000000000     
  0.65625000000000000       0.78125000000000000        0.0000000000000000     
  0.68750000000000000       0.78125000000000000        0.0000000000000000     
  0.71875000000000000       0.78125000000000000        0.0000000000000000     
  0.75000000000000000       0.78125000000000000        0.0000000000000000     
  0.62500000000000000       0.81250000000000000        0.0000000000000000     
  0.65625000000000000       0.81250000000000000        0.0000000000000000     
  0.68750000000000000       0.81250000000000000        0.0000000000000000     
  0.71875000000000000       0.81250000000000000        0.0000000000000000     
  0.75000000000000000       0.81250000000000000        0.0000000000000000     
  0.62500000000000000       0.84375000000000000        0.0000000000000000     
  0.65625000000000000       0.84375000000000000        0.0000000000000000     
  0.68750000000000000       0.84375000000000000        0.0000000000000000     
  0.71875000000000000       0.84375000000000000        0.0000000000000000     
  0.75000000000000000       0.84375000000000000        0.0000000000000000     
  0.62500000000000000       0.87500000000000000        0.0000000000000000     
  0.65625000000000000       0.87500000000000000        0.0000000000000000     
  0.68750000000000000       0.87500000000000000        0.0000000000000000     
  0.71875000000000000       0.87500000000000000        0.0000000000000000     
  0.75000000000000000       0.87500000000000000        0.0000000000000000     
  0.75000000000000000       0.75000000000000000        0.0000000000000000     
  0.78125000000000000       0.75000000000000000        0.0000000000000000     
  0.81250000000000000       0.75000000000000000        0.0000000000000000     
  0.84375000000000000       0.75000000000000000        0.0000000000000000     
  0.87500000000000000       0.75000000000000000        0.0000000000000000     
  0.75000000000000000       0.78125000000000000        0.0000000000000000     
  0.78125000000000000       0.78125000000000000        0.0000000000000000     
  0.81250000000000000       0.78125000000000000        0.0000000000000000     
  0.84375000000000000       0.78125000000000000        0.0000000000000000     
  0.87500000000000000       0.78125000000000000        0.0000000000000000     
  0.75000000000000000       0.81250000000000000        0.0000000000000000     
  0.78125000000000000       0.81250000000000000        0.0000000000000000     
  0.81250000000000000       0.81250000000000000        0.0000000000000000     
  0.84375000000000000       0.81250000000000000        0.0000000000000000     
  0.87500000000000000       0.81250000000000000        0.0000000000000000     
  0.75000000000000000       0.84375000000000000        0.0000000000000000     
  0.78125000000000000       0.84375000000000000        0.0000000000000000     
  0.81250000000000000       0.84375000000000000        0.0000000000000000     
  0.84375000000000000       0.84375000000000000        0.0000000000000000     
  0.87500000000000000       0.84375000000000000        0.0000000000000000     
  0.75000000000000000       0.87500000000000000        0.0000000000000000     
  0.78125000000000000       0.87500000000000000        0.0000000000000000     
  0.81250000000000000       0.87500000000000000        0.0000000000000000     
  0.84375000000000000       0.87500000000000000        0.0000000000000000     
  0.87500000000000000       0.87500000000000000        0.0000000000000000     
  0.87500000000000000       0.75000000000000000        0.0000000000000000     
  0.90625000000000000       0.75000000000000000        0.0000000000000000     
  0.93750000000000000       0.75000000000000000        0.0000000000000000     
  0.96875000000000000       0.75000000000000000        0.0000000000000000     
   1.0000000000000000       0.75000000000000000        0.0000000000000000     
  0.87500000000000000       0.78125000000000000        0.0000000000000000     
  0.90625000000000000       0.78125000000000000        0.0000000000000000     
  0.93750000000000000       0.78125000000000000        0.0000000000000000     
  0.96875000000000000       0.78125000000000000        0.0000000000000000     
   1.0000000000000000       0.78125000000000000        0.0000000000000000     
  0.87500000000000000       0.81250000000000000        0.0000000000000000     
  0.90625000000000000       0.81250000000000000        0.0000000000000000     
  0.93750000000000000       0.81250000000000000        0.0000000000000000     
  0.96875000000000000       0.81250000000000000        0.0000000000000000     
   1.0000000000000000       0.81250000000000000        0.0000000000000000     
  0.87500000000000000       0.84375000000000000        0.0000000000000000     
  0.90625000000000000       0.84375000000000000        0.0000000000000000     
  0.93750000000000000       0.84375000000000000        0.0000000000000000     
  0.96875000000000000       0.84375000000000000        0.0000000000000000     
   1.0000000000000000       0.84375000000000000        0.0000000000000000     
  0.87500000000000000       0.87500000000000000        0.0000000000000000     
  0.90625000000000000       0.87500000000000000        0.0000000000000000     
  0.93750000000000000       0.87500000000000000        0.0000000000000000     
  0.96875000000000000       0.87500000000000000        0.0000000000000000     
   1.0000000000000000       0.87500000000000000        0.0000000000000000     
   0.0000000000000000       0.87500000000000000        0.0000000000000000     
   3.1250000000000000E-002  0.87500000000000000        0.0000000000000000     
   6.2500000000000000E-002  0.87500000000000000        0.0000000000000000     
   9.3750000000000000E-002  0.87500000000000000        0.0000000000000000     
  0.12500000000000000       0.87500000000000000        0.0000000000000000     
   0.0000000000000000       0.90625000000000000        0.0000000000000000     
   3.1250000000000000E-002  0.90625000000000000        0.0000000000000000     
   6.2500000000000000E-002  0.90625000000000000        0.0000000000000000     
   9.3750000000000000E-002  0.90625000000000000        0.0000000000000000     
  0.12500000000000000       0.90625000000000000        0.0000000000000000     
   0.0000000000000000       0.93750000000000000        0.0000000000000000     
   3.1250000000000000E-002  0.93750000000000000        0.0000000000000000     
   6.2500000000000000E-002  0.93750000000000000        0.0000000000000000     
   9.3750000000000000E-002  0.93750000000000000        0.0000000000000000     
  0.12500000000000000       0.93750000000000000        0.0000000000000000     
   0.0000000000000000       0.96875000000000000        0.0000000000000000     
   3.1250000000000000E-002  0.96875000000000000        0.0000000000000000     
   6.2500000000000000E-002  0.96875000000000000        0.0000000000000000     
   9.3750000000000000E-002  0.96875000000000000        0.0000000000000000     
  0.12500000000000000       0.96875000000000000        0.0000000000000000     
   0.0000000000000000        1.0000000000000000        0.0000000000000000     
   3.1250000000000000E-002   1.0000000000000000        0.0000000000000000     
   6.2500000000000000E-002   1.0000000000000000        0.0000000000000000     
   9.3750000000000000E-002   1.0000000000000000        0.0000000000000000     
  0.12500000000000000        1.0000000000000000        0.0000000000000000     
  0.12500000000000000       0.87500000000000000        0.0000000000000000     
  0.15625000000000000       0.87500000000000000        0.0000000000000000     
  0.18750000000000000       0.87500000000000000        0.0000000000000000     
  0.21875000000000000       0.87500000000000000        0.0000000000000000     
  0.25000000000000000       0.87500000000000000        0.0000000000000000     
  0.12500000000000000       0.90625000000000000        0.0000000000000000     
  0.15625000000000000       0.90625000000000000        0.0000000000000000     
  0.18750000000000000       0.90625000000000000        0.0000000000000000     
  0.21875000000000000       0.90625000000000000        0.0000000000000000     
  0.25000000000000000       0.90625000000000000        0.0000000000000000     
  0.12500000000000000       0.93750000000000000        0.0000000000000000     
  0.15625000000000000       0.93750000000000000        0.0000000000000000     
  0.18750000000000000       0.93750000000000000        0.0000000000000000     
  0.21875000000000000       0.93750000000000000        0.0000000000000000     
  0.25000000000000000       0.93750000000000000        0.0000000000000000     
  0.12500000000000000       0.96875000000000000        0.0000000000000000     
  0.15625000000000000       0.96875000000000000        0.0000000000000000     
  0.18750000000000000       0.96875000000000000        0.0000000000000000     
  0.21875000000000000       0.96875000000000000        0.0000000000000000     
  0.25000000000000000       0.96875000000000000        0.0000000000000000     
  0.12500000000000000        1.0000000000000000        0.0000000000000000     
  0.15625000000000000        1.0000000000000000        0.0000000000000000     
  0.18750000000000000        1.0000000000000000        0.0000000000000000     
  0.21875000000000000        1.0000000000000000        0.0000000000000000     
  0.25000000000000000        1.0000000000000000        0.0000000000000000     
  0.25000000000000000       0.87500000000000000        0.0000000000000000     
  0.28125000000000000       0.87500000000000000        0.0000000000000000     
  0.31250000000000000       0.87500000000000000        0.0000000000000000     
  0.34375000000000000       0.87500000000000000        0.0000000000000000     
  0.37500000000000000       0.87500000000000000        0.0000000000000000     
  0.25000000000000000       0.90625000000000000        0.0000000000000000     
  0.28125000000000000       0.90625000000000000        0.0000000000000000     
  0.31250000000000000       0.90625000000000000        0.0000000000000000     
  0.34375000000000000       0.90625000000000000        0.0000000000000000     
  0.37500000000000000       0.90625000000000000        0.0000000000000000     
  0.25000000000000000       0.93750000000000000        0.0000000000000000     
  0.28125000000000000       0.93750000000000000        0.0000000000000000     
  0.31250000000000000       0.93750000000000000        0.0000000000000000     
  0.34375000000000000       0.93750000000000000        0.0000000000000000     
  0.37500000000000000       0.93750000000000000        0.0000000000000000     
  0.25000000000000000       0.96875000000000000        0.0000000000000000     
  0.28125000000000000       0.96875000000000000        0.0000000000000000     
  0.31250000000000000       0.96875000000000000        0.0000000000000000     
  0.34375000000000000       0.96875000000000000        0.0000000000000000     
  0.37500000000000000       0.96875000000000000        0.0000000000000000     
  0.25000000000000000        1.0000000000000000        0.0000000000000000     
  0.28125000000000000        1.0000000000000000        0.0000000000000000     
  0.31250000000000000        1.0000000000000000        0.0000000000000000     
  0.34375000000000000        1.0000000000000000        0.0000000000000000     
  0.37500000000000000        1.0000000000000000        0.0000000000000000     
  0.37500000000000000       0.87500000000000000        0.0000000000000000     
  0.40625000000000000       0.87500000000000000        0.0000000000000000     
  0.43750000000000000       0.87500000000000000        0.0000000000000000     
  0.46875000000000000       0.87500000000000000        0.0000000000000000     
  0.50000000000000000       0.87500000000000000        0.0000000000000000     
  0.37500000000000000       0.90625000000000000        0.0000000000000000     
  0.40625000000000000       0.90625000000000000        0.0000000000000000     
  0.43750000000000000       0.90625000000000000        0.0000000000000000     
  0.46875000000000000       0.90625000000000000        0.0000000000000000     
  0.50000000000000000       0.90625000000000000        0.0000000000000000     
  0.37500000000000000       0.93750000000000000        0.0000000000000000     
  0.40625000000000000       0.93750000000000000        0.0000000000000000     
  0.43750000000000000       0.93750000000000000        0.0000000000000000     
  0.46875000000000000       0.93750000000000000        0.0000000000000000     
  0.50000000000000000       0.93750000000000000        0.0000000000000000     
  0.37500000000000000       0.96875000000000000        0.0000000000000000     
  0.40625000000000000       0.96875000000000000        0.0000000000000000     
  0.43750000000000000       0.96875000000000000        0.0000000000000000     
  0.46875000000000000       0.96875000000000000        0.0000000000000000     
  0.50000000000000000       0.96875000000000000        0.0000000000000000     
  0.37500000000000000        1.0000000000000000        0.0000000000000000     
  0.40625000000000000        1.0000000000000000        0.0000000000000000     
  0.43750000000000000        1.0000000000000000        0.0000000000000000     
  0.46875000000000000        1.0000000000000000        0.0000000000000000     
  0.50000000000000000        1.0000000000000000        0.0000000000000000     
  0.50000000000000000       0.87500000000000000        0.0000000000000000     
  0.53125000000000000       0.87500000000000000        0.0000000000000000     
  0.56250000000000000       0.87500000000000000        0.0000000000000000     
  0.59375000000000000       0.87500000000000000        0.0000000000000000     
  0.62500000000000000       0.87500000000000000        0.0000000000000000     
  0.50000000000000000       0.90625000000000000        0.0000000000000000     
  0.53125000000000000       0.90625000000000000        0.0000000000000000     
  0.56250000000000000       0.90625000000000000        0.0000000000000000     
  0.59375000000000000       0.90625000000000000        0.0000000000000000     
  0.62500000000000000       0.90625000000000000        0.0000000000000000     
  0.50000000000000000       0.93750000000000000        0.0000000000000000     
  0.53125000000000000       0.93750000000000000        0.0000000000000000     
  0.56250000000000000       0.93750000000000000        0.0000000000000000     
  0.59375000000000000       0.93750000000000000        0.0000000000000000     
  0.62500000000000000       0.93750000000000000        0.0000000000000000     
  0.50000000000000000       0.96875000000000000        0.0000000000000000     
  0.53125000000000000       0.96875000000000000        0.0000000000000000     
  0.56250000000000000       0.96875000000000000        0.0000000000000000     
  0.59375000000000000       0.96875000000000000        0.0000000000000000     
  0.62500000000000000       0.96875000000000000        0.0000000000000000     
  0.50000000000000000        1.0000000000000000        0.0000000000000000     
  0.53125000000000000        1.0000000000000000        0.0000000000000000     
  0.56250000000000000        1.0000000000000000        0.0000000000000000     
  0.59375000000000000        1.0000000000000000        0.0000000000000000     
  0.62500000000000000        1.0000000000000000        0.0000000000000000     
  0.62500000000000000       0.87500000000000000        0.0000000000000000     
  0.65625000000000000       0.87500000000000000        0.0000000000000000     
  0.68750000000000000       0.87500000000000000        0.0000000000000000     
  0.71875000000000000       0.87500000000000000        0.0000000000000000     
  0.75000000000000000       0.87500000000000000        0.0000000000000000     
  0.62500000000000000       0.90625000000000000        0.0000000000000000     
  0.65625000000000000       0.90625000000000000        0.0000000000000000     
  0.68750000000000000       0.90625000000000000        0.0000000000000000     
  0.71875000000000000       0.90625000000000000        0.0000000000000000     
  0.75000000000000000       0.90625000000000000        0.0000000000000000     
  0.62500000000000000       0.93750000000000000        0.0000000000000000     
  0.65625000000000000       0.93750000000000000        0.0000000000000000     
  0.68750000000000000       0.93750000000000000        0.0000000000000000     
  0.71875000000000000       0.93750000000000000        0.0000000000000000     
  0.75000000000000000       0.93750000000000000        0.0000000000000000     
  0.62500000000000000       0.96875000000000000        0.0000000000000000     
  0.65625000000000000       0.96875000000000000        0.0000000000000000     
  0.68750000000000000       0.96875000000000000        0.0000000000000000     
  0.71875000000000000       0.96875000000000000        0.0000000000000000     
  0.75000000000000000       0.96875000000000000        0.0000000000000000     
  0.62500000000000000        1.0000000000000000        0.0000000000000000     
  0.65625000000000000        1.0000000000000000        0.0000000000000000     
  0.68750000000000000        1.0000000000000000        0.0000000000000000     
  0.71875000000000000        1.0000000000000000        0.0000000000000000     
  0.75000000000000000        1.0000000000000000        0.0000000000000000     
  0.75000000000000000       0.87500000000000000        0.0000000000000000     
  0.78125000000000000       0.87500000000000000        0.0000000000000000     
  0.81250000000000000       0.87500000000000000        0.0000000000000000     
  0.84375000000000000       0.87500000000000000        0.0000000000000000     
  0.87500000000000000       0.87500000000000000        0.0000000000000000     
  0.75000000000000000       0.90625000000000000        0.0000000000000000     
  0.78125000000000000       0.90625000000000000        0.0000000000000000     
  0.81250000000000000       0.90625000000000000        0.0000000000000000     
  0.84375000000000000       0.90625000000000000        0.0000000000000000     
  0.87500000000000000       0.90625000000000000        0.0000000000000000     
  0.75000000000000000       0.93750000000000000        0.0000000000000000     
  0.78125000000000000       0.93750000000000000        0.0000000000000000     
  0.81250000000000000       0.93750000000000000        0.0000000000000000     
  0.84375000000000000       0.93750000000000000        0.0000000000000000     
  0.87500000000000000       0.93750000000000000        0.0000000000000000     
  0.75000000000000000       0.96875000000000000        0.0000000000000000     
  0.78125000000000000       0.96875000000000000        0.0000000000000000     
  0.81250000000000000       0.96875000000000000        0.0000000000000000     
  0.84375000000000000       0.96875000000000000        0.0000000000000000     
  0.87500000000000000       0.96875000000000000        0.0000000000000000     
  0.75000000000000000        1.0000000000000000        0.0000000000000000     
  0.78125000000000000        1.0000000000000000        0.0000000000000000     
  0.81250000000000000        1.0000000000000000        0.0000000000000000     
  0.84375000000000000        1.0000000000000000        0.0000000000000000     
  0.87500000000000000        1.0000000000000000        0.0000000000000000     
  0.87500000000000000       0.87500000000000000        0.0000000000000000     
  0.90625000000000000       0.87500000000000000        0.0000000000000000     
  0.93750000000000000       0.87500000000000000        0.0000000000000000     
  0.96875000000000000       0.87500000000000000        0.0000000000000000     
   1.0000000000000000       0.87500000000000000        0.0000000000000000     
  0.87500000000000000       0.90625000000000000        0.0000000000000000     
  0.90625000000000000       0.90625000000000000        0.0000000000000000     
  0.93750000000000000       0.90625000000000000        0.0000000000000000     
  0.96875000000000000       0.90625000000000000        0.0000000000000000     
   1.0000000000000000       0.90625000000000000        0.0000000000000000     
  0.87500000000000000       0.93750000000000000        0.0000000000000000     
  0.90625000000000000       0.93750000000000000        0.0000000000000000     
  0.93750000000000000       0.93750000000000000        0.0000000000000000     
  0.96875000000000000       0.93750000000000000        0.0000000000000000     
   1.0000000000000000       0.93750000000000000        0.0000000000000000     
  0.87500000000000000       0.96875000000000000        0.0000000000000000     
  0.90625000000000000       0.96875000000000000        0.0000000000000000     
  0.93750000000000000       0.96875000000000000        0.0000000000000000     
  0.96875000000000000       0.96875000000000000        0.0000000000000000     
   1.0000000000000000       0.96875000000000000        0.0000000000000000     
  0.87500000000000000        1.0000000000000000        0.0000000000000000     
  0.90625000000000000        1.0000000000000000        0.0000000000000000     
  0.93750000000000000        1.0000000000000000        0.0000000000000000     
  0.96875000000000000        1.0000000000000000        0.0000000000000000     
   1.0000000000000000        1.0000000000000000        0.0000000000000000     
 </DataArray>
 </Points>
 <Cells>
 <DataArray  type="Int32"  Name="connectivity"  format="ascii">
           0           1           6           5
           1           2           7           6
           2           3           8           7
           3           4           9           8
           5           6          11          10
           6           7          12          11
           7           8          13          12
           8           9          14          13
          10          11          16          15
          11          12          17          16
          12          13          18          17
          13          14          19          18
          15          16          21          20
          16          17          22          21
          17          18          23          22
          18          19          24          23
          25          26          31          30
          26          27          32          31
          27          28          33          32
          28          29          34          33
          30          31          36          35
          31          32          37          36
          32          33          38          37
          33          34          39          38
          35          36          41          40
          36          37          42          41
          37          38          43          42
          38          39          44          43
          40          41          46          45
          41          42          47          46
          42          43          48          47
          43          44          49          48
          50          51          56          55
          51          52          57          56
          52          53          58          57
          53          54          59          58
          55          56          61          60
          56          57          62          61
          57          58          63          62
          58          59          64          63
          60          61          66          65
          61          62          67          66
          62          63          68          67
          63          64          69          68
          65          66          71          70
          66          67          72          71
          67          68          73          72
          68          69          74          73
          75          76          81          80
          76          77          82          81
          77          78          83          82
          78          79          84          83
          80          81          86          85
          81          82          87          86
          82          83          88          87
          83          84          89          88
          85          86          91          90
          86          87          92          91
          87          88          93          92
          88          89          94          93
          90          91          96          95
          91          92          97          96
          92          93          98          97
          93          94          99          98
         100         101         106         105
         101         102         107         106
         102         103         108         107
         103         104         109         108
         105         106         111         110
         106         107         112         111
         107         108         113         112
         108         109         114         113
         110         111         116         115
         111         112         117         116
         112         113         118         117
         113         114         119         118
         115         116         121         120
         116         117         122         121
         117         118         123         122
         118         119         124         123
         125         126         131         130
         126         127         132         131
         127         128         133         132
         128         129         134         133
         130         131         136         135
         131         132         137         136
         132         133         138         137
         133         134         139         138
         135         136         141         140
         136         137         142         141
         137         138         143         142
         138         139         144         143
         140         141         146         145
         141         142         147         146
         142         143         148         147
         143         144         149         148
         150         151         156         155
         151         152         157         156
         152         153         158         157
         153         154         159         158
         155         156         161         160
         156         157         162         161
         157         158         163         162
         158         159         164         163
         160         161         166         165
         161         162         167         166
         162         163         168         167
         163         164         169         168
         165         166         171         170
         166         167         172         171
         167         168         173         172
         168         169         174         173
         175         176         181         180
         176         177         182         181
         177         178         183         182
         178         179         184         183
         180         181         186         185
         181         182         187         186
         182         183         188         187
         183         184         189         188
         185         186         191         190
         186         187         192         191
         187         188         193         192
         188         189         194         193
         190         191         196         195
         191         192         197         196
         192         193         198         197
         193         194         199         198
         200         201         206         205
         201         202         207         206
         202         203         208         207
         203         204         209         208
         205         206         211         210
         206         207         212         211
         207         208         213         212
         208         209         214         213
         210         211         216         215
         211         212         217         216
         212         213         218         217
         213         214         219         218
         215         216         221         220
         216         217         222         221
         217         218         223         222
         218         219         224         223
         225         226         231         230
         226         227         232         231
         227         228         233         232
         228         229         234         233
         230         231         236         235
         231         232         237         236
         232         233         238         237
         233         234         239         238
         235         236         241         240
         236         237         242         241
         237         238         243         242
         238         239         244         243
         240         241         246         245
         241         242         247         246
         242         243         248         247
         243         244         249         248
         250         251         256         255
         251         252         257         256
         252         253         258         257
         253         254         259         258
         255         256         261         260
         256         257         262         261
         257         258         263         262
         258         259         264         263
         260         261         266         265
         261         262         267         266
         262         263         268         267
         263         264         269         268
         265         266         271         270
         266         267         272         271
         267         268         273         272
         268         269         274         273
         275         276         281         280
         276         277         282         281
         277         278         283         282
         278         279         284         283
         280         281         286         285
         281         282         287         286
         282         283         288         287
         283         284         289         288
         285         286         291         290
         286         287         292         291
         287         288         293         292
         288         289         294         293
         290         291         296         295
         291         292         297         296
         292         293         298         297
         293         294         299         298
         300         301         306         305
         301         302         307         306
         302         303         308         307
         303         304         309         308
         305         306         311         310
         306         307         312         311
         307         308         313         312
         308         309         314         313
         310         311         316         315
         311         312         317         316
         312         313         318         317
         313         314         319         318
         315         316         321         320
         316         317         322         321
         317         318         323         322
         318         319         324         323
         325         326         331         330
         326         327         332         331
         327         328         333         332
         328         329         334         333
         330         331         336         335
         331         332         337         336
         332         333         338         337
         333         334         339         338
         335         336         341         340
         336         337         342         341
         337         338         343         342
         338         339         344         343
         340         341         346         345
         341         342         347         346
         342         343         348         347
         343         344         349         348
         350         351         356         355
         351         352         357         356
         352         353         358         357
         353         354         359         358
         355         356         361         360
         356         357         362         361
         357         358         363         362
         358         359         364         363
         360         361         366         365
         361         362         367         366
         362         363         368         367
         363         364         369         368
         365         366         371         370
         366         367         372         371
         367         368         373         372
         368         369         374         373
         375         376         381         380
         376         377         382         381
         377         378         383         382
         378         379         384         383
         380         381         386         385
         381         382         387         386
         382         383         388         387
         383         384         389         388
         385         386         391         390
         386         387         392         391
         387         388         393         392
         388         389         394         393
         390         391         396         395
         391         392         397         396
         392         393         398         397
         393         394         399         398
         400         401         406         405
         401         402         407         406
         402         403         408         407
         403         404         409         408
         405         406         411         410
         406         407         412         411
         407         408         413         412
         408         409         414         413
         410         411         416         415
         411         412         417         416
         412         413         418         417
         413         414         419         418
         415         416         421         420
         416         417         422         421
         417         418         423         422
         418         419         424         423
         425         426         431         430
         426         427         432         431
         427         428         433         432
         428         429         434         433
         430         431         436         435
         431         432         437         436
         432         433         438         437
         433         434         439         438
         435         436         441         440
         436         437         442         441
         437         438         443         442
         438         439         444         443
         440         441         446         445
         441         442         447         446
         442         443         448         447
         443         444         449         448
         450         451         456         455
         451         452         457         456
         452         453         458         457
         453         454         459         458
         455         456         461         460
         456         457         462         461
         457         458         463         462
         458         459         464         463
         460         461         466         465
         461         462         467         466
         462         463         468         467
         463         464         469         468
         465         466         471         470
         466         467         472         471
         467         468         473         472
         468         469         474         473
         475         476         481         480
         476         477         482         481
         477         478         483         482
         478         479         484         483
         480         481         486         485
         481         482         487         486
         482         483         488         487
         483         484         489         488
         485         486         491         490
         486         487         492         491
         487         488         493         492
         488         489         494         493
         490         491         496         495
         491         492         497         496
         492         493         498         497
         493         494         499         498
         500         501         506         505
         501         502         507         506
         502         503         508         507
         503         504         509         508
         505         506         511         510
         506         507         512         511
         507         508         513         512
         508         509         514         513
         510         511         516         515
         511         512         517         516
         512         513         518         517
         513         514         519         518
         515         516         521         520
         516         517         522         521
         517         518         523         522
         518         519         524         523
         525         526         531         530
         526         527         532         531
         527         528         533         532
         528         529         534         533
         530         531         536         535
         531         532         537         536
         532         533         538         537
         533         534         539         538
         535         536         541         540
         536         537         542         541
         537         538         543         542
         538         539         544         543
         540         541         546         545
         541         542         547         546
         542         543         548         547
         543         544         549         548
         550         551         556         555
         551         552         557         556
         552         553         558         557
         553         554         559         558
         555         556         561         560
         556         557         562         561
         557         558         563         562
         558         559         564         563
         560         561         566         565
         561         562         567         566
         562         563         568         567
         563         564         569         568
         565         566         571         570
         566         567         572         571
         567         568         573         572
         568         569         574         573
         575         576         581         580
         576         577         582         581
         577         578         583         582
         578         579         584         583
         580         581         586         585
         581         582         587         586
         582         583         588         587
         583         584         589         588
         585         586         591         590
         586         587         592         591
         587         588         593         592
         588         589         594         593
         590         591         596         595
         591         592         597         596
         592         593         598         597
         593         594         599         598
         600         601         606         605
         601         602         607         606
         602         603         608         607
         603         604         609         608
         605         606         611         610
         606         607         612         611
         607         608         613         612
         608         609         614         613
         610         611         616         615
         611         612         617         616
         612         613         618         617
         613         614         619         618
         615         616         621         620
         616         617         622         621
         617         618         623         622
         618         619         624         623
         625         626         631         630
         626         627         632         631
         627         628         633         632
         628         629         634         633
         630         631         636         635
         631         632         637         636
         632         633         638         637
         633         634         639         638
         635         636         641         640
         636         637         642         641
         637         638         643         642
         638         639         644         643
         640         641         646         645
         641         642         647         646
         642         643         648         647
         643         644         649         648
         650         651         656         655
         651         652         657         656
         652         653         658         657
         653         654         659         658
         655         656         661         660
         656         657         662         661
         657         658         663         662
         658         659         664         663
         660         661         666         665
         661         662         667         666
         662         663         668         667
         663         664         669         668
         665         666         671         670
         666         667         672         671
         667         668         673         672
         668         669         674         673
         675         676         681         680
         676         677         682         681
         677         678         683         682
         678         679         684         683
         680         681         686         685
         681         682         687         686
         682         683         688         687
         683         684         689         688
         685         686         691         690
         686         687         692         691
         687         688         693         692
         688         689         694         693
         690         691         696         695
         691         692         697         696
         692         693         698         697
         693         694         699         698
         700         701         706         705
         701         702         707         706
         702         703         708         707
         703         704         709         708
         705         706         711         710
         706         707         712         711
         707         708         713         712
         708         709         714         713
         710         711         716         715
         711         712         717         716
         712         713         718         717
         713         714         719         718
         715         716         721         720
         716         717         722         721
         717         718         723         722
         718         719         724         723
         725         726         731         730
         726         727         732         731
         727         728         733         732
         728         729         734         733
         730         731         736         735
         731         732         737         736
         732         733         738         737
         733         734         739         738
         735         736         741         740
         736         737         742         741
         737         738         743         742
         738         739         744         743
         740         741         746         745
         741         742         747         746
         742         743         748         747
         743         744         749         748
         750         751         756         755
         751         752         757         756
         752         753         758         757
         753         754         759         758
         755         756         761         760
         756         757         762         761
         757         758         763         762
         758         759         764         763
         760         761         766         765
         761         762         767         766
         762         763         768         767
         763         764         769         768
         765         766         771         770
         766         767         772         771
         767         768         773         772
         768         769         774         773
         775         776         781         780
         776         777         782         781
         777         778         783         782
         778         779         784         783
         780         781         786         785
         781         782         787         786
         782         783         788         787
         783         784         789         788
         785         786         791         790
         786         787         792         791
         787         788         793         792
         788         789         794         793
         790         791         796         795
         791         792         797         796
         792         793         798         797
         793         794         799         798
         800         801         806         805
         801         802         807         806
         802         803         808         807
         803         804         809         808
         805         806         811         810
         806         807         812         811
         807         808         813         812
         808         809         814         813
         810         811         816         815
         811         812         817         816
         812         813         818         817
         813         814         819         818
         815         816         821         820
         816         817         822         821
         817         818         823         822
         818         819         824         823
         825         826         831         830
         826         827         832         831
         827         828         833         832
         828         829         834         833
         830         831         836         835
         831         832         837         836
         832         833         838         837
         833         834         839         838
         835         836         841         840
         836         837         842         841
         837         838         843         842
         838         839         844         843
         840         841         846         845
         841         842         847         846
         842         843         848         847
         843         844         849         848
         850         851         856         855
         851         852         857         856
         852         853         858         857
         853         854         859         858
         855         856         861         860
         856         857         862         861
         857         858         863         862
         858         859         864         863
         860         861         866         865
         861         862         867         866
         862         863         868         867
         863         864         869         868
         865         866         871         870
         866         867         872         871
         867         868         873         872
         868         869         874         873
         875         876         881         880
         876         877         882         881
         877         878         883         882
         878         879         884         883
         880         881         886         885
         881         882         887         886
         882         883         888         887
         883         884         889         888
         885         886         891         890
         886         887         892         891
         887         888         893         892
         888         889         894         893
         890         891         896         895
         891         892         897         896
         892         893         898         897
         893         894         899         898
         900         901         906         905
         901         902         907         906
         902         903         908         907
         903         904         909         908
         905         906         911         910
         906         907         912         911
         907         908         913         912
         908         909         914         913
         910         911         916         915
         911         912         917         916
         912         913         918         917
         913         914         919         918
         915         916         921         920
         916         917         922         921
         917         918         923         922
         918         919         924         923
         925         926         931         930
         926         927         932         931
         927         928         933         932
         928         929         934         933
         930         931         936         935
         931         932         937         936
         932         933         938         937
         933         934         939         938
         935         936         941         940
         936         937         942         941
         937         938         943         942
         938         939         944         943
         940         941         946         945
         941         942         947         946
         942         943         948         947
         943         944         949         948
         950         951         956         955
         951         952         957         956
         952         953         958         957
         953         954         959         958
         955         956         961         960
         956         957         962         961
         957         958         963         962
         958         959         964         963
         960         961         966         965
         961         962         967         966
         962         963         968         967
         963         964         969         968
         965         966         971         970
         966         967         972         971
         967         968         973         972
         968         969         974         973
         975         976         981         980
         976         977         982         981
         977         978         983         982
         978         979         984         983
         980         981         986         985
         981         982         987         986
         982         983         988         987
         983         984         989         988
         985         986         991         990
         986         987         992         991
         987         988         993         992
         988         989         994         993
         990         991         996         995
         991         992         997         996
         992         993         998         997
         993         994         999         998
        1000        1001        1006        1005
        1001        1002        1007        1006
        1002        1003        1008        1007
        1003        1004        1009        1008
        1005        1006        1011        1010
        1006        1007        1012        1011
        1007        1008        1013        1012
        1008        1009        1014        1013
        1010        1011        1016        1015
        1011        1012        1017        1016
        1012        1013        1018        1017
        1013        1014        1019        1018
        1015        1016        1021        1020
        1016        1017        1022        1021
        1017        1018        1023        1022
        1018        1019        1024        1023
        1025        1026        1031        1030
        1026        1027        1032        1031
        1027        1028        1033        1032
        1028        1029        1034        1033
        1030        1031        1036        1035
        1031        1032        1037        1036
        1032        1033        1038        1037
        1033        1034        1039        1038
        1035        1036        1041        1040
        1036        1037        1042        1041
        1037        1038        1043        1042
        1038        1039        1044        1043
        1040        1041        1046        1045
        1041        1042        1047        1046
        1042        1043        1048        1047
        1043        1044        1049        1048
        1050        1051        1056        1055
        1051        1052        1057        1056
        1052        1053        1058        1057
        1053        1054        1059        1058
        1055        1056        1061        1060
        1056        1057        1062        1061
        1057        1058        1063        1062
        1058        1059        1064        1063
        1060        1061        1066        1065
        1061        1062        1067        1066
        1062        1063        1068        1067
        1063        1064        1069        1068
        1065        1066        1071        1070
        1066        1067        1072        1071
        1067        1068        1073        1072
        1068        1069        1074        1073
        1075        1076        1081        1080
        1076        1077        1082        1081
        1077        1078        1083        1082
        1078        1079        1084        1083
        1080        1081        1086        1085
        1081        1082        1087        1086
        1082        1083        1088        1087
        1083        1084        1089        1088
        1085        1086        1091        1090
        1086        1087        1092        1091
        1087        1088        1093        1092
        1088        1089        1094        1093
        1090        1091        1096        1095
        1091        1092        1097        1096
        1092        1093        1098        1097
        1093        1094        1099        1098
        1100        1101        1106        1105
        1101        1102        1107        1106
        1102        1103        1108        1107
        1103        1104        1109        1108
        1105        1106        1111        1110
        1106        1107        1112        1111
        1107        1108        1113        1112
        1108        1109        1114        1113
        1110        1111        1116        1115
        1111        1112        1117        1116
        1112        1113        1118        1117
        1113        1114        1119        1118
        1115        1116        1121        1120
        1116        1117        1122        1121
        1117        1118        1123        1122
        1118        1119        1124        1123
        1125        1126        1131        1130
        1126        1127        1132        1131
        1127        1128        1133        1132
        1128        1129        1134        1133
        1130        1131        1136        1135
        1131        1132        1137        1136
        1132        1133        1138        1137
        1133        1134        1139        1138
        1135        1136        1141        1140
        1136        1137        1142        1141
        1137        1138        1143        1142
        1138        1139        1144        1143
        1140        1141        1146        1145
        1141        1142        1147        1146
        1142        1143        1148        1147
        1143        1144        1149        1148
        1150        1151        1156        1155
        1151        1152        1157        1156
        1152        1153        1158        1157
        1153        1154        1159        1158
        1155        1156        1161        1160
        1156        1157        1162        1161
        1157        1158        1163        1162
        1158        1159        1164        1163
        1160        1161        1166        1165
        1161        1162        1167        1166
        1162        1163        1168        1167
        1163        1164        1169        1168
        1165        1166        1171        1170
        1166        1167        1172        1171
        1167        1168        1173        1172
        1168        1169        1174        1173
        1175        1176        1181        1180
        1176        1177        1182        1181
        1177        1178        1183        1182
        1178        1179        1184        1183
        1180        1181        1186        1185
        1181        1182        1187        1186
        1182        1183        1188        1187
        1183        1184        1189        1188
        1185        1186        1191        1190
        1186        1187        1192        1191
        1187        1188        1193        1192
        1188        1189        1194        1193
        1190        1191        1196        1195
        1191        1192        1197        1196
        1192        1193        1198        1197
        1193        1194        1199        1198
        1200        1201        1206        1205
        1201        1202        1207        1206
        1202        1203        1208        1207
        1203        1204        1209        1208
        1205        1206        1211        1210
        1206        1207        1212        1211
        1207        1208        1213        1212
        1208        1209        1214        1213
        1210        1211        1216        1215
        1211        1212        1217        1216
        1212        1213        1218        1217
        1213        1214        1219        1218
        1215        1216        1221        1220
        1216        1217        1222        1221
        1217        1218        1223        1222
        1218        1219        1224        1223
        1225        1226        1231        1230
        1226        1227        1232        1231
        1227        1228        1233        1232
        1228        1229        1234        1233
        1230        1231        1236        1235
        1231        1232        1237        1236
        1232        1233        1238        1237
        1233        1234        1239        1238
        1235        1236        1241        1240
        1236        1237        1242        1241
        1237        1238        1243        1242
        1238        1239        1244        1243
        1240        1241        1246        1245
        1241        1242        1247        1246
        1242        1243        1248        1247
        1243        1244        1249        1248
        1250        1251        1256        1255
        1251        1252        1257        1256
        1252        1253        1258        1257
        1253        1254        1259        1258
        1255        1256        1261        1260
        1256        1257        1262        1261
        1257        1258        1263        1262
        1258        1259        1264        1263
        1260        1261        1266        1265
        1261        1262        1267        1266
        1262        1263        1268        1267
        1263        1264        1269        1268
        1265        1266        1271        1270
        1266        1267        1272        1271
        1267        1268        1273        1272
        1268        1269        1274        1273
        1275        1276        1281        1280
        1276        1277        1282        1281
        1277        1278        1283        1282
        1278        1279        1284        1283
        1280        1281        1286        1285
        1281        1282        1287        1286
        1282        1283        1288        1287
        1283        1284        1289        1288
        1285        1286        1291        1290
        1286        1287        1292        1291
        1287        1288        1293        1292
        1288        1289        1294        1293
        1290        1291        1296        1295
        1291        1292        1297        1296
        1292        1293        1298        1297
        1293        1294        1299        1298
        1300        1301        1306        1305
        1301        1302        1307        1306
        1302        1303        1308        1307
        1303        1304        1309        1308
        1305        1306        1311        1310
        1306        1307        1312        1311
        1307        1308        1313        1312
        1308        1309        1314        1313
        1310        1311        1316        1315
        1311        1312        1317        1316
        1312        1313        1318        1317
        1313        1314        1319        1318
        1315        1316        1321        1320
        1316        1317        1322        1321
        1317        1318        1323        1322
        1318        1319        1324        1323
        1325        1326        1331        1330
        1326        1327        1332        1331
        1327        1328        1333        1332
        1328        1329        1334        1333
        1330        1331        1336        1335
        1331        1332        1337        1336
        1332        1333        1338        1337
        1333        1334        1339        1338
        1335        1336        1341        1340
        1336        1337        1342        1341
        1337        1338        1343        1342
        1338        1339        1344        1343
        1340        1341        1346        1345
        1341        1342        1347        1346
        1342        1343        1348        1347
        1343        1344        1349        1348
        1350        1351        1356        1355
        1351        1352        1357        1356
        1352        1353        1358        1357
        1353        1354        1359        1358
        1355        1356        1361        1360
        1356        1357        1362        1361
        1357        1358        1363        1362
        1358        1359        1364        1363
        1360        1361        1366        1365
        1361        1362        1367        1366
        1362        1363        1368        1367
        1363        1364        1369        1368
        1365        1366        1371        1370
        1366        1367        1372        1371
        1367        1368        1373        1372
        1368        1369        1374        1373
        1375        1376        1381        1380
        1376        1377        1382        1381
        1377        1378        1383        1382
        1378        1379        1384        1383
        1380        1381        1386        1385
        1381        1382        1387        1386
        1382        1383        1388        1387
        1383        1384        1389        1388
        1385        1386        1391        1390
        1386        1387        1392        1391
        1387        1388        1393        1392
        1388        1389        1394        1393
        1390        1391        1396        1395
        1391        1392        1397        1396
        1392        1393        1398        1397
        1393        1394        1399        1398
        1400        1401        1406        1405
        1401        1402        1407        1406
        1402        1403        1408        1407
        1403        1404        1409        1408
        1405        1406        1411        1410
        1406        1407        1412        1411
        1407        1408        1413        1412
        1408        1409        1414        1413
        1410        1411        1416        1415
        1411        1412        1417        1416
        1412        1413        1418        1417
        1413        1414        1419        1418
        1415        1416        1421        1420
        1416        1417        1422        1421
        1417        1418        1423        1422
        1418        1419        1424        1423
        1425        1426        1431        1430
        1426        1427        1432        1431
        1427        1428        1433        1432
        1428        1429        1434        1433
        1430        1431        1436        1435
        1431        1432        1437        1436
        1432        1433        1438        1437
        1433        1434        1439        1438
        1435        1436        1441        1440
        1436        1437        1442        1441
        1437        1438        1443        1442
        1438        1439        1444        1443
        1440        1441        1446        1445
        1441        1442        1447        1446
        1442        1443        1448        1447
        1443        1444        1449        1448
        1450        1451        1456        1455
        1451        1452        1457        1456
        1452        1453        1458        1457
        1453        1454        1459        1458
        1455        1456        1461        1460
        1456        1457        1462        1461
        1457        1458        1463        1462
        1458        1459        1464        1463
        1460        1461        1466        1465
        1461        1462        1467        1466
        1462        1463        1468        1467
        1463        1464        1469        1468
        1465        1466        1471        1470
        1466        1467        1472        1471
        1467        1468        1473        1472
        1468        1469        1474        1473
        1475        1476        1481        1480
        1476        1477        1482        1481
        1477        1478        1483        1482
        1478        1479        1484        1483
        1480        1481        1486        1485
        1481        1482        1487        1486
        1482        1483        1488        1487
        1483        1484        1489        1488
        1485        1486        1491        1490
        1486        1487        1492        1491
        1487        1488        1493        1492
        1488        1489        1494        1493
        1490        1491        1496        1495
        1491        1492        1497        1496
        1492        1493        1498        1497
        1493        1494        1499        1498
        1500        1501        1506        1505
        1501        1502        1507        1506
        1502        1503        1508        1507
        1503        1504        1509        1508
        1505        1506        1511        1510
        1506        1507        1512        1511
        1507        1508        1513        1512
        1508        1509        1514        1513
        1510        1511        1516        1515
        1511        1512        1517        1516
        1512        1513        1518        1517
        1513        1514        1519        1518
        1515        1516        1521        1520
        1516        1517        1522        1521
        1517        1518        1523        1522
        1518        1519        1524        1523
        1525        1526        1531        1530
        1526        1527        1532        1531
        1527        1528        1533        1532
        1528        1529        1534        1533
        1530        1531        1536        1535
        1531        1532        1537        1536
        1532        1533        1538        1537
        1533        1534        1539        1538
        1535        1536        1541        1540
        1536        1537        1542        1541
        1537        1538        1543        1542
        1538        1539        1544        1543
        1540        1541        1546        1545
        1541        1542        1547        1546
        1542        1543        1548        1547
        1543        1544        1549        1548
        1550        1551        1556        1555
        1551        1552        1557        1556
        1552        1553        1558        1557
        1553        1554        1559        1558
        1555        1556        1561        1560
        1556        1557        1562        1561
        1557        1558        1563        1562
        1558        1559        1564        1563
        1560        1561        1566        1565
        1561        1562        1567        1566
        1562        1563        1568        1567
        1563        1564        1569        1568
        1565        1566        1571        1570
        1566        1567        1572        1571
        1567        1568        1573        1572
        1568        1569        1574        1573
        1575        1576        1581        1580
        1576        1577        1582        1581
        1577        1578        1583        1582
        1578        1579        1584        1583
        1580        1581        1586        1585
        1581        1582        1587        1586
        1582        1583        1588        1587
        1583        1584        1589        1588
        1585        1586        1591        1590
        1586        1587        1592        1591
        1587        1588        1593        1592
        1588        1589        1594        1593
        1590        1591        1596        1595
        1591        1592        1597        1596
        1592        1593        1598        1597
        1593        1594        1599        1598
 </DataArray>
 <DataArray  type="Int32"  Name="offsets"  format="ascii"> 
           4
           8
          12
          16
          20
          24
          28
          32
          36
          40
          44
          48
          52
          56
          60
          64
          68
          72
          76
          80
          84
          88
          92
          96
         100
         104
         108
         112
         116
         120
         124
         128
         132
         136
         140
         144
         148
         152
         156
         160
         164
         168
         172
         176
         180
         184
         188
         192
         196
         200
         204
         208
         212
         216
         220
         224
         228
         232
         236
         240
         244
         248
         252
         256
         260
         264
         268
         272
         276
         280
         284
         288
         292
         296
         300
         304
         308
         312
         316
         320
         324
         328
         332
         336
         340
         344
         348
         352
         356
         360
         364
         368
         372
         376
         380
         384
         388
         392
         396
         400
         404
         408
         412
         416
         420
         424
         428
         432
         436
         440
         444
         448
         452
         456
         460
         464
         468
         472
         476
         480
         484
         488
         492
         496
         500
         504
         508
         512
         516
         520
         524
         528
         532
         536
         540
         544
         548
         552
         556
         560
         564
         568
         572
         576
         580
         584
         588
         592
         596
         600
         604
         608
         612
         616
         620
         624
         628
         632
         636
         640
         644
         648
         652
         656
         660
         664
         668
         672
         676
         680
         684
         688
         692
         696
         700
         704
         708
         712
         716
         720
         724
         728
         732
         736
         740
         744
         748
         752
         756
         760
         764
         768
         772
         776
         780
         784
         788
         792
         796
         800
         804
         808
         812
         816
         820
         824
         828
         832
         836
         840
         844
         848
         852
         856
         860
         864
         868
         872
         876
         880
         884
         888
         892
         896
         900
         904
         908
         912
         916
         920
         924
         928
         932
         936
         940
         944
         948
         952
         956
         960
         964
         968
         972
         976
         980
         984
         988
         992
         996
        1000
        1004
        1008
        1012
        1016
        1020
        1024
        1028
        1032
        1036
        1040
        1044
        1048
        1052
        1056
        1060
        1064
        1068
        1072
        1076
        1080
        1084
        1088
        1092
        1096
        1100
        1104
        1108
        1112
        1116
        1120
        1124
        1128
        1132
        1136
        1140
        1144
        1148
        1152
        1156
        1160
        1164
        1168
        1172
        1176
        1180
        1184
        1188
        1192
        1196
        1200
        1204
        1208
        1212
        1216
        1220
        1224
        1228
        1232
        1236
        1240
        1244
        1248
        1252
        1256
        1260
        1264
        1268
        1272
        1276
        1280
        1284
        1288
        1292
        1296
        1300
        1304
        1308
        1312
        1316
        1320
        1324
        1328
        1332
        1336
        1340
        1344
        1348
        1352
        1356
        1360
        1364
        1368
        1372
        1376
        1380
        1384
        1388
        1392
        1396
        1400
        1404
        1408
        1412
        1416
        1420
        1424
        1428
        1432
        1436
        1440
        1444
        1448
        1452
        1456
        1460
        1464
        1468
        1472
        1476
        1480
        1484
        1488
        1492
        1496
        1500
        1504
        1508
        1512
        1516
        1520
        1524
        1528
        1532
        1536
        1540
        1544
        1548
        1552
        1556
        1560
        1564
        1568
        1572
        1576
        1580
        1584
        1588
        1592
        1596
        1600
        1604
        1608
        1612
        1616
        1620
        1624
        1628
        1632
        1636
        1640
        1644
        1648
        1652
        1656
        1660
        1664
        1668
        1672
        1676
        1680
        1684
        1688
        1692
        1696
        1700
        1704
        1708
        1712
        1716
        1720
        1724
        1728
        1732
        1736
        1740
        1744
        1748
        1752
        1756
        1760
        1764
        1768
        1772
        1776
        1780
        1784
        1788
        1792
        1796
        1800
        1804
        1808
        1812
        1816
        1820
        1824
        1828
        1832
        1836
        1840
        1844
        1848
        1852
        1856
        1860
        1864
        1868
        1872
        1876
        1880
        1884
        1888
        1892
        1896
        1900
        1904
        1908
        1912
        1916
        1920
        1924
        1928
        1932
        1936
        1940
        1944
        1948
        1952
        1956
        1960
        1964
        1968
        1972
        1976
        1980
        1984
        1988
        1992
        1996
        2000
        2004
        2008
        2012
        2016
        2020
        2024
        2028
        2032
        2036
        2040
        2044
        2048
        2052
        2056
        2060
        2064
        2068
        2072
        2076
        2080
        2084
        2088
        2092
        2096
        2100
        2104
        2108
        2112
        2116
        2120
        2124
        2128
        2132
        2136
        2140
        2144
        2148
        2152
        2156
        2160
        2164
        2168
        2172
        2176
        2180
        2184
        2188
        2192
        2196
        2200
        2204
        2208
        2212
        2216
        2220
        2224
        2228
        2232
        2236
        2240
        2244
        2248
        2252
        2256
        2260
        2264
        2268
        2272
        2276
        2280
        2284
        2288
        2292
        2296
        2300
        2304
        2308
        2312
        2316
        2320
        2324
        2328
        2332
        2336
        2340
        2344
        2348
        2352
        2356
        2360
        2364
        2368
        2372
        2376
        2380
        2384
        2388
        2392
        2396
        2400
        2404
        2408
        2412
        2416
        2420
        2424
        2428
        2432
        2436
        2440
        2444
        2448
        2452
        2456
        2460
        2464
        2468
        2472
        2476
        2480
        2484
        2488
        2492
        2496
        2500
        2504
        2508
        2512
        2516
        2520
        2524
        2528
        2532
        2536
        2540
        2544
        2548
        2552
        2556
        2560
        2564
        2568
        2572
        2576
        2580
        2584
        2588
        2592
        2596
        2600
        2604
        2608
        2612
        2616
        2620
        2624
        2628
        2632
        2636
        2640
        2644
        2648
        2652
        2656
        2660
        2664
        2668
        2672
        2676
        2680
        2684
        2688
        2692
        2696
        2700
        2704
        2708
        2712
        2716
        2720
        2724
        2728
        2732
        2736
        2740
        2744
        2748
        2752
        2756
        2760
        2764
        2768
        2772
        2776
        2780
        2784
        2788
        2792
        2796
        2800
        2804
        2808
        2812
        2816
        2820
        2824
        2828
        2832
        2836
        2840
        2844
        2848
        2852
        2856
        2860
        2864
        2868
        2872
        2876
        2880
        2884
        2888
        2892
        2896
        2900
        2904
        2908
        2912
        2916
        2920
        2924
        2928
        2932
        2936
        2940
        2944
        2948
        2952
        2956
        2960
        2964
        2968
        2972
        2976
        2980
        2984
        2988
        2992
        2996
        3000
        3004
        3008
        3012
        3016
        3020
        3024
        3028
        3032
        3036
        3040
        3044
        3048
        3052
        3056
        3060
        3064
        3068
        3072
        3076
        3080
        3084
        3088
        3092
        3096
        3100
        3104
        3108
        3112
        3116
        3120
        3124
        3128
        3132
        3136
        3140
        3144
        3148
        3152
        3156
        3160
        3164
        3168
        3172
        3176
        3180
        3184
        3188
        3192
        3196
        3200
        3204
        3208
        3212
        3216
        3220
        3224
        3228
        3232
        3236
        3240
        3244
        3248
        3252
        3256
        3260
        3264
        3268
        3272
        3276
        3280
        3284
        3288
        3292
        3296
        3300
        3304
        3308
        3312
        3316
        3320
        3324
        3328
        3332
        3336
        3340
        3344
        3348
        3352
        3356
        3360
        3364
        3368
        3372
        3376
        3380
        3384
        3388
        3392
        3396
        3400
        3404
        3408
        3412
        3416
        3420
        3424
        3428
        3432
        3436
        3440
        3444
        3448
        3452
        3456
        3460
        3464
        3468
        3472
        3476
        3480
        3484
        3488
        3492
        3496
        3500
        3504
        3508
        3512
        3516
        3520
        3524
        3528
        3532
        3536
        3540
        3544
        3548
        3552
        3556
        3560
        3564
        3568
        3572
        3576
        3580
        3584
        3588
        3592
        3596
        3600
        3604
        3608
        3612
        3616
        3620
        3624
        3628
        3632
        3636
        3640
        3644
        3648
        3652
        3656
        3660
        3664
        3668
        3672
        3676
        3680
        3684
        3688
        3692
        3696
        3700
        3704
        3708
        3712
        3716
        3720
        3724
        3728
        3732
        3736
        3740
        3744
        3748
        3752
        3756
        3760
        3764
        3768
        3772
        3776
        3780
        3784
        3788
        3792
        3796
        3800
        3804
        3808
        3812
        3816
        3820
        3824
        3828
        3832
        3836
        3840
        3844
        3848
        3852
        3856
        3860
        3864
        3868
        3872
        3876
        3880
        3884
        3888
        3892
        3896
        3900
        3904
        3908
        3912
        3916
        3920
        3924
        3928
        3932
        3936
        3940
        3944
        3948
        3952
        3956
        3960
        3964
        3968
        3972
        3976
        3980
        3984
        3988
        3992
        3996
        4000
        4004
        4008
        4012
        4016
        4020
        4024
        4028
        4032
        4036
        4040
        4044
        4048
        4052
        4056
        4060
        4064
        4068
        4072
        4076
        4080
        4084
        4088
        4092
        4096
 </DataArray>
 <DataArray  type="UInt8"  Name="types"  format="ascii">
 9
 9
 9
 9
 9
 9
 9
 9
 9
 9
 9
 9
 9
 9
 9
 9
 9
 9
 9
 9
 9
 9
 9
 9
 9
 9
 9
 9
 9
 9
 9
 9
 9
 9
 9
 9
 9
 9
 9
 9
 9
 9
 9
 9
 9
 9
 9
 9
 9
 9
 9
 9
 9
 9
 9
 9
 9
 9
 9
 9
 9
 9
 9
 9
 9
 9
 9
 9
 9
 9
 9
 9
 9
 9
 9
 9
 9
 9
 9
 9
 9
 9
 9
 9
 9
 9
 9
 9
 9
 9
 9
 9
 9
 9
 9
 9
 9
 9
 9
 9
 9
 9
 9
 9
 9
 9
 9
 9
 9
 9
 9
 9
 9
 9
 9
 9
 9
 9
 9
 9
 9
 9
 9
 9
 9
 9
 9
 9
 9
 9
 9
 9
 9
 9
 9
 9
 9
 9
 9
 9
 9
 9
 9
 9
 9
 9
 9
 9
 9
 9
 9
 9
 9
 9
 9
 9
 9
 9
 9
 9
 9
 9
 9
 9
 9
 9
 9
 9
 9
 9
 9
 9
 9
 9
 9
 9
 9
 9
 9
 9
 9
 9
 9
 9
 9
 9
 9
 9
 9
 9
 9
 9
 9
 9
 9
 9
 9
 9
 9
 9
 9
 9
 9
 9
 9
 9
 9
 9
 9
 9
 9
 9
 9
 9
 9
 9
 9
 9
 9
 9
 9
 9
 9
 9
 9
 9
 9
 9
 9
 9
 9
 9
 9
 9
 9
 9
 9
 9
 9
 9
 9
 9
 9
 9
 9
 9
 9
 9
 9
 9
 9
 9
 9
 9
 9
 9
 9
 9
 9
 9
 9
 9
 9
 9
 9
 9
 9
 9
 9
 9
 9
 9
 9
 9
 9
 9
 9
 9
 9
 9
 9
 9
 9
 9
 9
 9
 9
 9
 9
 9
 9
 9
 9
 9
 9
 9
 9
 9
 9
 9
 9
 9
 9
 9
 9
 9
 9
 9
 9
 9
 9
 9
 9
 9
 9
 9
 9
 9
 9
 9
 9
 9
 9
 9
 9
 9
 9
 9
 9
 9
 9
 9
 9
 9
 9
 9
 9
 9
 9
 9
 9
 9
 9
 9
 9
 9
 9
 9
 9
 9
 9
 9
 9
 9
 9
 9
 9
 9
 9
 9
 9
 9
 9
 9
 9
 9
 9
 9
 9
 9
 9
 9
 9
 9
 9
 9
 9
 9
 9
 9
 9
 9
 9
 9
 9
 9
 9
 9
 9
 9
 9
 9
 9
 9
 9
 9
 9
 9
 9
 9
 9
 9
 9
 9
 9
 9
 9
 9
 9
 9
 9
 9
 9
 9
 9
 9
 9
 9
 9
 9
 9
 9
 9
 9
 9
 9
 9
 9
 9
 9
 9
 9
 9
 9
 9
 9
 9
 9
 9
 9
 9
 9
 9
 9
 9
 9
 9
 9
 9
 9
 9
 9
 9
 9
 9
 9
 9
 9
 9
 9
 9
 9
 9
 9
 9
 9
 9
 9
 9
 9
 9
 9
 9
 9
 9
 9
 9
 9
 9
 9
 9
 9
 9
 9
 9
 9
 9
 9
 9
 9
 9
 9
 9
 9
 9
 9
 9
 9
 9
 9
 9
 9
 9
 9
 9
 9
 9
 9
 9
 9
 9
 9
 9
 9
 9
 9
 9
 9
 9
 9
 9
 9
 9
 9
 9
 9
 9
 9
 9
 9
 9
 9
 9
 9
 9
 9
 9
 9
 9
 9
 9
 9
 9
 9
 9
 9
 9
 9
 9
 9
 9
 9
 9
 9
 9
 9
 9
 9
 9
 9
 9
 9
 9
 9
 9
 9
 9
 9
 9
 9
 9
 9
 9
 9
 9
 9
 9
 9
 9
 9
 9
 9
 9
 9
 9
 9
 9
 9
 9
 9
 9
 9
 9
 9
 9
 9
 9
 9
 9
 9
 9
 9
 9
 9
 9
 9
 9
 9
 9
 9
 9
 9
 9
 9
 9
 9
 9
 9
 9
 9
 9
 9
 9
 9
 9
 9
 9
 9
 9
 9
 9
 9
 9
 9
 9
 9
 9
 9
 9
 9
 9
 9
 9
 9
 9
 9
 9
 9
 9
 9
 9
 9
 9
 9
 9
 9
 9
 9
 9
 9
 9
 9
 9
 9
 9
 9
 9
 9
 9
 9
 9
 9
 9
 9
 9
 9
 9
 9
 9
 9
 9
 9
 9
 9
 9
 9
 9
 9
 9
 9
 9
 9
 9
 9
 9
 9
 9
 9
 9
 9
 9
 9
 9
 9
 9
 9
 9
 9
 9
 9
 9
 9
 9
 9
 9
 9
 9
 9
 9
 9
 9
 9
 9
 9
 9
 9
 9
 9
 9
 9
 9
 9
 9
 9
 9
 9
 9
 9
 9
 9
 9
 9
 9
 9
 9
 9
 9
 9
 9
 9
 9
 9
 9
 9
 9
 9
 9
 9
 9
 9
 9
 9
 9
 9
 9
 9
 9
 9
 9
 9
 9
 9
 9
 9
 9
 9
 9
 9
 9
 9
 9
 9
 9
 9
 9
 9
 9
 9
 9
 9
 9
 9
 9
 9
 9
 9
 9
 9
 9
 9
 9
 9
 9
 9
 9
 9
 9
 9
 9
 9
 9
 9
 9
 9
 9
 9
 9
 9
 9
 9
 9
 9
 9
 9
 9
 9
 9
 9
 9
 9
 9
 9
 9
 9
 9
 9
 9
 9
 9
 9
 9
 9
 9
 9
 9
 9
 9
 9
 9
 9
 9
 9
 9
 9
 9
 9
 9
 9
 9
 9
 9
 9
 9
 9
 9
 9
 9
 9
 9
 9
 9
 9
 9
 9
 9
 9
 9
 9
 9
 9
 9
 9
 9
 9
 9
 9
 9
 9
 9
 9
 9
 9
 9
 9
 9
 9
 9
 9
 9
 9
 9
 9
 9
 9
 9
 9
 9
 9
 9
 9
 9
 9
 9
 9
 9
 9
 9
 9
 9
 9
 9
 9
 9
 9
 9
 9
 9
 9
 9
 9
 9
 9
 9
 9
 9
 9
 9
 9
 9
 9
 9
 9
 9
 9
 9
 9
 9
 9
 9
 9
 9
 9
 9
 9
 9
 9
 9
 9
 9
 9
 9
 9
 9
 9
 9
 9
 9
 9
 9
 9
 9
 9
 9
 9
 9
 9
 9
 9
 9
 9
 9
 9
 9
 9
 9
 9
 9
 9
 9
 9
 9
 9
 9
 9
 9
 9
 9
 9
 9
 9
 9
 9
 9
 9
 9
 9
 9
 9
 9
 9
 9
 9
 9
 9
 9
 9
 9
 9
 9
 9
 9
 9
 9
 9
 </DataArray>
 </Cells> 
 <PointData>
 <DataArray  type="Float64" Name="disp" NumberOfComponents="3" format="ascii">
   0.0000000000000000        0.0000000000000000        0.0000000000000000     
   6.0959616214771922E-003   3.7904114095664685E-003   0.0000000000000000     
   1.1665991646609957E-002   7.3238213431524139E-003   0.0000000000000000     
   1.6710090075398299E-002   1.0600229800757834E-002   0.0000000000000000     
   2.1228256907842212E-002   1.3619636782382732E-002   0.0000000000000000     
   0.0000000000000000        0.0000000000000000        0.0000000000000000     
   4.8911520789216723E-003   3.0221499649915593E-003   0.0000000000000000     
   9.5736320809498097E-003   6.0605393220769651E-003   0.0000000000000000     
   1.4047440006084410E-002   9.1151680712562178E-003   0.0000000000000000     
   1.8312575854325476E-002   1.2186036212529314E-002   0.0000000000000000     
   0.0000000000000000        0.0000000000000000        0.0000000000000000     
   3.9535693895672358E-003   2.4251355862933976E-003   0.0000000000000000     
   7.9106250038866715E-003   5.0629153363973963E-003   0.0000000000000000     
   1.1871166842958308E-002   7.9133392503119952E-003   0.0000000000000000     
   1.5835194906782143E-002   1.0976407328037199E-002   0.0000000000000000     
   0.0000000000000000        0.0000000000000000        0.0000000000000000     
   3.2832135534138821E-003   1.9993682734719825E-003   0.0000000000000000     
   6.6769704154205451E-003   4.3309493861137067E-003   0.0000000000000000     
   1.0181270586019987E-002   6.9947433379251734E-003   0.0000000000000000     
   1.3796114065212214E-002   9.9907501289063817E-003   0.0000000000000000     
   0.0000000000000000        0.0000000000000000        0.0000000000000000     
   2.8800845704616100E-003   1.7448480265273142E-003   0.0000000000000000     
   5.8726683155514280E-003   3.8646414712258967E-003   0.0000000000000000     
   8.9777512352694541E-003   6.3593803340957480E-003   0.0000000000000000     
   1.2195333329615690E-002   9.2290646151368672E-003   0.0000000000000000     
   2.1228256907842212E-002   1.3619636782382732E-002   0.0000000000000000     
   2.5433380453635933E-002   1.6612619903265305E-002   0.0000000000000000     
   2.9538349022473685E-002   1.9809756778643748E-002   0.0000000000000000     
   3.3543162614355471E-002   2.3211047408518065E-002   0.0000000000000000     
   3.7447821229281288E-002   2.6816491792888253E-002   0.0000000000000000     
   1.8312575854325476E-002   1.2186036212529314E-002   0.0000000000000000     
   2.2407260424392395E-002   1.5341495865346626E-002   0.0000000000000000     
   2.6369714515004562E-002   1.8649899149158516E-002   0.0000000000000000     
   3.0199938126161972E-002   2.2111246063964984E-002   0.0000000000000000     
   3.3897931257864632E-002   2.5725536609766030E-002   0.0000000000000000     
   1.5835194906782143E-002   1.0976407328037199E-002   0.0000000000000000     
   1.9730938550200489E-002   1.4210955810569552E-002   0.0000000000000000     
   2.3486627128055652E-002   1.7575820938905602E-002   0.0000000000000000     
   2.7102260640347643E-002   2.1071002713045350E-002   0.0000000000000000     
   3.0577839087076446E-002   2.4696501132988796E-002   0.0000000000000000     
   1.3796114065212214E-002   9.9907501289063817E-003   0.0000000000000000     
   1.7404414831060203E-002   1.3220999738934079E-002   0.0000000000000000     
   2.0889086861626965E-002   1.6587522147885003E-002   0.0000000000000000     
   2.4250130156912474E-002   2.0090317355759158E-002   0.0000000000000000     
   2.7487544716916751E-002   2.3729385362556539E-002   0.0000000000000000     
   1.2195333329615690E-002   9.2290646151368672E-003   0.0000000000000000     
   1.5427689266971557E-002   1.2371627650440207E-002   0.0000000000000000     
   1.8577093715718487E-002   1.5685002776096722E-002   0.0000000000000000     
   2.1643546675856482E-002   1.9169189992106407E-002   0.0000000000000000     
   2.4627048147385533E-002   2.2824189298469268E-002   0.0000000000000000     
   3.7447821229281288E-002   2.6816491792888253E-002   0.0000000000000000     
   4.1256585265009013E-002   3.0621515882295669E-002   0.0000000000000000     
   4.4973715119296494E-002   3.4621545627281661E-002   0.0000000000000000     
   4.8599210792143750E-002   3.8816581027846242E-002   0.0000000000000000     
   5.2133072283550755E-002   4.3206622083989413E-002   0.0000000000000000     
   3.3897931257864632E-002   2.5725536609766030E-002   0.0000000000000000     
   3.7486787796593417E-002   2.9521634773226203E-002   0.0000000000000000     
   4.0989601628829225E-002   3.3528404541010026E-002   0.0000000000000000     
   4.4406372754572050E-002   3.7745845913117512E-002   0.0000000000000000     
   4.7737101173821885E-002   4.2173958889548654E-002   0.0000000000000000     
   3.0577839087076446E-002   2.4696501132988796E-002   0.0000000000000000     
   3.3942716691518257E-002   2.8496878717547254E-002   0.0000000000000000     
   3.7226247676949244E-002   3.2516697985532021E-002   0.0000000000000000     
   4.0428432043369406E-002   3.6755958936943105E-002   0.0000000000000000     
   4.3549269790778743E-002   4.1214661571780498E-002   0.0000000000000000     
   2.7487544716916751E-002   2.3729385362556539E-002   0.0000000000000000     
   3.0624371949783524E-002   2.7547247715258818E-002   0.0000000000000000     
   3.3683653263656549E-002   3.1586425960847639E-002   0.0000000000000000     
   3.6665388658535816E-002   3.5846920099323019E-002   0.0000000000000000     
   3.9569578134421343E-002   4.0328730130684942E-002   0.0000000000000000     
   2.4627048147385533E-002   2.2824189298469268E-002   0.0000000000000000     
   2.7531753571389227E-002   2.6672741766360895E-002   0.0000000000000000     
   3.0361818388951151E-002   3.0737588466956890E-002   0.0000000000000000     
   3.3117242600071296E-002   3.5018729400257249E-002   0.0000000000000000     
   3.5798026204749658E-002   3.9516164566261974E-002   0.0000000000000000     
   5.2133072283550755E-002   4.3206622083989413E-002   0.0000000000000000     
   5.5572938750298166E-002   4.7796025079783019E-002   0.0000000000000000     
   5.8916449349166608E-002   5.2589146299298922E-002   0.0000000000000000     
   6.2163604080156080E-002   5.7585985742537142E-002   0.0000000000000000     
   6.5314402943266570E-002   6.2786543409497658E-002   0.0000000000000000     
   4.7737101173821885E-002   4.2173958889548654E-002   0.0000000000000000     
   5.0978013923988777E-002   4.6806162484051422E-002   0.0000000000000000     
   5.4125338042482762E-002   5.1635875710373785E-002   0.0000000000000000     
   5.7179073529303820E-002   5.6663098568515723E-002   0.0000000000000000     
   6.0139220384451977E-002   6.1887831058477255E-002   0.0000000000000000     
   4.3549269790778743E-002   4.1214661571780498E-002   0.0000000000000000     
   4.6584890428040711E-002   4.5880281546049145E-002   0.0000000000000000     
   4.9531423464018717E-002   5.0740294515753959E-002   0.0000000000000000     
   5.2388868898712783E-002   5.5794700480894945E-002   0.0000000000000000     
   5.5157226732122908E-002   6.1043499441472089E-002   0.0000000000000000     
   3.9569578134421343E-002   4.0328730130684942E-002   0.0000000000000000     
   4.2393568262453947E-002   4.5018382265776161E-002   0.0000000000000000     
   4.5134705613774494E-002   4.9902402715439442E-002   0.0000000000000000     
   4.7792990188382969E-002   5.4980791479674773E-002   0.0000000000000000     
   5.0368421986279374E-002   6.0253548558482140E-002   0.0000000000000000     
   3.5798026204749658E-002   3.9516164566261974E-002   0.0000000000000000     
   3.8404047427228506E-002   4.4220464643232489E-002   0.0000000000000000     
   4.0935184491750071E-002   4.9122200309430236E-002   0.0000000000000000     
   4.3391437398314359E-002   5.4221371564855216E-002   0.0000000000000000     
   4.5772806146921377E-002   5.9517978409507420E-002   0.0000000000000000     
   6.5314402943266570E-002   6.2786543409497658E-002   0.0000000000000000     
   6.8371058601349621E-002   6.8177821484519868E-002   0.0000000000000000     
   7.1335783717256726E-002   7.3746822151943198E-002   0.0000000000000000     
   7.4208578290987856E-002   7.9493545411767633E-002   0.0000000000000000     
   7.6989442322543067E-002   8.5417991263993173E-002   0.0000000000000000     
   6.0139220384451977E-002   6.1887831058477255E-002   0.0000000000000000     
   6.3009198550889836E-002   6.7301399220693378E-002   0.0000000000000000     
   6.5792427971580039E-002   7.2895129095599073E-002   0.0000000000000000     
   6.8488908646522614E-002   7.8669020683194368E-002   0.0000000000000000     
   7.1098640575717506E-002   8.4623073983479222E-002   0.0000000000000000     
   5.5157226732122908E-002   6.1043499441472089E-002   0.0000000000000000     
   5.7840199077041146E-002   6.6480262173146398E-002   0.0000000000000000     
   6.0441488046259588E-002   7.2098559451578864E-002   0.0000000000000000     
   6.2961093639778212E-002   7.7898391276769507E-002   0.0000000000000000     
   6.5399015857597012E-002   8.3879757648718301E-002   0.0000000000000000     
   5.0368421986279374E-002   6.0253548558482140E-002   0.0000000000000000     
   5.2864060179803544E-002   6.5714410341878957E-002   0.0000000000000000     
   5.5282963941295317E-002   7.1357113219882612E-002   0.0000000000000000     
   5.7625133270754678E-002   7.7181657192493050E-002   0.0000000000000000     
   5.9890568168181633E-002   8.3188042259710340E-002   0.0000000000000000     
   4.5772806146921377E-002   5.9517978409507420E-002   0.0000000000000000     
   4.8080781859177031E-002   6.5003843726891025E-002   0.0000000000000000     
   5.0316855656687240E-002   7.0670790400510219E-002   0.0000000000000000     
   5.2481027539452003E-002   7.6518818430365024E-002   0.0000000000000000     
   5.4573297507471336E-002   8.2547927816455396E-002   0.0000000000000000     
   7.6989442322543067E-002   8.5417991263993173E-002   0.0000000000000000     
   7.9672831827638735E-002   9.1510443164265778E-002   0.0000000000000000     
   8.2253202821991223E-002   9.7761184568231463E-002   0.0000000000000000     
   8.4730555305600572E-002  0.10417021547589014        0.0000000000000000     
   8.7104889278466768E-002  0.11073753588724189        0.0000000000000000     
   7.1098640575717506E-002   8.4623073983479222E-002   0.0000000000000000     
   7.3616442710338598E-002   9.0745751178076511E-002   0.0000000000000000     
   7.6037134001559745E-002   9.7025514448609046E-002   0.0000000000000000     
   7.8360714449380919E-002  0.10346236379507681        0.0000000000000000     
   8.0587184053802177E-002  0.11005629921747984        0.0000000000000000     
   6.5399015857597012E-002   8.3879757648718301E-002   0.0000000000000000     
   6.7750570233013230E-002   9.0030076546925200E-002   0.0000000000000000     
   7.0011072299324031E-002   9.6336765950890219E-002   0.0000000000000000     
   7.2180522056529431E-002  0.10279982586061334        0.0000000000000000     
   7.4258919504629428E-002  0.10941925627609458        0.0000000000000000     
   5.9890568168181633E-002   8.3188042259710340E-002   0.0000000000000000     
   6.2075214395662617E-002   8.9363419270811845E-002   0.0000000000000000     
   6.4175017715284097E-002   9.5694939075074995E-002   0.0000000000000000     
   6.6189978127046051E-002  0.10218260167249976        0.0000000000000000     
   6.8120095630948480E-002  0.10882640706308615        0.0000000000000000     
   5.4573297507471336E-002   8.2547927816455396E-002   0.0000000000000000     
   5.6590375198286774E-002   8.8745779349736473E-002   0.0000000000000000     
   5.8528970249439941E-002   9.5100033821163360E-002   0.0000000000000000     
   6.0389082660930786E-002  0.10161069123073606        0.0000000000000000     
   6.2170712432759359E-002  0.10827775157845455        0.0000000000000000     
   8.7104889278466768E-002  0.11073753588724189        0.0000000000000000     
   8.9386250959738123E-002  0.11745118123151571        0.0000000000000000     
   9.1584686568562945E-002  0.12429918693794061        0.0000000000000000     
   9.3700196104941263E-002  0.13128155300651662        0.0000000000000000     
   9.5732779568873022E-002  0.13839827943724370        0.0000000000000000     
   8.0587184053802177E-002  0.11005629921747984        0.0000000000000000     
   8.2726570433263272E-002  0.11679639080950903        0.0000000000000000     
   8.4788901206203998E-002  0.12367170866485543        0.0000000000000000     
   8.6774176372624356E-002  0.13068225278351900        0.0000000000000000     
   8.8682395932524333E-002  0.13782802316549969        0.0000000000000000     
   7.4258919504629428E-002  0.10941925627609458        0.0000000000000000     
   7.6255904296043092E-002  0.11618475523331318        0.0000000000000000     
   7.8181116083189534E-002  0.12308602076824841        0.0000000000000000     
   8.0034554866068752E-002  0.13012305288090026        0.0000000000000000     
   8.1816220644680707E-002  0.13729585157126878        0.0000000000000000     
   6.8120095630948480E-002  0.10882640706308615        0.0000000000000000     
   6.9974252548077598E-002  0.11561627450292812        0.0000000000000000     
   7.1761331199519579E-002  0.12254212324811956        0.0000000000000000     
   7.3481331585274451E-002  0.12960395329866053        0.0000000000000000     
   7.5134253705342199E-002  0.13680176465455093        0.0000000000000000     
   6.2170712432759359E-002  0.10827775157845455        0.0000000000000000     
   6.3881615189366761E-002  0.11509094861835384        0.0000000000000000     
   6.5529546555194149E-002  0.12204001610446888        0.0000000000000000     
   6.7114506530241480E-002  0.12912495403679966        0.0000000000000000     
   6.8636495114508797E-002  0.13634576241534618        0.0000000000000000     
   9.5732779568873022E-002  0.13839827943724370        0.0000000000000000     
   9.7668179098170660E-002  0.14563626945385058        0.0000000000000000     
   9.9492136830646546E-002  0.15298242628006603        0.0000000000000000     
  0.10120465276630067       0.16043674991588999        0.0000000000000000     
  0.10280572690513304       0.16799924036132249        0.0000000000000000     
   8.8682395932524333E-002  0.13782802316549969        0.0000000000000000     
   9.0499561190326108E-002  0.14509469235135930        0.0000000000000000     
   9.2211673450451850E-002  0.15246793288165947        0.0000000000000000     
   9.3818732712901573E-002  0.15994774475640025        0.0000000000000000     
   9.5320738977675235E-002  0.16753412797558162        0.0000000000000000     
   8.1816220644680707E-002  0.13729585157126878        0.0000000000000000     
   8.3512592861059165E-002  0.14458938451776157        0.0000000000000000     
   8.5110150957237771E-002  0.15198861939878636        0.0000000000000000     
   8.6608894933216551E-002  0.15949355621434311        0.0000000000000000     
   8.8008824788995549E-002  0.16710419496443182        0.0000000000000000     
   7.5134253705342199E-002  0.13680176465455093        0.0000000000000000     
   7.6707274110369830E-002  0.14412034595305745        0.0000000000000000     
   7.8187569351004335E-002  0.15154448583144670        0.0000000000000000     
   7.9575139427245714E-002  0.15907418428971856        0.0000000000000000     
   8.0869984339093967E-002  0.16670944132787310        0.0000000000000000     
   6.8636495114508797E-002  0.13634576241534618        0.0000000000000000     
   7.0083604938258132E-002  0.14368757665724696        0.0000000000000000     
   7.1443928631751530E-002  0.15113553217964043        0.0000000000000000     
   7.2717466194988992E-002  0.15868962898252661        0.0000000000000000     
   7.3904217627970531E-002  0.16634986706590546        0.0000000000000000     
   0.0000000000000000        0.0000000000000000        0.0000000000000000     
   2.8800845704616100E-003   1.7448480265273142E-003   0.0000000000000000     
   5.8726683155514280E-003   3.8646414712258967E-003   0.0000000000000000     
   8.9777512352694541E-003   6.3593803340957480E-003   0.0000000000000000     
   1.2195333329615690E-002   9.2290646151368672E-003   0.0000000000000000     
   0.0000000000000000        0.0000000000000000        0.0000000000000000     
   2.6103388527073893E-003   1.5889246628072568E-003   0.0000000000000000     
   5.2897417297947608E-003   3.5566895880569209E-003   0.0000000000000000     
   8.0382086312621136E-003   5.9032947757489919E-003   0.0000000000000000     
   1.0855739557109449E-002   8.6287402258834692E-003   0.0000000000000000     
   0.0000000000000000        0.0000000000000000        0.0000000000000000     
   2.3401328121481877E-003   1.4589479996596736E-003   0.0000000000000000     
   4.7202136836659780E-003   3.2997917329297337E-003   0.0000000000000000     
   7.1402426145533724E-003   5.5225311998101786E-003   0.0000000000000000     
   9.6002196048103703E-003   8.1271664003010110E-003   0.0000000000000000     
   0.0000000000000000        0.0000000000000000        0.0000000000000000     
   2.0694664487840046E-003   1.3549180370845651E-003   0.0000000000000000     
   4.1640841771650831E-003   3.0939479058443350E-003   0.0000000000000000     
   6.2838531851432348E-003   5.2170896062793083E-003   0.0000000000000000     
   8.4287734727184586E-003   7.7243431383894855E-003   0.0000000000000000     
   0.0000000000000000        0.0000000000000000        0.0000000000000000     
   1.7983397626148412E-003   1.2768347750819311E-003   0.0000000000000000     
   3.6213532102920731E-003   2.9391581068007244E-003   0.0000000000000000     
   5.4690403430316956E-003   4.9869699951563809E-003   0.0000000000000000     
   7.3414011608337101E-003   7.4202704401488979E-003   0.0000000000000000     
   1.2195333329615690E-002   9.2290646151368672E-003   0.0000000000000000     
   1.5427689266971557E-002   1.2371627650440207E-002   0.0000000000000000     
   1.8577093715718487E-002   1.5685002776096722E-002   0.0000000000000000     
   2.1643546675856482E-002   1.9169189992106407E-002   0.0000000000000000     
   2.4627048147385533E-002   2.2824189298469268E-002   0.0000000000000000     
   1.0855739557109449E-002   8.6287402258834692E-003   0.0000000000000000     
   1.3689012852383791E-002   1.1650755774253950E-002   0.0000000000000000     
   1.6484706862132166E-002   1.4887071256654023E-002   0.0000000000000000     
   1.9242821586354580E-002   1.8337686673083688E-002   0.0000000000000000     
   2.1963357025051027E-002   2.2002602023542945E-002   0.0000000000000000     
   9.6002196048103703E-003   8.1271664003010110E-003   0.0000000000000000     
   1.2076636581746165E-002   1.1046300339541314E-002   0.0000000000000000     
   1.4545985472669944E-002   1.4212536022670169E-002   0.0000000000000000     
   1.7008266277581709E-002   1.7625873449687586E-002   0.0000000000000000     
   1.9463478996481459E-002   2.1286312620593554E-002   0.0000000000000000     
   8.4287734727184586E-003   7.7243431383894855E-003   0.0000000000000000     
   1.0590560455058677E-002   1.0558261346302297E-002   0.0000000000000000     
   1.2760929547331813E-002   1.3661397074145168E-002   0.0000000000000000     
   1.4939880749537861E-002   1.7033750321918100E-002   0.0000000000000000     
   1.7127414061676831E-002   2.0675321089621092E-002   0.0000000000000000     
   7.3414011608337101E-003   7.4202704401488979E-003   0.0000000000000000     
   9.2307844723213302E-003   1.0186638794536901E-002   0.0000000000000000     
   1.1129539086117777E-002   1.3233654411079012E-002   0.0000000000000000     
   1.3037665002223045E-002   1.6561317289775227E-002   0.0000000000000000     
   1.4955162220637142E-002   2.0169627430625555E-002   0.0000000000000000     
   2.4627048147385533E-002   2.2824189298469268E-002   0.0000000000000000     
   2.7531753571389227E-002   2.6672741766360895E-002   0.0000000000000000     
   3.0361818388951151E-002   3.0737588466956890E-002   0.0000000000000000     
   3.3117242600071296E-002   3.5018729400257249E-002   0.0000000000000000     
   3.5798026204749658E-002   3.9516164566261974E-002   0.0000000000000000     
   2.1963357025051027E-002   2.2002602023542945E-002   0.0000000000000000     
   2.4629743823747840E-002   2.5879865086478410E-002   0.0000000000000000     
   2.7225412627971349E-002   2.9967523640336679E-002   0.0000000000000000     
   2.9750363437721555E-002   3.4265577685117767E-002   0.0000000000000000     
   3.2204596252998451E-002   3.8774027220821655E-002   0.0000000000000000     
   1.9463478996481459E-002   2.1286312620593554E-002   0.0000000000000000     
   2.1883224974271833E-002   2.5175121891236277E-002   0.0000000000000000     
   2.4239105555855456E-002   2.9273569617463930E-002   0.0000000000000000     
   2.6531120741232327E-002   3.3581655799276529E-002   0.0000000000000000     
   2.8759270530402455E-002   3.8099380436674067E-002   0.0000000000000000     
   1.7127414061676831E-002   2.0675321089621092E-002   0.0000000000000000     
   1.9292197022961203E-002   2.4558512180634495E-002   0.0000000000000000     
   2.1402897172603460E-002   2.8655726398338643E-002   0.0000000000000000     
   2.3459514510603619E-002   3.2966963742733543E-002   0.0000000000000000     
   2.5462049036961660E-002   3.7492224213819196E-002   0.0000000000000000     
   1.4955162220637142E-002   2.0169627430625555E-002   0.0000000000000000     
   1.6856659969815953E-002   2.4030035954673058E-002   0.0000000000000000     
   1.8716787478215383E-002   2.8113993982960807E-002   0.0000000000000000     
   2.0535544745835424E-002   3.2421501515488803E-002   0.0000000000000000     
   2.2312931772676074E-002   3.6952558552257042E-002   0.0000000000000000     
   3.5798026204749658E-002   3.9516164566261974E-002   0.0000000000000000     
   3.8404047427228506E-002   4.4220464643232489E-002   0.0000000000000000     
   4.0935184491750071E-002   4.9122200309430236E-002   0.0000000000000000     
   4.3391437398314359E-002   5.4221371564855216E-002   0.0000000000000000     
   4.5772806146921377E-002   5.9517978409507420E-002   0.0000000000000000     
   3.2204596252998451E-002   3.8774027220821655E-002   0.0000000000000000     
   3.4590222181964045E-002   4.3488390785066923E-002   0.0000000000000000     
   3.6909352332780303E-002   4.8404186915472117E-002   0.0000000000000000     
   3.9161986705447245E-002   5.3521415612037229E-002   0.0000000000000000     
   4.1348125299964865E-002   5.8840076874762282E-002   0.0000000000000000     
   2.8759270530402455E-002   3.8099380436674067E-002   0.0000000000000000     
   3.0925986786260230E-002   4.2824022797928268E-002   0.0000000000000000     
   3.3033701371700037E-002   4.7752862151310825E-002   0.0000000000000000     
   3.5082414286721889E-002   5.2885898496821772E-002   0.0000000000000000     
   3.7072125531325772E-002   5.8223131834461081E-002   0.0000000000000000     
   2.5462049036961660E-002   3.7492224213819196E-002   0.0000000000000000     
   2.7411341240117057E-002   4.2227360681816511E-002   0.0000000000000000     
   2.9308231608509264E-002   4.7168226016946396E-002   0.0000000000000000     
   3.1152720142138282E-002   5.2314820219208823E-002   0.0000000000000000     
   3.2944806841004107E-002   5.7667143288603825E-002   0.0000000000000000     
   2.2312931772676074E-002   3.6952558552257042E-002   0.0000000000000000     
   2.4046285543534534E-002   4.1698404436731659E-002   0.0000000000000000     
   2.5732943043207984E-002   4.6650278512378775E-002   0.0000000000000000     
   2.7372904271696436E-002   5.1808180779198396E-002   0.0000000000000000     
   2.8966169228999878E-002   5.7172111237190501E-002   0.0000000000000000     
   4.5772806146921377E-002   5.9517978409507420E-002   0.0000000000000000     
   4.8080781859177031E-002   6.5003843726891025E-002   0.0000000000000000     
   5.0316855656687240E-002   7.0670790400510219E-002   0.0000000000000000     
   5.2481027539452003E-002   7.6518818430365024E-002   0.0000000000000000     
   5.4573297507471336E-002   8.2547927816455396E-002   0.0000000000000000     
   4.1348125299964865E-002   5.8840076874762282E-002   0.0000000000000000     
   4.3467580650823234E-002   6.4349534551437812E-002   0.0000000000000000     
   4.5520165292512425E-002   7.0039152489854359E-002   0.0000000000000000     
   4.7505879225032452E-002   7.5908930690011922E-002   0.0000000000000000     
   4.9424722448383286E-002   8.1958869151910529E-002   0.0000000000000000     
   3.7072125531325772E-002   5.8223131834461081E-002   0.0000000000000000     
   3.9001673090403761E-002   6.3752455038774442E-002   0.0000000000000000     
   4.0869894948847914E-002   6.9461760984307508E-002   0.0000000000000000     
   4.2676791106658223E-002   7.5351049671060322E-002   0.0000000000000000     
   4.4422361563834688E-002   8.1420321099032827E-002   0.0000000000000000     
   3.2944806841004107E-002   5.7667143288603825E-002   0.0000000000000000     
   3.4683059177918633E-002   6.3212605188900928E-002   0.0000000000000000     
   3.6366044625693698E-002   6.8938615883869708E-002   0.0000000000000000     
   3.7993763184329329E-002   7.4845175373510139E-002   0.0000000000000000     
   3.9566214853825520E-002   8.0932283657822263E-002   0.0000000000000000     
   2.8966169228999878E-002   5.7172111237190501E-002   0.0000000000000000     
   3.0511738913367826E-002   6.2729985001817298E-002   0.0000000000000000     
   3.2008614323049793E-002   6.8469717188540946E-002   0.0000000000000000     
   3.3456795458045779E-002   7.4391307797361486E-002   0.0000000000000000     
   3.4856282318355788E-002   8.0494756828278863E-002   0.0000000000000000     
   5.4573297507471336E-002   8.2547927816455396E-002   0.0000000000000000     
   5.6590375198286774E-002   8.8745779349736473E-002   0.0000000000000000     
   5.8528970249439941E-002   9.5100033821163360E-002   0.0000000000000000     
   6.0389082660930786E-002  0.10161069123073606        0.0000000000000000     
   6.2170712432759359E-002  0.10827775157845455        0.0000000000000000     
   4.9424722448383286E-002   8.1958869151910529E-002   0.0000000000000000     
   5.1274073812599928E-002   8.8177291022183468E-002   0.0000000000000000     
   5.3051312167717343E-002   9.4552519447464081E-002   0.0000000000000000     
   5.4756437513735511E-002  0.10108455442775234        0.0000000000000000     
   5.6389449850654458E-002  0.10777339596304825        0.0000000000000000     
   4.4422361563834688E-002   8.1420321099032827E-002   0.0000000000000000     
   4.6104331410316321E-002   8.7658088526637284E-002   0.0000000000000000     
   4.7720425736042106E-002   9.4052865212285924E-002   0.0000000000000000     
   4.9270644541012057E-002  0.10060465115597873        0.0000000000000000     
   5.0754987825226167E-002  0.10731344635771577        0.0000000000000000     
   3.9566214853825520E-002   8.0932283657822263E-002   0.0000000000000000     
   4.1081147991435939E-002   8.7188171863097894E-002   0.0000000000000000     
   4.2536310954414229E-002   9.3601071115628889E-002   0.0000000000000000     
   4.3931703742760418E-002  0.10017098141541528        0.0000000000000000     
   4.5267326356474485E-002  0.10689790276245703        0.0000000000000000     
   3.4856282318355788E-002   8.0494756828278863E-002   0.0000000000000000     
   3.6204523555958774E-002   8.6767541031565296E-002   0.0000000000000000     
   3.7498967822833705E-002   9.3197137157493004E-002   0.0000000000000000     
   3.8739615118980587E-002   9.9783545206061933E-002   0.0000000000000000     
   3.9926465444399421E-002  0.10652676517727211        0.0000000000000000     
   6.2170712432759359E-002  0.10827775157845455        0.0000000000000000     
   6.3881615189366761E-002  0.11509094861835384        0.0000000000000000     
   6.5529546555194149E-002  0.12204001610446888        0.0000000000000000     
   6.7114506530241480E-002  0.12912495403679966        0.0000000000000000     
   6.8636495114508797E-002  0.13634576241534618        0.0000000000000000     
   5.6389449850654458E-002  0.10777339596304825        0.0000000000000000     
   5.7956956151996197E-002  0.11460850649636668        0.0000000000000000     
   5.9465563391282755E-002  0.12157934847072248        0.0000000000000000     
   6.0915271568514152E-002  0.12868592188611561        0.0000000000000000     
   6.2306080683690382E-002  0.13592822674254609        0.0000000000000000     
   5.0754987825226167E-002  0.10731344635771577        0.0000000000000000     
   5.2179239368051474E-002  0.11416867705374298        0.0000000000000000     
   5.3549182948855030E-002  0.12115976948030646        0.0000000000000000     
   5.4864818567636808E-002  0.12828672363740623        0.0000000000000000     
   5.6126146224396850E-002  0.13554953952504226        0.0000000000000000     
   4.5267326356474485E-002  0.10689790276245703        0.0000000000000000     
   4.6548464837532617E-002  0.11377146029048273        0.0000000000000000     
   4.7780405227910931E-002  0.12078127913322088        0.0000000000000000     
   4.8963147527609482E-002  0.12792735929067151        0.0000000000000000     
   5.0096691736628216E-002  0.13520970076283464        0.0000000000000000     
   3.9926465444399421E-002  0.10652676517727211        0.0000000000000000     
   4.1064632560439601E-002  0.11341685620658590        0.0000000000000000     
   4.2159230228450494E-002  0.12044387742946569        0.0000000000000000     
   4.3210258448432119E-002  0.12760782884591146        0.0000000000000000     
   4.4217717220384464E-002  0.13490871045592320        0.0000000000000000     
   6.8636495114508797E-002  0.13634576241534618        0.0000000000000000     
   7.0083604938258132E-002  0.14368757665724696        0.0000000000000000     
   7.1443928631751530E-002  0.15113553217964043        0.0000000000000000     
   7.2717466194988992E-002  0.15868962898252661        0.0000000000000000     
   7.3904217627970531E-002  0.16634986706590546        0.0000000000000000     
   6.2306080683690382E-002  0.13592822674254609        0.0000000000000000     
   6.3626999502365514E-002  0.14329186428708909        0.0000000000000000     
   6.4867036790093702E-002  0.15076243576681980        0.0000000000000000     
   6.6026192546874890E-002  0.15833994118173814        0.0000000000000000     
   6.7104466772709107E-002  0.16602438053184415        0.0000000000000000     
   5.6126146224396850E-002  0.13554953952504226        0.0000000000000000     
   5.7322871960333505E-002  0.14293399649934296        0.0000000000000000     
   5.8444701816645184E-002  0.15042587391643694        0.0000000000000000     
   5.9491635793331887E-002  0.15802517177632402        0.0000000000000000     
   6.0463673890393595E-002  0.16573189007900435        0.0000000000000000     
   5.0096691736628216E-002  0.13520970076283464        0.0000000000000000     
   5.1171222312162076E-002  0.14261397329400860        0.0000000000000000     
   5.2176923711406004E-002  0.15012584662849179        0.0000000000000000     
   5.3113795934359984E-002  0.15774532076628434        0.0000000000000000     
   5.3981838981024016E-002  0.16547239570738612        0.0000000000000000     
   4.4217717220384464E-002  0.13490871045592320        0.0000000000000000     
   4.5172050557851243E-002  0.14233179467108589        0.0000000000000000     
   4.6063702474376154E-002  0.14986235390298450        0.0000000000000000     
   4.6892672969959193E-002  0.15750038815161901        0.0000000000000000     
   4.7658962044600350E-002  0.16524589741698942        0.0000000000000000     
   0.0000000000000000        0.0000000000000000        0.0000000000000000     
   1.7983397626148412E-003   1.2768347750819311E-003   0.0000000000000000     
   3.6213532102920731E-003   2.9391581068007244E-003   0.0000000000000000     
   5.4690403430316956E-003   4.9869699951563809E-003   0.0000000000000000     
   7.3414011608337101E-003   7.4202704401488979E-003   0.0000000000000000     
   0.0000000000000000        0.0000000000000000        0.0000000000000000     
   1.5350301878325236E-003   1.2175757544878863E-003   0.0000000000000000     
   3.0993770682864515E-003   2.8208996324589203E-003   0.0000000000000000     
   4.6930406413617830E-003   4.8099716339131014E-003   0.0000000000000000     
   6.3160209070585198E-003   7.1847917588504315E-003   0.0000000000000000     
   0.0000000000000000        0.0000000000000000        0.0000000000000000     
   1.2878151586288786E-003   1.1700185161385450E-003   0.0000000000000000     
   2.6055120363877192E-003   2.7246497794789384E-003   0.0000000000000000     
   3.9530906332765209E-003   4.6638937900211801E-003   0.0000000000000000     
   5.3305509492952846E-003   6.9877505477652689E-003   0.0000000000000000     
   0.0000000000000000        0.0000000000000000        0.0000000000000000     
   1.0566946750039067E-003   1.1341630600339076E-003   0.0000000000000000     
   2.1397581145958756E-003   2.6504085478607788E-003   0.0000000000000000     
   3.2491903187759088E-003   4.5487364634806135E-003   0.0000000000000000     
   4.3849912875440038E-003   6.8291468068934127E-003   0.0000000000000000     
   0.0000000000000000        0.0000000000000000        0.0000000000000000     
   8.4166873695760752E-004   1.1100093861739740E-003   0.0000000000000000     
   1.7021153029109230E-003   2.5981759376044423E-003   0.0000000000000000     
   2.5813396978599467E-003   4.4644996542914043E-003   0.0000000000000000     
   3.4793419218046781E-003   6.7089805362348610E-003   0.0000000000000000     
   7.3414011608337101E-003   7.4202704401488979E-003   0.0000000000000000     
   9.2307844723213302E-003   1.0186638794536901E-002   0.0000000000000000     
   1.1129539086117777E-002   1.3233654411079012E-002   0.0000000000000000     
   1.3037665002223045E-002   1.6561317289775227E-002   0.0000000000000000     
   1.4955162220637142E-002   2.0169627430625555E-002   0.0000000000000000     
   6.3160209070585198E-003   7.1847917588504315E-003   0.0000000000000000     
   7.9556328459007876E-003   9.8958060457463078E-003   0.0000000000000000     
   9.5991914384127106E-003   1.2893460533076131E-002   0.0000000000000000     
   1.1246696684594293E-002   1.6177755220839897E-002   0.0000000000000000     
   1.2898148584445532E-002   1.9748690109037605E-002   0.0000000000000000     
   5.3305509492952846E-003   6.9877505477652689E-003   0.0000000000000000     
   6.7234297881637092E-003   9.6501364614316968E-003   0.0000000000000000     
   8.1172639536014925E-003   1.2604967939740941E-002   0.0000000000000000     
   9.5120534456086397E-003   1.5852244982693015E-002   0.0000000000000000     
   1.0907798264185146E-002   1.9391967590287908E-002   0.0000000000000000     
   4.3849912875440038E-003   6.8291468068934127E-003   0.0000000000000000     
   5.5341752991100984E-003   9.4496300415930629E-003   0.0000000000000000     
   6.6837566316841242E-003   1.2368176631073454E-002   0.0000000000000000     
   7.8337352852660865E-003   1.5584786575334587E-002   0.0000000000000000     
   8.9841112598559800E-003   1.9099459874376463E-002   0.0000000000000000     
   3.4793419218046781E-003   6.7089805362348610E-003   0.0000000000000000     
   4.3878693787399526E-003   9.2942867862304147E-003   0.0000000000000000     
   5.2986694726606040E-003   1.2183086607073665E-002   0.0000000000000000     
   6.2117422035666333E-003   1.5375379998764612E-002   0.0000000000000000     
   7.1270875714580396E-003   1.8871166961303261E-002   0.0000000000000000     
   1.4955162220637142E-002   2.0169627430625555E-002   0.0000000000000000     
   1.6856659969815953E-002   2.4030035954673058E-002   0.0000000000000000     
   1.8716787478215383E-002   2.8113993982960807E-002   0.0000000000000000     
   2.0535544745835424E-002   3.2421501515488803E-002   0.0000000000000000     
   2.2312931772676074E-002   3.6952558552257042E-002   0.0000000000000000     
   1.2898148584445532E-002   1.9748690109037605E-002   0.0000000000000000     
   1.4537158536398493E-002   2.3580137827727613E-002   0.0000000000000000     
   1.6147337938885242E-002   2.7645971006968258E-002   0.0000000000000000     
   1.7728686791905774E-002   3.1946189646759549E-002   0.0000000000000000     
   1.9281205095460101E-002   3.6480793747101475E-002   0.0000000000000000     
   1.0907798264185146E-002   1.9391967590287908E-002   0.0000000000000000     
   1.2294237444271222E-002   2.3199262414173791E-002   0.0000000000000000     
   1.3661110020807077E-002   2.7249256105998817E-002   0.0000000000000000     
   1.5008415993792719E-002   3.1541948665763000E-002   0.0000000000000000     
   1.6336155363228140E-002   3.6077340093466338E-002   0.0000000000000000     
   8.9841112598559800E-003   1.9099459874376463E-002   0.0000000000000000     
   1.0127896693434137E-002   2.2887409714011587E-002   0.0000000000000000     
   1.1258103723980896E-002   2.6923849280052495E-002   0.0000000000000000     
   1.2374732351496243E-002   3.1208778572499176E-002   0.0000000000000000     
   1.3477782575980191E-002   3.5742197591351638E-002   0.0000000000000000     
   7.1270875714580396E-003   1.8871166961303261E-002   0.0000000000000000     
   8.0381362838872483E-003   2.2644579727241012E-002   0.0000000000000000     
   8.9383190484066885E-003   2.6669750529129285E-002   0.0000000000000000     
   9.8276358650163567E-003   3.0946679366968072E-002   0.0000000000000000     
   1.0706086733716254E-002   3.5475366240757374E-002   0.0000000000000000     
   2.2312931772676074E-002   3.6952558552257042E-002   0.0000000000000000     
   2.4046285543534534E-002   4.1698404436731659E-002   0.0000000000000000     
   2.5732943043207984E-002   4.6650278512378775E-002   0.0000000000000000     
   2.7372904271696436E-002   5.1808180779198396E-002   0.0000000000000000     
   2.8966169228999878E-002   5.7172111237190501E-002   0.0000000000000000     
   1.9281205095460101E-002   3.6480793747101475E-002   0.0000000000000000     
   2.0798691237185016E-002   4.1235643546796555E-002   0.0000000000000000     
   2.2274943604717316E-002   4.6196599284647297E-002   0.0000000000000000     
   2.3709962198057013E-002   5.1363660960653687E-002   0.0000000000000000     
   2.5103747017204091E-002   5.6736828574815747E-002   0.0000000000000000     
   1.6336155363228140E-002   3.6077340093466338E-002   0.0000000000000000     
   1.7636429861740851E-002   4.0837567496134014E-002   0.0000000000000000     
   1.8901341221958360E-002   4.5804767980791208E-002   0.0000000000000000     
   2.0130889443880671E-002   5.0978941547437935E-002   0.0000000000000000     
   2.1325074527507776E-002   5.6360088196074187E-002   0.0000000000000000     
   1.3477782575980191E-002   3.5742197591351638E-002   0.0000000000000000     
   1.4559501417202046E-002   4.0504176284744030E-002   0.0000000000000000     
   1.5612135894931116E-002   4.5474784600810531E-002   0.0000000000000000     
   1.6635686009167414E-002   5.0654022539551126E-002   0.0000000000000000     
   1.7630151759910929E-002   5.6041890100965816E-002   0.0000000000000000     
   1.0706086733716254E-002   3.5475366240757374E-002   0.0000000000000000     
   1.1567905903568595E-002   4.0235469912626623E-002   0.0000000000000000     
   1.2407327623635590E-002   4.5206649144705249E-002   0.0000000000000000     
   1.3224351893917241E-002   5.0388903936993260E-002   0.0000000000000000     
   1.4018978714413545E-002   5.5782234289490640E-002   0.0000000000000000     
   2.8966169228999878E-002   5.7172111237190501E-002   0.0000000000000000     
   3.0511738913367826E-002   6.2729985001817298E-002   0.0000000000000000     
   3.2008614323049793E-002   6.8469717188540946E-002   0.0000000000000000     
   3.3456795458045779E-002   7.4391307797361486E-002   0.0000000000000000     
   3.4856282318355788E-002   8.0494756828278863E-002   0.0000000000000000     
   2.5103747017204091E-002   5.6736828574815747E-002   0.0000000000000000     
   2.6455908327605821E-002   6.2304722926771174E-002   0.0000000000000000     
   2.7766056394709450E-002   6.8055964816157694E-002   0.0000000000000000     
   2.9034191218514971E-002   7.3990554242975265E-002   0.0000000000000000     
   3.0260312799022398E-002   8.0108491207223936E-002   0.0000000000000000     
   2.1325074527507776E-002   5.6360088196074187E-002   0.0000000000000000     
   2.2483763451487060E-002   6.1936947413010236E-002   0.0000000000000000     
   2.3606823194465904E-002   6.7698258684556367E-002   0.0000000000000000     
   2.4694253756444306E-002   7.3644022010712559E-002   0.0000000000000000     
   2.5746055137422261E-002   7.9774237391478847E-002   0.0000000000000000     
   1.7630151759910929E-002   5.6041890100965816E-002   0.0000000000000000     
   1.8595304285011546E-002   6.1626658460534479E-002   0.0000000000000000     
   1.9530914722319163E-002   6.7396598793737009E-002   0.0000000000000000     
   2.0436983071833767E-002   7.3351711100573355E-002   0.0000000000000000     
   2.1313509333555379E-002   7.9491995381043554E-002   0.0000000000000000     
   1.4018978714413545E-002   5.5782234289490640E-002   0.0000000000000000     
   1.4790530828179282E-002   6.1373856069343903E-002   0.0000000000000000     
   1.5538330978269227E-002   6.7150985143699576E-002   0.0000000000000000     
   1.6262379164683382E-002   7.3113621512557625E-002   0.0000000000000000     
   1.6962675387421744E-002   7.9261765175918070E-002   0.0000000000000000     
   3.4856282318355788E-002   8.0494756828278863E-002   0.0000000000000000     
   3.6204523555958774E-002   8.6767541031565296E-002   0.0000000000000000     
   3.7498967822833705E-002   9.3197137157493004E-002   0.0000000000000000     
   3.8739615118980587E-002   9.9783545206061933E-002   0.0000000000000000     
   3.9926465444399421E-002  0.10652676517727211        0.0000000000000000     
   3.0260312799022398E-002   8.0108491207223936E-002   0.0000000000000000     
   3.1441565510127820E-002   8.6396410063071694E-002   0.0000000000000000     
   3.2575093725727346E-002   9.2840945164686550E-002   0.0000000000000000     
   3.3660897445820979E-002   9.9442096512068492E-002   0.0000000000000000     
   3.4698976670408700E-002  0.10619986410521753        0.0000000000000000     
   2.5746055137422261E-002   7.9774237391478847E-002   0.0000000000000000     
   2.6759381260186049E-002   8.6074992988649277E-002   0.0000000000000000     
   2.7731386047521941E-002   9.2532376964017948E-002   0.0000000000000000     
   2.8662069499429937E-002   9.9146389317584821E-002   0.0000000000000000     
   2.9551431615910038E-002  0.10591703004934994        0.0000000000000000     
   2.1313509333555379E-002   7.9491995381043554E-002   0.0000000000000000     
   2.2157970806133454E-002   8.5803289808298003E-002   0.0000000000000000     
   2.2967844788217489E-002   9.2271432555487101E-002   0.0000000000000000     
   2.3743131279807490E-002   9.8896423622610849E-002   0.0000000000000000     
   2.4483830280903444E-002  0.10567826300966925        0.0000000000000000     
   1.6962675387421744E-002   7.9261765175918070E-002   0.0000000000000000     
   1.7637334147970044E-002   8.5581300522017914E-002   0.0000000000000000     
   1.8284469947814002E-002   9.2058111939094092E-002   0.0000000000000000     
   1.8904082786953630E-002   9.8692199427146632E-002   0.0000000000000000     
   1.9496172665388913E-002  0.10548356298617551        0.0000000000000000     
   3.9926465444399421E-002  0.10652676517727211        0.0000000000000000     
   4.1064632560439601E-002  0.11341685620658590        0.0000000000000000     
   4.2159230228450494E-002  0.12044387742946569        0.0000000000000000     
   4.3210258448432119E-002  0.12760782884591146        0.0000000000000000     
   4.4217717220384464E-002  0.13490871045592320        0.0000000000000000     
   3.4698976670408700E-002  0.10619986410521753        0.0000000000000000     
   3.5694273694754190E-002  0.11310475850691055        0.0000000000000000     
   3.6651730814121090E-002  0.12014729027992441        0.0000000000000000     
   3.7571348028509415E-002  0.12732745942425908        0.0000000000000000     
   3.8453125337919170E-002  0.13464526593991463        0.0000000000000000     
   2.9551431615910038E-002  0.10591703004934994        0.0000000000000000     
   3.0403919398458136E-002  0.11283506089631469        0.0000000000000000     
   3.1223979848570147E-002  0.11989124359548053        0.0000000000000000     
   3.2011612966246050E-002  0.12708557814684746        0.0000000000000000     
   3.2766818751485863E-002  0.13441806455041544        0.0000000000000000     
   2.4483830280903444E-002  0.10567826300966925        0.0000000000000000     
   2.5193569671551459E-002  0.11260776337479832        0.0000000000000000     
   2.5875977331797650E-002  0.11967573737613409        0.0000000000000000     
   2.6531053261642019E-002  0.12688218501367654        0.0000000000000000     
   2.7158797461084554E-002  0.13422710628742568        0.0000000000000000     
   1.9496172665388913E-002  0.10548356298617551        0.0000000000000000     
   2.0063224514034146E-002  0.11242286594236142        0.0000000000000000     
   2.0607723263803612E-002  0.11950077162188504        0.0000000000000000     
   2.1129668914697319E-002  0.12671728002474633        0.0000000000000000     
   2.1629061466715248E-002  0.13407239115094535        0.0000000000000000     
   4.4217717220384464E-002  0.13490871045592320        0.0000000000000000     
   4.5172050557851243E-002  0.14233179467108589        0.0000000000000000     
   4.6063702474376154E-002  0.14986235390298450        0.0000000000000000     
   4.6892672969959193E-002  0.15750038815161901        0.0000000000000000     
   4.7658962044600350E-002  0.16524589741698942        0.0000000000000000     
   3.8453125337919170E-002  0.13464526593991463        0.0000000000000000     
   3.9287886391350335E-002  0.14208553763856641        0.0000000000000000     
   4.0066454837802933E-002  0.14963310233188989        0.0000000000000000     
   4.0788830677276955E-002  0.15728796001988504        0.0000000000000000     
   4.1455013909772423E-002  0.16505011070255185        0.0000000000000000     
   3.2766818751485863E-002  0.13441806455041544        0.0000000000000000     
   3.3481259506608692E-002  0.14187327920444157        0.0000000000000000     
   3.4146597533933669E-002  0.14943579850718286        0.0000000000000000     
   3.4762832833460773E-002  0.15710562245863935        0.0000000000000000     
   3.5329965405190032E-002  0.16488275105881103        0.0000000000000000     
   2.7158797461084554E-002  0.13422710628742568        0.0000000000000000     
   2.7752169903626320E-002  0.14169501936871137        0.0000000000000000     
   2.8304130562768336E-002  0.14927044242886350        0.0000000000000000     
   2.8814679438510637E-002  0.15695337546788199        0.0000000000000000     
   2.9283816530853199E-002  0.16474381848576691        0.0000000000000000     
   2.1629061466715248E-002  0.13407239115094535        0.0000000000000000     
   2.2100617582403205E-002  0.14155075813137588        0.0000000000000000     
   2.2539053924306964E-002  0.14913703409693174        0.0000000000000000     
   2.2944370492426536E-002  0.15683121904761296        0.0000000000000000     
   2.3316567286761913E-002  0.16463331298341949        0.0000000000000000     
   0.0000000000000000        0.0000000000000000        0.0000000000000000     
   8.4166873695760752E-004   1.1100093861739740E-003   0.0000000000000000     
   1.7021153029109230E-003   2.5981759376044423E-003   0.0000000000000000     
   2.5813396978599467E-003   4.4644996542914043E-003   0.0000000000000000     
   3.4793419218046781E-003   6.7089805362348610E-003   0.0000000000000000     
   0.0000000000000000        0.0000000000000000        0.0000000000000000     
   6.3383044194715221E-004   1.0939944512829349E-003   0.0000000000000000     
   1.2780426539873613E-003   2.5621011754847710E-003   0.0000000000000000     
   1.9326366361206275E-003   4.4043201726055086E-003   0.0000000000000000     
   2.5976123883469505E-003   6.6206514426451479E-003   0.0000000000000000     
   0.0000000000000000        0.0000000000000000        0.0000000000000000     
   4.2427288742971116E-004   1.0825552120849805E-003   0.0000000000000000     
   8.5299922047969213E-004   2.5363334882766084E-003   0.0000000000000000     
   1.2861789991499429E-003   4.3613348285748837E-003   0.0000000000000000     
   1.7238122234404637E-003   6.5575592329798066E-003   0.0000000000000000     
   0.0000000000000000        0.0000000000000000        0.0000000000000000     
   2.1299607340528447E-004   1.0756916685801109E-003   0.0000000000000000     
   4.2698500238791572E-004   2.5208728759799539E-003   0.0000000000000000     
   6.4196678694789378E-004   4.3355436221995270E-003   0.0000000000000000     
   8.5794142708521851E-004   6.5197039072388344E-003   0.0000000000000000     
   0.0000000000000000        0.0000000000000000        0.0000000000000000     
  -1.2612778660034407E-013   1.0734038207683265E-003   0.0000000000000000     
  -2.8796794592986230E-013   2.5157193385948076E-003   0.0000000000000000     
  -4.8552047798855469E-013   4.3269465534794436E-003   0.0000000000000000     
  -7.1878554540674711E-013   6.5070854654222356E-003   0.0000000000000000     
   3.4793419218046781E-003   6.7089805362348610E-003   0.0000000000000000     
   4.3878693787399526E-003   9.2942867862304147E-003   0.0000000000000000     
   5.2986694726606040E-003   1.2183086607073665E-002   0.0000000000000000     
   6.2117422035666333E-003   1.5375379998764612E-002   0.0000000000000000     
   7.1270875714580396E-003   1.8871166961303261E-002   0.0000000000000000     
   2.5976123883469505E-003   6.6206514426451479E-003   0.0000000000000000     
   3.2700038154869393E-003   9.1781203222681650E-003   0.0000000000000000     
   3.9468448223612023E-003   1.2043752148139030E-002   0.0000000000000000     
   4.6281354089697394E-003   1.5217546920257752E-002   0.0000000000000000     
   5.3138755753125520E-003   1.8699504638624322E-002   0.0000000000000000     
   1.7238122234404637E-003   6.5575592329798066E-003   0.0000000000000000     
   2.1660703977847235E-003   9.0951442766307334E-003   0.0000000000000000     
   2.6131250266161902E-003   1.1944227534667014E-002   0.0000000000000000     
   3.0649761099348660E-003   1.5104809007088658E-002   0.0000000000000000     
   3.5216236477407484E-003   1.8576888693895652E-002   0.0000000000000000     
   8.5794142708521851E-004   6.5197039072388344E-003   0.0000000000000000     
   1.0760691256333052E-003   9.0453586493181165E-003   0.0000000000000000     
   1.2975100854255694E-003   1.1884512766657616E-002   0.0000000000000000     
   1.5222643064620107E-003   1.5037166259257332E-002   0.0000000000000000     
   1.7503317887426291E-003   1.8503319127117262E-002   0.0000000000000000     
  -7.1878554540674711E-013   6.5070854654222356E-003   0.0000000000000000     
  -9.6731521718410735E-013   9.0287634403303178E-003   0.0000000000000000     
  -1.2106616029778847E-012   1.1864607844110834E-002   0.0000000000000000     
  -1.4488253634737779E-012   1.5014618676763774E-002   0.0000000000000000     
  -1.6818059531825691E-012   1.8478795938289147E-002   0.0000000000000000     
   7.1270875714580396E-003   1.8871166961303261E-002   0.0000000000000000     
   8.0381362838872483E-003   2.2644579727241012E-002   0.0000000000000000     
   8.9383190484066885E-003   2.6669750529129285E-002   0.0000000000000000     
   9.8276358650163567E-003   3.0946679366968072E-002   0.0000000000000000     
   1.0706086733716254E-002   3.5475366240757374E-002   0.0000000000000000     
   5.3138755753125520E-003   1.8699504638624322E-002   0.0000000000000000     
   5.9971500868449146E-003   2.2462300925944013E-002   0.0000000000000000     
   6.6710437090221047E-003   2.6478611404922088E-002   0.0000000000000000     
   7.3355564418441212E-003   3.0748436075558553E-002   0.0000000000000000     
   7.9906882853109651E-003   3.5271774937853405E-002   0.0000000000000000     
   3.5216236477407484E-003   1.8576888693895652E-002   0.0000000000000000     
   3.9771319735215013E-003   2.2332101782202532E-002   0.0000000000000000     
   4.4255654207647870E-003   2.6342083459123825E-002   0.0000000000000000     
   4.8669239894706040E-003   3.0606833724659516E-002   0.0000000000000000     
   5.3012076796389550E-003   3.5126352578809611E-002   0.0000000000000000     
   1.7503317887426291E-003   1.8503319127117262E-002   0.0000000000000000     
   1.9780819439170092E-003   2.2253982296016588E-002   0.0000000000000000     
   2.2018841836347349E-003   2.6260166691734484E-002   0.0000000000000000     
   2.4217385078958071E-003   3.0521872314270948E-002   0.0000000000000000     
   2.6376449167002237E-003   3.5039099163625971E-002   0.0000000000000000     
  -1.6818059531825691E-012   1.8478795938289147E-002   0.0000000000000000     
  -1.9685614900330495E-012   2.2227942467386168E-002   0.0000000000000000     
  -2.3680503630045535E-012   2.6232861102754072E-002   0.0000000000000000     
  -2.8802726127546627E-012   3.0493551844392848E-002   0.0000000000000000     
  -3.5052286594117188E-012   3.5010014692302499E-002   0.0000000000000000     
   1.0706086733716254E-002   3.5475366240757374E-002   0.0000000000000000     
   1.1567905903568595E-002   4.0235469912626623E-002   0.0000000000000000     
   1.2407327623635590E-002   4.5206649144705249E-002   0.0000000000000000     
   1.3224351893917241E-002   5.0388903936993260E-002   0.0000000000000000     
   1.4018978714413545E-002   5.5782234289490640E-002   0.0000000000000000     
   7.9906882853109651E-003   3.5271774937853405E-002   0.0000000000000000     
   8.6332149981972785E-003   4.0028651454301956E-002   0.0000000000000000     
   9.2599123392777035E-003   4.4999089087399496E-002   0.0000000000000000     
   9.8707803085522419E-003   5.0183087837146034E-002   0.0000000000000000     
   1.0465818906020892E-002   5.5580647703541562E-002   0.0000000000000000     
   5.3012076796389550E-003   3.5126352578809611E-002   0.0000000000000000     
   5.7270003784448712E-003   3.9880923984290204E-002   0.0000000000000000     
   6.1428859730633884E-003   4.4850831903817390E-002   0.0000000000000000     
   6.5488644634945073E-003   5.0036076337391162E-002   0.0000000000000000     
   6.9449358497382253E-003   5.5436657285011542E-002   0.0000000000000000     
   2.6376449167002237E-003   3.5039099163625971E-002   0.0000000000000000     
   2.8492620443113731E-003   3.9792287502591367E-002   0.0000000000000000     
   3.0562485249926437E-003   4.4761877593958929E-002   0.0000000000000000     
   3.2586043587440336E-003   4.9947869437728644E-002   0.0000000000000000     
   3.4563295455655452E-003   5.5350263033900518E-002   0.0000000000000000     
  -3.5052286594117188E-012   3.5010014692302499E-002   0.0000000000000000     
  -4.2032154666526989E-012   3.9762742009205446E-002   0.0000000000000000     
  -4.9345316244578386E-012   4.4732226157824108E-002   0.0000000000000000     
  -5.6991757504693680E-012   4.9918467138158465E-002   0.0000000000000000     
  -6.4971491728349484E-012   5.5321464950208538E-002   0.0000000000000000     
   1.4018978714413545E-002   5.5782234289490640E-002   0.0000000000000000     
   1.4790530828179282E-002   6.1373856069343903E-002   0.0000000000000000     
   1.5538330978269227E-002   6.7150985143699576E-002   0.0000000000000000     
   1.6262379164683382E-002   7.3113621512557625E-002   0.0000000000000000     
   1.6962675387421744E-002   7.9261765175918070E-002   0.0000000000000000     
   1.0465818906020892E-002   5.5580647703541562E-002   0.0000000000000000     
   1.1043924699465749E-002   6.1177804347548791E-002   0.0000000000000000     
   1.1603994256668918E-002   6.6960593430130416E-002   0.0000000000000000     
   1.2146027577630388E-002   7.2929014951286425E-002   0.0000000000000000     
   1.2670024662350168E-002   7.9083068911016824E-002   0.0000000000000000     
   6.9449358497382253E-003   5.5436657285011542E-002   0.0000000000000000     
   7.3299675173464415E-003   6.1037767403259446E-002   0.0000000000000000     
   7.7028268518710514E-003   6.6824599348715860E-002   0.0000000000000000     
   8.0635138533120560E-003   7.2797153121380798E-002   0.0000000000000000     
   8.4120285216694526E-003   7.8955428721254217E-002   0.0000000000000000     
   3.4563295455655452E-003   5.5350263033900518E-002   0.0000000000000000     
   3.6486592818213513E-003   6.0953745236475843E-002   0.0000000000000000     
   3.8348287638756287E-003   6.6743002899455908E-002   0.0000000000000000     
   4.0148379917283776E-003   7.2718036022840715E-002   0.0000000000000000     
   4.1886869653795979E-003   7.8878844606630236E-002   0.0000000000000000     
  -6.4971491728349484E-012   5.5321464950208538E-002   0.0000000000000000     
  -7.1095179439775724E-012   6.0925737847198000E-002   0.0000000000000000     
  -7.3173488752617533E-012   6.6715804082350547E-002   0.0000000000000000     
  -7.1206424816835229E-012   7.2691663655666192E-002   0.0000000000000000     
  -6.5193978687760890E-012   7.8853316567144893E-002   0.0000000000000000     
   1.6962675387421744E-002   7.9261765175918070E-002   0.0000000000000000     
   1.7637334147970044E-002   8.5581300522017914E-002   0.0000000000000000     
   1.8284469947814002E-002   9.2058111939094092E-002   0.0000000000000000     
   1.8904082786953630E-002   9.8692199427146632E-002   0.0000000000000000     
   1.9496172665388913E-002  0.10548356298617551        0.0000000000000000     
   1.2670024662350168E-002   7.9083068911016824E-002   0.0000000000000000     
   1.3174813443200598E-002   8.5408809724902890E-002   0.0000000000000000     
   1.3659221852554032E-002   9.1892291808525858E-002   0.0000000000000000     
   1.4123249890410462E-002   9.8533515161885799E-002   0.0000000000000000     
   1.4566897556769889E-002  0.10533247978498265        0.0000000000000000     
   8.4120285216694526E-003   7.8955428721254217E-002   0.0000000000000000     
   8.7477508493299227E-003   8.5285602012046866E-002   0.0000000000000000     
   9.0700608286801380E-003   9.1773848857469503E-002   0.0000000000000000     
   9.3789584597201055E-003   9.8420169257522089E-002   0.0000000000000000     
   9.6744437424498182E-003  0.10522456321220468        0.0000000000000000     
   4.1886869653795979E-003   7.8878844606630236E-002   0.0000000000000000     
   4.3561463663580081E-003   8.5211677383449855E-002   0.0000000000000000     
   4.5169868761923276E-003   9.1702783085924944E-002   0.0000000000000000     
   4.6712084948825564E-003   9.8352161714055489E-002   0.0000000000000000     
   4.8188112224286945E-003  0.10515981326784152        0.0000000000000000     
  -6.5193978687760890E-012   7.8853316567144893E-002   0.0000000000000000     
  -5.7151427687585077E-012   8.5187035839111844E-002   0.0000000000000000     
  -4.9094039380678800E-012   9.1679094493892221E-002   0.0000000000000000     
  -4.1021828674821931E-012   9.8329492531486012E-002   0.0000000000000000     
  -3.2934779035931339E-012  0.10513822995189320        0.0000000000000000     
   1.9496172665388913E-002  0.10548356298617551        0.0000000000000000     
   2.0063224514034146E-002  0.11242286594236142        0.0000000000000000     
   2.0607723263803612E-002  0.11950077162188504        0.0000000000000000     
   2.1129668914697319E-002  0.12671728002474633        0.0000000000000000     
   2.1629061466715248E-002  0.13407239115094535        0.0000000000000000     
   1.4566897556769889E-002  0.10533247978498265        0.0000000000000000     
   1.4991515827127143E-002  0.11227963072778557        0.0000000000000000     
   1.5398455676977047E-002  0.11936541304026367        0.0000000000000000     
   1.5787717106319599E-002  0.12658982672241695        0.0000000000000000     
   1.6159300115154797E-002  0.13395287177424539        0.0000000000000000     
   9.6744437424498182E-003  0.10522456321220468        0.0000000000000000     
   9.9570755120513988E-003  0.11217731985985233        0.0000000000000000     
   1.0227412603706966E-002  0.11926872833880024        0.0000000000000000     
   1.0485455017416523E-002  0.12649878864904840        0.0000000000000000     
   1.0731202753180067E-002  0.13386750079059678        0.0000000000000000     
   4.8188112224286945E-003  0.10515981326784152        0.0000000000000000     
   4.9599035688069120E-003  0.11211593333856169        0.0000000000000000     
   5.0945940439933784E-003  0.11921071751749475        0.0000000000000000     
   5.2228826479880901E-003  0.12644416580464068        0.0000000000000000     
   5.3447693807910498E-003  0.13381627819999950        0.0000000000000000     
  -3.2934779035931339E-012  0.10513822995189320        0.0000000000000000     
  -2.6063164213635526E-012  0.11209547116391368        0.0000000000000000     
  -2.1637239526126062E-012  0.11919138057634722        0.0000000000000000     
  -1.9657015544374129E-012  0.12642595818919386        0.0000000000000000     
  -2.0122471397487907E-012  0.13379920400245357        0.0000000000000000     
   2.1629061466715248E-002  0.13407239115094535        0.0000000000000000     
   2.2100617582403205E-002  0.14155075813137588        0.0000000000000000     
   2.2539053924306964E-002  0.14913703409693174        0.0000000000000000     
   2.2944370492426536E-002  0.15683121904761296        0.0000000000000000     
   2.3316567286761913E-002  0.16463331298341949        0.0000000000000000     
   1.6159300115154797E-002  0.13395287177424539        0.0000000000000000     
   1.6509741223121519E-002  0.14143940393535109        0.0000000000000000     
   1.6835576949858627E-002  0.14903427894533619        0.0000000000000000     
   1.7136807295366124E-002  0.15673749680420060        0.0000000000000000     
   1.7413432259644014E-002  0.16454905751194437        0.0000000000000000     
   1.0731202753180067E-002  0.13386750079059678        0.0000000000000000     
   1.0962679505963423E-002  0.14135986522355318        0.0000000000000000     
   1.1177908970732425E-002  0.14896088240802532        0.0000000000000000     
   1.1376891147487070E-002  0.15667055234401331        0.0000000000000000     
   1.1559626036227354E-002  0.16448887503151710        0.0000000000000000     
   5.3447693807910498E-003  0.13381627819999950        0.0000000000000000     
   5.4594324309289186E-003  0.14131214199598208        0.0000000000000000     
   5.5660499869283524E-003  0.14891684448499928        0.0000000000000000     
   5.6646220487893547E-003  0.15663038566705120        0.0000000000000000     
   5.7551486165119212E-003  0.16445276554213767        0.0000000000000000     
  -2.0122471397487907E-012  0.13379920400245357        0.0000000000000000     
  -1.9819978991364451E-012  0.14129623425263779        0.0000000000000000     
  -1.5535860358600884E-012  0.14890216517625798        0.0000000000000000     
  -7.2701182097026362E-013  0.15661699677331406        0.0000000000000000     
   4.9772425764205153E-013  0.16444072904380608        0.0000000000000000     
   0.0000000000000000        0.0000000000000000        0.0000000000000000     
  -1.2612778660034407E-013   1.0734038207683265E-003   0.0000000000000000     
  -2.8796794592986230E-013   2.5157193385948076E-003   0.0000000000000000     
  -4.8552047798855469E-013   4.3269465534794436E-003   0.0000000000000000     
  -7.1878554540674711E-013   6.5070854654222356E-003   0.0000000000000000     
   0.0000000000000000        0.0000000000000000        0.0000000000000000     
  -2.1299607365341268E-004   1.0756916686485796E-003   0.0000000000000000     
  -4.2698500295460797E-004   2.5208728761184143E-003   0.0000000000000000     
  -6.4196678790358558E-004   4.3355436224095040E-003   0.0000000000000000     
  -8.5794142850034629E-004   6.5197039075218484E-003   0.0000000000000000     
   0.0000000000000000        0.0000000000000000        0.0000000000000000     
  -4.2427288766545710E-004   1.0825552122198235E-003   0.0000000000000000     
  -8.5299922101865315E-004   2.5363334885480171E-003   0.0000000000000000     
  -1.2861790000595875E-003   4.3613348289845803E-003   0.0000000000000000     
  -1.7238122247882615E-003   6.5575592335295136E-003   0.0000000000000000     
   0.0000000000000000        0.0000000000000000        0.0000000000000000     
  -6.3383044216226128E-004   1.0939944514820582E-003   0.0000000000000000     
  -1.2780426544801034E-003   2.5621011758836165E-003   0.0000000000000000     
  -1.9326366369535270E-003   4.4043201732046752E-003   0.0000000000000000     
  -2.5976123895825312E-003   6.6206514434452319E-003   0.0000000000000000     
   0.0000000000000000        0.0000000000000000        0.0000000000000000     
  -8.4166873714382488E-004   1.1100093864352836E-003   0.0000000000000000     
  -1.7021153033389591E-003   2.5981759381252119E-003   0.0000000000000000     
  -2.5813396985854024E-003   4.4644996550697851E-003   0.0000000000000000     
  -3.4793419228831553E-003   6.7089805372690051E-003   0.0000000000000000     
  -7.1878554540674711E-013   6.5070854654222356E-003   0.0000000000000000     
  -9.6731521718410735E-013   9.0287634403303178E-003   0.0000000000000000     
  -1.2106616029778847E-012   1.1864607844110834E-002   0.0000000000000000     
  -1.4488253634737779E-012   1.5014618676763774E-002   0.0000000000000000     
  -1.6818059531825691E-012   1.8478795938289147E-002   0.0000000000000000     
  -8.5794142850034629E-004   6.5197039075218484E-003   0.0000000000000000     
  -1.0760691275381097E-003   9.0453586496565801E-003   0.0000000000000000     
  -1.2975100878100966E-003   1.1884512767014833E-002   0.0000000000000000     
  -1.5222643093163078E-003   1.5037166259596607E-002   0.0000000000000000     
  -1.7503317920567422E-003   1.8503319127401902E-002   0.0000000000000000     
  -1.7238122247882615E-003   6.5575592335295136E-003   0.0000000000000000     
  -2.1660703996000496E-003   9.0951442772861414E-003   0.0000000000000000     
  -2.6131250288903302E-003   1.1944227535357789E-002   0.0000000000000000     
  -3.0649761126591013E-003   1.5104809007744456E-002   0.0000000000000000     
  -3.5216236509063642E-003   1.8576888694446146E-002   0.0000000000000000     
  -2.5976123895825312E-003   6.6206514434452319E-003   0.0000000000000000     
  -3.2700038171531356E-003   9.1781203232190033E-003   0.0000000000000000     
  -3.9468448244513619E-003   1.2043752149139698E-002   0.0000000000000000     
  -4.6281354114772076E-003   1.5217546921207317E-002   0.0000000000000000     
  -5.3138755782306717E-003   1.8699504639421865E-002   0.0000000000000000     
  -3.4793419228831553E-003   6.7089805372690051E-003   0.0000000000000000     
  -4.3878693801973684E-003   9.2942867874551641E-003   0.0000000000000000     
  -5.2986694744931902E-003   1.2183086608360561E-002   0.0000000000000000     
  -6.2117422057706238E-003   1.5375379999985195E-002   0.0000000000000000     
  -7.1270875740296665E-003   1.8871166962329069E-002   0.0000000000000000     
  -1.6818059531825691E-012   1.8478795938289147E-002   0.0000000000000000     
  -1.9685614900330495E-012   2.2227942467386168E-002   0.0000000000000000     
  -2.3680503630045535E-012   2.6232861102754072E-002   0.0000000000000000     
  -2.8802726127546627E-012   3.0493551844392848E-002   0.0000000000000000     
  -3.5052286594117188E-012   3.5010014692302499E-002   0.0000000000000000     
  -1.7503317920567422E-003   1.8503319127401902E-002   0.0000000000000000     
  -1.9780819477957807E-003   2.2253982296300472E-002   0.0000000000000000     
  -2.2018841882978052E-003   2.6260166692162072E-002   0.0000000000000000     
  -2.4217385135628143E-003   3.0521872314986698E-002   0.0000000000000000     
  -2.6376449235908082E-003   3.5039099164774358E-002   0.0000000000000000     
  -3.5216236509063642E-003   1.8576888694446146E-002   0.0000000000000000     
  -3.9771319772252192E-003   2.2332101782748703E-002   0.0000000000000000     
  -4.4255654252087625E-003   2.6342083459937979E-002   0.0000000000000000     
  -4.8669239948569993E-003   3.0606833726013985E-002   0.0000000000000000     
  -5.3012076861699235E-003   3.5126352580976704E-002   0.0000000000000000     
  -5.3138755782306717E-003   1.8699504639421865E-002   0.0000000000000000     
  -5.9971500902568737E-003   2.2462300926730846E-002   0.0000000000000000     
  -6.6710437131009227E-003   2.6478611406081792E-002   0.0000000000000000     
  -7.3355564467628229E-003   3.0748436077474683E-002   0.0000000000000000     
  -7.9906882912425727E-003   3.5271774940909544E-002   0.0000000000000000     
  -7.1270875740296665E-003   1.8871166962329069E-002   0.0000000000000000     
  -8.0381362868907468E-003   2.2644579728246923E-002   0.0000000000000000     
  -8.9383190519742878E-003   2.6669750530593513E-002   0.0000000000000000     
  -9.8276358692802931E-003   3.0946679369368828E-002   0.0000000000000000     
  -1.0706086738808757E-002   3.5475366244572870E-002   0.0000000000000000     
  -3.5052286594117188E-012   3.5010014692302499E-002   0.0000000000000000     
  -4.2032154666526989E-012   3.9762742009205446E-002   0.0000000000000000     
  -4.9345316244578386E-012   4.4732226157824108E-002   0.0000000000000000     
  -5.6991757504693680E-012   4.9918467138158465E-002   0.0000000000000000     
  -6.4971491728349484E-012   5.5321464950208538E-002   0.0000000000000000     
  -2.6376449235908082E-003   3.5039099164774358E-002   0.0000000000000000     
  -2.8492620525670895E-003   3.9792287504046966E-002   0.0000000000000000     
  -3.0562485346769560E-003   4.4761877595326467E-002   0.0000000000000000     
  -3.2586043699204107E-003   4.9947869438612846E-002   0.0000000000000000     
  -3.4563295582974527E-003   5.5350263033906118E-002   0.0000000000000000     
  -5.3012076861699235E-003   3.5126352580976704E-002   0.0000000000000000     
  -5.7270003862484433E-003   3.9880923987030456E-002   0.0000000000000000     
  -6.1428859821934540E-003   4.4850831906379555E-002   0.0000000000000000     
  -6.5488644740049617E-003   5.0036076339024009E-002   0.0000000000000000     
  -6.9449358616829621E-003   5.5436657284963789E-002   0.0000000000000000     
  -7.9906882912425727E-003   3.5271774940909544E-002   0.0000000000000000     
  -8.6332150052472745E-003   4.0028651458155914E-002   0.0000000000000000     
  -9.2599123474840245E-003   4.4999089090983380E-002   0.0000000000000000     
  -9.8707803179528281E-003   5.0183087839391925E-002   0.0000000000000000     
  -1.0465818916653678E-002   5.5580647703381551E-002   0.0000000000000000     
  -1.0706086738808757E-002   3.5475366244572870E-002   0.0000000000000000     
  -1.1567905909563584E-002   4.0235469917423335E-002   0.0000000000000000     
  -1.2407327630548666E-002   4.5206649149137919E-002   0.0000000000000000     
  -1.3224351901764004E-002   5.0388903939716609E-002   0.0000000000000000     
  -1.4018978723209601E-002   5.5782234289159412E-002   0.0000000000000000     
  -6.4971491728349484E-012   5.5321464950208538E-002   0.0000000000000000     
  -7.1095179439775724E-012   6.0925737847198000E-002   0.0000000000000000     
  -7.3173488752617533E-012   6.6715804082350547E-002   0.0000000000000000     
  -7.1206424816835229E-012   7.2691663655666192E-002   0.0000000000000000     
  -6.5193978687760890E-012   7.8853316567144893E-002   0.0000000000000000     
  -3.4563295582974527E-003   5.5350263033906118E-002   0.0000000000000000     
  -3.6486592957455308E-003   6.0953745235443300E-002   0.0000000000000000     
  -3.8348287782020941E-003   6.6743002897461393E-002   0.0000000000000000     
  -4.0148380056671427E-003   7.2718036019960436E-002   0.0000000000000000     
  -4.1886869781406757E-003   7.8878844602940409E-002   0.0000000000000000     
  -6.9449358616829621E-003   5.5436657284963789E-002   0.0000000000000000     
  -7.3299675303860499E-003   6.1037767401229084E-002   0.0000000000000000     
  -7.7028268652728164E-003   6.6824599344850064E-002   0.0000000000000000     
  -8.0635138663432571E-003   7.2797153115826657E-002   0.0000000000000000     
  -8.4120285335973783E-003   7.8955428714158976E-002   0.0000000000000000     
  -1.0465818916653678E-002   5.5580647703381551E-002   0.0000000000000000     
  -1.1043924711031074E-002   6.1177804344555387E-002   0.0000000000000000     
  -1.1603994268529512E-002   6.6960593424516490E-002   0.0000000000000000     
  -1.2146027589148990E-002   7.2929014943264911E-002   0.0000000000000000     
  -1.2670024672889508E-002   7.9083068900800635E-002   0.0000000000000000     
  -1.4018978723209601E-002   5.5782234289159412E-002   0.0000000000000000     
  -1.4790530837680610E-002   6.1373856065422186E-002   0.0000000000000000     
  -1.5538330987972191E-002   6.7150985136460742E-002   0.0000000000000000     
  -1.6262379174084338E-002   7.3113621502275142E-002   0.0000000000000000     
  -1.6962675396017059E-002   7.9261765162865344E-002   0.0000000000000000     
  -6.5193978687760890E-012   7.8853316567144893E-002   0.0000000000000000     
  -5.7151427687585077E-012   8.5187035839111844E-002   0.0000000000000000     
  -4.9094039380678800E-012   9.1679094493892221E-002   0.0000000000000000     
  -4.1021828674821931E-012   9.8329492531486012E-002   0.0000000000000000     
  -3.2934779035931339E-012  0.10513822995189320        0.0000000000000000     
  -4.1886869781406757E-003   7.8878844602940409E-002   0.0000000000000000     
  -4.3561463775458166E-003   8.5211677379201212E-002   0.0000000000000000     
  -4.5169868858056864E-003   9.1702783081542782E-002   0.0000000000000000     
  -4.6712085029202849E-003   9.8352161709965108E-002   0.0000000000000000     
  -4.8188112288896122E-003  0.10515981326446817        0.0000000000000000     
  -8.4120285335973783E-003   7.8955428714158976E-002   0.0000000000000000     
  -8.7477508597903018E-003   8.5285602003886324E-002   0.0000000000000000     
  -9.0700608376771477E-003   9.1773848849048059E-002   0.0000000000000000     
  -9.3789584672579213E-003   9.8420169249644265E-002   0.0000000000000000     
  -9.6744437485326192E-003  0.10522456320567485        0.0000000000000000     
  -1.2670024672889508E-002   7.9083068900800635E-002   0.0000000000000000     
  -1.3174813452448595E-002   8.5408809713167180E-002   0.0000000000000000     
  -1.3659221860523790E-002   9.1892291796408135E-002   0.0000000000000000     
  -1.4123249897115093E-002   9.8533515150523457E-002   0.0000000000000000     
  -1.4566897562222498E-002  0.10533247977551319        0.0000000000000000     
  -1.6962675396017059E-002   7.9261765162865344E-002   0.0000000000000000     
  -1.7637334155520698E-002   8.5581300507043781E-002   0.0000000000000000     
  -1.8284469954345611E-002   9.2058111923622912E-002   0.0000000000000000     
  -1.8904082792491794E-002   9.8692199412602724E-002   0.0000000000000000     
  -1.9496172669959250E-002  0.10548356297398324        0.0000000000000000     
  -3.2934779035931339E-012  0.10513822995189320        0.0000000000000000     
  -2.6063164213635526E-012  0.11209547116391368        0.0000000000000000     
  -2.1637239526126062E-012  0.11919138057634722        0.0000000000000000     
  -1.9657015544374129E-012  0.12642595818919386        0.0000000000000000     
  -2.0122471397487907E-012  0.13379920400245357        0.0000000000000000     
  -4.8188112288896122E-003  0.10515981326446817        0.0000000000000000     
  -4.9599035739269865E-003  0.11211593333596792        0.0000000000000000     
  -5.0945940482457260E-003  0.11921071751538027        0.0000000000000000     
  -5.2228826518458307E-003  0.12644416580270521        0.0000000000000000     
  -5.3447693847272996E-003  0.13381627819794273        0.0000000000000000     
  -9.6744437485326192E-003  0.10522456320567485        0.0000000000000000     
  -9.9570755168938013E-003  0.11217731985478419        0.0000000000000000     
  -1.0227412607734019E-002  0.11926872833461662        0.0000000000000000     
  -1.0485455021053280E-002  0.12649878864517214        0.0000000000000000     
  -1.0731202756851577E-002  0.13386750078645077        0.0000000000000000     
  -1.4566897562222498E-002  0.10533247977551319        0.0000000000000000     
  -1.4991515831506758E-002  0.11227963072036240        0.0000000000000000     
  -1.5398455680628606E-002  0.11936541303405623        0.0000000000000000     
  -1.5787717109588043E-002  0.12658982671659463        0.0000000000000000     
  -1.6159300118385081E-002  0.13395287176797763        0.0000000000000000     
  -1.9496172669959250E-002  0.10548356297398324        0.0000000000000000     
  -2.0063224517765856E-002  0.11242286593270263        0.0000000000000000     
  -2.0607723266929480E-002  0.11950077161369912        0.0000000000000000     
  -2.1129668917450134E-002  0.12671728001697266        0.0000000000000000     
  -2.1629061469327807E-002  0.13407239114252331        0.0000000000000000     
  -2.0122471397487907E-012  0.13379920400245357        0.0000000000000000     
  -1.9819978991364451E-012  0.14129623425263779        0.0000000000000000     
  -1.5535860358600884E-012  0.14890216517625798        0.0000000000000000     
  -7.2701182097026362E-013  0.15661699677331406        0.0000000000000000     
   4.9772425764205153E-013  0.16444072904380608        0.0000000000000000     
  -5.3447693847272996E-003  0.13381627819794273        0.0000000000000000     
  -5.4594324347868777E-003  0.14131214199351463        0.0000000000000000     
  -5.5660499899213090E-003  0.14891684448184264        0.0000000000000000     
  -5.6646220501305944E-003  0.15663038566292678        0.0000000000000000     
  -5.7551486154147321E-003  0.16445276553676705        0.0000000000000000     
  -1.0731202756851577E-002  0.13386750078645077        0.0000000000000000     
  -1.0962679509503276E-002  0.14135986521860675        0.0000000000000000     
  -1.1177908973382738E-002  0.14896088240179450        0.0000000000000000     
  -1.1376891148489960E-002  0.15667055233601401        0.0000000000000000     
  -1.1559626034824940E-002  0.16448887502126525        0.0000000000000000     
  -1.6159300118385081E-002  0.13395287176797763        0.0000000000000000     
  -1.6509741226131195E-002  0.14143940392791424        0.0000000000000000     
  -1.6835576951937867E-002  0.14903427893611365        0.0000000000000000     
  -1.7136807295805100E-002  0.15673749679257581        0.0000000000000000     
  -1.7413432257732897E-002  0.16454905749730064        0.0000000000000000     
  -2.1629061469327807E-002  0.13407239114252331        0.0000000000000000     
  -2.2100617584670624E-002  0.14155075812143708        0.0000000000000000     
  -2.2539053925586697E-002  0.14913703408480000        0.0000000000000000     
  -2.2944370492076024E-002  0.15683121903261210        0.0000000000000000     
  -2.3316567284138608E-002  0.16463331296487327        0.0000000000000000     
   0.0000000000000000        0.0000000000000000        0.0000000000000000     
  -8.4166873714382488E-004   1.1100093864352836E-003   0.0000000000000000     
  -1.7021153033389591E-003   2.5981759381252119E-003   0.0000000000000000     
  -2.5813396985854024E-003   4.4644996550697851E-003   0.0000000000000000     
  -3.4793419228831553E-003   6.7089805372690051E-003   0.0000000000000000     
   0.0000000000000000        0.0000000000000000        0.0000000000000000     
  -1.0566946751549245E-003   1.1341630603515015E-003   0.0000000000000000     
  -2.1397581149444488E-003   2.6504085484910294E-003   0.0000000000000000     
  -3.2491903193685736E-003   4.5487364644185846E-003   0.0000000000000000     
  -4.3849912884272989E-003   6.8291468081341667E-003   0.0000000000000000     
   0.0000000000000000        0.0000000000000000        0.0000000000000000     
  -1.2878151587403359E-003   1.1700185165027135E-003   0.0000000000000000     
  -2.6055120366458018E-003   2.7246497801992945E-003   0.0000000000000000     
  -3.9530906337163991E-003   4.6638937910897420E-003   0.0000000000000000     
  -5.3305509499521264E-003   6.9877505491740561E-003   0.0000000000000000     
   0.0000000000000000        0.0000000000000000        0.0000000000000000     
  -1.5350301879000592E-003   1.2175757548889203E-003   0.0000000000000000     
  -3.0993770684430186E-003   2.8208996332500062E-003   0.0000000000000000     
  -4.6930406416288775E-003   4.8099716350832565E-003   0.0000000000000000     
  -6.3160209074576371E-003   7.1847917603886742E-003   0.0000000000000000     
   0.0000000000000000        0.0000000000000000        0.0000000000000000     
  -1.7983397626340945E-003   1.2768347755101215E-003   0.0000000000000000     
  -3.6213532103360983E-003   2.9391581076431651E-003   0.0000000000000000     
  -5.4690403431060103E-003   4.9869699963991307E-003   0.0000000000000000     
  -7.3414011609438320E-003   7.4202704417780201E-003   0.0000000000000000     
  -3.4793419228831553E-003   6.7089805372690051E-003   0.0000000000000000     
  -4.3878693801973684E-003   9.2942867874551641E-003   0.0000000000000000     
  -5.2986694744931902E-003   1.2183086608360561E-002   0.0000000000000000     
  -6.2117422057706238E-003   1.5375379999985195E-002   0.0000000000000000     
  -7.1270875740296665E-003   1.8871166962329069E-002   0.0000000000000000     
  -4.3849912884272989E-003   6.8291468081341667E-003   0.0000000000000000     
  -5.5341753003077046E-003   9.4496300430581635E-003   0.0000000000000000     
  -6.6837566331968733E-003   1.2368176632610962E-002   0.0000000000000000     
  -7.8337352870948024E-003   1.5584786576792563E-002   0.0000000000000000     
  -8.9841112620014964E-003   1.9099459875602971E-002   0.0000000000000000     
  -5.3305509499521264E-003   6.9877505491740561E-003   0.0000000000000000     
  -6.7234297890591075E-003   9.6501364630915375E-003   0.0000000000000000     
  -8.1172639547434644E-003   1.2604967941481485E-002   0.0000000000000000     
  -9.5120534470051997E-003   1.5852244984343903E-002   0.0000000000000000     
  -1.0907798265844308E-002   1.9391967591678789E-002   0.0000000000000000     
  -6.3160209074576371E-003   7.1847917603886742E-003   0.0000000000000000     
  -7.9556328464515727E-003   9.8958060475552879E-003   0.0000000000000000     
  -9.5991914391329626E-003   1.2893460534972137E-002   0.0000000000000000     
  -1.1246696685501803E-002   1.6177755222639211E-002   0.0000000000000000     
  -1.2898148585558104E-002   1.9748690110556525E-002   0.0000000000000000     
  -7.3414011609438320E-003   7.4202704417780201E-003   0.0000000000000000     
  -9.2307844724851054E-003   1.0186638796449415E-002   0.0000000000000000     
  -1.1129539086365371E-002   1.3233654413082907E-002   0.0000000000000000     
  -1.3037665002584631E-002   1.6561317291678493E-002   0.0000000000000000     
  -1.4955162221142885E-002   2.0169627432236173E-002   0.0000000000000000     
  -7.1270875740296665E-003   1.8871166962329069E-002   0.0000000000000000     
  -8.0381362868907468E-003   2.2644579728246923E-002   0.0000000000000000     
  -8.9383190519742878E-003   2.6669750530593513E-002   0.0000000000000000     
  -9.8276358692802931E-003   3.0946679369368828E-002   0.0000000000000000     
  -1.0706086738808757E-002   3.5475366244572870E-002   0.0000000000000000     
  -8.9841112620014964E-003   1.9099459875602971E-002   0.0000000000000000     
  -1.0127896695938511E-002   2.2887409715202790E-002   0.0000000000000000     
  -1.1258103726927413E-002   2.6923849281752638E-002   0.0000000000000000     
  -1.2374732354968200E-002   3.1208778575252512E-002   0.0000000000000000     
  -1.3477782580060872E-002   3.5742197595702407E-002   0.0000000000000000     
  -1.0907798265844308E-002   1.9391967591678789E-002   0.0000000000000000     
  -1.2294237446211845E-002   2.3199262415504317E-002   0.0000000000000000     
  -1.3661110023058858E-002   2.7249256107838675E-002   0.0000000000000000     
  -1.5008415996385343E-002   3.1541948668681860E-002   0.0000000000000000     
  -1.6336155366191301E-002   3.6077340098033865E-002   0.0000000000000000     
  -1.2898148585558104E-002   1.9748690110556525E-002   0.0000000000000000     
  -1.4537158537710745E-002   2.3580137829151516E-002   0.0000000000000000     
  -1.6147337940368621E-002   2.7645971008851626E-002   0.0000000000000000     
  -1.7728686793531723E-002   3.1946189649656870E-002   0.0000000000000000     
  -1.9281205097200060E-002   3.6480793751567236E-002   0.0000000000000000     
  -1.4955162221142885E-002   2.0169627432236173E-002   0.0000000000000000     
  -1.6856659970435211E-002   2.4030035956144367E-002   0.0000000000000000     
  -1.8716787478856696E-002   2.8113993984791492E-002   0.0000000000000000     
  -2.0535544746407335E-002   3.2421501518177541E-002   0.0000000000000000     
  -2.2312931773087134E-002   3.6952558556302528E-002   0.0000000000000000     
  -1.0706086738808757E-002   3.5475366244572870E-002   0.0000000000000000     
  -1.1567905909563584E-002   4.0235469917423335E-002   0.0000000000000000     
  -1.2407327630548666E-002   4.5206649149137919E-002   0.0000000000000000     
  -1.3224351901764004E-002   5.0388903939716609E-002   0.0000000000000000     
  -1.4018978723209601E-002   5.5782234289159412E-002   0.0000000000000000     
  -1.3477782580060872E-002   3.5742197595702407E-002   0.0000000000000000     
  -1.4559501421925596E-002   4.0504176290185899E-002   0.0000000000000000     
  -1.5612135900282544E-002   4.5474784605786543E-002   0.0000000000000000     
  -1.6635686015131716E-002   5.0654022542504340E-002   0.0000000000000000     
  -1.7630151766473107E-002   5.6041890100339289E-002   0.0000000000000000     
  -1.6336155366191301E-002   3.6077340098033865E-002   0.0000000000000000     
  -1.7636429865061531E-002   4.0837567501796755E-002   0.0000000000000000     
  -1.8901341225580823E-002   4.5804767985872588E-002   0.0000000000000000     
  -2.0130889447749174E-002   5.0978941550261371E-002   0.0000000000000000     
  -2.1325074531566582E-002   5.6360088194963104E-002   0.0000000000000000     
  -1.9281205097200060E-002   3.6480793751567236E-002   0.0000000000000000     
  -2.0798691238971396E-002   4.1235643552255910E-002   0.0000000000000000     
  -2.2274943606443505E-002   4.6196599289396081E-002   0.0000000000000000     
  -2.3709962199616373E-002   5.1363660962987730E-002   0.0000000000000000     
  -2.5103747018490021E-002   5.6736828573030869E-002   0.0000000000000000     
  -2.2312931773087134E-002   3.6952558556302528E-002   0.0000000000000000     
  -2.4046285543655187E-002   4.1698404441563371E-002   0.0000000000000000     
  -2.5732943042870583E-002   4.6650278516356988E-002   0.0000000000000000     
  -2.7372904270733332E-002   5.1808180780683395E-002   0.0000000000000000     
  -2.8966169227243422E-002   5.7172111234542577E-002   0.0000000000000000     
  -1.4018978723209601E-002   5.5782234289159412E-002   0.0000000000000000     
  -1.4790530837680610E-002   6.1373856065422186E-002   0.0000000000000000     
  -1.5538330987972191E-002   6.7150985136460742E-002   0.0000000000000000     
  -1.6262379174084338E-002   7.3113621502275142E-002   0.0000000000000000     
  -1.6962675396017059E-002   7.9261765162865344E-002   0.0000000000000000     
  -1.7630151766473107E-002   5.6041890100339289E-002   0.0000000000000000     
  -1.8595304291993495E-002   6.1626658455715445E-002   0.0000000000000000     
  -1.9530914729379643E-002   6.7396598785056869E-002   0.0000000000000000     
  -2.0436983078631562E-002   7.3351711088363553E-002   0.0000000000000000     
  -2.1313509339749237E-002   7.9491995365635504E-002   0.0000000000000000     
  -2.1325074531566582E-002   5.6360088194963104E-002   0.0000000000000000     
  -2.2483763455628580E-002   6.1936947407321148E-002   0.0000000000000000     
  -2.3606823198530684E-002   6.7698258674678893E-002   0.0000000000000000     
  -2.4694253760272906E-002   7.3644021997036346E-002   0.0000000000000000     
  -2.5746055140855244E-002   7.9774237374393472E-002   0.0000000000000000     
  -2.5103747018490021E-002   5.6736828573030869E-002   0.0000000000000000     
  -2.6455908328585860E-002   6.2304722920239301E-002   0.0000000000000000     
  -2.7766056395425311E-002   6.8055964805326857E-002   0.0000000000000000     
  -2.9034191219008385E-002   7.3990554228293523E-002   0.0000000000000000     
  -3.0260312799335068E-002   8.0108491189139278E-002   0.0000000000000000     
  -2.8966169227243422E-002   5.7172111234542577E-002   0.0000000000000000     
  -3.0511738910865335E-002   6.2729984994469898E-002   0.0000000000000000     
  -3.2008614320063522E-002   6.8469717177000733E-002   0.0000000000000000     
  -3.3456795454837991E-002   7.4391307782135055E-002   0.0000000000000000     
  -3.4856282315188732E-002   8.0494756809872892E-002   0.0000000000000000     
  -1.6962675396017059E-002   7.9261765162865344E-002   0.0000000000000000     
  -1.7637334155520698E-002   8.5581300507043781E-002   0.0000000000000000     
  -1.8284469954345611E-002   9.2058111923622912E-002   0.0000000000000000     
  -1.8904082792491794E-002   9.8692199412602724E-002   0.0000000000000000     
  -1.9496172669959250E-002  0.10548356297398324        0.0000000000000000     
  -2.1313509339749237E-002   7.9491995365635504E-002   0.0000000000000000     
  -2.2157970811574387E-002   8.5803289790672116E-002   0.0000000000000000     
  -2.2967844792948729E-002   9.2271432537272838E-002   0.0000000000000000     
  -2.3743131283872253E-002   9.8896423605437669E-002   0.0000000000000000     
  -2.4483830284344976E-002  0.10567826299516658        0.0000000000000000     
  -2.5746055140855244E-002   7.9774237374393472E-002   0.0000000000000000     
  -2.6759381263177437E-002   8.6074992969208175E-002   0.0000000000000000     
  -2.7731386050139258E-002   9.2532376943938288E-002   0.0000000000000000     
  -2.8662069501740699E-002   9.9146389298583826E-002   0.0000000000000000     
  -2.9551431617981766E-002  0.10591703003314480        0.0000000000000000     
  -3.0260312799335068E-002   8.0108491189139278E-002   0.0000000000000000     
  -3.1441565510329859E-002   8.6396410042651917E-002   0.0000000000000000     
  -3.2575093725917201E-002   9.2840945143619236E-002   0.0000000000000000     
  -3.3660897446097127E-002   9.9442096492041221E-002   0.0000000000000000     
  -3.4698976670869623E-002  0.10619986408791790        0.0000000000000000     
  -3.4856282315188732E-002   8.0494756809872892E-002   0.0000000000000000     
  -3.6204523553031623E-002   8.6767541011003396E-002   0.0000000000000000     
  -3.7498967820282565E-002   9.3197137136315708E-002   0.0000000000000000     
  -3.8739615116941538E-002   9.9783545185809883E-002   0.0000000000000000     
  -3.9926465443008562E-002  0.10652676515948586        0.0000000000000000     
  -1.9496172669959250E-002  0.10548356297398324        0.0000000000000000     
  -2.0063224517765856E-002  0.11242286593270263        0.0000000000000000     
  -2.0607723266929480E-002  0.11950077161369912        0.0000000000000000     
  -2.1129668917450134E-002  0.12671728001697266        0.0000000000000000     
  -2.1629061469327807E-002  0.13407239114252331        0.0000000000000000     
  -2.4483830284344976E-002  0.10567826299516658        0.0000000000000000     
  -2.5193569674444107E-002  0.11260776336315460        0.0000000000000000     
  -2.5875977334246861E-002  0.11967573736609666        0.0000000000000000     
  -2.6531053263753268E-002  0.12688218500399281        0.0000000000000000     
  -2.7158797462963308E-002  0.13422710627684306        0.0000000000000000     
  -2.9551431617981766E-002  0.10591703003314480        0.0000000000000000     
  -3.0403919400314502E-002  0.11283506088306801        0.0000000000000000     
  -3.1223979850190972E-002  0.11989124358380028        0.0000000000000000     
  -3.2011612967611167E-002  0.12708557813534158        0.0000000000000000     
  -3.2766818752575110E-002  0.13441806453769198        0.0000000000000000     
  -3.4698976670869623E-002  0.10619986408791790        0.0000000000000000     
  -3.5694273695377060E-002  0.11310475849244288        0.0000000000000000     
  -3.6651730814761800E-002  0.12014729026680994        0.0000000000000000     
  -3.7571348029023850E-002  0.12732745941101903        0.0000000000000000     
  -3.8453125338163224E-002  0.13464526592507012        0.0000000000000000     
  -3.9926465443008562E-002  0.10652676515948586        0.0000000000000000     
  -4.1064632559631775E-002  0.11341685619127925        0.0000000000000000     
  -4.2159230227959359E-002  0.12044387741512566        0.0000000000000000     
  -4.3210258447991319E-002  0.12760782883102503        0.0000000000000000     
  -4.4217717219727642E-002  0.13490871043897740        0.0000000000000000     
  -2.1629061469327807E-002  0.13407239114252331        0.0000000000000000     
  -2.2100617584670624E-002  0.14155075812143708        0.0000000000000000     
  -2.2539053925586697E-002  0.14913703408480000        0.0000000000000000     
  -2.2944370492076024E-002  0.15683121903261210        0.0000000000000000     
  -2.3316567284138608E-002  0.16463331296487327        0.0000000000000000     
  -2.7158797462963308E-002  0.13422710627684306        0.0000000000000000     
  -2.7752169905036671E-002  0.14169501935627318        0.0000000000000000     
  -2.8304130563133054E-002  0.14927044241390899        0.0000000000000000     
  -2.8814679437252466E-002  0.15695337544975041        0.0000000000000000     
  -2.9283816527394889E-002  0.16474381846379760        0.0000000000000000     
  -3.2766818752575110E-002  0.13441806453769198        0.0000000000000000     
  -3.3481259507144423E-002  0.14187327918952045        0.0000000000000000     
  -3.4146597533380778E-002  0.14943579848949592        0.0000000000000000     
  -3.4762832831284160E-002  0.15710562243761841        0.0000000000000000     
  -3.5329965400854584E-002  0.16488275103388808        0.0000000000000000     
  -3.8453125338163224E-002  0.13464526592507012        0.0000000000000000     
  -3.9287886390993891E-002  0.14208553762117884        0.0000000000000000     
  -4.0066454836329840E-002  0.14963310231156085        0.0000000000000000     
  -4.0788830674171106E-002  0.15728795999621614        0.0000000000000000     
  -4.1455013904517668E-002  0.16505011067514469        0.0000000000000000     
  -4.4217717219727642E-002  0.13490871043897740        0.0000000000000000     
  -4.5172050556585061E-002  0.14233179465124843        0.0000000000000000     
  -4.6063702471980279E-002  0.14986235388010383        0.0000000000000000     
  -4.6892672965913311E-002  0.15750038812554346        0.0000000000000000     
  -4.7658962038384156E-002  0.16524589738756745        0.0000000000000000     
   0.0000000000000000        0.0000000000000000        0.0000000000000000     
  -1.7983397626340945E-003   1.2768347755101215E-003   0.0000000000000000     
  -3.6213532103360983E-003   2.9391581076431651E-003   0.0000000000000000     
  -5.4690403431060103E-003   4.9869699963991307E-003   0.0000000000000000     
  -7.3414011609438320E-003   7.4202704417780201E-003   0.0000000000000000     
   0.0000000000000000        0.0000000000000000        0.0000000000000000     
  -2.0694664487512821E-003   1.3549180375286496E-003   0.0000000000000000     
  -4.1640841770894848E-003   3.0939479067156306E-003   0.0000000000000000     
  -6.2838531850146068E-003   5.2170896075609437E-003   0.0000000000000000     
  -8.4287734725266503E-003   7.7243431400645882E-003   0.0000000000000000     
   0.0000000000000000        0.0000000000000000        0.0000000000000000     
  -2.3401328120604623E-003   1.4589480001068369E-003   0.0000000000000000     
  -4.7202136834676219E-003   3.2997917338042624E-003   0.0000000000000000     
  -7.1402426142214781E-003   5.5225312010922772E-003   0.0000000000000000     
  -9.6002196043220335E-003   8.1271664019708818E-003   0.0000000000000000     
   0.0000000000000000        0.0000000000000000        0.0000000000000000     
  -2.6103388525616344E-003   1.5889246632446836E-003   0.0000000000000000     
  -5.2897417294705080E-003   3.5566895889090596E-003   0.0000000000000000     
  -8.0382086307266235E-003   5.9032947769931295E-003   0.0000000000000000     
  -1.0855739556329980E-002   8.6287402274968922E-003   0.0000000000000000     
   0.0000000000000000        0.0000000000000000        0.0000000000000000     
  -2.8800845702547984E-003   1.7448480269421892E-003   0.0000000000000000     
  -5.8726683150981465E-003   3.8646414720300234E-003   0.0000000000000000     
  -8.9777512345300438E-003   6.3593803352635031E-003   0.0000000000000000     
  -1.2195333328550490E-002   9.2290646166426279E-003   0.0000000000000000     
  -7.3414011609438320E-003   7.4202704417780201E-003   0.0000000000000000     
  -9.2307844724851054E-003   1.0186638796449415E-002   0.0000000000000000     
  -1.1129539086365371E-002   1.3233654413082907E-002   0.0000000000000000     
  -1.3037665002584631E-002   1.6561317291678493E-002   0.0000000000000000     
  -1.4955162221142885E-002   2.0169627432236173E-002   0.0000000000000000     
  -8.4287734725266503E-003   7.7243431400645882E-003   0.0000000000000000     
  -1.0590560454818723E-002   1.0558261348266540E-002   0.0000000000000000     
  -1.2760929547083940E-002   1.3661397076206769E-002   0.0000000000000000     
  -1.4939880749322298E-002   1.7033750323885280E-002   0.0000000000000000     
  -1.7127414061533799E-002   2.0675321091302067E-002   0.0000000000000000     
  -9.6002196043220335E-003   8.1271664019708818E-003   0.0000000000000000     
  -1.2076636581111458E-002   1.1046300341499282E-002   0.0000000000000000     
  -1.4545985471931928E-002   1.4212536024736691E-002   0.0000000000000000     
  -1.7008266276783441E-002   1.7625873451683104E-002   0.0000000000000000     
  -1.9463478995666000E-002   2.1286312622338533E-002   0.0000000000000000     
  -1.0855739556329980E-002   8.6287402274968922E-003   0.0000000000000000     
  -1.3689012851363303E-002   1.1650755776147643E-002   0.0000000000000000     
  -1.6484706860909332E-002   1.4887071258672670E-002   0.0000000000000000     
  -1.9242821584968067E-002   1.8337686675071980E-002   0.0000000000000000     
  -2.1963357023539489E-002   2.2002602025345566E-002   0.0000000000000000     
  -1.2195333328550490E-002   9.2290646166426279E-003   0.0000000000000000     
  -1.5427689265574265E-002   1.2371627652211621E-002   0.0000000000000000     
  -1.8577093714016155E-002   1.5685002778014712E-002   0.0000000000000000     
  -2.1643546673876156E-002   1.9169189994051893E-002   0.0000000000000000     
  -2.4627048145154273E-002   2.2824189300323167E-002   0.0000000000000000     
  -1.4955162221142885E-002   2.0169627432236173E-002   0.0000000000000000     
  -1.6856659970435211E-002   2.4030035956144367E-002   0.0000000000000000     
  -1.8716787478856696E-002   2.8113993984791492E-002   0.0000000000000000     
  -2.0535544746407335E-002   3.2421501518177541E-002   0.0000000000000000     
  -2.2312931773087134E-002   3.6952558556302528E-002   0.0000000000000000     
  -1.7127414061533799E-002   2.0675321091302067E-002   0.0000000000000000     
  -1.9292197022839585E-002   2.4558512182136324E-002   0.0000000000000000     
  -2.1402897172360800E-002   2.8655726400067236E-002   0.0000000000000000     
  -2.3459514510097434E-002   3.2966963745094807E-002   0.0000000000000000     
  -2.5462049036049504E-002   3.7492224217219025E-002   0.0000000000000000     
  -1.9463478995666000E-002   2.1286312622338533E-002   0.0000000000000000     
  -2.1883224973378201E-002   2.5175121892780820E-002   0.0000000000000000     
  -2.4239105554718619E-002   2.9273569619087832E-002   0.0000000000000000     
  -2.6531120739687275E-002   3.3581655801259568E-002   0.0000000000000000     
  -2.8759270528284153E-002   3.8099380439296018E-002   0.0000000000000000     
  -2.1963357023539489E-002   2.2002602025345566E-002   0.0000000000000000     
  -2.4629743822051055E-002   2.5879865088077859E-002   0.0000000000000000     
  -2.7225412625930166E-002   2.9967523641853275E-002   0.0000000000000000     
  -2.9750363435176841E-002   3.4265577686671829E-002   0.0000000000000000     
  -3.2204596249791072E-002   3.8774027222533508E-002   0.0000000000000000     
  -2.4627048145154273E-002   2.2824189300323167E-002   0.0000000000000000     
  -2.7531753568858147E-002   2.6672741768027433E-002   0.0000000000000000     
  -3.0361818385995439E-002   3.0737588468363577E-002   0.0000000000000000     
  -3.3117242596566142E-002   3.5018729401331591E-002   0.0000000000000000     
  -3.5798026200570265E-002   3.9516164566931494E-002   0.0000000000000000     
  -2.2312931773087134E-002   3.6952558556302528E-002   0.0000000000000000     
  -2.4046285543655187E-002   4.1698404441563371E-002   0.0000000000000000     
  -2.5732943042870583E-002   4.6650278516356988E-002   0.0000000000000000     
  -2.7372904270733332E-002   5.1808180780683395E-002   0.0000000000000000     
  -2.8966169227243422E-002   5.7172111234542577E-002   0.0000000000000000     
  -2.5462049036049504E-002   3.7492224217219025E-002   0.0000000000000000     
  -2.7411341238612351E-002   4.2227360685704304E-002   0.0000000000000000     
  -2.9308231606181307E-002   4.7168226019815060E-002   0.0000000000000000     
  -3.1152720138756383E-002   5.2314820219551257E-002   0.0000000000000000     
  -3.2944806836337583E-002   5.7667143284912931E-002   0.0000000000000000     
  -2.8759270528284153E-002   3.8099380439296018E-002   0.0000000000000000     
  -3.0925986783342338E-002   4.2824022800663927E-002   0.0000000000000000     
  -3.3033701367694929E-002   4.7752862152829999E-002   0.0000000000000000     
  -3.5082414281341907E-002   5.2885898495794240E-002   0.0000000000000000     
  -3.7072125524283274E-002   5.8223131829556650E-002   0.0000000000000000     
  -3.2204596249791072E-002   3.8774027222533508E-002   0.0000000000000000     
  -3.4590222177845166E-002   4.3488390786442198E-002   0.0000000000000000     
  -3.6909352327411438E-002   4.8404186915401812E-002   0.0000000000000000     
  -3.9161986698489887E-002   5.3521415609412315E-002   0.0000000000000000     
  -4.1348125291080520E-002   5.8840076868473729E-002   0.0000000000000000     
  -3.5798026200570265E-002   3.9516164566931494E-002   0.0000000000000000     
  -3.8404047422120828E-002   4.4220464643039158E-002   0.0000000000000000     
  -4.0935184485330844E-002   4.9122200307530506E-002   0.0000000000000000     
  -4.3391437390200342E-002   5.4221371560405504E-002   0.0000000000000000     
  -4.5772806136729287E-002   5.9517978401664173E-002   0.0000000000000000     
  -2.8966169227243422E-002   5.7172111234542577E-002   0.0000000000000000     
  -3.0511738910865335E-002   6.2729984994469898E-002   0.0000000000000000     
  -3.2008614320063522E-002   6.8469717177000733E-002   0.0000000000000000     
  -3.3456795454837991E-002   7.4391307782135055E-002   0.0000000000000000     
  -3.4856282315188732E-002   8.0494756809872892E-002   0.0000000000000000     
  -3.2944806836337583E-002   5.7667143284912931E-002   0.0000000000000000     
  -3.4683059172084502E-002   6.3212605180711853E-002   0.0000000000000000     
  -3.6366044619156733E-002   6.8938615871759840E-002   0.0000000000000000     
  -3.7993763177554297E-002   7.4845175358056834E-002   0.0000000000000000     
  -3.9566214847277174E-002   8.0932283639602878E-002   0.0000000000000000     
  -3.7072125524283274E-002   5.8223131829556650E-002   0.0000000000000000     
  -3.9001673081860838E-002   6.3752455029664104E-002   0.0000000000000000     
  -4.0869894939416375E-002   6.9461760971663442E-002   0.0000000000000000     
  -4.2676791096949898E-002   7.5351049655554697E-002   0.0000000000000000     
  -4.4422361554461380E-002   8.1420321081337829E-002   0.0000000000000000     
  -4.1348125291080520E-002   5.8840076868473729E-002   0.0000000000000000     
  -4.3467580640194362E-002   6.4349534541326622E-002   0.0000000000000000     
  -4.5520165280842434E-002   7.0039152476711594E-002   0.0000000000000000     
  -4.7505879213024765E-002   7.5908930674628616E-002   0.0000000000000000     
  -4.9424722436741335E-002   8.1958869135077689E-002   0.0000000000000000     
  -4.5772806136729287E-002   5.9517978401664173E-002   0.0000000000000000     
  -4.8080781847085044E-002   6.5003843715699450E-002   0.0000000000000000     
  -5.0316855643434910E-002   7.0670790386904270E-002   0.0000000000000000     
  -5.2481027525778920E-002   7.6518818415278633E-002   0.0000000000000000     
  -5.4573297494117053E-002   8.2547927800822526E-002   0.0000000000000000     
  -3.4856282315188732E-002   8.0494756809872892E-002   0.0000000000000000     
  -3.6204523553031623E-002   8.6767541011003396E-002   0.0000000000000000     
  -3.7498967820282565E-002   9.3197137136315708E-002   0.0000000000000000     
  -3.8739615116941538E-002   9.9783545185809883E-002   0.0000000000000000     
  -3.9926465443008562E-002  0.10652676515948586        0.0000000000000000     
  -3.9566214847277174E-002   8.0932283639602878E-002   0.0000000000000000     
  -4.1081147985434274E-002   8.7188171843051387E-002   0.0000000000000000     
  -4.2536310949134487E-002   9.3601071095055791E-002   0.0000000000000000     
  -4.3931703738377806E-002  0.10017098139561603        0.0000000000000000     
  -4.5267326353164238E-002  0.10689790274473217        0.0000000000000000     
  -4.4422361554461380E-002   8.1420321081337829E-002   0.0000000000000000     
  -4.6104331401689291E-002   8.7658088507584803E-002   0.0000000000000000     
  -4.7720425728372103E-002   9.4052865192867555E-002   0.0000000000000000     
  -4.9270644534509786E-002  0.10060465113718607        0.0000000000000000     
  -5.0754987820102362E-002  0.10731344634054035        0.0000000000000000     
  -4.9424722436741335E-002   8.1958869135077689E-002   0.0000000000000000     
  -5.1274073801796702E-002   8.8177291004603600E-002   0.0000000000000000     
  -5.3051312157995432E-002   9.4552519429751000E-002   0.0000000000000000     
  -5.4756437505337499E-002  0.10108455441051992        0.0000000000000000     
  -5.6389449843822936E-002  0.10777339594691034        0.0000000000000000     
  -5.4573297494117053E-002   8.2547927800822526E-002   0.0000000000000000     
  -5.6590375185756492E-002   8.8745779334107752E-002   0.0000000000000000     
  -5.8528970238004456E-002   9.5100033805706113E-002   0.0000000000000000     
  -6.0389082650860938E-002  0.10161069121561760        0.0000000000000000     
  -6.2170712424325938E-002  0.10827775156384219        0.0000000000000000     
  -3.9926465443008562E-002  0.10652676515948586        0.0000000000000000     
  -4.1064632559631775E-002  0.11341685619127925        0.0000000000000000     
  -4.2159230227959359E-002  0.12044387741512566        0.0000000000000000     
  -4.3210258447991319E-002  0.12760782883102503        0.0000000000000000     
  -4.4217717219727642E-002  0.13490871043897740        0.0000000000000000     
  -4.5267326353164238E-002  0.10689790274473217        0.0000000000000000     
  -4.6548464835192024E-002  0.11377146027472565        0.0000000000000000     
  -4.7780405226159395E-002  0.12078127911791790        0.0000000000000000     
  -4.8963147526066342E-002  0.12792735927430893        0.0000000000000000     
  -5.0096691734912872E-002  0.13520970074389871        0.0000000000000000     
  -5.0754987820102362E-002  0.10731344634054035        0.0000000000000000     
  -5.2179239364171195E-002  0.11416867703793064        0.0000000000000000     
  -5.3549182945737642E-002  0.12115976946435715        0.0000000000000000     
  -5.4864818564801715E-002  0.12828672361981985        0.0000000000000000     
  -5.6126146221363395E-002  0.13554953950431878        0.0000000000000000     
  -5.6389449843822936E-002  0.10777339594691034        0.0000000000000000     
  -5.7956956146569281E-002  0.11460850648089423        0.0000000000000000     
  -5.9465563386694113E-002  0.12157934845444335        0.0000000000000000     
  -6.0915271564197425E-002  0.12868592186755784        0.0000000000000000     
  -6.2306080679079230E-002  0.13592822672023758        0.0000000000000000     
  -6.2170712424325938E-002  0.10827775156384219        0.0000000000000000     
  -6.3881615182386289E-002  0.11509094860361638        0.0000000000000000     
  -6.5529546549028803E-002  0.12204001608817661        0.0000000000000000     
  -6.7114506524253492E-002  0.12912495401752283        0.0000000000000000     
  -6.8636495108060358E-002  0.13634576239165516        0.0000000000000000     
  -4.4217717219727642E-002  0.13490871043897740        0.0000000000000000     
  -4.5172050556585061E-002  0.14233179465124843        0.0000000000000000     
  -4.6063702471980279E-002  0.14986235388010383        0.0000000000000000     
  -4.6892672965913311E-002  0.15750038812554346        0.0000000000000000     
  -4.7658962038384156E-002  0.16524589738756745        0.0000000000000000     
  -5.0096691734912872E-002  0.13520970074389871        0.0000000000000000     
  -5.1171222309834126E-002  0.14261397327181341        0.0000000000000000     
  -5.2176923707965242E-002  0.15012584660317915        0.0000000000000000     
  -5.3113795929306228E-002  0.15774532073799594        0.0000000000000000     
  -5.3981838973857069E-002  0.16547239567626376        0.0000000000000000     
  -5.6126146221363395E-002  0.13554953950431878        0.0000000000000000     
  -5.7322871956657272E-002  0.14293399647495791        0.0000000000000000     
  -5.8444701811917903E-002  0.15042587388884135        0.0000000000000000     
  -5.9491635787145294E-002  0.15802517174596903        0.0000000000000000     
  -6.0463673882339433E-002  0.16573189004634098        0.0000000000000000     
  -6.2306080679079230E-002  0.13592822672023758        0.0000000000000000     
  -6.3626999497054512E-002  0.14329186426068197        0.0000000000000000     
  -6.4867036783838303E-002  0.15076243573709036        0.0000000000000000     
  -6.6026192539430525E-002  0.15833994114946273        0.0000000000000000     
  -6.7104466763831264E-002  0.16602438049779911        0.0000000000000000     
  -6.8636495108060358E-002  0.13634576239165516        0.0000000000000000     
  -7.0083604931025834E-002  0.14368757662898557        0.0000000000000000     
  -7.1443928623726366E-002  0.15113553214792622        0.0000000000000000     
  -7.2717466186161928E-002  0.15868962894847705        0.0000000000000000     
  -7.3904217618332546E-002  0.16634986703063814        0.0000000000000000     
   0.0000000000000000        0.0000000000000000        0.0000000000000000     
  -2.8800845702547984E-003   1.7448480269421892E-003   0.0000000000000000     
  -5.8726683150981465E-003   3.8646414720300234E-003   0.0000000000000000     
  -8.9777512345300438E-003   6.3593803352635031E-003   0.0000000000000000     
  -1.2195333328550490E-002   9.2290646166426279E-003   0.0000000000000000     
   0.0000000000000000        0.0000000000000000        0.0000000000000000     
  -3.2832135531612816E-003   1.9993682738526121E-003   0.0000000000000000     
  -6.6769704148683350E-003   4.3309493868490395E-003   0.0000000000000000     
  -1.0181270585121157E-002   6.9947433389892840E-003   0.0000000000000000     
  -1.3796114063919753E-002   9.9907501302733438E-003   0.0000000000000000     
   0.0000000000000000        0.0000000000000000        0.0000000000000000     
  -3.9535693893024085E-003   2.4251355866292089E-003   0.0000000000000000     
  -7.9106250032988726E-003   5.0629153370479957E-003   0.0000000000000000     
  -1.1871166841989387E-002   7.9133392512563579E-003   0.0000000000000000     
  -1.5835194905373957E-002   1.0976407329254298E-002   0.0000000000000000     
   0.0000000000000000        0.0000000000000000        0.0000000000000000     
  -4.8911520786781813E-003   3.0221499652719796E-003   0.0000000000000000     
  -9.5736320803897594E-003   6.0605393226268881E-003   0.0000000000000000     
  -1.4047440005134734E-002   9.1151680720647256E-003   0.0000000000000000     
  -1.8312575852913106E-002   1.2186036213585492E-002   0.0000000000000000     
   0.0000000000000000        0.0000000000000000        0.0000000000000000     
  -6.0959616212885983E-003   3.7904114097809241E-003   0.0000000000000000     
  -1.1665991646140995E-002   7.3238213435857201E-003   0.0000000000000000     
  -1.6710090074557194E-002   1.0600229801414389E-002   0.0000000000000000     
  -2.1228256906537193E-002   1.3619636783266928E-002   0.0000000000000000     
  -1.2195333328550490E-002   9.2290646166426279E-003   0.0000000000000000     
  -1.5427689265574265E-002   1.2371627652211621E-002   0.0000000000000000     
  -1.8577093714016155E-002   1.5685002778014712E-002   0.0000000000000000     
  -2.1643546673876156E-002   1.9169189994051893E-002   0.0000000000000000     
  -2.4627048145154273E-002   2.2824189300323167E-002   0.0000000000000000     
  -1.3796114063919753E-002   9.9907501302733438E-003   0.0000000000000000     
  -1.7404414829353957E-002   1.3220999740549315E-002   0.0000000000000000     
  -2.0889086859513604E-002   1.6587522149665291E-002   0.0000000000000000     
  -2.4250130154398704E-002   2.0090317357621276E-002   0.0000000000000000     
  -2.7487544714009250E-002   2.3729385364417259E-002   0.0000000000000000     
  -1.5835194905373957E-002   1.0976407329254298E-002   0.0000000000000000     
  -1.9730938548311986E-002   1.4210955812018811E-002   0.0000000000000000     
  -2.3486627125662896E-002   1.7575820940526891E-002   0.0000000000000000     
  -2.7102260637426677E-002   2.1071002714778544E-002   0.0000000000000000     
  -3.0577839083603335E-002   2.4696501134773761E-002   0.0000000000000000     
  -1.8312575852913106E-002   1.2186036213585492E-002   0.0000000000000000     
  -2.2407260422448373E-002   1.5341495866620114E-002   0.0000000000000000     
  -2.6369714512464032E-002   1.8649899150599520E-002   0.0000000000000000     
  -3.0199938122960086E-002   2.2111246065523702E-002   0.0000000000000000     
  -3.3897931253936538E-002   2.5725536611392662E-002   0.0000000000000000     
  -2.1228256906537193E-002   1.3619636783266928E-002   0.0000000000000000     
  -2.5433380451763094E-002   1.6612619904353226E-002   0.0000000000000000     
  -2.9538349019917004E-002   1.9809756779883166E-002   0.0000000000000000     
  -3.3543162610998926E-002   2.3211047409856751E-002   0.0000000000000000     
  -3.7447821225008844E-002   2.6816491794273978E-002   0.0000000000000000     
  -2.4627048145154273E-002   2.2824189300323167E-002   0.0000000000000000     
  -2.7531753568858147E-002   2.6672741768027433E-002   0.0000000000000000     
  -3.0361818385995439E-002   3.0737588468363577E-002   0.0000000000000000     
  -3.3117242596566142E-002   3.5018729401331591E-002   0.0000000000000000     
  -3.5798026200570265E-002   3.9516164566931494E-002   0.0000000000000000     
  -2.7487544714009250E-002   2.3729385364417259E-002   0.0000000000000000     
  -3.0624371946440111E-002   2.7547247716950048E-002   0.0000000000000000     
  -3.3683653259786166E-002   3.1586425962116436E-002   0.0000000000000000     
  -3.6665388654047421E-002   3.5846920099916434E-002   0.0000000000000000     
  -3.9569578129223855E-002   4.0328730130350009E-002   0.0000000000000000     
  -3.0577839083603335E-002   2.4696501134773761E-002   0.0000000000000000     
  -3.3942716687437570E-002   2.8496878719166219E-002   0.0000000000000000     
  -3.7226247672174091E-002   3.2516697986609590E-002   0.0000000000000000     
  -4.0428432037812899E-002   3.6755958937103886E-002   0.0000000000000000     
  -4.3549269784353979E-002   4.1214661570649111E-002   0.0000000000000000     
  -3.3897931253936538E-002   2.5725536611392662E-002   0.0000000000000000     
  -3.7486787791850523E-002   2.9521634774675936E-002   0.0000000000000000     
  -4.0989601623159205E-002   3.3528404541843054E-002   0.0000000000000000     
  -4.4406372747862570E-002   3.7745845912894004E-002   0.0000000000000000     
  -4.7737101165960631E-002   4.2173958887828794E-002   0.0000000000000000     
  -3.7447821225008844E-002   2.6816491794273978E-002   0.0000000000000000     
  -4.1256585259678971E-002   3.0621515883479205E-002   0.0000000000000000     
  -4.4973715112741501E-002   3.4621545627816788E-002   0.0000000000000000     
  -4.8599210784196455E-002   3.8816581027286745E-002   0.0000000000000000     
  -5.2133072274043804E-002   4.3206622081889051E-002   0.0000000000000000     
  -3.5798026200570265E-002   3.9516164566931494E-002   0.0000000000000000     
  -3.8404047422120828E-002   4.4220464643039158E-002   0.0000000000000000     
  -4.0935184485330844E-002   4.9122200307530506E-002   0.0000000000000000     
  -4.3391437390200342E-002   5.4221371560405504E-002   0.0000000000000000     
  -4.5772806136729287E-002   5.9517978401664173E-002   0.0000000000000000     
  -3.9569578129223855E-002   4.0328730130350009E-002   0.0000000000000000     
  -4.2393568256333572E-002   4.5018382264090058E-002   0.0000000000000000     
  -4.5134705606394689E-002   4.9902402711809422E-002   0.0000000000000000     
  -4.7792990179407149E-002   5.4980791473508095E-002   0.0000000000000000     
  -5.0368421975371017E-002   6.0253548549186076E-002   0.0000000000000000     
  -4.3549269784353979E-002   4.1214661570649111E-002   0.0000000000000000     
  -4.6584890420647715E-002   4.5880281543230143E-002   0.0000000000000000     
  -4.9531423455544489E-002   5.0740294510831882E-002   0.0000000000000000     
  -5.2388868889044274E-002   5.5794700473454355E-002   0.0000000000000000     
  -5.5157226721147097E-002   6.1043499431097534E-002   0.0000000000000000     
  -4.7737101165960631E-002   4.2173958887828794E-002   0.0000000000000000     
  -5.0978013915063229E-002   4.6806162480459435E-002   0.0000000000000000     
  -5.4125338032780253E-002   5.1635875704597947E-002   0.0000000000000000     
  -5.7179073519111688E-002   5.6663098560244318E-002   0.0000000000000000     
  -6.0139220374057542E-002   6.1887831047398548E-002   0.0000000000000000     
  -5.2133072274043804E-002   4.3206622081889051E-002   0.0000000000000000     
  -5.5572938739580122E-002   4.7796025075777918E-002   0.0000000000000000     
  -5.8916449338101987E-002   5.2589146293107555E-002   0.0000000000000000     
  -6.2163604069609385E-002   5.7585985733877958E-002   0.0000000000000000     
  -6.5314402934102345E-002   6.2786543398089117E-002   0.0000000000000000     
  -4.5772806136729287E-002   5.9517978401664173E-002   0.0000000000000000     
  -4.8080781847085044E-002   6.5003843715699450E-002   0.0000000000000000     
  -5.0316855643434910E-002   7.0670790386904270E-002   0.0000000000000000     
  -5.2481027525778920E-002   7.6518818415278633E-002   0.0000000000000000     
  -5.4573297494117053E-002   8.2547927800822526E-002   0.0000000000000000     
  -5.0368421975371017E-002   6.0253548549186076E-002   0.0000000000000000     
  -5.2864060167133811E-002   6.5714410329695577E-002   0.0000000000000000     
  -5.5282963927543109E-002   7.1357113205888736E-002   0.0000000000000000     
  -5.7625133256598918E-002   7.7181657177765567E-002   0.0000000000000000     
  -5.9890568154301230E-002   8.3188042245326096E-002   0.0000000000000000     
  -5.5157226721147097E-002   6.1043499431097534E-002   0.0000000000000000     
  -5.7840199064941568E-002   6.6480262160227982E-002   0.0000000000000000     
  -6.0441488033516309E-002   7.2098559437312262E-002   0.0000000000000000     
  -6.2961093626871328E-002   7.7898391262350333E-002   0.0000000000000000     
  -6.5399015845006597E-002   8.3879757635342236E-002   0.0000000000000000     
  -6.0139220374057542E-002   6.1887831047398548E-002   0.0000000000000000     
  -6.3009198540508321E-002   6.7301399207296692E-002   0.0000000000000000     
  -6.5792427961354497E-002   7.2895129081174820E-002   0.0000000000000000     
  -6.8488908636596124E-002   7.8669020669032877E-002   0.0000000000000000     
  -7.1098640566233176E-002   8.4623073970870905E-002   0.0000000000000000     
  -6.5314402934102345E-002   6.2786543398089117E-002   0.0000000000000000     
  -6.8371058593834036E-002   6.8177821470901734E-002   0.0000000000000000     
  -7.1335783711057713E-002   7.3746822137476437E-002   0.0000000000000000     
  -7.4208578285773347E-002   7.9493545397813239E-002   0.0000000000000000     
  -7.6989442317980938E-002   8.5417991251912170E-002   0.0000000000000000     
  -5.4573297494117053E-002   8.2547927800822526E-002   0.0000000000000000     
  -5.6590375185756492E-002   8.8745779334107752E-002   0.0000000000000000     
  -5.8528970238004456E-002   9.5100033805706113E-002   0.0000000000000000     
  -6.0389082650860938E-002  0.10161069121561760        0.0000000000000000     
  -6.2170712424325938E-002  0.10827775156384219        0.0000000000000000     
  -5.9890568154301230E-002   8.3188042245326096E-002   0.0000000000000000     
  -6.2075214382503692E-002   8.9363419257171145E-002   0.0000000000000000     
  -6.4175017703059972E-002   9.5694939061901504E-002   0.0000000000000000     
  -6.6189978115970050E-002  0.10218260165951726        0.0000000000000000     
  -6.8120095621233917E-002  0.10882640705001834        0.0000000000000000     
  -6.5399015845006597E-002   8.3879757635342236E-002   0.0000000000000000     
  -6.7750570220973347E-002   9.0030076534867526E-002   0.0000000000000000     
  -7.0011072287822732E-002   9.6336765939505797E-002   0.0000000000000000     
  -7.2180522045554765E-002  0.10279982584925701        0.0000000000000000     
  -7.4258919494169434E-002  0.10941925626412123        0.0000000000000000     
  -7.1098640566233176E-002   8.4623073970870905E-002   0.0000000000000000     
  -7.3616442701165477E-002   9.0745751167196936E-002   0.0000000000000000     
  -7.6037133992292769E-002   9.7025514438518923E-002   0.0000000000000000     
  -7.8360714439615092E-002  0.10346236378483692        0.0000000000000000     
  -8.0587184043132448E-002  0.11005629920615088        0.0000000000000000     
  -7.6989442317980938E-002   8.5417991251912170E-002   0.0000000000000000     
  -7.9672831823080006E-002   9.1510443154159349E-002   0.0000000000000000     
  -8.2253202816470028E-002   9.7761184558940936E-002   0.0000000000000000     
  -8.4730555298151031E-002  0.10417021546625692        0.0000000000000000     
  -8.7104889268122987E-002  0.11073753587610732        0.0000000000000000     
  -6.2170712424325938E-002  0.10827775156384219        0.0000000000000000     
  -6.3881615182386289E-002  0.11509094860361638        0.0000000000000000     
  -6.5529546549028803E-002  0.12204001608817661        0.0000000000000000     
  -6.7114506524253492E-002  0.12912495401752283        0.0000000000000000     
  -6.8636495108060358E-002  0.13634576239165516        0.0000000000000000     
  -6.8120095621233917E-002  0.10882640705001834        0.0000000000000000     
  -6.9974252539523843E-002  0.11561627448895749        0.0000000000000000     
  -7.1761331191512054E-002  0.12254212323188750        0.0000000000000000     
  -7.3481331577198564E-002  0.12960395327880833        0.0000000000000000     
  -7.5134253696583372E-002  0.13680176462971999        0.0000000000000000     
  -7.4258919494169434E-002  0.10941925626412123        0.0000000000000000     
  -7.6255904285883622E-002  0.11618475521977796        0.0000000000000000     
  -7.8181116072914267E-002  0.12308602075190672        0.0000000000000000     
  -8.0034554855261328E-002  0.13012305286050760        0.0000000000000000     
  -8.1816220632924819E-002  0.13729585154558052        0.0000000000000000     
  -8.0587184043132448E-002  0.11005629920615088        0.0000000000000000     
  -8.2726570421465612E-002  0.11679639079607775        0.0000000000000000     
  -8.4788901193235386E-002  0.12367170864823435        0.0000000000000000     
  -8.6774176358441729E-002  0.13068225276262072        0.0000000000000000     
  -8.8682395917084697E-002  0.13782802313923681        0.0000000000000000     
  -8.7104889268122987E-002  0.11073753587610732        0.0000000000000000     
  -8.9386250946269827E-002  0.11745118121785686        0.0000000000000000     
  -9.1584686552475453E-002  0.12429918692087029        0.0000000000000000     
  -9.3700196086739837E-002  0.13128155298514763        0.0000000000000000     
  -9.5732779549063021E-002  0.13839827941068883        0.0000000000000000     
  -6.8636495108060358E-002  0.13634576239165516        0.0000000000000000     
  -7.0083604931025834E-002  0.14368757662898557        0.0000000000000000     
  -7.1443928623726366E-002  0.15113553214792622        0.0000000000000000     
  -7.2717466186161928E-002  0.15868962894847705        0.0000000000000000     
  -7.3904217618332546E-002  0.16634986703063814        0.0000000000000000     
  -7.5134253696583372E-002  0.13680176462971999        0.0000000000000000     
  -7.6707274100741768E-002  0.14412034592328199        0.0000000000000000     
  -7.8187569340749052E-002  0.15154448579815391        0.0000000000000000     
  -7.9575139416605253E-002  0.15907418425433570        0.0000000000000000     
  -8.0869984328310343E-002  0.16670944129182741        0.0000000000000000     
  -8.1816220632924819E-002  0.13729585154558052        0.0000000000000000     
  -8.3512592848372758E-002  0.14458938448698447        0.0000000000000000     
  -8.5110150944073260E-002  0.15198861936457839        0.0000000000000000     
  -8.6608894920026255E-002  0.15949355617836233        0.0000000000000000     
  -8.8008824776231773E-002  0.16710419492833628        0.0000000000000000     
  -8.8682395917084697E-002  0.13782802313923681        0.0000000000000000     
  -9.0499561173918885E-002  0.14509469232009306        0.0000000000000000     
  -9.2211673433698974E-002  0.15246793284719976        0.0000000000000000     
  -9.3818732696424961E-002  0.15994774472055698        0.0000000000000000     
  -9.5320738962096821E-002  0.16753412794016467        0.0000000000000000     
  -9.5732779549063021E-002  0.13839827941068883        0.0000000000000000     
  -9.7668179077380096E-002  0.14563626942260768        0.0000000000000000     
  -9.9492136809626194E-002  0.15298242624601796        0.0000000000000000     
 -0.10120465274580132       0.16043674988091963        0.0000000000000000     
 -0.10280572688590546       0.16799924032731273        0.0000000000000000     
 </DataArray>
 <DataArray  type="Float64" Name="stress" NumberOfComponents="3" format="ascii">
   13416638072.227316        4024991421.6681948        2893965893.5803542     
   11766499157.909788        1890490590.5474343        1715806303.3256462     
   10313630063.110760        413555824.48832226        810737269.39349842     
   9058030787.8302231       -405812876.50914049        178758791.78391042     
   7999701332.0681791       -567615512.44495821       -180129129.50311595     
   10539930972.909237        3161979291.8727713        2225745429.3745003     
   9667568528.1419468        1589605768.1004364        1446700464.0616651     
   8943841186.9569035        512682589.60225534        863132848.07681382     
   8368748949.3541088       -68790243.621772289        475042581.41994733     
   7942291815.3335581       -154812731.57164526        282429664.09106678     
   8337919178.2494297        2501375753.4748287        1712354587.8558252     
   8021581183.0478754        1424603931.0555689        1275683745.5592389     
   7805243575.4923191        681166734.12296748        956877045.59606254     
   7688906355.5827608        271064162.67702627        755934487.96629405     
   7672569523.3191977        194296216.71774387        672856072.66993523     
   6810602688.2478933        2043180806.4743681        1353793369.0243285     
   6828537122.6275721        1395485079.4128318        1202756147.8183684     
   6897837228.7170010        919008258.05046082        1091969861.9512422     
   7018503006.5161781        613750342.38725471        1021434511.4229501     
   7190534456.0251055        479711332.42321420        991150096.23349154     
   5957981502.9046278        1787394450.8713884        1150061772.8800099     
   6088436346.8810387        1502249213.1722260        1227917670.8390532     
   6221622146.6309519        1226207161.3847342        1268411297.1423554     
   6357538902.1543636        959268295.50891316        1271542651.7899151     
   6496186613.4512787        701432615.54476309        1237311734.7817338     
   7999701332.0681791       -567615512.44495821       -180129129.50311595     
   7917618458.3079920       -200233239.12740469       -78246726.379452497     
   7794075172.4926977        28947660.673140049       -9005032.6913365405     
   7629071474.6223059        119927186.95667267        27595951.561232742     
   7422607364.6968079        72705339.723204613        31556226.378254708     
   7942291815.3335581       -154812731.57164526        282429664.09106678     
   7739751489.6214762        16327917.898516655        281140073.79461789     
   7513842936.1035242        109574474.68243551        265118143.08935204     
   7264566154.7796946        124926938.78010178        234363871.97527051     
   6991921145.6499891        62385310.191520214        188877260.45236748     
   7672569523.3191977        194296216.71774387        672856072.66993523     
   7400738514.3030291        184545272.93486071        589502037.24414098     
   7123631461.7302132        157207517.29649115        509324030.43625933     
   6841248365.6007528        112282949.80263066        432322052.24629062     
   6553589225.9146395        49771570.453280210        358496102.67423308     
   7190534456.0251055        479711332.42321420        991150096.23349154     
   6900579532.3526459        304418825.98162413        846839163.96911561     
   6623440749.3727684        171846788.51530552        723612629.34938347     
   6359118107.0854712        81995220.024257898        621470492.37429428     
   6107611605.4907579        34864120.508478403        540412753.04384863     
   6496186613.4512787        701432615.54476309        1237311734.7817338     
   6239274543.7703295        375948577.03880787        1053151453.9695424     
   6013270799.0311899        153492288.33888245        907983939.82872629     
   5818175379.2338591        34063749.444984913        801809192.35928178     
   5653988284.3783360        17662960.357115746        734627211.56121027     
   7422607364.6968079        72705339.723204613        31556226.378254708     
   7219440220.0155115       -18059714.663614750        14670474.174197730     
   7028371533.5036440       -68496575.152332783        2244415.7644590428     
   6849401305.1612091       -78605241.742950439       -5721948.8509672796     
   6682529534.9881992       -48385714.435470104       -9228619.6720807571     
   6991921145.6499891        62385310.191520214        188877260.45236748     
   6808909947.9983158        3021306.2410168648        180553609.01658082     
   6633632350.3687773       -30564030.969021320        176028442.17011744     
   6466088352.7613764       -38370701.438603878        175301759.91296896     
   6306277955.1761217       -20398705.167715311        178373562.24514663     
   6553589225.9146395        49771570.453280210        358496102.67423308     
   6388844806.1354675        21241866.191949368        353642217.50153869     
   6227469128.2311411        3941301.5134506226        351925607.71317273     
   6069462192.2016621       -2130123.5822188854        353346273.30914116     
   5914823998.0470324        3027590.9049410820        357904214.28944165     
   6107611605.4907579        34864120.508478403        540412753.04384863     
   5959244794.4269648        36601965.189189196        533936299.62907451     
   5809881867.0907316        35019422.295094967        529935912.39364111     
   5659522823.4820566        30116491.826195478        528411591.33754659     
   5508167663.6009407        21893173.782490730        529363336.46079242     
   5653988284.3783360        17662960.357115746        734627211.56121027     
   5520109912.8728123        49101603.232731104        721435855.39918637     
   5380870566.9475546        62670331.375907183        710059356.21151066     
   5236270246.6025658        58369144.786645889        700497713.99818623     
   5086308951.8378468        36198043.464942932        692750928.75920641     
   6682529534.9881992       -48385714.435470104       -9228619.6720807571     
   6509290560.9052525       -9171406.9532077312       -3369883.4475922929     
   6331143199.8711882        13681610.691979170        3892180.1230579200     
   6148087451.8859997        20173338.500094414        12557571.039876288     
   5960123316.9496861        10303776.471127748        22626289.302864093     
   6306277955.1761217       -20398705.167715311        178373562.24514663     
   6132937644.1748152        767500.86792373657        174966830.24036738     
   5956646052.1335068        12096103.436877966        174243765.90144289     
   5777403179.0521879        13587102.539143562        176204369.22838056     
   5595209024.9308701        5240498.1747181416        180848640.22116274     
   5914823998.0470324        3027590.9049410820        357904214.28944165     
   5745040465.3264790        7243130.0536909103        347515304.28503299     
   5574262757.4770365        8144752.1061401367        341090402.26616287     
   5402490874.4987059        5732457.0622882843        338629508.23283798     
   5229724816.3914804        6244.9221317768097        340132622.18506217     
   5508167663.6009407        21893173.782490730        529363336.46079242     
   5345599024.3602533        10255480.604090214        514275538.68638659     
   5183993315.9017868        1827556.6997683048        504432089.21721274     
   5023350538.2255487       -3390597.9304678440        499832988.05327296     
   4863670691.3315315       -5398983.2866232395        500478235.19455826     
   5086308951.8378468        36198043.464942932        692750928.75920641     
   4934613321.2761269        9804552.5191149712        675247533.44444144     
   4785837727.4077511       -6855482.7822399139        664268826.75459635     
   4639982170.2327166       -13782062.439126015        659814808.68966782     
   4497046649.7510252       -10975186.451539278        661885479.24966395     
   5960123316.9496861        10303776.471127748        22626289.302864093     
   5779982611.8439169       -1809770.6220440865        16134670.122422636     
   5601723251.4826498       -7652168.5668947697        13512596.506421320     
   5425345235.8658886       -7223417.3633913994        14760068.454864947     
   5250848564.9936218       -523517.01155591011        19877085.967732701     
   5595209024.9308701        5240498.1747181416        180848640.22116274     
   5426573848.3158178       -1684784.4237842560        175915758.57723370     
   5259145092.4203587       -4588664.6236481667        174766446.09372842     
   5092922757.2444954       -3471142.4248573780        177400702.77064738     
   4927906842.7882309        1667782.1725850105        183818528.60797504     
   5229724816.3914804        6244.9221317768097        340132622.18506217     
   5072349521.3985214       -1804467.2422890663        335971066.71525896     
   4915505723.1002455       -1843523.7577552795        335507104.00186193     
   4759193421.4966669       -110924.62425041199        338740734.04485542     
   4603412616.5877647        3393330.1581964493        345671956.84425718     
   4863670691.3315315       -5398983.2866232395        500478235.19455826     
   4717309631.0920391       -2168819.0775401592        496300594.53649259     
   4570805143.5223207        583254.03080105782        495734570.23080194     
   4424157228.6223879        2857236.0384161472        498780162.27749902     
   4277365886.3922334        4653126.9452984333        505437370.67657089     
   4497046649.7510252       -10975186.451539278        661885479.24966395     
   4361454177.3963652       -2777839.9295556545        656904342.04093707     
   4225043353.6865768        2691668.7420065403        655448844.78057063     
   4087814178.6216707        5433339.5631575584        657518987.46856785     
   3949766652.2016282        5447172.5338752270        663114770.10492313     
   5250848564.9936218       -523517.01155591011        19877085.967732701     
   5053440106.7849188        766757.71563220024        14731727.875657490     
   4855115519.5962963       -996730.82359075546        13893250.178066162     
   4655874803.4277658       -5813982.6291594505        17361652.874961924     
   4455717958.2793169       -13684997.701135874        25136935.966353100     
   4927906842.7882309        1667782.1725850105        183818528.60797504     
   4741327585.7301817        1246323.0720977783        177296813.72466850     
   4554140997.4575500       -1199573.4103176594        175193388.67683449     
   4366347077.9703550       -5669907.2746214867        177508253.46448332     
   4177945827.2685852       -12164678.520843983        184241408.08760083     
   4603412616.5877647        3393330.1581964493        345671956.84425718     
   4427980873.3689089        1355631.0366058350        338134149.22927505     
   4252250596.7008209       -1677179.5824398994        335126040.89076954     
   4076221786.5835061       -5705101.6989080906        336647631.82872105     
   3899894443.0169501       -10728135.312839270        342698922.04314464     
   4277365886.3922334        4653126.9452984333        505437370.67657089     
   4113399969.7011113        1094681.6091549397        497243734.38949239     
   3949444317.3260989       -2429549.3399629593        493691206.81987023     
   3785498929.2671981       -5919565.9020423889        494779787.96770376     
   3621563805.5244055       -9375368.0770993233        500509477.83298934     
   3949766652.2016282        5447172.5338752270        663114770.10492313     
   3797584874.7267852        463474.78974223137        654625569.20530498     
   3645722159.3333931       -3456682.6828744411        650888886.46413445     
   3494178506.0214467       -6313299.8840131760        651904721.88140762     
   3342953914.7909517       -8106376.8136355877        657673075.45712817     
   4455717958.2793169       -13684997.701135874        25136935.966353100     
   4297821450.3549242       -9279827.1246867180        19670993.905603811     
   4140576072.1672831       -2704224.0924055576        18757222.500364304     
   3983981823.7163930        6041811.3957026005        22395621.750622407     
   3828038705.0022445        16958279.339641571        30586191.656401828     
   4177945827.2685852       -12164678.520843983        184241408.08760083     
   4031777778.9268203       -6235624.5963819027        179100104.74359754     
   3886054774.6321692        1176909.4851424694        178076857.34271356     
   3740776814.3846345        10072923.723712921        181171665.88495502     
   3595943898.1842227        20452418.119350433        188384530.37032157     
   3899894443.0169501       -10728135.312839270        342698922.04314464     
   3764214526.5081348       -3647296.3652548790        337641824.11131448     
   3628773568.3568058        4230070.4406113625        336268667.41022509     
   3493571568.5629616        12903965.104756355        338579451.93987256     
   3358608527.1265960        22374387.627174854        344574177.70025820     
   3621563805.5244055       -9375368.0770993233        500509477.83298934     
   3495131693.0988703       -1514842.4313066006        495296152.00876367     
   3368732453.3411880        6455258.7739892006        493332652.70289177     
   3242366086.2513556        14534935.538802743        494618979.91536993     
   3116032591.8293905        22724187.863140583        499155133.64620286     
   3342953914.7909517       -8106376.8136355877        657673075.45712817     
   3224529278.6990271        161737.20547473431        652063088.43593478     
   3105931429.5853214        7852474.4853099585        649268813.22070789     
   2987160367.4498396        14965835.025893688        649290249.81145370     
   2868216092.2925777        21501818.827210665        652127398.20816278     
   3828038705.0022445        16958279.339641571        30586191.656401828     
   3611636275.6332293        8844347.7688200474        24096534.851298239     
   3393994184.8890095       -3401788.3859815598        22380116.185614169     
   3175112432.7696295       -19780129.124702096        25436935.659359869     
   2954991019.2750363       -40290674.447399735        33266993.272537895     
   3595943898.1842227        20452418.119350433        188384530.37032157     
   3391872039.1393285        12552073.096349239        178827130.72551951     
   3187020087.7625194        2051420.3002769947        173932257.83342868     
   2981388044.0537786       -11049540.268877149        173699911.69405296     
   2774975908.0131187       -26750808.611107588        178130092.30737570     
   3358608527.1265960        22374387.627174854        344574177.70025820     
   3166550920.1580844        14592733.677688718        332485199.09956515     
   2974172789.9009109        5742668.7659860849        324948035.86486834     
   2781474136.3550811       -4175807.1078933477        321962687.99616736     
   2588454959.5205898       -15162693.943999052        323529155.49347639     
   3116032591.8293905        22724187.863140583        499155133.64620286     
   2935672918.6894898        14966329.512809515        485070739.97342247     
   2755452291.3041949        7671957.0111633539        475427450.27993691     
   2575370709.6735053        841070.35819387436        470225264.56572866     
   2395428173.7974176       -5526330.4460903406        469464182.83080089     
   2868216092.2925777        21501818.827210665        652127398.20816278     
   2699238034.7335382        13672860.601726532        636583753.34711027     
   2530858591.9723725        7839285.0358002186        625370501.07863653     
   2363077764.0090780        4001092.1294451952        618487641.40272439     
   2195895550.8436527        2158281.8826539516        615935174.31938446     
   5957981502.9046278        1787394450.8713884        1150061772.8800099     
   6088436346.8810387        1502249213.1722260        1227917670.8390532     
   6221622146.6309519        1226207161.3847342        1268411297.1423554     
   6357538902.1543636        959268295.50891316        1271542651.7899151     
   6496186613.4512787        701432615.54476309        1237311734.7817338     
   5434669377.7949514        1630400813.3384852        1033480269.4789315     
   5489904233.9176807        1372507244.3823695        1113872429.4437532     
   5547338750.3112526        1121945876.3290591        1167476485.3130901     
   5606972926.9756651        878716709.17855334        1194292437.0869422     
   5668806763.9109201        642819742.93085361        1194320284.7653093     
   4895280068.4941769        1468584020.5482531        936369328.87715495     
   4905506844.0782452        1247005692.5296898        1018677906.0946521     
   4917401984.4304981        1030988580.4050665        1084772546.7769208     
   4930965489.5509310        820532684.17438316        1134653250.9239619     
   4946197359.4395485        615638003.83763921        1168320018.5357757     
   4339813575.0023069        1301944072.5006921        858728951.07468045     
   4335244177.3627357        1125744557.6141880        942334100.79174972     
   4331811848.9886875        953335273.61275780        1020299481.5338475     
   4329516589.8801603        784716220.49640143        1092625093.3009751     
   4328358400.0371552        619887398.26511931        1159310936.0931313     
   3768269897.3193407        1130480969.1958022        800559136.07150757     
   3779116233.7711487        1008723839.6358627        884841013.53504610     
   3790568343.9858203        888985955.95213187        974057289.58387041     
   3802626227.9633536        771267318.14460969        1068207964.2179807     
   3815289885.7037497        655567926.21329510        1167293037.4373772     
   6496186613.4512787        701432615.54476309        1237311734.7817338     
   6239274543.7703295        375948577.03880787        1053151453.9695424     
   6013270799.0311899        153492288.33888245        907983939.82872629     
   5818175379.2338591        34063749.444984913        801809192.35928178     
   5653988284.3783360        17662960.357115746        734627211.56121027     
   5668806763.9109201        642819742.93085361        1194320284.7653093     
   5518806975.0361862        383327874.04791617        1073456619.8935970     
   5392951603.9836388        204317397.90560317        980611442.13459456     
   5291240650.7532787        105788314.50391364        915784751.48830342     
   5213674115.3451061        87740623.842847586        878976547.95472205     
   4946197359.4395485        615638003.83763921        1168320018.5357757     
   4871754766.9177065        412731779.24172521        1102861744.6316478     
   4814692685.0984316        267760590.32102942        1054447678.2815696     
   4775011113.9817209        180724437.07555032        1023077819.4855387     
   4752710053.5675774        151623319.50529122        1008752168.2435569     
   4328358400.0371552        619887398.26511931        1159310936.0931313     
   4298117919.4148884        464160292.62023187        1141366828.1836972     
   4278494042.3755655        343821865.58515680        1129492648.2696497     
   4269486768.9191871        258872117.15989470        1123688396.3509891     
   4271096099.0457492        209311047.34444356        1123954072.4277136     
   3815289885.7037497        655567926.21329510        1167293037.4373772     
   3797896432.5277357        537613414.18343842        1188971870.5497456     
   3784355675.8150430        432501223.69798708        1205746352.0988369     
   3774667615.5656738        340231354.75694323        1217616482.0846524     
   3768832251.7796259        260803807.36030900        1224582260.5071936     
   5653988284.3783360        17662960.357115746        734627211.56121027     
   5520109912.8728123        49101603.232731104        721435855.39918637     
   5380870566.9475546        62670331.375907183        710059356.21151066     
   5236270246.6025658        58369144.786645889        700497713.99818623     
   5086308951.8378468        36198043.464942932        692750928.75920641     
   5213674115.3451061        87740623.842847586        878976547.95472205     
   5077207532.7116671        85447179.693862677        855283576.49587691     
   4938634506.3305416        76132256.385922670        835569144.20073533     
   4797955036.2017288        59795853.919030428        819833251.06929791     
   4655169122.3252344        36437972.293183327        808075897.10156047     
   4752710053.5675774        151623319.50529122        1008752168.2435569     
   4619837208.9186668        117452373.06543779        978354533.93861163     
   4488112451.1941109        87108383.040112495        954099120.98672140     
   4357535780.3939180        60591349.429322004        935985929.38788927     
   4228107196.5180821        37901272.233060598        924014959.14211357     
   4271096099.0457492        209311047.34444356        1123954072.4277136     
   4147998941.4938030        145117183.34745336        1090648727.7273881     
   4029304401.5382619        95598711.338477850        1065649286.5694689     
   3915012479.1791258        60755631.317518473        1048955748.9539633     
   3805123174.4163928        40587943.284578085        1040568114.8808682     
   3768832251.7796259        260803807.36030900        1224582260.5071936     
   3661692730.4370861        168441610.53991437        1192166157.8622053     
   3562210357.3629942        101603241.28101718        1170219640.9489799     
   3470385132.5573549        60288699.583624601        1158742709.7675192     
   3386217056.0201645        44497985.447731376        1157735364.3178248     
   5086308951.8378468        36198043.464942932        692750928.75920641     
   4934613321.2761269        9804552.5191149712        675247533.44444144     
   4785837727.4077511       -6855482.7822399139        664268826.75459635     
   4639982170.2327166       -13782062.439126015        659814808.68966782     
   4497046649.7510252       -10975186.451539278        661885479.24966395     
   4655169122.3252344        36437972.293183327        808075897.10156047     
   4521308335.3219309        15808329.104516506        794621189.05187917     
   4389587420.8851490        2311594.4709119797        787030784.09364033     
   4260006379.0148811       -4052231.6076426506        785304682.22683728     
   4132565209.7111282       -3283149.1311454773        789442883.45147777     
   4228107196.5180821        37901272.233060598        924014959.14211357     
   4110194437.2632527        22469432.058577061        913698746.87622404     
   3993641386.4481125        11569953.349731922        908586452.16829491     
   3878448044.0726647        5202836.1065244675        908678075.01832068     
   3764614410.1369085        3368080.3289532661        913973615.42630649     
   3805123174.4163928        40587943.284578085        1040568114.8808682     
   3701271627.1000857        29787861.381290674        1032480206.9174751     
   3597999624.0966425        20919593.854222775        1028935830.9785607     
   3495307165.4060702        13983140.703379393        1029934987.0641191     
   3393194251.0283589        8978501.9287533760        1035477675.1741552     
   3386217056.0201645        44497985.447731376        1157735364.3178248     
   3294539904.8324318        37763617.072654963        1150965569.1756310     
   3202662133.8307395        30360515.984382749        1148078920.5244346     
   3110583743.0150924        22288682.182920218        1149075418.3642316     
   3018304732.3854804        13548115.668253660        1153955062.6950204     
   4497046649.7510252       -10975186.451539278        661885479.24966395     
   4361454177.3963652       -2777839.9295556545        656904342.04093707     
   4225043353.6865768        2691668.7420065403        655448844.78057063     
   4087814178.6216707        5433339.5631575584        657518987.46856785     
   3949766652.2016282        5447172.5338752270        663114770.10492313     
   4132565209.7111282       -3283149.1311454773        789442883.45147777     
   4005229066.6682215        235579.40854358673        782756989.41001773     
   3877545230.0818257        2595329.4699401855        779976159.04054046     
   3749513699.9519520        3796101.0530645847        781100392.34303403     
   3621134476.2785883        3837894.1579034328        786129689.31751096     
   3764614410.1369085        3368080.3289532661        913973615.42630649     
   3646618664.1875100        2533411.2208607197        906132065.33236825     
   3528745882.5062675        2108623.0066266060        902575002.63402224     
   3410996065.0931826        2093715.6862533092        903302427.33127069     
   3293369211.9482584        2488689.2597396374        908314339.42411542     
   3393194251.0283589        8978501.9287533760        1035477675.1741552     
   3285622969.9542265        4115655.5074105263        1027029569.8079853     
   3178645310.9598966        1231549.3520735502        1023245375.5610261     
   3072261274.0453649        326183.46273064613        1024125092.4332715     
   2966470859.2106323        1399557.8393912315        1029668720.4247293     
   3018304732.3854804        13548115.668253660        1153955062.6950204     
   2922241983.9683781        4982312.2681915760        1145449502.8368678     
   2827243515.4427176       -35891.493724942207        1141987277.8215425     
   2733309326.8084984       -1506495.6175098419        1143568387.6490414     
   2640439418.0657220        570499.89685404301        1150192832.3193612     
   3949766652.2016282        5447172.5338752270        663114770.10492313     
   3797584874.7267852        463474.78974223137        654625569.20530498     
   3645722159.3333931       -3456682.6828744411        650888886.46413445     
   3494178506.0214467       -6313299.8840131760        651904721.88140762     
   3342953914.7909517       -8106376.8136355877        657673075.45712817     
   3621134476.2785883        3837894.1579034328        786129689.31751096     
   3481616674.1847463        301812.08019733429        778193172.03067768     
   3342290762.3444624       -2594635.8189959526        774911590.95545816     
   3203156740.7577238       -4851449.5396906137        776284946.09185493     
   3064214609.4245377       -6468629.0818941593        782313237.43986595     
   3293369211.9482584        2488689.2597396374        908314339.42411542     
   3166236579.6730490        316581.17975139618        900782138.61751688     
   3039168665.8234940       -1639798.8147226572        897807292.07569909     
   2912165470.3995862       -3380450.7237060070        899389799.79866409     
   2785226993.4013367       -4905374.5471739769        905529661.78641868     
   2966470859.2106323        1399557.8393912315        1029668720.4247293     
   2851444591.1916780        507782.08839678764        1022392468.9658185     
   2736355869.7704849       -592171.67006969452        1019575989.8248566     
   2621204694.9470396       -1900303.4360382557        1021219283.0018495     
   2505991066.7213502       -3416613.2094869614        1027322348.4967927     
   2640439418.0657220        570499.89685404301        1150192832.3193612     
   2537240708.7406545        875414.80616283417        1143024163.0755856     
   2433852374.1854410        548245.61497962475        1140217684.2029312     
   2330274414.4000797       -411007.67669367790        1141773395.7014019     
   2226506829.3845720       -2002345.0688540936        1147691297.5709894     
   3342953914.7909517       -8106376.8136355877        657673075.45712817     
   3224529278.6990271        161737.20547473431        652063088.43593478     
   3105931429.5853214        7852474.4853099585        649268813.22070789     
   2987160367.4498396        14965835.025893688        649290249.81145370     
   2868216092.2925777        21501818.827210665        652127398.20816278     
   3064214609.4245377       -6468629.0818941593        782313237.43986595     
   2953247020.2145529        593404.03794157505        776705238.04021549     
   2842276672.6356821        7646242.5948040485        774296043.10516000     
   2731303566.6879120        14689886.588675499        775085652.63469684     
   2620327702.3712511        21724336.019572139        779074066.62882483     
   2785226993.4013367       -4905374.5471739769        905529661.78641868     
   2682811001.5265107        1278942.8093481064        900122513.77001786     
   2580562705.9356790        8022247.7791750431        898297262.87683177     
   2478482106.6288428        15324540.362317920        900053909.10686004     
   2376569203.6059933        23185820.558760762        905392452.46011114     
   2505991066.7213502       -3416613.2094869614        1027322348.4967927     
   2413221222.6348920        2218353.5196700096        1022314915.6253344     
   2320789529.4853210        8980490.0384464264        1021272472.5357205     
   2228695987.2726245        16869796.346810818        1024195019.2279488     
   2136940595.9968088        25886272.444768190        1031082555.7020142     
   2226506829.3845720       -2002345.0688540936        1147691297.5709894     
   2144477683.5397036        3411636.1689358950        1143282443.6061754     
   2062957143.2846022        10520969.372607946        1143221672.0818312     
   1981945208.6192622        19325654.542158484        1147508982.9979544     
   1901441879.5436912        29825691.677598953        1156144376.3545420     
   2868216092.2925777        21501818.827210665        652127398.20816278     
   2699238034.7335382        13672860.601726532        636583753.34711027     
   2530858591.9723725        7839285.0358002186        625370501.07863653     
   2363077764.0090780        4001092.1294451952        618487641.40272439     
   2195895550.8436527        2158281.8826539516        615935174.31938446     
   2620327702.3712511        21724336.019572139        779074066.62882483     
   2463172282.0558653        15514733.028933764        765591155.57503927     
   2306421695.5234900        10654575.981662869        756498490.90806305     
   2150075942.7741356        7143864.8777905703        751796072.62790179     
   1994135023.8077805        4982599.7172696590        751483900.73455513     
   2376569203.6059933        23185820.558760762        905392452.46011114     
   2231407431.3749576        18646876.055181980        893744197.36291850     
   2086456711.9120700        14811440.778775096        886546042.44678319     
   1941717045.2173445        11679514.729558110        883797987.71170676     
   1797188431.2907727        9251097.9075316191        885500033.15767336     
   2136940595.9968088        25886272.444768190        1031082555.7020142     
   2003943482.6908162        23069289.680451155        1021042878.7107558     
   1870963641.1381209        20309879.427123189        1015513155.6947932     
   1738001071.3387306        17608041.684787035        1014493386.6541251     
   1605055773.2926314        14963776.453463256        1017983571.5887725     
   1901441879.5436912        29825691.677598953        1156144376.3545420     
   1780780436.0034440        28781973.904754281        1147487199.6185405     
   1659942483.2016356        27149891.926706254        1143399830.6520853     
   1538928021.1382668        24929445.743464887        1143882269.4551764     
   1417737049.8133514        22120635.355046690        1148934516.0278168     
   3768269897.3193407        1130480969.1958022        800559136.07150757     
   3779116233.7711487        1008723839.6358627        884841013.53504610     
   3790568343.9858203        888985955.95213187        974057289.58387041     
   3802626227.9633536        771267318.14460969        1068207964.2179807     
   3815289885.7037497        655567926.21329510        1167293037.4373772     
   3207817511.7823043        962345253.53469133        756702788.48958433     
   3235866926.3508768        868216469.31961238        853061548.97463048     
   3263639161.6696868        773163754.27199113        951343275.88462567     
   3291134217.7387338        677187108.39182758        1051547969.2195703     
   3318352094.5580182        580286531.67912173        1153675628.9794645     
   2685624894.7282238        805687468.41846716        722002812.95085835     
   2722273295.5268841        736605801.98224580        829408344.60934937     
   2757761564.0631561        663657028.00473118        935725410.53245282     
   2792089700.3370404        586841146.48592389        1040954010.7201685     
   2825257704.3485360        506158157.42582309        1145094145.1724968     
   2201692046.1570992        660507613.84712970        696459209.45532966     
   2238335341.2991691        613891837.62376261        813881400.43920290     
   2272935551.1662273        560465777.15035200        927203693.52735162     
   2305492675.7582722        500229432.42689764        1036426088.7197757     
   2336006715.0753040        433182803.45339930        1141548586.0164759     
   1756018966.0689304        526805689.82067913        680071978.00299823     
   1784053063.6677351        500074576.24416381        806480716.46419096     
   1809161122.9789016        463590001.70885354        925778124.86932218     
   1831343144.0024297        417351966.21474898        1037964203.2183920     
   1850599126.7383196        361360469.76185018        1143038951.5114009     
   3815289885.7037497        655567926.21329510        1167293037.4373772     
   3797896432.5277357        537613414.18343842        1188971870.5497456     
   3784355675.8150430        432501223.69798708        1205746352.0988369     
   3774667615.5656738        340231354.75694323        1217616482.0846524     
   3768832251.7796259        260803807.36030900        1224582260.5071936     
   3318352094.5580182        580286531.67912173        1153675628.9794645     
   3293770371.6106863        473088871.70220816        1182023664.0251362     
   3272922616.9235187        378337772.59250987        1207264261.8746972     
   3255808830.4965158        296033234.35002744        1229397422.5281491     
   3242429012.3296776        226175256.97476256        1248423145.9854906     
   2825257704.3485360        506158157.42582309        1145094145.1724968     
   2798621752.6789308        411257561.81656575        1179972865.9144557     
   2775601041.0663328        328407766.39733326        1213541063.8274708     
   2756195569.5107422        257608771.16812611        1245798738.9115412     
   2740405338.0121593        198860576.12894595        1276745891.1666684     
   2336006715.0753040        433182803.45339930        1141548586.0164759     
   2312450575.7324700        352119484.52651161        1182819476.2177060     
   2292390948.2434859        282711205.11245871        1224576757.9571569     
   2275827832.6083541        224957965.21124148        1266820431.2348299     
   2262761228.8270712        178859764.82285857        1309550496.0507250     
   1850599126.7383196        361360469.76185018        1143038951.5114009     
   1835256840.7713020        295674639.83204573        1190563494.9348843     
   1823292338.4549794        241248088.73788673        1240371344.2637558     
   1814705619.7893484        198080816.47936928        1292462499.4980142     
   1809496684.7744122        166172823.05649930        1346836960.6376607     
   3768832251.7796259        260803807.36030900        1224582260.5071936     
   3661692730.4370861        168441610.53991437        1192166157.8622053     
   3562210357.3629942        101603241.28101718        1170219640.9489799     
   3470385132.5573549        60288699.583624601        1158742709.7675192     
   3386217056.0201645        44497985.447731376        1157735364.3178248     
   3242429012.3296776        226175256.97476256        1248423145.9854906     
   3164790110.5476179        151894434.28498840        1231332322.1117234     
   3093211666.7274075        97815138.134713173        1222292071.9841094     
   3027693680.8690500        63937368.523949027        1221302395.6026516     
   2968236152.9725428        50261125.452682137        1228363292.9673457     
   2740405338.0121593        198860576.12894595        1276745891.1666684     
   2685355592.9745517        140587688.72498393        1273117540.7064226     
   2634769615.5921965        97194026.838527679        1275120752.0067208     
   2588647405.8650918        68679590.469575405        1282755525.0675640     
   2546988963.7932386        55044379.618128657        1296021859.8889515     
   2262761228.8270712        178859764.82285857        1309550496.0507250     
   2223389177.7178879        134521373.85990059        1317521813.6463008     
   2186884203.9573550        99739907.392449141        1328705681.0168121     
   2153246307.5454760        74515365.420506239        1343102098.1622574     
   2122475488.4822488        58847747.944070101        1360711065.0826373     
   1809496684.7744122        166172823.05649930        1346836960.6376607     
   1778890864.7776244        133695489.68973809        1364545140.9313595     
   1749555431.8228891        105452779.79648554        1383046859.0143845     
   1721490385.9102066        81444693.376740217        1402342114.8867333     
   1694695727.0395763        61671230.430504978        1422430908.5484064     
   3386217056.0201645        44497985.447731376        1157735364.3178248     
   3294539904.8324318        37763617.072654963        1150965569.1756310     
   3202662133.8307395        30360515.984382749        1148078920.5244346     
   3110583743.0150924        22288682.182920218        1149075418.3642316     
   3018304732.3854804        13548115.668253660        1153955062.6950204     
   2968236152.9725428        50261125.452682137        1228363292.9673457     
   2885788934.0602226        39333217.244321585        1220658408.2777100     
   2803640757.5163693        29402116.930846810        1217138064.9627738     
   2721791623.3409824        20467824.512259722        1217802263.0225310     
   2640241531.5340581        12530339.988554597        1222651002.4569860     
   2546988963.7932386        55044379.618128657        1296021859.8889515     
   2474632805.3954806        40181270.048226833        1287964824.8647022     
   2403075351.5486126        27980508.981291175        1284393726.0988526     
   2332316602.2526360        18442096.417328000        1285308563.5914028     
   2262356557.5075483        11566032.356328726        1290709337.3423500     
   2122475488.4822488        58847747.944070101        1360711065.0826373     
   2061071518.8382010        40307775.484369993        1352884818.9366043     
   2000965915.9274690        26095692.135721564        1349845903.9326723     
   1942158679.7500520        16211497.898123264        1351594320.0708406     
   1884649810.3059514        10655192.771578670        1358130067.3511088     
   1694695727.0395763        61671230.430504978        1422430908.5484064     
   1645105074.3883879        39712733.552753866        1415418390.4934168     
   1597312450.6529400        23747666.394135237        1413494598.4642296     
   1551317855.8332324        13776028.954651892        1416659532.4608464     
   1507121289.9292634        9797821.2342978120        1424913192.4832675     
   3018304732.3854804        13548115.668253660        1153955062.6950204     
   2922241983.9683781        4982312.2681915760        1145449502.8368678     
   2827243515.4427176       -35891.493724942207        1141987277.8215425     
   2733309326.8084984       -1506495.6175098419        1143568387.6490414     
   2640439418.0657220        570499.89685404301        1150192832.3193612     
   2640241531.5340581        12530339.988554597        1222651002.4569860     
   2557606787.7238526        5965951.0623770952        1215197826.2625833     
   2475792885.8518968        2137701.9303669930        1212568684.6597679     
   2394799825.9181824        1045592.5925016403        1214763577.6485336     
   2314627607.9227176        2689623.0487902164        1221782505.2288854     
   2262356557.5075483        11566032.356328726        1290709337.3423500     
   2192523246.1578374        6815086.2601219416        1284024533.8663039     
   2123267338.7931793        3988820.1140898466        1281944464.7306011     
   2054588835.4135709        3087233.9182212353        1284469129.9352407     
   1986487736.0190117        4110327.6725261211        1291598529.4802225     
   1884649810.3059514        10655192.771578670        1358130067.3511088     
   1826991359.2703331        7529717.8614194393        1351929625.6480227     
   1769666874.2665691        5517463.0574433804        1350114618.0340416     
   1712676355.2946599        4618428.3596493006        1352685044.5091577     
   1656019802.3546109        4832613.7680501938        1359640905.0733778     
   1507121289.9292634        9797821.2342978120        1424913192.4832675     
   1461011127.0613337        8109845.8662642837        1418913101.6077466     
   1414991492.2720647        6723630.7604319453        1417079144.5700874     
   1369062385.5614538        5639175.9167932272        1419411321.3702922     
   1323223806.9295044        4856481.3353592157        1425909632.0083532     
   2640439418.0657220        570499.89685404301        1150192832.3193612     
   2537240708.7406545        875414.80616283417        1143024163.0755856     
   2433852374.1854410        548245.61497962475        1140217684.2029312     
   2330274414.4000797       -411007.67669367790        1141773395.7014019     
   2226506829.3845720       -2002345.0688540936        1147691297.5709894     
   2314627607.9227176        2689623.0487902164        1221782505.2288854     
   2222786651.9526768        1989874.3864138126        1213776613.5470364     
   2130887607.1918757        1096496.4215033054        1210377110.2837052     
   2038930473.6403158        9489.1540652513504        1211583995.4388952     
   1946915251.2980008       -1271147.4158991575        1217397269.0126009     
   1986487736.0190117        4110327.6725261211        1291598529.4802225     
   1906702242.1108449        2615228.0505036116        1282908874.5395899     
   1826990195.8513086        1364953.9239165783        1279069806.0648694     
   1747351597.2404058        359505.29277694225        1280081324.0560691     
   1667786446.2781324       -401117.84292852879        1285943428.5131845     
   1656019802.3546109        4832613.7680501938        1359640905.0733778     
   1588987479.2151647        2751475.7984347939        1350420946.0532465     
   1522160140.1637416        1353618.1222314239        1346295771.5464272     
   1455537785.2003417        639040.73943746090        1347265381.5529215     
   1389120414.3249629        607743.65004771948        1353329776.0727310     
   1323223806.9295044        4856481.3353592157        1425909632.0083532     
   1269642363.2656353        2398617.6302228570        1416312828.0880086     
   1216397440.1291800        1062489.0164636970        1412055006.7283781     
   1163489037.5201309        848095.49406111240        1413136167.9294600     
   1110917155.4384954        1755437.0630345345        1419556311.6912515     
   2226506829.3845720       -2002345.0688540936        1147691297.5709894     
   2144477683.5397036        3411636.1689358950        1143282443.6061754     
   2062957143.2846022        10520969.372607946        1143221672.0818312     
   1981945208.6192622        19325654.542158484        1147508982.9979544     
   1901441879.5436912        29825691.677598953        1156144376.3545420     
   1946915251.2980008       -1271147.4158991575        1217397269.0126009     
   1875919701.7646015        4252412.6690144539        1213555573.9293799     
   1805310787.0519812        11064755.489858389        1213827890.7574873     
   1735088507.1601322        19165881.046608448        1218214219.4969153     
   1665252862.0890610        28555789.339278281        1226714560.1476736     
   1667786446.2781324       -401117.84292852879        1285943428.5131845     
   1607155720.1158006        5031389.2069926858        1282526593.0810671     
   1546789658.0052533        11346109.762860835        1282989699.0311334     
   1486688259.9464970        18543043.824697137        1287332746.3633916     
   1426851525.9395263        26622191.392491281        1295555735.0778291     
   1389120414.3249629        607743.65004771948        1353329776.0727310     
   1338185738.5932958        5748565.7828466296        1350195501.0612333     
   1287393756.1444287        11365032.191649020        1350707096.9027786     
   1236744466.9783583        17457142.876439750        1354864563.5973706     
   1186237871.0950890        24024897.837230980        1362667901.1450076     
   1110917155.4384954        1755437.0630345345        1419556311.6912515     
   1069009757.1970959        6403942.3966104984        1416562297.8698807     
   1027123081.4694999        11121522.776194930        1416980084.3724191     
   985257128.25571704        15908178.201828778        1420809671.1988564     
   943411897.55574596        20763908.673498988        1428051058.3492036     
   1901441879.5436912        29825691.677598953        1156144376.3545420     
   1780780436.0034440        28781973.904754281        1147487199.6185405     
   1659942483.2016356        27149891.926706254        1143399830.6520853     
   1538928021.1382668        24929445.743464887        1143882269.4551764     
   1417737049.8133514        22120635.355046690        1148934516.0278168     
   1665252862.0890610        28555789.339278281        1226714560.1476736     
   1556861390.6536887        26883569.217562735        1217370587.3474627     
   1448416000.5480211        25031620.194860101        1213040285.8619556     
   1339916691.7720523        22999942.271160185        1213723655.6911578     
   1231363464.3257890        20788535.446474254        1219420696.8350940     
   1426851525.9395263        26622191.392491281        1295555735.0778291     
   1331998208.1666479        24701923.389187157        1285667988.5698733     
   1237213562.3147340        23010561.789095998        1281237776.9217956     
   1142497588.3837800        21548106.592221498        1282265100.1335928     
   1047850286.3738028        20314557.798574805        1288749958.2052729     
   1186237871.0950890        24024897.837230980        1362667901.1450076     
   1106190888.5423210        22237036.419621587        1352379403.2857769     
   1026335168.5017836        21086716.709444284        1347992303.8315978     
   946670710.97346616        20573938.706672013        1349506602.7824502     
   867197515.95738339        20698702.411341935        1356922300.1383700     
   943411897.55574596        20763908.673498988        1428051058.3492036     
   879439431.78071272        19488908.308878183        1417504831.4951746     
   815780819.10916591        19260084.955889106        1413303866.5913596     
   752436059.54110396        20077438.614515454        1415448163.6377542     
   689405153.07653666        21940969.284787625        1423937722.6343591     
   1756018966.0689304        526805689.82067913        680071978.00299823     
   1784053063.6677351        500074576.24416381        806480716.46419096     
   1809161122.9789016        463590001.70885354        925778124.86932218     
   1831343144.0024297        417351966.21474898        1037964203.2183920     
   1850599126.7383196        361360469.76185018        1143038951.5114009     
   1326360383.7903268        397908115.13709807        669739063.25426519     
   1339575984.2749853        375516788.15706176        791891197.27638447     
   1350597056.0440879        345810365.45850581        908754328.20603442     
   1359423599.0976346        308788847.04143000        1020328456.0432149     
   1366055613.4356256        264452232.90583467        1126613580.7879257     
   890471028.64789701        267141308.59436911        662358409.86953104     
   894074780.48581457        250651762.75103354        781107367.28667331     
   896215513.18025839        229285486.42945299        896389648.57493830     
   896893226.73122907        203042479.62962765        1008205253.7343253     
   896107921.13872623        171922742.35155737        1116554182.7648349     
   448350900.64164090        134505270.19249228        657930017.84879637     
   447549452.30022281        125479500.02607900        774129226.49505794     
   446016494.38741356        114015364.62169558        888684085.97603345     
   443752026.90321338        100112863.97934245        1001594596.2917236     
   440756049.84762222        83771998.099019200        1112860757.4421275     
 -0.22844117851939938       -6.8532353555819811E-002   656453887.19206071     
 -0.28178974149505454       -1.7801711341289120E-002   770956774.90153742     
 -0.33444697903974230        3.5233609184987760E-002   885637640.40932047     
 -0.38641265382041556        9.0573835348037757E-002   1000496483.7154096     
 -0.43768695741917268       0.14821880558982289        1115533304.8198047     
   1850599126.7383196        361360469.76185018        1143038951.5114009     
   1835256840.7713020        295674639.83204573        1190563494.9348843     
   1823292338.4549794        241248088.73788673        1240371344.2637558     
   1814705619.7893484        198080816.47936928        1292462499.4980142     
   1809496684.7744122        166172823.05649930        1346836960.6376607     
   1366055613.4356256        264452232.90583467        1126613580.7879257     
   1360340762.5153551        216925419.53891122        1182019098.2911952     
   1357159249.3300805        177843065.28864050        1238356486.8720639     
   1356511073.8798020        147205170.15502244        1295625746.5305312     
   1358396236.1645195        125011734.13805676        1353826877.2665968     
   896107921.13872623        171922742.35155737        1116554182.7648349     
   896159262.90009248        141396572.83798206        1178855487.4462428     
   897899496.48075688        116500042.72206762        1240737228.3774614     
   901328621.88071942        97233152.003813118        1302199405.5584900     
   906446639.09998035        83595900.683219850        1363242018.9893296     
   440756049.84762222        83771998.099019200        1112860757.4421275     
   442712341.92551440        69088099.729258418        1181072662.4000270     
   445513079.90700698        57219021.038166314        1247513568.7799489     
   449158263.79210061        48164762.025743574        1312183476.5818915     
   453647893.58079427        41925322.691988260        1375082385.8058562     
 -0.43768695741917268       0.14821880558982289        1115533304.8198047     
 -0.40837910548629092       0.21274043653081454        1188670623.1525488     
 -0.39116847781739406       0.23693755291098739        1258685508.0795262     
 -0.38605439207997211       0.22081290622099750        1325577959.6007361     
 -0.39303763997989716       0.16436416101787960        1389347977.7161794     
   1809496684.7744122        166172823.05649930        1346836960.6376607     
   1778890864.7776244        133695489.68973809        1364545140.9313595     
   1749555431.8228891        105452779.79648554        1383046859.0143845     
   1721490385.9102066        81444693.376740217        1402342114.8867333     
   1694695727.0395763        61671230.430504978        1422430908.5484064     
   1358396236.1645195        125011734.13805676        1353826877.2665968     
   1332843692.5165808        99874280.518035769        1372837829.8825915     
   1308243939.1622713        77912794.543442011        1393248561.9591296     
   1284596976.1015847        59127276.214261830        1415059073.4962101     
   1261902803.3345256        43517725.530503035        1438269364.4938328     
   906446639.09998035        83595900.683219850        1363242018.9893296     
   887679490.86151528        66317962.528128535        1383185214.3877885     
   869547536.16825104        51157336.190373510        1405134430.9180090     
   852050775.02018607        38114021.669948608        1429089668.5799894     
   835189207.41732121        27188018.966858268        1455050927.3737321     
   453647893.58079427        41925322.691988260        1375082385.8058562     
   443398259.81242633        33026535.720015854        1395587294.4469497     
   433466222.84083104        25186404.737286389        1418704465.8910222     
   423851782.66601008        18404929.743804008        1444433900.1380734     
   414554939.28796238        12682110.739565507        1472775597.1881027     
 -0.39303763997989716       0.16436416101787960        1389347977.7161794     
 -0.63068711196768823        9.3692779038808349E-002   1410044070.0600750     
 -0.81998869690628529       0.18418084708470295        1433958666.8781688     
 -0.96094407328362297       0.43582294366812857        1461091768.1704586     
  -1.0535511108211471       0.84862634318994712        1491443373.9369447     
   1694695727.0395763        61671230.430504978        1422430908.5484064     
   1645105074.3883879        39712733.552753866        1415418390.4934168     
   1597312450.6529400        23747666.394135237        1413494598.4642296     
   1551317855.8332324        13776028.954651892        1416659532.4608464     
   1507121289.9292634        9797821.2342978120        1424913192.4832675     
   1261902803.3345256        43517725.530503035        1438269364.4938328     
   1226753697.1947036        27662017.955446005        1434981645.9405656     
   1192953112.7088571        16301382.560307145        1436305747.3003864     
   1160501049.8769855        9435819.3450845480        1442241668.5732939     
   1129397508.6990905        7065328.3097836971        1452789409.7592895     
   835189207.41732121        27188018.966858268        1455050927.3737321     
   813119058.89539266        17026324.026453108        1454963583.1834612     
   791947924.76567578        9861343.7267527580        1459011152.7935622     
   771675805.02816856        5693078.0677528381        1467193636.2040365     
   752302699.68287206        4521527.0494542420        1479511033.4148822     
   414554939.28796238        12682110.739565507        1472775597.1881027     
   404201159.49045491        7805651.7657715827        1475364202.2221034     
   394296886.82339305        4427549.8934621513        1481610814.9437604     
   384842121.28677922        2547805.1226468533        1491515435.3530765     
   375836862.88060963        2166417.4533132315        1505078063.4500468     
  -1.0535511108211471       0.84862634318994712        1491443373.9369447     
  -1.0201094547833822        1.1734029041461662        1496183503.0564919     
  -1.1179867471349685        1.0604503310272717        1504104733.7509801     
  -1.3471817640380253       0.50977096856939097        1515207066.0204105     
  -1.7076980855042969      -0.47864468798709287        1529490499.8647816     
   1507121289.9292634        9797821.2342978120        1424913192.4832675     
   1461011127.0613337        8109845.8662642837        1418913101.6077466     
   1414991492.2720647        6723630.7604319453        1417079144.5700874     
   1369062385.5614538        5639175.9167932272        1419411321.3702922     
   1323223806.9295044        4856481.3353592157        1425909632.0083532     
   1129397508.6990905        7065328.3097836971        1452789409.7592895     
   1094345934.9338241        5658661.0390654206        1447156584.2791417     
   1059362257.2337856        4478313.9857773185        1445799314.7099524     
   1024446475.5989801        3524287.1499279141        1448717601.0517244     
   989598590.02940285        2796580.5315091014        1455911443.3044574     
   752302699.68287206        4521527.0494542420        1479511033.4148822     
   728622349.51483846        3489958.2244184613        1474219069.3144374     
   704987263.39860547        2609269.5720540285        1473312083.1980510     
   681397441.33417392        1879461.0923595726        1476790075.0657253     
   657852883.32154357        1300532.7853350341        1484653044.9174616     
   375836862.88060963        2166417.4533132315        1505078063.4500468     
   363840370.80438113        1603737.4223342389        1500100556.7136350     
   351866510.76652426        1116497.5192629248        1499617450.0343840     
   339915282.76703733        704697.74409043789        1503628743.4122925     
   327986686.80592406        368338.09683124721        1512134436.8473644     
  -1.7076980855042969      -0.47864468798709287        1529490499.8647816     
  -1.1975507581922002       -1.3671964659301972        1524801046.4767368     
 -0.66246024233983525       -2.1726028942936257        1524715415.2189531     
 -0.10242760165676190       -2.8948706412781697        1529233606.0914297     
  0.48254587139271599       -3.5340001987065284        1538355619.0941651     
   1323223806.9295044        4856481.3353592157        1425909632.0083532     
   1269642363.2656353        2398617.6302228570        1416312828.0880086     
   1216397440.1291800        1062489.0164636970        1412055006.7283781     
   1163489037.5201309        848095.49406111240        1413136167.9294600     
   1110917155.4384954        1755437.0630345345        1419556311.6912515     
   989598590.02940285        2796580.5315091014        1455911443.3044574     
   949964979.91654253        1118924.4027802944        1447251544.1977620     
   910583760.23471093        282569.71081626415        1443801717.3596528     
   871454930.98391855        287516.45564454794        1445561962.7901287     
   832578492.16415501        1133764.6372419000        1452532280.4891875     
   657852883.32154357        1300532.7853350341        1484653044.9174616     
   631798791.63932645        292589.69688999653        1476831898.8453040     
   605912960.29176497       -154485.60936722159        1474091914.7496090     
   580195389.27886069       -40693.133435457945        1476433092.6303725     
   554646078.60061121        633967.12467983365        1483855432.4875913     
   327986686.80592406        368338.09683124721        1512134436.8473644     
   315143798.43399119       -80386.487432301044        1505053892.0306408     
   302385040.30033600       -248676.94410245121        1502925598.8982518     
   289710412.40496641       -136533.27315486968        1505749557.4501953     
   277119914.74786788        256044.52536378801        1513525767.6864731     
  0.48254587139271599       -3.5340001987065284        1538355619.0941651     
  0.30053816578247616       -4.1501849576012066        1531917523.7537701     
  0.26043201478149181       -4.2933652283544212        1530302769.8055787     
  0.36222908829939549       -3.9635350976560404        1533511357.2495956     
  0.60592236356554330       -3.1607162400180644        1541543286.0858173     
   1110917155.4384954        1755437.0630345345        1419556311.6912515     
   1069009757.1970959        6403942.3966104984        1416562297.8698807     
   1027123081.4694999        11121522.776194930        1416980084.3724191     
   985257128.25571704        15908178.201828778        1420809671.1988564     
   943411897.55574596        20763908.673498988        1428051058.3492036     
   832578492.16415501        1133764.6372419000        1452532280.4891875     
   799536839.16071606        4136812.5394892693        1449889570.4485869     
   766510728.01794994        7191666.6439821124        1451034585.0589726     
   733500158.73585773        10298326.950718611        1455967324.3203418     
   700505131.31443751        13456793.459697753        1464687788.2326992     
   554646078.60061121        633967.12467983365        1483855432.4875913     
   531544240.34108347        2313778.4474013746        1481557982.1324351     
   508452763.28909111        4028127.1285736859        1483424180.7553406     
   485371647.44463098        5777013.1681882441        1489454028.3563144     
   462300892.80770773        7560436.5662567317        1499647524.9353580     
   277119914.74786788        256044.52536378801        1513525767.6864731     
   265031960.73819503        934840.12033550441        1511567532.9214234     
   252949187.28292158        1630904.2299702466        1514148871.4615252     
   240871594.38204378        2344236.8542580754        1521269783.3067770     
   228799182.03555995        3074837.9931936711        1532930268.4571710     
  0.60592236356554330       -3.1607162400180644        1541543286.0858173     
  0.35204998257258202       -2.4417123542843866        1539918222.8155560     
  -5.5559952243333655E-004  -2.0518205266696699        1543208657.1775258     
 -0.45191037267611445       -1.9910909345270298        1551414589.1717212     
  -1.0020022357624994       -2.2594870571615728        1564536018.7981503     
   943411897.55574596        20763908.673498988        1428051058.3492036     
   879439431.78071272        19488908.308878183        1417504831.4951746     
   815780819.10916591        19260084.955889106        1413303866.5913596     
   752436059.54110396        20077438.614515454        1415448163.6377542     
   689405153.07653666        21940969.284787625        1423937722.6343591     
   700505131.31443751        13456793.459697753        1464687788.2326992     
   653020443.80520451        12648941.631762207        1456050127.2557578     
   605771146.09866512        12625722.479467958        1453642307.1784434     
   558757238.19481575        13387136.002808630        1457464328.0007656     
   511978720.09365976        14933182.201792598        1467516189.7227123     
   462300892.80770773        7560436.5662567317        1499647524.9353580     
   430974209.13404572        7120800.9459377527        1492826889.3179021     
   399804451.96228069        7204253.6652750671        1492120673.5494957     
   368791621.29240829        7810794.7242527604        1497528877.6301446     
   337935717.12443620        8940424.1229002178        1509051501.5598309     
   228799182.03555995        3074837.9931936711        1532930268.4571710     
   213300727.76723784        2904486.2514252365        1527835117.6816120     
   197880736.70001140        2995678.5133100450        1528738965.7045214     
   182539208.83388945        3348414.7788767815        1535641812.5259006     
   167276144.16886500        3962695.0481002331        1548543658.1457479     
  -1.0020022357624994       -2.2594870571615728        1564536018.7981503     
 -0.29521824545403863       -2.4517784322921474        1561074812.3468893     
  0.31186582620386494       -2.9764028695912446        1563497183.6435132     
  0.81925043672070008       -3.8333581501378471        1571803132.6880255     
   1.2269480303545448       -5.0226034869610841        1585992659.4804268     
 -0.22844117851939938       -6.8532353555819811E-002   656453887.19206071     
 -0.28178974149505454       -1.7801711341289120E-002   770956774.90153742     
 -0.33444697903974230        3.5233609184987760E-002   885637640.40932047     
 -0.38641265382041556        9.0573835348037757E-002   1000496483.7154096     
 -0.43768695741917268       0.14821880558982289        1115533304.8198047     
  -448350901.09085828       -134505270.32725748        657930017.89879549     
  -447549452.85537630       -125479500.06317553        774129226.55227745     
  -446016495.04795820       -114015364.55930662        888684086.04193437     
  -443752027.66860372       -100112863.81565028        1001594596.3677661     
  -440756050.71731341       -83771997.832206845        1112860757.5297728     
  -890471029.07411921       -267141308.72223577        662358409.96847165     
  -894074781.01303864       -250651762.78377214        781107367.39907765     
  -896215513.80877721       -229285486.36803913        896389648.70372725     
  -896893227.46133494       -203042479.47503662        1008205253.8824203     
  -896107921.97071159       -171922742.10476443        1116554182.9351575     
  -1326360384.1782238       -397908115.25346714        669739063.40108907     
  -1339575984.7547767       -375516788.17959142        791891197.44193792     
  -1350597056.6169040       -345810365.39096403        908754328.39469910     
  -1359423599.7646060       -308788846.88758481        1020328456.2593726     
  -1366055614.1978819       -264452232.66945356        1126613581.0359588     
  -1756018966.4031725       -526805689.92095172        680071978.19664824     
  -1784053064.0805907       -500074576.25063348        806480716.68085849     
  -1809161123.4723387       -463590001.62808132        925778125.11485016     
  -1831343144.5784168       -417351966.05329490        1037964203.4986227     
  -1850599127.3988247       -361360469.52627432        1143038951.8321769     
 -0.43768695741917268       0.14821880558982289        1115533304.8198047     
 -0.40837910548629092       0.21274043653081454        1188670623.1525488     
 -0.39116847781739406       0.23693755291098739        1258685508.0795262     
 -0.38605439207997211       0.22081290622099750        1325577959.6007361     
 -0.39303763997989716       0.16436416101787960        1389347977.7161794     
  -440756050.71731341       -83771997.832206845        1112860757.5297728     
  -442712342.74075121       -69088099.344635516        1181072662.4714770     
  -445513080.69005090       -57219020.609936699        1247513568.8345942     
  -449158264.56521177       -48164761.628108084        1312183476.6191242     
  -453647894.36623400       -41925322.399151415        1375082385.8250659     
  -896107921.97071159       -171922742.10476443        1116554182.9351575     
  -896159263.68352544       -141396572.48513183        1178855487.5864305     
  -897899497.23596501       -116500042.33091924        1240737228.4862955     
  -901328622.62803090       -97233151.642126590        1302199405.6347525     
  -906446639.85972250       -83595900.418753684        1363242019.0318010     
  -1366055614.1978819       -264452232.66945356        1126613581.0359588     
  -1360340763.2367015       -216925419.20874870        1182019098.4974084     
  -1357159250.0289116       -177843064.92601296        1238356487.0346298     
  -1356511074.5745120       -147205169.82124376        1295625746.6476216     
  -1358396236.8735027       -125011733.89444387        1353826877.3363864     
  -1850599127.3988247       -361360469.52627432        1143038951.8321769     
  -1835256841.4002795       -295674639.51548648        1190563495.2044113     
  -1823292339.0688901       -241248088.39521521        1240371344.4795971     
  -1814705620.4046552       -198080816.16545975        1292462499.6577334     
  -1809496685.4075751       -166172822.82622099        1346836960.7388210     
 -0.39303763997989716       0.16436416101787960        1389347977.7161794     
 -0.63068711196768823        9.3692779038808349E-002   1410044070.0600750     
 -0.81998869690628529       0.18418084708470295        1433958666.8781688     
 -0.96094407328362297       0.43582294366812857        1461091768.1704586     
  -1.0535511108211471       0.84862634318994712        1491443373.9369447     
  -453647894.36623400       -41925322.399151415        1375082385.8250659     
  -443398261.06264925       -33026535.570763409        1395587294.5859122     
  -433466224.46965504       -25186404.444343403        1418704466.1583438     
  -423851784.58724910       -18404929.019884586        1444433900.5423608     
  -414554941.41543436       -12682109.297397092        1472775597.7379622     
  -906446639.85972250       -83595900.418753684        1363242019.0318010     
  -887679492.05093825       -66317962.402118564        1383185214.6575055     
  -869547537.71168053       -51157335.950572878        1405134431.4321828     
  -852050776.84194851       -38114021.064112931        1429089669.3558328     
  -835189209.44174433       -27188017.742745191        1455050928.4284563     
  -1358396236.8735027       -125011733.89444387        1353826877.3363864     
  -1332843693.5955527       -99874280.400370061        1372837830.2748554     
  -1308243940.5460656       -77912794.334510684        1393248562.6996846     
  -1284596977.7250426       -59127275.696861684        1415059074.6108761     
  -1261902805.1324818       -43517724.487422407        1438269366.0084283     
  -1809496685.4075751       -166172822.82622099        1346836960.7388210     
  -1778890865.6964927       -133695489.56552112        1364545141.4379611     
  -1749555432.9728112       -105452779.59615737        1383046859.9608507     
  -1721490387.2365284       -81444692.918123245        1402342116.3074887     
  -1694695728.4876473       -61671229.531428754        1422430910.4778774     
  -1.0535511108211471       0.84862634318994712        1491443373.9369447     
  -1.0201094547833822        1.1734029041461662        1496183503.0564919     
  -1.1179867471349685        1.0604503310272717        1504104733.7509801     
  -1.3471817640380253       0.50977096856939097        1515207066.0204105     
  -1.7076980855042969      -0.47864468798709287        1529490499.8647816     
  -414554941.41543436       -12682109.297397092        1472775597.7379622     
  -404201161.57043898       -7805649.7591221333        1475364202.5256195     
  -394296889.09364676       -4427548.1148581207        1481610815.0056460     
  -384842123.98505729       -2547804.3646028638        1491515435.1780419     
  -375836866.24467158       -2166418.5083601475        1505078063.0428073     
  -835189209.44174433       -27188017.742745191        1455050928.4284563     
  -813119060.87825608       -17026322.318888903        1454963583.7745245     
  -791947926.91985655       -9861342.2453262806        1459011152.9303913     
  -771675807.56654453       -5693077.5220560133        1467193635.8960562     
  -752302702.81831932       -4521528.1490770876        1479511032.6715188     
  -1261902805.1324818       -43517724.487422407        1438269366.0084283     
  -1226753698.9435630       -27662016.505901515        1434981646.8032091     
  -1192953114.5966191       -16301381.330962896        1436305747.5252163     
  -1160501052.0916455       -9435818.9625919461        1442241668.1744504     
  -1129397511.4286451       -7065329.4007978439        1452789408.7509096     
  -1694695728.4876473       -61671229.531428754        1422430910.4778774     
  -1645105075.7663624       -39712732.320168972        1415418391.6116731     
  -1597312452.1239326       -23747665.371761203        1413494598.7901223     
  -1551317857.5603614       -13776028.686213315        1416659532.0132253     
  -1507121292.0756462       -9797822.2635211945        1424913191.2809844     
  -1.7076980855042969      -0.47864468798709287        1529490499.8647816     
  -1.1975507581922002       -1.3671964659301972        1524801046.4767368     
 -0.66246024233983525       -2.1726028942936257        1524715415.2189531     
 -0.10242760165676190       -2.8948706412781697        1529233606.0914297     
  0.48254587139271599       -3.5340001987065284        1538355619.0941651     
  -375836866.24467158       -2166418.5083601475        1505078063.0428073     
  -363840373.12912458       -1603740.0688987523        1500100556.4106147     
  -351866512.00537729       -1116501.6021006107        1499617449.8073874     
  -339915282.87342340       -704703.10794854164        1503628743.2331271     
  -327986685.73326892       -368344.58645944297        1512134436.6878331     
  -752302702.81831932       -4521528.1490770876        1479511032.6715188     
  -728622351.67250276       -3489960.7541485727        1474219068.7756474     
  -704987264.53522062       -2609273.3876710236        1473312082.8074484     
  -681397441.40647268       -1879466.0496391356        1476790074.7669225     
  -657852882.28626096       -1300538.7400619090        1484653044.6540687     
  -1129397511.4286451       -7065329.4007978439        1452789408.7509096     
  -1094345936.8276818       -5658663.4229346514        1447156583.5718346     
  -1059362258.2519932       -4478317.5293194056        1445799314.2191360     
  -1024446475.7015781       -3524291.7199498415        1448717600.6928163     
  -989598589.17643738       -2796585.9948279262        1455911442.9928758     
  -1507121292.0756462       -9797822.2635211945        1424913191.2809844     
  -1461011128.5946636       -8109848.0752642155        1418913100.7991755     
  -1414991493.1556957       -6723634.0270535350        1417079144.0424492     
  -1369062385.7587340       -5639180.1188666821        1419411321.0108080     
  -1323223806.4037912       -4856486.3507371545        1425909631.7042491     
  0.48254587139271599       -3.5340001987065284        1538355619.0941651     
  0.30053816578247616       -4.1501849576012066        1531917523.7537701     
  0.26043201478149181       -4.2933652283544212        1530302769.8055787     
  0.36222908829939549       -3.9635350976560404        1533511357.2495956     
  0.60592236356554330       -3.1607162400180644        1541543286.0858173     
  -327986685.73326892       -368344.58645944297        1512134436.6878331     
  -315143797.69600081        80378.874698981643        1505053892.1331260     
  -302385039.64242047        248669.05689767003        1502925599.2601151     
  -289710411.57252246        136525.96015515924        1505749558.0687988     
  -277119913.48630697       -256050.41552862525        1513525768.5591757     
  -657852882.28626096       -1300538.7400619090        1484653044.6540687     
  -631798790.91690063       -292596.66773951054        1476831899.0718720     
  -605912959.65680861        154478.37368986011        1474091915.4608583     
  -580195388.50598145        40686.384236514568        1476433093.8210297     
  -554646077.46442151       -633972.63610994816        1483855434.1523843     
  -989598589.17643738       -2796585.9948279262        1455911442.9928758     
  -949964979.36215568       -1118930.7774774432        1447251544.5700078     
  -910583759.78272665       -282576.34296691418        1443801718.4078107     
  -871454930.43814802       -287522.69129270315        1445561964.5062866     
  -832578491.32841933       -1133769.8224512339        1452532282.8654368     
  -1323223806.4037912       -4856486.3507371545        1425909631.7042491     
  -1269642363.0317681       -2398623.4545226097        1416312828.6275303     
  -1216397440.0201795       -1062495.0930925012        1412055008.1009717     
  -1163489037.3690243       -848101.26643776894        1413136170.1245730     
  -1110917155.0783038       -1755441.9745650887        1419556314.6983345     
  0.60592236356554330       -3.1607162400180644        1541543286.0858173     
  0.35204998257258202       -2.4417123542843866        1539918222.8155560     
  -5.5559952243333655E-004  -2.0518205266696699        1543208657.1775258     
 -0.45191037267611445       -1.9910909345270298        1551414589.1717212     
  -1.0020022357624994       -2.2594870571615728        1564536018.7981503     
  -277119913.48630697       -256050.41552862525        1513525768.5591757     
  -265031960.01226598       -934844.76798942685        1511567533.5229359     
  -252949187.27527830       -1630908.2439622730        1514148871.8155012     
  -240871595.27534303       -2344240.8434418738        1521269783.4368799     
  -228799184.01246467       -3074842.5664445907        1532930268.3870709     
  -554646077.46442151       -633972.63610994816        1483855434.1523843     
  -531544239.70080554       -2313782.8915377557        1481557983.2721260     
  -508452763.31255484       -4028131.0648493469        1483424181.4172580     
  -485371648.29967505       -5777017.1560657620        1489454028.5877876     
  -462300894.66216123       -7560441.1651657224        1499647524.7837043     
  -832578491.32841933       -1133769.8224512339        1452532282.8654368     
  -799536838.71356595       -4136816.8123469353        1449889572.0631309     
  -766510728.11239564       -7191670.5145227909        1451034585.9827998     
  -733500159.52490008       -10298330.928945988        1455967324.6244411     
  -700505132.95109165       -13456798.055656970        1464687787.9880629     
  -1110917155.0783038       -1755441.9745650887        1419556314.6983345     
  -1069009757.0505512       -6403946.5304318666        1416562299.8959498     
  -1027123081.6747931       -11121526.592950761        1416980085.5121202     
  -985257128.95102775       -15908182.162110567        1420809671.5468500     
  -943411898.87925839       -20763913.237922490        1428051058.0001328     
  -1.0020022357624994       -2.2594870571615728        1564536018.7981503     
 -0.29521824545403863       -2.4517784322921474        1561074812.3468893     
  0.31186582620386494       -2.9764028695912446        1563497183.6435132     
  0.81925043672070008       -3.8333581501378471        1571803132.6880255     
   1.2269480303545448       -5.0226034869610841        1585992659.4804268     
  -228799184.01246467       -3074842.5664445907        1532930268.3870709     
  -213300728.33756438       -2904491.1710497588        1527835117.4321096     
  -197880736.01696002       -2995684.2899740264        1528738965.2614162     
  -182539207.05065542       -3348421.9232297912        1535641811.8750062     
  -167276141.43864495       -3962704.0708049536        1548543657.2728622     
  -462300894.66216123       -7560441.1651657224        1499647524.7837043     
  -430974209.62946856       -7120805.8651868105        1492826888.8613420     
  -399804451.20567340       -7204259.2615289390        1492120672.7596378     
  -368791619.39077467       -7810801.3541906327        1497528876.4785984     
  -337935714.18477190       -8940432.1431799084        1509051500.0182166     
  -700505132.95109165       -13456798.055656970        1464687787.9880629     
  -653020444.17092502       -12648946.534170449        1456050126.6345932     
  -605771145.25426030       -12625727.891023844        1453642306.1381741     
  -558757236.20109355       -13387142.126205444        1457464326.4988058     
  -511978717.01142371       -14933189.239709049        1467516187.7164776     
  -943411898.87925839       -20763913.237922490        1428051058.0001328     
  -879439431.96194863       -19488913.178054214        1417504830.7518616     
  -815780818.16273570       -19260090.178506076        1413303865.3970261     
  -752436057.48161852       -20077444.239277333        1415448161.9356246     
  -689405149.91860294       -21940975.360389739        1423937720.3676646     
  -1756018966.4031725       -526805689.92095172        680071978.19664824     
  -1784053064.0805907       -500074576.25063348        806480716.68085849     
  -1809161123.4723387       -463590001.62808132        925778125.11485016     
  -1831343144.5784168       -417351966.05329490        1037964203.4986227     
  -1850599127.3988247       -361360469.52627432        1143038951.8321769     
  -2201692046.4266357       -660507613.92799067        696459209.69168341     
  -2238335341.6343417       -613891837.62556946        813881400.69951451     
  -2272935551.5689754       -560465777.07957351        927203693.81916559     
  -2305492676.2305365       -500229432.29000288        1036426089.0506365     
  -2336006715.6190252       -433182803.25685763        1141548586.3939273     
  -2685624894.9262853       -805687468.47788560        722002813.22273004     
  -2722273295.7727399       -736605801.97589958        829408344.90615106     
  -2757761564.3587198       -663657027.93899846        935725410.86343086     
  -2792089700.6842251       -586841146.36718190        1040954011.0945691     
  -2825257704.7492557       -506158157.26044941        1145094145.5995657     
  -3207817511.9021206       -962345253.57063615        756702788.78978777     
  -3235866926.4957848       -868216469.30162406        853061549.30076826     
  -3263639161.8415723       -773163754.20635581        951343276.24764574     
  -3291134217.9394832       -677187108.28483129        1051547969.6304208     
  -3318352094.7895164       -580286531.53705049        1153675629.4490929     
  -3768269897.3541422       -1130480969.2062426        800559136.39285684     
  -3779116233.8034773       -1008723839.6027426        884841013.88336587     
  -3790568344.0175333       -888985955.88164520        974057289.97181046     
  -3802626227.9963098       -771267318.04295158        1068207964.6581913     
  -3815289885.7398071       -655567926.08666039        1167293037.9425077     
  -1850599127.3988247       -361360469.52627432        1143038951.8321769     
  -1835256841.4002795       -295674639.51548648        1190563495.2044113     
  -1823292339.0688901       -241248088.39521521        1240371344.4795971     
  -1814705620.4046552       -198080816.16545975        1292462499.6577334     
  -1809496685.4075751       -166172822.82622099        1346836960.7388210     
  -2336006715.6190252       -433182803.25685763        1141548586.3939273     
  -2312450576.2588081       -352119484.26672304        1182819476.5347900     
  -2292390948.7657013       -282711204.83362150        1224576758.2095242     
  -2275827833.1397038       -224957964.95755202        1266820431.4181297     
  -2262761229.3808155       -178859764.63851261        1309550496.1606050     
  -2825257704.7492557       -506158157.26044941        1145094145.5995657     
  -2798621753.0818820       -411257561.60732394        1179972866.2757769     
  -2775601041.4815717       -328407766.17774558        1213541064.1167786     
  -2756195569.9483266       -257608770.97171593        1245798739.1225715     
  -2740405338.4821448       -198860575.98923314        1276745891.2931545     
  -3318352094.7895164       -580286531.53705049        1153675629.4490929     
  -3293770371.8694992       -473088871.53728712        1182023664.4273713     
  -3272922617.2165003       -378337772.42758703        1207264262.2013602     
  -3255808830.8305216       -296033234.20795155        1229397422.7710605     
  -3242429012.7115612       -226175256.87837768        1248423146.1364703     
  -3815289885.7398071       -655567926.08666039        1167293037.9425077     
  -3797896432.6216607       -537613414.05661404        1188971870.9895732     
  -3784355675.9704895       -432501223.58314681        1205746352.4632692     
  -3774667615.7862916       -340231354.66626108        1217616482.3635960     
  -3768832252.0690670       -260803807.30595148        1224582260.6905532     
  -1809496685.4075751       -166172822.82622099        1346836960.7388210     
  -1778890865.6964927       -133695489.56552112        1364545141.4379611     
  -1749555432.9728112       -105452779.59615737        1383046859.9608507     
  -1721490387.2365284       -81444692.918123245        1402342116.3074887     
  -1694695728.4876473       -61671229.531428754        1422430910.4778774     
  -2262761229.3808155       -178859764.63851261        1309550496.1606050     
  -2223389178.4601660       -134521373.77095068        1317521814.2136250     
  -2186884204.8592215       -99739907.302407146        1328705682.0794404     
  -2153246308.5779848       -74515365.232888103        1343102099.7580514     
  -2122475489.6164536       -58847747.562385082        1360711067.2494566     
  -2740405338.4821448       -198860575.98923314        1276745891.2931545     
  -2685355593.5260816       -140587688.66705143        1273117541.3123646     
  -2634769616.2220306       -97194026.851577997        1275120753.1334150     
  -2588647406.5699940       -68679590.542813778        1282755526.7563071     
  -2546988964.5699682       -55044379.740755796        1296021862.1810403     
  -3242429012.7115612       -226175256.87837768        1248423146.1364703     
  -3164790110.8942399       -151894434.25382638        1231332322.7341797     
  -3093211667.0612373       -97815138.243667722        1222292073.1227753     
  -3027693681.2125530       -63937368.847903490        1221302397.3022585     
  -2968236153.3481894       -50261126.066540003        1228363295.2726276     
  -3768832252.0690670       -260803807.30595148        1224582260.6905532     
  -3661692730.5646420       -168441610.53127265        1192166158.4790702     
  -3562210357.3768415       -101603241.47867644        1170219642.0475194     
  -3470385132.5056677       -60288700.148163795        1158742711.3959033     
  -3386217055.9511166       -44497986.539731979        1157735366.5242195     
  -1694695728.4876473       -61671229.531428754        1422430910.4778774     
  -1645105075.7663624       -39712732.320168972        1415418391.6116731     
  -1597312452.1239326       -23747665.371761203        1413494598.7901223     
  -1551317857.5603614       -13776028.686213315        1416659532.0132253     
  -1507121292.0756462       -9797822.2635211945        1424913191.2809844     
  -2122475489.6164536       -58847747.562385082        1360711067.2494566     
  -2061071519.9046841       -40307774.972926378        1352884820.1548984     
  -2000965917.0310857       -26095691.844037056        1349845904.2287817     
  -1942158680.9956582       -16211498.175722599        1351594319.4711051     
  -1884649811.7984030       -10655193.967974901        1358130065.8818738     
  -2546988964.5699682       -55044379.740755796        1296021862.1810403     
  -2474632806.0854650       -40181270.238425851        1287964826.1389279     
  -2403075352.1984482       -27980509.394382715        1284393726.3890452     
  -2332316602.9089136       -18442097.208618641        1285308562.9313917     
  -2262356558.2168679       -11566033.681142569        1290709335.7659659     
  -2968236153.3481894       -50261126.066540003        1228363295.2726276     
  -2885788934.3087020       -39333218.116659880        1220658409.5637641     
  -2803640757.6260185       -29402118.022785544        1217138065.2709157     
  -2721791623.3001299       -20467825.784903646        1217802262.3940809     
  -2640241531.3310442       -12530341.403024316        1222651000.9332662     
  -3386217055.9511166       -44497986.539731979        1157735366.5242195     
  -3294539904.5743980       -37763618.607632875        1150965570.4294009     
  -3202662133.3137960       -30360517.729253650        1148078920.8743873     
  -3110583742.1693058       -22288683.904577851        1149075417.8591757     
  -3018304731.1409278       -13548117.133616805        1153955061.3837693     
  -1507121292.0756462       -9797822.2635211945        1424913191.2809844     
  -1461011128.5946636       -8109848.0752642155        1418913100.7991755     
  -1414991493.1556957       -6723634.0270535350        1417079144.0424492     
  -1369062385.7587340       -5639180.1188666821        1419411321.0108080     
  -1323223806.4037912       -4856486.3507371545        1425909631.7042491     
  -1884649811.7984030       -10655193.967974901        1358130065.8818738     
  -1826991360.3553529       -7529719.8835872412        1351929624.6533947     
  -1769666874.9073799       -5517465.7827943563        1350114617.3869307     
  -1712676355.4544852       -4618431.6655921936        1352685044.0824828     
  -1656019801.9966698       -4832617.5319895744        1359640904.7400501     
  -2262356558.2168679       -11566033.681142569        1290709335.7659659     
  -2192523246.7062292       -6815088.0689607859        1284024532.8455744     
  -2123267339.1437371       -3988822.2839354277        1281944464.1241295     
  -2054588835.5293896       -3087236.3260555267        1284469129.6016309     
  -1986487735.8631866       -4110330.1953315735        1291598529.2780774     
  -2640241531.3310442       -12530341.403024316        1222651000.9332662     
  -2557606787.6472998       -5965952.6313971281        1215197825.3757157     
  -2475792885.8647676       -2137703.5304726362        1212568684.2540414     
  -2394799825.9834495       -1045594.1002665758        1214763577.5682473     
  -2314627608.0033417       -2689624.3407641649        1221782505.3183291     
  -3018304731.1409278       -13548117.133616805        1153955061.3837693     
  -2922241983.1785607       -4982313.5708881617        1145449502.2438164     
  -2827243515.0704746        35890.477572560310        1141987277.7766712     
  -2733309326.8166656        1506495.0117737055        1143568387.9823351     
  -2640439418.4171371       -570499.96828901768        1150192832.8608074     
  -1323223806.4037912       -4856486.3507371545        1425909631.7042491     
  -1269642363.0317681       -2398623.4545226097        1416312828.6275303     
  -1216397440.0201795       -1062495.0930925012        1412055008.1009717     
  -1163489037.3690243       -848101.26643776894        1413136170.1245730     
  -1110917155.0783038       -1755441.9745650887        1419556314.6983345     
  -1656019801.9966698       -4832617.5319895744        1359640904.7400501     
  -1588987479.0859044       -2751480.0479663014        1350420946.7005320     
  -1522160140.1704705       -1353622.5483924150        1346295773.1588521     
  -1455537785.2503748       -639045.03327035904        1347265384.1150148     
  -1389120414.3256111       -607747.50259476900        1353329779.5690153     
  -1986487735.8631866       -4110330.1953315735        1291598529.2780774     
  -1906702242.1345909       -2615230.7397686243        1282908875.3683741     
  -1826990196.0362287       -1364956.7183257341        1279069807.9041924     
  -1747351597.5681033       -359508.13100636005        1280081326.8855290     
  -1667786446.7302175        401115.02218914032        1285943432.3123870     
  -2314627608.0033417       -2689624.3407641649        1221782505.3183291     
  -2222786652.1778321       -1989875.5299389362        1213776614.6310573     
  -2130887607.6174562       -1096497.6029033661        1210377112.3369856     
  -2038930474.3222189       -9490.5596601963043        1211583998.4361141     
  -1946915252.2921226        1271145.5997850895        1217397272.9284389     
  -2640439418.4171371       -570499.96828901768        1150192832.8608074     
  -2537240709.2156281       -875414.41847896576        1143024164.4885836     
  -2433852374.9141536       -548245.20212113857        1140217686.4572382     
  -2330274415.5127215        411007.68076169491        1141773398.7667742     
  -2226506831.0113277        2002344.2301844358        1147691301.4171872     
  -1110917155.0783038       -1755441.9745650887        1419556314.6983345     
  -1069009757.0505512       -6403946.5304318666        1416562299.8959498     
  -1027123081.6747931       -11121526.592950761        1416980085.5121202     
  -985257128.95102775       -15908182.162110567        1420809671.5468500     
  -943411898.87925839       -20763913.237922490        1428051058.0001328     
  -1389120414.3256111       -607747.50259476900        1353329779.5690153     
  -1338185738.6819651       -5748569.2538334727        1350195503.4023759     
  -1287393756.4260056       -11365035.630686581        1350707098.1821811     
  -1236744467.5577288       -17457146.633155584        1354864563.9084375     
  -1186237872.0771384       -24024902.261238456        1362667900.5811343     
  -1667786446.7302175        401115.02218914032        1285943432.3123870     
  -1607155720.5338519       -5031392.0433761477        1282526595.5898530     
  -1546789658.4608603       -11346112.853517950        1282989700.3416557     
  -1486688260.5112422       -18543047.408237457        1287332746.5677938     
  -1426851526.6849947       -26622195.707535625        1295555734.2682691     
  -1946915252.2921226        1271145.5997850895        1217397272.9284389     
  -1875919702.6062095       -4252414.8990604877        1213555576.4583769     
  -1805310787.7793591       -11064758.261441231        1213827891.9905398     
  -1735088507.8115680       -19165884.487359881        1218214219.5249302     
  -1665252862.7028451       -28555793.576833665        1226714559.0615447     
  -2226506831.0113277        2002344.2301844358        1147691301.4171872     
  -2144477684.8990376       -3411637.8208825588        1143282446.0079541     
  -2062957144.3814981       -10520971.854456425        1143221673.1288393     
  -1981945209.4587133       -19325657.870544910        1147508982.7798395     
  -1901441880.1306784       -29825695.869133234        1156144374.9609580     
  -943411898.87925839       -20763913.237922490        1428051058.0001328     
  -879439431.96194863       -19488913.178054214        1417504830.7518616     
  -815780818.16273570       -19260090.178506076        1413303865.3970261     
  -752436057.48161852       -20077444.239277333        1415448161.9356246     
  -689405149.91860294       -21940975.360389739        1423937720.3676646     
  -1186237872.0771384       -24024902.261238456        1362667900.5811343     
  -1106190888.5219409       -22237041.196588933        1352379402.3109288     
  -1026335167.4447701       -21086721.725357831        1347992302.4061053     
  -946670708.84562564       -20573943.847549081        1349506600.8666489     
  -867197512.72450459       -20698707.563151509        1356922297.6925702     
  -1426851526.6849947       -26622195.707535625        1295555734.2682691     
  -1331998208.0006661       -24701928.090748549        1285667987.3895569     
  -1237213561.1542847       -23010566.600459874        1281237775.3481541     
  -1142497586.1458557       -21548111.236684263        1282265098.1440666     
  -1047850282.9753807       -20314561.999405622        1288749955.7772908     
  -1665252862.7028451       -28555793.576833665        1226714559.0615447     
  -1556861390.3981225       -26883573.860528409        1217370585.9877362     
  -1448415999.2912738       -25031624.803811193        1213040284.2231853     
  -1339916689.3823094       -22999946.406681716        1213723653.7678804     
  -1231363460.6712112       -20788538.669146121        1219420694.6218379     
  -1901441880.1306784       -29825695.869133234        1156144374.9609580     
  -1780780435.7143104       -28781978.505927682        1147487198.1054764     
  -1659942481.8557429       -27149896.335394740        1143399829.0311916     
  -1538928018.5549836       -24929449.357555568        1143882267.7380931     
  -1417737045.8120248       -22120637.572381377        1148934514.2261913     
  -3768269897.3541422       -1130480969.2062426        800559136.39285684     
  -3779116233.8034773       -1008723839.6027426        884841013.88336587     
  -3790568344.0175333       -888985955.88164520        974057289.97181046     
  -3802626227.9963098       -771267318.04295158        1068207964.6581913     
  -3815289885.7398071       -655567926.08666039        1167293037.9425077     
  -4339813574.9439764       -1301944072.4831929        858728951.40884936     
  -4335244177.2769794       -1125744557.5702472        942334101.15295863     
  -4331811848.8773584       -953335273.54855442        1020299481.9325923     
  -4329516589.7451124       -784716220.41811395        1092625093.7477503     
  -4328358399.8802433       -619887398.17892647        1159310936.5984321     
  -4895280068.3332500       -1468584020.4999750        936369329.21467745     
  -4905506843.8710985       -1247005692.4739370        1018677906.4592900     
  -4917401984.1789761       -1030988580.3480006        1084772547.1770151     
  -4930965489.2568855       -820532684.12216651        1134653251.3678527     
  -4946197359.1048241       -615638003.79643500        1168320019.0318036     
  -5434669377.5219631       -1630400813.2565889        1033480269.8103410     
  -5489904233.5858307       -1372507244.3138103        1113872429.8023593     
  -5547338749.9223852       -1121945876.2799845        1167476485.7050788     
  -5606972926.5316238       -878716709.15510976        1194292437.5184991     
  -5668806763.4135494       -642819742.93918729        1194320285.2426200     
  -5957981502.5101166       -1787394450.7530351        1150061773.1958401     
  -6088436346.4211817       -1502249213.0898697        1227917671.1821671     
  -6221622146.1075869       -1226207161.3445063        1268411297.5167832     
  -6357538901.5693312       -959268295.51694310        1271542652.1996891     
  -6496186612.8064194       -701432615.60718274        1237311735.2308841     
  -3815289885.7398071       -655567926.08666039        1167293037.9425077     
  -3797896432.6216607       -537613414.05661404        1188971870.9895732     
  -3784355675.9704895       -432501223.58314681        1205746352.4632692     
  -3774667615.7862916       -340231354.66626108        1217616482.3635960     
  -3768832252.0690670       -260803807.30595148        1224582260.6905532     
  -4328358399.8802433       -619887398.17892647        1159310936.5984321     
  -4298117919.3413601       -464160292.55453694        1141366828.6212285     
  -4278494042.3814740       -343821865.52680910        1129492648.6346517     
  -4269486769.0005884       -258872117.09574723        1123688396.6387031     
  -4271096099.1986990       -209311047.26134586        1123954072.6333809     
  -4946197359.1048241       -615638003.79643500        1168320019.0318036     
  -4871754766.6766396       -412731779.23713231        1102861745.0663002     
  -4814692684.9394798       -267760590.31457782        1054447678.6554213     
  -4775011113.8933420       -180724437.02877045        1023077819.7991675     
  -4752710053.5382328       -151623319.37971282        1008752168.4975369     
  -5668806763.4135494       -642819742.93918729        1194320285.2426200     
  -5518806974.6275005       -383327874.10440350        1073456620.3247890     
  -5392951603.6445026       -204317397.94645238        980611442.52557874     
  -5291240650.4645529       -105788314.46533251        915784751.84499025     
  -5213674115.0876541       -87740623.661044359        878976548.28302217     
  -6496186612.8064194       -701432615.60718274        1237311735.2308841     
  -6239274543.1939449       -375948577.15634823        1053151454.3966947     
  -6013270798.4965439       -153492288.42243123        907983940.24512279     
  -5818175378.7142191       -34063749.405428886        801809192.77616978     
  -5653988283.8469706       -17662960.105346441        734627211.98983502     
  -3768832252.0690670       -260803807.30595148        1224582260.6905532     
  -3661692730.5646420       -168441610.53127265        1192166158.4790702     
  -3562210357.3768415       -101603241.47867644        1170219642.0475194     
  -3470385132.5056677       -60288700.148163795        1158742711.3959033     
  -3386217055.9511166       -44497986.539731979        1157735366.5242195     
  -4271096099.1986990       -209311047.26134586        1123954072.6333809     
  -4147998941.3655157       -145117183.23866034        1090648728.3035758     
  -4029304401.1980143       -95598711.434916258        1065649287.5433433     
  -3915012478.6961956       -60755631.850120783        1048955750.3526852     
  -3805123173.8600612       -40587944.484265327        1040568116.7316004     
  -4752710053.5382328       -151623319.37971282        1008752168.4975369     
  -4619837208.5487404       -117452372.86075163        978354534.47550714     
  -4488112450.5739918       -87108383.057597637        954099121.81269181     
  -4357535779.6139822       -60591349.970250845        935985930.50908995     
  -4228107195.6687174       -37901273.598713636        924014960.56470168     
  -5213674115.0876541       -87740623.661044359        878976548.28302217     
  -5077207532.1143122       -85447179.397547722        855283576.99486589     
  -4938634505.5047741       -76132256.346721888        835569144.85556459     
  -4797955035.2590361       -59795854.508564472        819833251.86511767     
  -4655169121.3771000       -36437973.883078814        808075898.02352405     
  -5653988283.8469706       -17662960.105346441        734627211.98983502     
  -5520109912.0622368       -49101602.849050045        721435855.86165047     
  -5380870565.9903622       -62670331.302285194        710059356.67196226     
  -5236270245.6313477       -58369145.465055704        700497714.42076683     
  -5086308950.9851942       -36198045.337357998        692750929.10806775     
  -3386217055.9511166       -44497986.539731979        1157735366.5242195     
  -3294539904.5743980       -37763618.607632875        1150965570.4294009     
  -3202662133.3137960       -30360517.729253650        1148078920.8743873     
  -3110583742.1693058       -22288683.904577851        1149075417.8591757     
  -3018304731.1409278       -13548117.133616805        1153955061.3837693     
  -3805123173.8600612       -40587944.484265327        1040568116.7316004     
  -3701271626.2698569       -29787863.144426107        1032480207.8432733     
  -3597999622.8945599       -20919595.854277849        1028935831.0237316     
  -3495307163.7341752       -13983142.613840580        1029934986.2729728     
  -3393194248.7887001       -8978503.4230935574        1035477673.5909975     
  -4228107195.6687174       -37901273.598713636        924014960.56470168     
  -4110194436.0679445       -22469434.112001181        913698747.43427157     
  -3993641384.7808743       -11569955.670977116        908586451.90160620     
  -3878448041.8075113       -5202838.2756385803        908678073.96670437     
  -3764614407.1478515       -3368081.9259867668        913973613.62956309     
  -4655169121.3771000       -36437973.883078814        808075898.02352405     
  -4521308333.9686651       -15808331.510370255        794621189.20239544     
  -4389587418.9727325       -2311597.1793363094        787030783.50800884     
  -4260006376.3893046        4052229.1100237370        785304680.94036627     
  -4132565206.2183776        3283147.3577067852        789442881.49946523     
  -5086308950.9851942       -36198045.337357998        692750929.10806775     
  -4934613319.9720173       -9804555.3395264149        675247533.14764166     
  -4785837725.4701405        6855479.6206431389        664268825.84294093     
  -4639982167.4795618        13782059.543147564        659814807.19396257     
  -4497046646.0002823        10975184.427991152        661885477.20070803     
  -3018304731.1409278       -13548117.133616805        1153955061.3837693     
  -2922241983.1785607       -4982313.5708881617        1145449502.2438164     
  -2827243515.0704746        35890.477572560310        1141987277.7766712     
  -2733309326.8166656        1506495.0117737055        1143568387.9823351     
  -2640439418.4171371       -570499.96828901768        1150192832.8608074     
  -3393194248.7887001       -8978503.4230935574        1035477673.5909975     
  -3285622968.5389676       -4115656.7752580643        1027029568.9297429     
  -3178645310.3166399       -1231550.2187842131        1023245375.2586298     
  -3072261274.1217241       -326183.75367128849        1024125092.5776612     
  -2966470859.9542179       -1399557.3799253702        1029668720.8868295     
  -3764614407.1478515       -3368081.9259867668        913973613.62956309     
  -3646618662.2755151       -2533412.4924700260        906132064.24502349     
  -3528745881.6037126       -2108623.7274134159        902575002.16795945     
  -3410996065.1324515       -2093715.6308224201        903302427.39836931     
  -3293369212.8617296       -2488688.2026925087        908314339.93625188     
  -4132565206.2183776        3283147.3577067852        789442881.49946523     
  -4005229064.3881998       -235580.72252488136        782756988.18965673     
  -3877545228.9316897       -2595330.0483207703        779976158.50465572     
  -3749513699.8488488       -3796100.6196730137        781100392.44446135     
  -3621134477.1396718       -3837892.4365847111        786129690.00907314     
  -4497046646.0002823        10975184.427991152        661885477.20070803     
  -4361454174.8770304        2777838.5345771313        656904340.76364470     
  -4225043352.3005714       -2691669.1814913750        655448844.26872110     
  -4087814178.2709112       -5433338.7202210426        657518987.71593893     
  -3949766652.7880516       -5447170.0816149712        663114771.10529208     
  -2640439418.4171371       -570499.96828901768        1150192832.8608074     
  -2537240709.2156281       -875414.41847896576        1143024164.4885836     
  -2433852374.9141536       -548245.20212113857        1140217686.4572382     
  -2330274415.5127215        411007.68076169491        1141773398.7667742     
  -2226506831.0113277        2002344.2301844358        1147691301.4171872     
  -2966470859.9542179       -1399557.3799253702        1029668720.8868295     
  -2851444592.0522728       -507780.89752507210        1022392470.2013150     
  -2736355870.9218292        592173.01320648193        1019575991.8061957     
  -2621204696.5628877        1900304.3522704840        1021219285.7014704     
  -2505991068.9754395        3416613.1196768284        1027322351.8871422     
  -3293369212.8617296       -2488688.2026925087        908314339.93625188     
  -3166236580.6893048       -316579.11669397354        900782139.75407374     
  -3039168667.1598425        1639801.1594389677        897807293.81181049     
  -2912165472.2733407        3380452.6257029772        899389802.10945570     
  -2785226996.0298004        4905375.2820979357        905529664.64701545     
  -3621134477.1396718       -3837892.4365847111        786129690.00907314     
  -3481616675.1267233       -301809.07597541809        778193173.14686239     
  -3342290763.6281958        2594639.2365713120        774911592.47408009     
  -3203156742.6440911        4851452.5010393858        776284947.99072766     
  -3064214612.1744041        6468630.7174443007        782313239.69680226     
  -3949766652.7880516       -5447170.0816149712        663114771.10529208     
  -3797584875.3645310       -463470.77537369728        654625570.37967849     
  -3645722160.3268900        3456687.2445945740        650888887.79301119     
  -3494178507.6751308        6313303.9782934189        651904723.34528661     
  -3342953917.4092555        8106379.4257133007        657673077.03650582     
  -2226506831.0113277        2002344.2301844358        1147691301.4171872     
  -2144477684.8990376       -3411637.8208825588        1143282446.0079541     
  -2062957144.3814981       -10520971.854456425        1143221673.1288393     
  -1981945209.4587133       -19325657.870544910        1147508982.7798395     
  -1901441880.1306784       -29825695.869133234        1156144374.9609580     
  -2505991068.9754395        3416613.1196768284        1027322351.8871422     
  -2413221224.4392838       -2218354.5464692116        1022314917.6540130     
  -2320789530.8359046       -8980491.9885447025        1021272473.2818396     
  -2228695988.1653171       -16869799.206590056        1024195018.7706170     
  -2136940596.4275098       -25886276.200567603        1031082554.1203494     
  -2785226996.0298004        4905375.2820979357        905529664.64701545     
  -2682811003.5530944       -1278943.1441135406        900122515.36228645     
  -2580562707.3472109       -8022249.1397162676        898297263.26934814     
  -2478482107.4121389       -15324542.704693794        900053908.36819804     
  -2376569203.7478786       -23185823.839049816        905392450.65883923     
  -3064214612.1744041        6468630.7174443007        782313239.69680226     
  -2953247022.2404809       -593403.61383962631        776705239.13277042     
  -2842276673.9154062       -7646243.3079444170        774296043.09136868     
  -2731303567.1991754       -14689888.364862204        775085651.57258654     
  -2620327702.0917902       -21724338.784598351        779074064.57643819     
  -3342953917.4092555        8106379.4257133007        657673077.03650582     
  -3224529280.5014367       -161735.95562994480        652063088.96546757     
  -3105931430.5404973       -7852474.4932447672        649268812.74789453     
  -2987160367.5264306       -14965836.187101960        649290248.38378322     
  -2868216091.4592443       -21501821.037219405        652127395.87313449     
  -1901441880.1306784       -29825695.869133234        1156144374.9609580     
  -1780780435.7143104       -28781978.505927682        1147487198.1054764     
  -1659942481.8557429       -27149896.335394740        1143399829.0311916     
  -1538928018.5549836       -24929449.357555568        1143882267.7380931     
  -1417737045.8120248       -22120637.572381377        1148934514.2261913     
  -2136940596.4275098       -25886276.200567603        1031082554.1203494     
  -2003943482.3098323       -23069293.931854606        1021042877.2461125     
  -1870963639.7547274       -20309883.538375020        1015513154.3058084     
  -1738001068.7621894       -17608045.020126462        1014493385.2994312     
  -1605055769.3322191       -14963778.377093792        1017983570.2269759     
  -2376569203.7478786       -23185823.839049816        905392450.65883923     
  -2231407430.9210815       -18646879.962499976        893744195.92696130     
  -2086456710.6616116       -14811444.643727660        886546041.28174818     
  -1941717042.9694822       -11679517.882719874        883797986.72319591     
  -1797188427.8446701       -9251099.6794830561        885500032.25131381     
  -2620327702.0917902       -21724338.784598351        779074064.57643819     
  -2463172281.5480509       -15514736.597864509        765591154.14802110     
  -2306421694.5764117       -10654579.651453614        756498489.95900619     
  -2150075941.1768608       -7143867.9453372955        751796072.00938892     
  -1994135021.3494105       -4982601.4795558453        751483900.29917359     
  -2868216091.4592443       -21501821.037219405        652127395.87313449     
  -2699238034.1907449       -13672863.837946296        636583751.90928996     
  -2530858591.4991045       -7839288.5615417957        625370500.33758390     
  -2363077763.3843241       -4001095.2079921961        618487641.15801716     
  -2195895549.8464022       -2158283.7773107290        615935174.37057948     
  -5957981502.5101166       -1787394450.7530351        1150061773.1958401     
  -6088436346.4211817       -1502249213.0898697        1227917671.1821671     
  -6221622146.1075869       -1226207161.3445063        1268411297.5167832     
  -6357538901.5693312       -959268295.51694310        1271542652.1996891     
  -6496186612.8064194       -701432615.60718274        1237311735.2308841     
  -6810602687.7645283       -2043180806.3293586        1353793369.3149815     
  -6828537122.0700436       -1395485079.3214746        1202756148.1112969     
  -6897837228.0838528       -919008258.00790405        1091969862.2532723     
  -7018503005.8059549       -613750342.38864613        1021434511.7409078     
  -7190534455.2363520       -479711332.46370292        991150096.57420325     
  -8337919177.7520161       -2501375753.3256049        1712354588.1115716     
  -8021581182.4594936       -1424603930.9752555        1275683745.7960966     
  -7805243574.8082180       -681166734.09573126        956877045.82365215     
  -7688906354.7981911       -271064162.68703222        755934488.19423831     
  -7672569522.4294119       -194296216.74915981        672856072.90785432     
  -10539930972.472580       -3161979291.7417736        2225745429.5856109     
  -9667568527.5895329       -1589605768.0512135        1446700464.2365658     
  -8943841186.2806873       -512682589.60799026        863132848.22792220     
  -8368748948.5460443        68790243.587896347        475042581.55967939     
  -7942291814.3855982        154812731.53644466        282429664.23183751     
  -13416638071.926220       -4024991421.5778661        2893965893.7370987     
  -11766499157.460159       -1890490590.5493469        1715806303.4327044     
  -10313630062.501257       -413555824.54467821        810737269.46608245     
  -9058030787.0495052        405812876.43614244        178758791.83723211     
  -7999701331.1049137        567615512.39311075       -180129129.45384687     
  -6496186612.8064194       -701432615.60718274        1237311735.2308841     
  -6239274543.1939449       -375948577.15634823        1053151454.3966947     
  -6013270798.4965439       -153492288.42243123        907983940.24512279     
  -5818175378.7142191       -34063749.405428886        801809192.77616978     
  -5653988283.8469706       -17662960.105346441        734627211.98983502     
  -7190534455.2363520       -479711332.46370292        991150096.57420325     
  -6900579531.5886021       -304418826.06167841        846839164.30309701     
  -6623440748.6147804       -171846788.57273889        723612629.69546485     
  -6359118106.3148804       -81995219.996881008        621470492.75130284     
  -6107611604.6889076       -34864120.334106922        540412753.47061563     
  -7672569522.4294119       -194296216.74915981        672856072.90785432     
  -7400738513.3725185       -184545272.98378658        589502037.48117304     
  -7123631460.7484007       -157207517.32766294        509324030.69881999     
  -6841248364.5570555       -112282949.78078556        432322052.56079412     
  -6553589224.7984848       -49771570.343155861        358496103.06709480     
  -7942291814.3855982        154812731.53644466        282429664.23183751     
  -7739751488.5456924       -16327917.922669411        281140073.93092364     
  -7513842934.8974056       -109574474.68719912        265118143.25519314     
  -7264566153.4407473       -124926938.75714540        234363872.20464185     
  -6991921144.1757107       -62385310.132501602        188877260.77927464     
  -7999701331.1049137        567615512.39311075       -180129129.45384687     
  -7917618457.1081171        200233239.12167025       -78246726.347651333     
  -7794075171.0617981       -28947660.651351452       -9005032.6354202516     
  -7629071472.9659491       -119927186.92595577        27595951.682846371     
  -7422607362.8205795       -72705339.702141285        31556226.607151099     
  -5653988283.8469706       -17662960.105346441        734627211.98983502     
  -5520109912.0622368       -49101602.849050045        721435855.86165047     
  -5380870565.9903622       -62670331.302285194        710059356.67196226     
  -5236270245.6313477       -58369145.465055704        700497714.42076683     
  -5086308950.9851942       -36198045.337357998        692750929.10806775     
  -6107611604.6889076       -34864120.334106922        540412753.47061563     
  -5959244793.4262323       -36601964.934633493        533936299.98267949     
  -5809881865.9869862       -35019422.279912233        529935912.66008407     
  -5659522822.3711653       -30116492.369939566        528411591.50282800     
  -5508167662.5787630       -21893175.204713345        529363336.51091230     
  -6553589224.7984848       -49771570.343155861        358496103.06709480     
  -6388844804.8383160       -21241866.034642696        353642217.75707906     
  -6227469126.8121376       -3941301.5060989857        351925607.83925384     
  -6069462190.7199459        2130123.2424886227        353346273.31360888     
  -5914823996.5617476       -3027591.7888951302        357904214.18015343     
  -6991921144.1757107       -62385310.132501602        188877260.77927464     
  -6808909946.2984838       -3021306.1490797997        180553609.18485415     
  -6633632348.4658127        30564031.019169807        176028442.20946705     
  -6466088350.6776962        38370701.372226477        175301759.85311431     
  -6306277952.9341373        20398704.910102129        178373562.11578995     
  -7422607362.8205795       -72705339.702141285        31556226.607151099     
  -7219440217.8067389        18059714.722059727        14670474.265999297     
  -7028371530.9480219        68496575.295856953        2244415.7707325500     
  -6849401302.2444172        78605242.019274235       -5721948.8786640344     
  -6682529531.6959381        48385714.892276764       -9228619.6821803693     
  -5086308950.9851942       -36198045.337357998        692750929.10806775     
  -4934613319.9720173       -9804555.3395264149        675247533.14764166     
  -4785837725.4701405        6855479.6206431389        664268825.84294093     
  -4639982167.4795618        13782059.543147564        659814807.19396257     
  -4497046646.0002823        10975184.427991152        661885477.20070803     
  -5508167662.5787630       -21893175.204713345        529363336.51091230     
  -5345599022.8889990       -10255482.683356762        514275538.31354004     
  -5183993313.8459721       -1827558.9844565392        504432088.32162142     
  -5023350535.4496822        3390595.8919901848        499832986.53515738     
  -4863670687.7001247        5398981.9459850788        500478232.95414937     
  -5914823996.5617476       -3027591.7888951302        357904214.18015343     
  -5745040463.7675934       -7243131.4156777859        347515303.92115647     
  -5574262755.7556057       -8144753.6496930122        341090401.41734451     
  -5402490872.5257959       -5732458.4909608364        338629506.66871977     
  -5229724814.0781603       -6245.9394767284393        340132619.67527938     
  -6306277952.9341373        20398704.910102129        178373562.11578995     
  -6132937642.6077843       -767501.53646874428        174966829.97048885     
  -5956646051.1990385       -12096104.375067711        174243765.13010627     
  -5777403178.7079058       -13587103.605706930        176204367.59464377     
  -5595209025.1343851       -5240499.2283873558        180848637.36409694     
  -6682529531.6959381        48385714.892276764       -9228619.6821803693     
  -6509290559.4095831        9171406.9542503357       -3369883.5384548670     
  -6331143200.1762753       -13681611.160591125        3892179.4599133809     
  -6148087453.9960184       -20173339.452266455        12557569.312938144     
  -5960123320.8688059       -10303777.920770884        22626286.020606294     
  -4497046646.0002823        10975184.427991152        661885477.20070803     
  -4361454174.8770304        2777838.5345771313        656904340.76364470     
  -4225043352.3005714       -2691669.1814913750        655448844.26872110     
  -4087814178.2709112       -5433338.7202210426        657518987.71593893     
  -3949766652.7880516       -5447170.0816149712        663114771.10529208     
  -4863670687.7001247        5398981.9459850788        500478232.95414937     
  -4717309628.6384554        2168818.1558549404        496300592.80472457     
  -4570805142.1637430       -583254.25746512413        495734569.10349184     
  -4424157228.2759857       -2857235.2939627171        498780161.85044968     
  -4277365886.9751787       -4653124.9536390305        505437371.04560065     
  -5229724814.0781603       -6245.9394767284393        340132619.67527938     
  -5072349519.9179258        1804466.5217156410        335971064.43330836     
  -4915505722.3848038        1843523.5592007637        335507102.14558077     
  -4759193421.4787922        110925.17297625542        338740732.81210154     
  -4603412617.1998959       -3393328.6369397640        345671956.43286544     
  -5595209025.1343851       -5240499.2283873558        180848637.36409694     
  -5426573848.7154379        1684783.6321704388        175915755.64939851     
  -5259145092.9637575        4588664.2684977055        174766443.39499894     
  -5092922757.8793468        3471142.6805970669        177400700.60089388     
  -4927906843.4622011       -1667781.1315205097        183818527.26708913     
  -5960123320.8688059       -10303777.920770884        22626286.020606294     
  -5779982615.0309896        1809769.4872002602        16134666.452996336     
  -5601723253.9006004        7652167.8704249859        13512592.851736432     
  -5425345237.4776373        7223417.2288851738        14760065.216829626     
  -5250848565.7620926        523517.56262946129        19877083.548270635     
  -3949766652.7880516       -5447170.0816149712        663114771.10529208     
  -3797584875.3645310       -463470.77537369728        654625570.37967849     
  -3645722160.3268900        3456687.2445945740        650888887.79301119     
  -3494178507.6751308        6313303.9782934189        651904723.34528661     
  -3342953917.4092555        8106379.4257133007        657673077.03650582     
  -4277365886.9751787       -4653124.9536390305        505437371.04560065     
  -4113399970.3182163       -1094678.3660881519        497243734.65547115     
  -3949444318.2344909        2429552.9773418903        493691207.08720350     
  -3785498930.7239995        5919569.0766522884        494779788.34079486     
  -3621563807.7867441        9375369.9318528175        500509478.41624939     
  -4603412617.1998959       -3393328.6369397640        345671956.43286544     
  -4427980873.6440163       -1355628.4684419632        338134148.49297428     
  -4252250596.8487225        1677182.4980998039        335126040.05786175     
  -4076221786.8140240        5705104.2626678944        336647631.12753129     
  -3899894443.5399060        10728136.825292110        342698921.70197523     
  -4927906843.4622011       -1667781.1315205097        183818527.26708913     
  -4741327585.3419247       -1246321.0824258327        177296811.89219195     
  -4554140996.1695957        1199575.8068554401        175193386.70499131     
  -4366347075.9452000        5669909.5363516808        177508251.70548719     
  -4177945824.6687541        12164680.106018305        184241406.89367607     
  -5250848565.7620926        523517.56262946129        19877083.548270635     
  -5053440105.4119473       -766756.20805048943        14731724.853126545     
  -4855115516.1970959        996732.90363621712        13893247.028588047     
  -4655874798.1175423        5813984.8976664543        17361650.074662831     
  -4455717951.1732740        13684999.774055958        25136933.991358574     
  -3342953917.4092555        8106379.4257133007        657673077.03650582     
  -3224529280.5014367       -161735.95562994480        652063088.96546757     
  -3105931430.5404973       -7852474.4932447672        649268812.74789453     
  -2987160367.5264306       -14965836.187101960        649290248.38378322     
  -2868216091.4592443       -21501821.037219405        652127395.87313449     
  -3621563807.7867441        9375369.9318528175        500509478.41624939     
  -3495131694.5192118        1514843.1593458652        495296152.01420999     
  -3368732453.8609362       -6455258.9773406982        493332652.04874933     
  -3242366085.8119154       -14534936.478218198        494618978.51986951     
  -3116032590.3721552       -22724189.343291283        499155131.42757803     
  -3899894443.5399060        10728136.825292110        342698921.70197523     
  -3764214526.5323191        3647296.8757388592        337641823.69615078     
  -3628773567.7963624       -4230070.6459329128        336268666.71002716     
  -3493571567.3320470       -12903965.739718676        338579450.74361074     
  -3358608525.1393695       -22374388.405645609        344574175.79689580     
  -4177945824.6687541        12164680.106018305        184241406.89367607     
  -4031777776.5407658        6235625.1935114861        179100104.01129317     
  -3886054772.3467851       -1176909.4990270138        178076856.73173517     
  -3740776812.0868278       -10072923.971635103        181171665.05499318     
  -3595943895.7608805       -20452418.224289894        188384528.98108438     
  -4455717951.1732740        13684999.774055958        25136933.991358574     
  -4297821444.5445395        9279828.1127126217        19670992.959637426     
  -4140576067.5122013        2704224.4633741379        18757222.113857448     
  -3983981820.0762491       -6041811.1739175320        22395621.454030011     
  -3828038702.2367053       -16958278.799234867        30586190.980145343     
  -2868216091.4592443       -21501821.037219405        652127395.87313449     
  -2699238034.1907449       -13672863.837946296        636583751.90928996     
  -2530858591.4991045       -7839288.5615417957        625370500.33758390     
  -2363077763.3843241       -4001095.2079921961        618487641.15801716     
  -2195895549.8464022       -2158283.7773107290        615935174.37057948     
  -3116032590.3721552       -22724189.343291283        499155131.42757803     
  -2935672917.9070091       -14966331.693160176        485070738.86289269     
  -2755452291.0253978       -7671959.3214979172        475427450.10713518     
  -2575370709.7273498       -841072.22834455967        470225265.16030926     
  -2395428174.0128284        5526329.5863564014        469464184.02242273     
  -3358608525.1393695       -22374388.405645609        344574175.79689580     
  -3166550919.1438727       -14592734.804550171        332485198.45689911     
  -2974172789.7386036       -5742669.8375406265        324948036.34262800     
  -2781474136.9235654        4175806.4953625202        321962689.45407975     
  -2588454960.6987567        15162694.194179535        323529157.79126781     
  -3595943895.7608805       -20452418.224289894        188384528.98108438     
  -3391872037.9013419       -12552073.172116995        178827130.69131297     
  -3187020087.6387167       -2051420.1096659899        173932259.04406121     
  -2981388044.9729915        11049540.963098288        173699914.03933364     
  -2774975909.9041958        26750810.046149611        178130095.67712632     
  -3828038702.2367053       -16958278.799234867        30586190.980145343     
  -3611636274.1794157       -8844346.7958986759        24096535.566136684     
  -3393994184.7257175        3401789.8621759415        22380118.211442392     
  -3175112433.8756304        19780131.174870014        25436938.916053820     
  -2954991021.6291265        40290677.142265320        33266997.680002034     
 </DataArray>
 <DataArray  type="Float64" Name="VM" NumberOfComponents="1" format="ascii">
   12935609600.514359     
   11340721977.719206     
   10210221176.566343     
   9272773883.2810287     
   8303945017.4695101     
   10130303185.539942     
   9322013288.2659435     
   8826368556.4763927     
   8443540472.8380947     
   8035722350.7359800     
   7982354459.6715441     
   7734972010.6802902     
   7669157982.3506985     
   7669607591.8081532     
   7666389551.9794092     
   6491677252.4522953     
   6586884181.9534006     
   6757422568.8933945     
   6961210433.2033625     
   7171587230.2298365     
   5657825172.2365141     
   5890908805.6108875     
   6116352684.6157475     
   6331695917.7487555     
   6536714163.1464434     
   8303945017.4695101     
   8020755166.5688009     
   7779657369.7054663     
   7569971309.3017712     
   7386725279.3821306     
   8035722350.7359800     
   7746919705.1733427     
   7473779481.0089445     
   7214344559.2363529     
   6968621378.9355135     
   7666389551.9794092     
   7381175662.5590611     
   7101350849.9265671     
   6826993348.7886610     
   6558306556.5943317     
   7171587230.2298365     
   6910963181.2794666     
   6658237557.3071423     
   6409552694.7123432     
   6161764061.8859072     
   6536714163.1464434     
   6328635060.8664055     
   6142743637.3884859     
   5965134546.4339390     
   5786800562.4030352     
   7386725279.3821306     
   7228531658.8165636     
   7062870003.3995733     
   6889047400.8135691     
   6706872343.4549379     
   6968621378.9355135     
   6814579284.3951969     
   6655953793.5445852     
   6492462657.8202515     
   6324053213.1656046     
   6558306556.5943317     
   6407594450.4368095     
   6255269605.9820108     
   6101300296.7501326     
   5945715323.3784571     
   6161764061.8859072     
   6012576990.7275105     
   5864724305.2536364     
   5718244227.8482904     
   5573192592.7139568     
   5786800562.4030352     
   5635990352.3037043     
   5489355841.5524778     
   5346810972.7483845     
   5208401498.2787161     
   6706872343.4549379     
   6513883721.8705244     
   6324317086.8046169     
   6138064182.4683218     
   5955107067.8503790     
   6324053213.1656046     
   6140037286.2452860     
   5958255530.7068796     
   5778686517.9277105     
   5601355952.3401289     
   5945715323.3784571     
   5772887578.6779823     
   5601437192.8642120     
   5431388477.6064711     
   5262799596.9843950     
   5573192592.7139568     
   5414254372.1260138     
   5256203115.8867893     
   5099077694.6250725     
   4942976432.3960094     
   5208401498.2787161     
   5066557093.1910295     
   4925531260.8343267     
   4785356805.3602562     
   4646200825.7437086     
   5955107067.8503790     
   5780955257.9097557     
   5605602112.4642448     
   5429020742.0797930     
   5251223203.2883749     
   5601355952.3401289     
   5435962494.2750731     
   5270141415.9440813     
   5103916687.0520477     
   4937349259.6629915     
   5262799596.9843950     
   5106516962.1666784     
   4950652160.5239220     
   4795277447.8612995     
   4640502735.6561375     
   4942976432.3960094     
   4796059704.6851187     
   4650467971.2989273     
   4506315505.6809959     
   4363757355.5630760     
   4646200825.7437086     
   4508766530.1348753     
   4373610148.7050200     
   4240876967.5929885     
   4110758423.1019340     
   5251223203.2883749     
   5053121194.6683016     
   4855673589.9964647     
   4658881565.7612362     
   4462788577.7347975     
   4937349259.6629915     
   4750640176.1273689     
   4564837659.8139420     
   4379988958.4739485     
   4196193200.0591950     
   4640502735.6561375     
   4465872574.6465244     
   4292516526.2120314     
   4120542045.1065478     
   3950121265.0197024     
   4363757355.5630760     
   4202060404.1274586     
   4042141104.8202624     
   3884181614.0432439     
   3728444045.5643744     
   4110758423.1019340     
   3963015886.7058935     
   3817705219.6223865     
   3675094881.1817513     
   3535549102.5311503     
   4462788577.7347975     
   4302603771.9499731     
   4142056260.8432498     
   3981153337.9192424     
   3819955170.6677346     
   4196193200.0591950     
   4046806412.0865870     
   3897689528.8358383     
   3748906720.2145562     
   3600576518.5598292     
   3950121265.0197024     
   3811175607.9291143     
   3673131550.3449216     
   3536104640.3073120     
   3400264568.3018160     
   3728444045.5643744     
   3599610708.8444362     
   3472288192.4606919     
   3346634925.6297364     
   3222861110.0059376     
   3535549102.5311503     
   3416522557.0590796     
   3299565491.8186727     
   3184867214.3947539     
   3072664063.6435447     
   3819955170.6677346     
   3607463675.7279558     
   3395917601.7722106     
   3185353271.0249438     
   2975898842.7230401     
   3600576518.5598292     
   3399752327.2609177     
   3200206340.4359946     
   3002041756.3359199     
   2805464441.8681512     
   3400264568.3018160     
   3211337457.5768776     
   3024141324.6215234     
   2838874887.2451940     
   2655859611.9630237     
   3222861110.0059376     
   3046365719.4496703     
   2872199550.6043391     
   2700685899.9124694     
   2532298256.6597257     
   3072664063.6435447     
   2909447238.7321105     
   2749314702.9615421     
   2592735721.8492680     
   2440358781.7580428     
   5657825172.2365141     
   5890908805.6108875     
   6116352684.6157475     
   6331695917.7487555     
   6536714163.1464434     
   5151445727.8031235     
   5311311200.5112906     
   5467807600.4813395     
   5618037997.0085239     
   5760535501.9796247     
   4643461903.5685730     
   4755516761.0142202     
   4868694781.2447910     
   4980360448.3737059     
   5088587858.9720640     
   4134137383.8085208     
   4224363386.3939490     
   4320509935.2637997     
   4420920756.7319450     
   4524141635.4903717     
   3624992776.0047655     
   3719675995.6942053     
   3825611740.3105392     
   3942738000.0884285     
   4070963478.7490907     
   6536714163.1464434     
   6328635060.8664055     
   6142743637.3884859     
   5965134546.4339390     
   5786800562.4030352     
   5760535501.9796247     
   5652042594.1502666     
   5559549906.6539288     
   5473997853.0108376     
   5389846425.8512430     
   5088587858.9720640     
   5053961426.5364180     
   5029846533.3241816     
   5011037411.4918804     
   4994333150.6959238     
   4524141635.4903717     
   4538986832.3980770     
   4558502590.7460756     
   4580208270.4003925     
   4602380218.4092464     
   4070963478.7490907     
   4112445471.2963939     
   4151281672.6493416     
   4186571676.0246129     
   4217581594.4292278     
   5786800562.4030352     
   5635990352.3037043     
   5489355841.5524778     
   5346810972.7483845     
   5208401498.2787161     
   5389846425.8512430     
   5248431620.4959564     
   5110229437.4489536     
   4975281894.9061775     
   4843682723.5281668     
   4994333150.6959238     
   4866786705.3857346     
   4742436549.3316469     
   4621251929.5051003     
   4503275170.8011684     
   4602380218.4092464     
   4493723649.1020136     
   4389312243.5508881     
   4288831938.1700296     
   4192196755.2998848     
   4217581594.4292278     
   4133202783.7181859     
   4055363825.1701150     
   3983219387.7810073     
   3916480525.3295355     
   5208401498.2787161     
   5066557093.1910295     
   4925531260.8343267     
   4785356805.3602562     
   4646200825.7437086     
   4843682723.5281668     
   4718609237.7355804     
   4595278934.7746429     
   4473817568.2640963     
   4354461392.4292879     
   4503275170.8011684     
   4393903236.6406002     
   4287153737.1578197     
   4183215856.5642595     
   4082364117.3125396     
   4192196755.2998848     
   4097327438.8469715     
   4005857844.0076332     
   3918008495.3460536     
   3834061043.4542532     
   3916480525.3295355     
   3834732162.2499766     
   3756991835.5986629     
   3683479353.3395314     
   3614455910.2997446     
   4646200825.7437086     
   4508766530.1348753     
   4373610148.7050200     
   4240876967.5929885     
   4110758423.1019340     
   4354461392.4292879     
   4228361608.9329147     
   4104922492.0421605     
   3984342772.9502692     
   3866876227.5450220     
   4082364117.3125396     
   3968856469.4382148     
   3858566581.1260719     
   3751749286.5897923     
   3648725202.6984978     
   3834061043.4542532     
   3734458723.6732779     
   3638813840.6421723     
   3547433429.4568644     
   3460701170.4602547     
   3614455910.2997446     
   3530032181.8452754     
   3450479995.4517574     
   3376143633.7573366     
   3307452936.9419951     
   4110758423.1019340     
   3963015886.7058935     
   3817705219.6223865     
   3675094881.1817513     
   3535549102.5311503     
   3866876227.5450220     
   3733277086.1625586     
   3602922455.5781097     
   3476151830.4450235     
   3353403686.9917092     
   3648725202.6984978     
   3529628477.8328452     
   3414631209.1574936     
   3304129177.5976834     
   3198613442.4461966     
   3460701170.4602547     
   3356359290.0319133     
   3256972487.7870841     
   3162967786.7753181     
   3074855854.3576226     
   3307452936.9419951     
   3217900364.2876453     
   3134101535.2277584     
   3056481021.9274383     
   2985528571.1600628     
   3535549102.5311503     
   3416522557.0590796     
   3299565491.8186727     
   3184867214.3947539     
   3072664063.6435447     
   3353403686.9917092     
   3244954379.6831689     
   3139341570.9315834     
   3036838114.4369006     
   2937776972.3011155     
   3198613442.4461966     
   3102371183.9743018     
   3009897048.0341702     
   2921543755.1458931     
   2837731934.7708526     
   3074855854.3576226     
   2992268633.1285348     
   2914497426.9326138     
   2841953387.8168468     
   2775114681.1389642     
   2985528571.1600628     
   2917664174.3708005     
   2855707606.0858784     
   2800090802.2155404     
   2751303042.3516140     
   3072664063.6435447     
   2909447238.7321105     
   2749314702.9615421     
   2592735721.8492680     
   2440358781.7580428     
   2937776972.3011155     
   2790632973.0283527     
   2648016335.4119663     
   2510599479.5955658     
   2379253559.8503675     
   2837731934.7708526     
   2708182808.4418902     
   2584668105.4961519     
   2467999155.4235649     
   2359168667.2233615     
   2775114681.1389642     
   2664146730.5195022     
   2560609165.7780781     
   2465348954.3042541     
   2379344848.9600592     
   2751303042.3516140     
   2659122713.8100495     
   2575493821.2605796     
   2501190965.9250984     
   2437059290.8203802     
   3624992776.0047655     
   3719675995.6942053     
   3825611740.3105392     
   3942738000.0884285     
   4070963478.7490907     
   3137988360.3277655     
   3255509739.4543004     
   3382448424.9417644     
   3518336616.8421612     
   3662717628.3694105     
   2694773317.9475789     
   2830525093.5664110     
   2973588368.1573491     
   3122881692.0278907     
   3277494736.2807913     
   2298836685.2678905     
   2449514501.7868791     
   2604913700.0843835     
   2763111974.2998400     
   2922679643.5926776     
   1955387364.9632263     
   2119432417.9041545     
   2284833923.9316697     
   2448631204.2267780     
   2608865516.1255355     
   4070963478.7490907     
   4112445471.2963939     
   4151281672.6493416     
   4186571676.0246129     
   4217581594.4292278     
   3662717628.3694105     
   3702165590.5190988     
   3740234306.5354657     
   3776023472.5989366     
   3808782612.0790415     
   3277494736.2807913     
   3320763471.1235571     
   3364272522.0585828     
   3407198209.1204290     
   3448861924.2922511     
   2922679643.5926776     
   2975624746.4740043     
   3030785704.3850169     
   3087480336.1923027     
   3145175632.3037496     
   2608865516.1255355     
   2676803422.9763708     
   2749234987.2169247     
   2825652502.2267981     
   2905703336.9789991     
   4217581594.4292278     
   4133202783.7181859     
   4055363825.1701150     
   3983219387.7810073     
   3916480525.3295355     
   3808782612.0790415     
   3755900986.7068577     
   3709037208.9899058     
   3667720391.4872131     
   3631858241.9218974     
   3448861924.2922511     
   3422843326.8384995     
   3401936585.8234763     
   3385913502.3813410     
   3374759728.0304165     
   3145175632.3037496     
   3141664090.4316697     
   3141761815.1227160     
   3145368341.4599385     
   3152469851.0845990     
   2905703336.9789991     
   2920693039.7424116     
   2937009509.1406636     
   2954597494.0394211     
   2973417570.0696149     
   3916480525.3295355     
   3834732162.2499766     
   3756991835.5986629     
   3683479353.3395314     
   3614455910.2997446     
   3631858241.9218974     
   3561718456.0203228     
   3496156205.8704367     
   3435401937.8949409     
   3379730115.2078300     
   3374759728.0304165     
   3317008944.4022741     
   3264554565.8746309     
   3217620603.3858705     
   3176478593.9408393     
   3152469851.0845990     
   3107644657.0384026     
   3068970655.5173874     
   3036639502.2757063     
   3010895045.1838923     
   2973417570.0696149     
   2941571662.8938532     
   2916837244.8814187     
   2899341056.4880948     
   2889269266.3060026     
   3614455910.2997446     
   3530032181.8452754     
   3450479995.4517574     
   3376143633.7573366     
   3307452936.9419951     
   3379730115.2078300     
   3310022173.2053037     
   3245802045.9087906     
   3187399404.4153800     
   3135209752.4594212     
   3176478593.9408393     
   3120644069.0993719     
   3070823277.7487350     
   3027306501.5865927     
   2990428997.4352245     
   3010895045.1838923     
   2967716046.4140406     
   2930941088.1421466     
   2900800276.4292383     
   2877549688.2062135     
   2889269266.3060026     
   2857046355.5374780     
   2831443475.6880121     
   2812619549.4473600     
   2800745160.2881875     
   3307452936.9419951     
   3217900364.2876453     
   3134101535.2277584     
   3056481021.9274383     
   2985528571.1600628     
   3135209752.4594212     
   3058777925.2922263     
   2988876868.2313776     
   2925923010.3874578     
   2870387388.4270725     
   2990428997.4352245     
   2927131592.4327803     
   2871142627.5543504     
   2822841501.0528874     
   2782648428.0618515     
   2877549688.2062135     
   2826911196.6502576     
   2784322146.3196440     
   2750096821.8535991     
   2724576318.2834406     
   2800745160.2881875     
   2761662212.9486866     
   2731305453.1479959     
   2709904462.7470641     
   2697704622.2382526     
   2985528571.1600628     
   2917664174.3708005     
   2855707606.0858784     
   2800090802.2155404     
   2751303042.3516140     
   2870387388.4270725     
   2815895420.4340510     
   2767567269.1663113     
   2725762757.9258132     
   2690876391.4585624     
   2782648428.0618515     
   2740348879.8900275     
   2704315928.0193152     
   2674826144.0246382     
   2652173088.5855517     
   2724576318.2834406     
   2692984430.2359152     
   2667603711.3306513     
   2648627108.6457195     
   2636252959.2786431     
   2697704622.2382526     
   2675055742.5581808     
   2658416825.5817122     
   2647906984.4422588     
   2643644776.7481236     
   2751303042.3516140     
   2659122713.8100495     
   2575493821.2605796     
   2501190965.9250984     
   2437059290.8203802     
   2690876391.4585624     
   2613170405.0559621     
   2544932120.6695070     
   2486858071.7097311     
   2439682440.2094107     
   2652173088.5855517     
   2588581276.3723550     
   2535245279.7790451     
   2492741013.7450004     
   2461655063.7787776     
   2636252959.2786431     
   2585796688.0445161     
   2546255337.2247820     
   2518061990.8267217     
   2501644357.3153896     
   2643644776.7481236     
   2604729171.9495826     
   2577293298.3624053     
   2561627734.5232563     
   2558013011.6472411     
   1955387364.9632263     
   2119432417.9041545     
   2284833923.9316697     
   2448631204.2267780     
   2608865516.1255355     
   1653917898.2101731     
   1820362164.4327514     
   1988504473.7730205     
   2155648093.4208775     
   2320034686.4839416     
   1393763798.1864300     
   1571139954.6824272     
   1749522242.4090216     
   1926906791.9711277     
   2102043109.3507745     
   1207236664.4297328     
   1399183874.1248260     
   1590709180.6492345     
   1781035756.6784785     
   1969705009.5221906     
   1137011485.4427376     
   1335336304.5689051     
   1533969390.2843585     
   1732910742.5890975     
   1932160361.4831212     
   2608865516.1255355     
   2676803422.9763708     
   2749234987.2169247     
   2825652502.2267981     
   2905703336.9789991     
   2320034686.4839416     
   2407072616.9673100     
   2496543287.9607987     
   2588058043.6786270     
   2681341910.2749424     
   2102043109.3507745     
   2205783613.0607266     
   2309432191.1846347     
   2412753286.8248115     
   2515580443.5446224     
   1969705009.5221906     
   2086858675.2324927     
   2201166602.3531861     
   2312553960.0169129     
   2420968713.7521586     
   1932160361.4831212     
   2058837912.7647727     
   2180107250.7443862     
   2295968375.4219594     
   2406421286.7974949     
   2905703336.9789991     
   2920693039.7424116     
   2937009509.1406636     
   2954597494.0394211     
   2973417570.0696149     
   2681341910.2749424     
   2703216879.4285378     
   2727465551.1788373     
   2754071032.1311154     
   2783025984.8197036     
   2515580443.5446224     
   2544230309.4140429     
   2576325787.2239161     
   2611869055.4243975     
   2650866398.8030424     
   2420968713.7521586     
   2454799492.7622375     
   2493145994.5651937     
   2536011827.3443704     
   2583401455.6377974     
   2406421286.7974949     
   2442267970.2552595     
   2483689266.9867229     
   2530685176.9918814     
   2583255700.2707362     
   2973417570.0696149     
   2941571662.8938532     
   2916837244.8814187     
   2899341056.4880948     
   2889269266.3060026     
   2783025984.8197036     
   2765731785.7265944     
   2755517860.2783027     
   2752468807.2534294     
   2756700980.2760367     
   2650866398.8030424     
   2645442336.5951705     
   2646811236.7278767     
   2655013040.8259025     
   2670100547.3839598     
   2583401455.6377974     
   2586577476.0547972     
   2596007644.4210200     
   2611701424.0890665     
   2633671154.9775543     
   2583255700.2707362     
   2591465844.7402287     
   2605185818.7615561     
   2624415622.3347211     
   2649155255.4597211     
   2889269266.3060026     
   2857046355.5374780     
   2831443475.6880121     
   2812619549.4473600     
   2800745160.2881875     
   2756700980.2760367     
   2733901799.8664637     
   2718185289.0821013     
   2709656919.4657345     
   2708427604.7800446     
   2670100547.3839598     
   2654868252.7482839     
   2647096490.7836332     
   2646838136.8888478     
   2654147799.1222301     
   2633671154.9775543     
   2623490789.7189283     
   2621063890.7173214     
   2626404681.7981892     
   2639527658.0672464     
   2649155255.4597211     
   2641032883.9319010     
   2640884566.2427039     
   2648710302.3921270     
   2664510092.3801689     
   2800745160.2881875     
   2761662212.9486866     
   2731305453.1479959     
   2709904462.7470641     
   2697704622.2382526     
   2708427604.7800446     
   2680481835.9038100     
   2661314667.2295389     
   2651062312.8409934     
   2649866857.1409030     
   2654147799.1222301     
   2634783162.4727263     
   2624131296.9321361     
   2622253674.3051834     
   2629213167.5865493     
   2639527658.0672464     
   2625814655.9127364     
   2620661755.7587299     
   2624084008.9624491     
   2636096604.0766425     
   2664510092.3801689     
   2653358984.1466322     
   2650562148.2666426     
   2656119584.7402072     
   2670031293.5673203     
   2697704622.2382526     
   2675055742.5581808     
   2658416825.5817122     
   2647906984.4422588     
   2643644776.7481236     
   2649866857.1409030     
   2634863950.1609631     
   2626515187.0325403     
   2624899476.6306868     
   2630093709.8157749     
   2629213167.5865493     
   2620373431.5292430     
   2618803968.6246147     
   2624544707.0656018     
   2637633821.4868860     
   2636096604.0766425     
   2631445281.8508673     
   2634675279.8287725     
   2645797653.1028647     
   2664822812.8278275     
   2670031293.5673203     
   2667216601.4177141     
   2672915800.9116163     
   2687128892.0490174     
   2709855874.8299327     
   2643644776.7481236     
   2604729171.9495826     
   2577293298.3624053     
   2561627734.5232563     
   2558013011.6472411     
   2630093709.8157749     
   2603570931.9160938     
   2588184240.6587505     
   2584088912.8838730     
   2591430307.6763644     
   2637633821.4868860     
   2620747404.3868561     
   2614629519.0127211     
   2619344561.2993283     
   2634951326.7866025     
   2664822812.8278275     
   2654755459.1597986     
   2655127388.4251871     
   2665953466.7342095     
   2687247017.0347438     
   2709855874.8299327     
   2703860889.4008632     
   2708056559.5614123     
   2722442885.3115859     
   2747019866.6513844     
   1137011485.4427376     
   1335336304.5689051     
   1533969390.2843585     
   1732910742.5890975     
   1932160361.4831212     
   1207236664.6432779     
   1399183874.3698745     
   1590709180.9254966     
   1781035756.9871492     
   1969705009.8653653     
   1393763798.5426152     
   1571139955.1039510     
   1749522242.8954442     
   1926906792.5246437     
   2102043109.9752624     
   1653917898.6342866     
   1820362164.9487493     
   1988504474.3821239     
   2155648094.1271338     
   2320034687.2933044     
   1955387365.4024062     
   2119432418.4491146     
   2284833924.5863619     
   2448631204.9976978     
   2608865517.0208740     
   1932160361.4831212     
   2058837912.7647727     
   2180107250.7443862     
   2295968375.4219594     
   2406421286.7974949     
   1969705009.8653653     
   2086858675.5413218     
   2201166602.6266112     
   2312553960.2527337     
   2420968713.9476328     
   2102043109.9752624     
   2205783613.6277318     
   2309432191.6909285     
   2412753287.2653871     
   2515580443.9136667     
   2320034687.2933044     
   2407072617.7098002     
   2496543288.6304483     
   2588058044.2673388     
   2681341910.7736554     
   2608865517.0208740     
   2676803423.8060546     
   2749234987.9728379     
   2825652502.8983603     
   2905703337.5543904     
   2406421286.7974949     
   2442267970.2552595     
   2483689266.9867229     
   2530685176.9918814     
   2583255700.2707362     
   2420968713.9476328     
   2454799493.2281265     
   2493145995.3190165     
   2536011828.4045520     
   2583401457.0230107     
   2515580443.9136667     
   2544230310.2721272     
   2576325788.6065240     
   2611869057.3688960     
   2650866401.3475657     
   2681341910.7736554     
   2703216880.5629001     
   2727465553.0018315     
   2754071034.6986532     
   2783025988.1892924     
   2905703337.5543904     
   2920693041.0232244     
   2937009511.1945758     
   2954597496.9378853     
   2973417573.8865662     
   2583255700.2707362     
   2591465844.7402287     
   2605185818.7615561     
   2624415622.3347211     
   2649155255.4597211     
   2583401457.0230107     
   2586577477.0467978     
   2596007645.0019016     
   2611701424.2405791     
   2633671154.6836438     
   2650866401.3475657     
   2645442338.4249225     
   2646811237.8107953     
   2655013041.1285076     
   2670100546.8759718     
   2783025988.1892924     
   2765731788.1432724     
   2755517861.7004070     
   2752468807.6357450     
   2756700979.5758634     
   2973417573.8865662     
   2941571665.5974660     
   2916837246.4263649     
   2899341056.8225050     
   2889269265.3782244     
   2649155255.4597211     
   2641032883.9319010     
   2640884566.2427039     
   2648710302.3921270     
   2664510092.3801689     
   2633671154.6836438     
   2623490789.3389268     
   2621063890.2214332     
   2626404681.1585622     
   2639527657.2575631     
   2670100546.8759718     
   2654868252.0976653     
   2647096489.9292455     
   2646838135.7727113     
   2654147797.6888304     
   2756700979.5758634     
   2733901799.0271959     
   2718185288.0102191     
   2709656918.0708313     
   2708427602.9739146     
   2889269265.3782244     
   2857046354.5561662     
   2831443474.5278573     
   2812619547.9846702     
   2800745158.3997221     
   2664510092.3801689     
   2653358984.1466322     
   2650562148.2666426     
   2656119584.7402072     
   2670031293.5673203     
   2639527657.2575631     
   2625814655.5433159     
   2620661755.8495803     
   2624084009.5313478     
   2636096605.1382494     
   2654147797.6888304     
   2634783161.8455167     
   2624131297.1483407     
   2622253675.3985701     
   2629213169.5856876     
   2708427602.9739146     
   2680481835.1834641     
   2661314667.6469269     
   2651062314.4447474     
   2649866859.9737720     
   2800745158.3997221     
   2761662212.3375793     
   2731305453.8775597     
   2709904464.8789034     
   2697704625.8290138     
   2670031293.5673203     
   2667216601.4177141     
   2672915800.9116163     
   2687128892.0490174     
   2709855874.8299327     
   2636096605.1382494     
   2631445282.5820551     
   2634675280.2481294     
   2645797653.2301607     
   2664822812.6843967     
   2629213169.5856876     
   2620373432.8859634     
   2618803969.3779154     
   2624544707.2569065     
   2637633821.1607432     
   2649866859.9737720     
   2634863952.0493593     
   2626515188.0369124     
   2624899476.8154287     
   2630093709.2502532     
   2697704625.8290138     
   2675055744.9023919     
   2658416826.7616744     
   2647906984.5460691     
   2643644775.8709683     
   2709855874.8299327     
   2703860889.4008632     
   2708056559.5614123     
   2722442885.3115859     
   2747019866.6513844     
   2664822812.6843967     
   2654755458.5822830     
   2655127387.4005446     
   2665953465.2528305     
   2687247015.0902696     
   2637633821.1607432     
   2620747403.2963462     
   2614629517.1333551     
   2619344558.6123776     
   2634951323.2788081     
   2630093709.2502532     
   2603570930.3737860     
   2588184238.1034913     
   2584088909.2862449     
   2591430303.0132627     
   2643644775.8709683     
   2604729170.0109906     
   2577293295.3140516     
   2561627730.3228054     
   2558013006.2577772     
   1955387365.4024062     
   2119432418.4491146     
   2284833924.5863619     
   2448631204.9976978     
   2608865517.0208740     
   2298836685.6866446     
   2449514502.3102584     
   2604913700.7197366     
   2763111975.0557799     
   2922679644.4786558     
   2694773318.3220415     
   2830525094.0331836     
   2973588368.7267437     
   3122881692.7108459     
   3277494737.0886431     
   3137988360.6417017     
   3255509739.8395333     
   3382448425.4109368     
   3518336617.4084573     
   3662717629.0464215     
   3624992776.2462497     
   3719675995.9790859     
   3825611740.6531444     
   3942738000.5039263     
   4070963479.2534461     
   2608865517.0208740     
   2676803423.8060546     
   2749234987.9728379     
   2825652502.8983603     
   2905703337.5543904     
   2922679644.4786558     
   2975624747.3002238     
   3030785705.1409941     
   3087480336.8652554     
   3145175632.8794708     
   3277494737.0886431     
   3320763471.8856230     
   3364272522.7631164     
   3407198209.7539363     
   3448861924.8400674     
   3662717629.0464215     
   3702165591.1703901     
   3740234307.1488180     
   3776023473.1612086     
   3808782612.5765662     
   4070963479.2534461     
   4112445471.8004613     
   4151281673.1408806     
   4186571676.4914536     
   4217581594.8595653     
   2905703337.5543904     
   2920693041.0232244     
   2937009511.1945758     
   2954597496.9378853     
   2973417573.8865662     
   3145175632.8794708     
   3141664091.6825199     
   3141761817.1128531     
   3145368344.2585721     
   3152469854.7648220     
   3448861924.8400674     
   3422843327.9563508     
   3401936587.5645289     
   3385913504.8059473     
   3374759731.2067375     
   3808782612.5765662     
   3755900987.6159849     
   3709037210.3470712     
   3667720393.3375554     
   3631858244.3230247     
   4217581594.8595653     
   4133202784.3658457     
   4055363826.0512328     
   3983219388.9201040     
   3916480526.7672300     
   2973417573.8865662     
   2941571665.5974660     
   2916837246.4263649     
   2899341056.8225050     
   2889269265.3782244     
   3152469854.7648220     
   3107644659.4928937     
   3068970656.7155805     
   3036639502.1809306     
   3010895043.7570453     
   3374759731.2067375     
   3317008946.3285198     
   3264554566.5442138     
   3217620602.7865038     
   3176478592.0561719     
   3631858244.3230247     
   3561718457.1987686     
   3496156205.8510904     
   3435401936.6978045     
   3379730112.8487024     
   3916480526.7672300     
   3834732162.5142322     
   3756991834.7512908     
   3683479351.4386621     
   3614455907.4005570     
   2889269265.3782244     
   2857046354.5561662     
   2831443474.5278573     
   2812619547.9846702     
   2800745158.3997221     
   3010895043.7570453     
   2967716045.1040163     
   2930941086.8165612     
   2900800274.9559045     
   2877549686.4512825     
   3176478592.0561719     
   3120644067.5926104     
   3070823276.4840302     
   3027306500.4258666     
   2990428996.2354345     
   3379730112.8487024     
   3310022171.5660911     
   3245802044.8546882     
   3187399403.8066888     
   3135209752.1476731     
   3614455907.4005570     
   3530032180.0773287     
   3450479994.6858788     
   3376143633.8571596     
   3307452937.7588844     
   2800745158.3997221     
   2761662212.3375793     
   2731305453.8775597     
   2709904464.8789034     
   2697704625.8290138     
   2877549686.4512825     
   2826911196.3151126     
   2784322147.4545588     
   2750096824.5102673     
   2724576322.5124621     
   2990428996.2354345     
   2927131592.6644845     
   2871142629.2424326     
   2822841504.2268839     
   2782648432.7542963     
   3135209752.1476731     
   3058777926.3314958     
   2988876870.6085048     
   2925923014.0962210     
   2870387393.4672546     
   3307452937.7588844     
   3217900366.3205457     
   3134101538.4142451     
   3056481026.2126317     
   2985528576.4961443     
   2697704625.8290138     
   2675055744.9023919     
   2658416826.7616744     
   2647906984.5460691     
   2643644775.8709683     
   2724576322.5124621     
   2692984432.9462700     
   2667603712.5941758     
   2648627108.5393887     
   2636252957.8866506     
   2782648432.7542963     
   2740348882.8307452     
   2704315929.2732630     
   2674826143.6606560     
   2652173086.6790667     
   2870387393.4672546     
   2815895423.5243731     
   2767567270.3688622     
   2725762757.3048429     
   2690876389.0834765     
   2985528576.4961443     
   2917664177.5873570     
   2855707607.2463980     
   2800090801.3836932     
   2751303039.5943208     
   2643644775.8709683     
   2604729170.0109906     
   2577293295.3140516     
   2561627730.3228054     
   2558013006.2577772     
   2636252957.8866506     
   2585796685.5256391     
   2546255333.5697680     
   2518061986.0308805     
   2501644351.3778749     
   2652173086.6790667     
   2588581273.3642898     
   2535245275.7018733     
   2492741008.6345310     
   2461655057.6734185     
   2690876389.0834765     
   2613170401.6693764     
   2544932116.3508391     
   2486858066.5413351     
   2439682434.2758751     
   2751303039.5943208     
   2659122710.1683230     
   2575493816.8671651     
   2501190960.9168744     
   2437059285.3378825     
   3624992776.2462497     
   3719675995.9790859     
   3825611740.6531444     
   3942738000.5039263     
   4070963479.2534461     
   4134137383.9683843     
   4224363386.5699320     
   4320509935.4649744     
   4420920756.9673729     
   4524141635.7688704     
   4643461903.6387339     
   4755516761.0761633     
   4868694781.3015471     
   4980360448.4274340     
   5088587859.0236530     
   5151445727.7750664     
   5311311200.4544926     
   5467807600.3926268     
   5618037996.8833389     
   5760535501.8116350     
   5657825172.1009121     
   5890908805.4303617     
   6116352684.3811789     
   6331695917.4497118     
   6536714162.7709169     
   4070963479.2534461     
   4112445471.8004613     
   4151281673.1408806     
   4186571676.4914536     
   4217581594.8595653     
   4524141635.7688704     
   4538986832.6866598     
   4558502591.0456963     
   4580208270.7120028     
   4602380218.7331657     
   5088587859.0236530     
   5053961426.6002693     
   5029846533.4141245     
   5011037411.6219549     
   4994333150.8782797     
   5760535501.8116350     
   5652042593.9870090     
   5559549906.5197639     
   5473997852.9314594     
   5389846425.8498898     
   6536714162.7709169     
   6328635060.4775686     
   6142743637.0176296     
   5965134546.1157589     
   5786800562.1701431     
   4217581594.8595653     
   4133202784.3658457     
   4055363826.0512328     
   3983219388.9201040     
   3916480526.7672300     
   4602380218.7331657     
   4493723649.4518967     
   4389312243.9094076     
   4288831938.5233593     
   4192196755.6429110     
   4994333150.8782797     
   4866786705.4550428     
   4742436549.2410402     
   4621251929.2081099     
   4503275170.2533588     
   5389846425.8498898     
   5248431620.3053980     
   5110229436.9966354     
   4975281894.1189814     
   4843682722.3298874     
   5786800562.1701431     
   5635990351.8754721     
   5489355840.8335896     
   5346810971.6438503     
   5208401496.6869688     
   3916480526.7672300     
   3834732162.5142322     
   3756991834.7512908     
   3683479351.4386621     
   3614455907.4005570     
   4192196755.6429110     
   4097327438.0163484     
   4005857842.0781226     
   3918008492.3882513     
   3834061039.5342860     
   4503275170.2533588     
   4393903234.9237423     
   4287153734.3625178     
   4183215852.7774024     
   4082364112.6155381     
   4843682722.3298874     
   4718609235.3726387     
   4595278931.3551750     
   4473817563.8939657     
   4354461387.2086639     
   5208401496.6869688     
   5066557090.4354525     
   4925531257.0411100     
   4785356800.6557407     
   4646200820.2492037     
   3614455907.4005570     
   3530032180.0773287     
   3450479994.6858788     
   3376143633.8571596     
   3307452937.7588844     
   3834061039.5342860     
   3734458721.1479712     
   3638813839.4470077     
   3547433429.5220876     
   3460701171.7067041     
   4082364112.6155381     
   3968856466.3539400     
   3858566579.6446614     
   3751749286.6991162     
   3648725204.3814955     
   4354461387.2086639     
   4228361605.4732847     
   4104922490.3778200     
   3984342773.1164551     
   3866876229.5769920     
   4646200820.2492037     
   4508766526.4632320     
   4373610146.9243908     
   4240876967.7753496     
   4110758425.3239779     
   3307452937.7588844     
   3217900366.3205457     
   3134101538.4142451     
   3056481026.2126317     
   2985528576.4961443     
   3460701171.7067041     
   3356359292.3977070     
   3256972491.1796989     
   3162967791.1099424     
   3074855859.5574393     
   3648725204.3814955     
   3529628480.5397387     
   3414631212.7612224     
   3304129181.9772496     
   3198613447.4875841     
   3866876229.5769920     
   3733277089.1396084     
   3602922459.3369474     
   3476151834.8252420     
   3353403691.8370514     
   4110758425.3239779     
   3963015889.8218694     
   3817705223.4335065     
   3675094885.4878540     
   3535549107.1320834     
   2985528576.4961443     
   2917664177.5873570     
   2855707607.2463980     
   2800090801.3836932     
   2751303039.5943208     
   3074855859.5574393     
   2992268636.2491007     
   2914497428.0199223     
   2841953386.9154506     
   2775114678.2946095     
   3198613447.4875841     
   3102371186.9677315     
   3009897049.0143061     
   2921543754.1443691     
   2837731931.8181849     
   3353403691.8370514     
   3244954382.5042348     
   3139341571.7573566     
   3036838113.2920980     
   2937776969.2073827     
   3535549107.1320834     
   3416522559.6530976     
   3299565492.4338303     
   3184867213.0541396     
   3072664060.3658347     
   2751303039.5943208     
   2659122710.1683230     
   2575493816.8671651     
   2501190960.9168744     
   2437059285.3378825     
   2775114678.2946095     
   2664146726.9884744     
   2560609161.6508064     
   2465348949.6728554     
   2379344843.9162784     
   2837731931.8181849     
   2708182805.0650005     
   2584668101.7536516     
   2467999151.3729300     
   2359168662.9163470     
   2937776969.2073827     
   2790632969.8518305     
   2648016332.1921449     
   2510599476.3695002     
   2379253556.6451263     
   3072664060.3658347     
   2909447235.8000374     
   2749314700.4081225     
   2592735719.7070355     
   2440358780.0491433     
   5657825172.1009121     
   5890908805.4303617     
   6116352684.3811789     
   6331695917.4497118     
   6536714162.7709169     
   6491677252.2335167     
   6586884181.6229410     
   6757422568.4524965     
   6961210432.6579885     
   7171587229.5890532     
   7982354459.4256706     
   7734972010.2683334     
   7669157981.7814684     
   7669607591.0982103     
   7666389551.1479025     
   10130303185.320183     
   9322013287.8387127     
   8826368555.8525734     
   8443540472.0404158     
   8035722349.7866802     
   12935609600.372847     
   11340721977.338093     
   10210221175.954123     
   9272773882.4655418     
   8303945016.4768906     
   6536714162.7709169     
   6328635060.4775686     
   6142743637.0176296     
   5965134546.1157589     
   5786800562.1701431     
   7171587229.5890532     
   6910963180.6197319     
   6658237556.6486492     
   6409552694.0756397     
   6161764061.2910929     
   7666389551.1479025     
   7381175661.6712046     
   7101350848.9940929     
   6826993347.8217010     
   6558306555.6018267     
   8035722349.7866802     
   7746919704.1025133     
   7473779479.8205261     
   7214344557.9331913     
   6968621377.5185661     
   8303945016.4768906     
   8020755165.3654737     
   7779657368.2852163     
   7569971307.6619244     
   7386725277.5193310     
   5786800562.1701431     
   5635990351.8754721     
   5489355840.8335896     
   5346810971.6438503     
   5208401496.6869688     
   6161764061.2910929     
   6012576989.9575033     
   5864724304.2431641     
   5718244226.5313358     
   5573192591.0227671     
   6558306555.6018267     
   6407594449.2658176     
   6255269604.5946960     
   6101300295.1075678     
   5945715321.4422998     
   6968621377.5185661     
   6814579282.7564211     
   6655953791.6719751     
   6492462655.7005844     
   6324053210.7860851     
   7386725277.5193310     
   7228531656.6377010     
   7062870000.9168520     
   6889047398.0375099     
   6706872340.3936605     
   5208401496.6869688     
   5066557090.4354525     
   4925531257.0411100     
   4785356800.6557407     
   4646200820.2492037     
   5573192591.0227671     
   5414254369.5460529     
   5256203112.4758711     
   5099077690.4376144     
   4942976427.4793272     
   5945715321.4422998     
   5772887576.3858814     
   5601437190.2315340     
   5431388474.6435175     
   5262799593.6935215     
   6324053210.7860851     
   6140037284.3232899     
   5958255529.2388773     
   5778686516.9038057     
   5601355951.7413206     
   6706872340.3936605     
   6513883720.3755207     
   6324317086.8749342     
   6138064184.0939865     
   5955107071.0090733     
   4646200820.2492037     
   4508766526.4632320     
   4373610146.9243908     
   4240876967.7753496     
   4110758425.3239779     
   4942976427.4793272     
   4796059701.2799606     
   4650467969.4918346     
   4506315505.5641842     
   4363757357.2363911     
   5262799593.6935215     
   5106516959.8871918     
   4950652159.3373775     
   4795277447.8546228     
   4640502736.9246550     
   5601355951.7413206     
   5435962493.9944487     
   5270141416.0405865     
   5103916687.5872698     
   4937349260.7049789     
   5955107071.0090733     
   5780955260.4983854     
   5605602114.5067978     
   5429020743.5977259     
   5251223204.3049269     
   4110758425.3239779     
   3963015889.8218694     
   3817705223.4335065     
   3675094885.4878540     
   3535549107.1320834     
   4363757357.2363911     
   4202060406.4123611     
   4042141107.5852165     
   3884181617.1585355     
   3728444048.9050536     
   4640502736.9246550     
   4465872576.0244160     
   4292516527.6087880     
   4120542046.4345260     
   3950121266.1986413     
   4937349260.7049789     
   4750640176.5271206     
   4564837659.4978952     
   4379988957.3702002     
   4196193198.1033726     
   5251223204.3049269     
   5053121194.0225229     
   4855673587.6106014     
   4658881561.5561724     
   4462788571.6369200     
   3535549107.1320834     
   3416522559.6530976     
   3299565492.4338303     
   3184867213.0541396     
   3072664060.3658347     
   3728444048.9050536     
   3599610710.5798593     
   3472288192.5873752     
   3346634924.1352005     
   3222861106.8661766     
   3950121266.1986413     
   3811175608.0952568     
   3673131549.4980788     
   3536104638.4384799     
   3400264565.3874826     
   4196193198.1033726     
   4046806409.9087024     
   3897689526.4669609     
   3748906717.6814651     
   3600576515.8766241     
   4462788571.6369200     
   4302603766.6224012     
   4142056256.3687215     
   3981153334.3849039     
   3819955168.1546135     
   3072664060.3658347     
   2909447235.8000374     
   2749314700.4081225     
   2592735719.7070355     
   2440358780.0491433     
   3222861106.8661766     
   3046365717.1272063     
   2872199549.1493945     
   2700685899.3832755     
   2532298257.1179657     
   3400264565.3874826     
   3211337455.8290477     
   3024141324.0911703     
   2838874887.9976625     
   2655859614.0777268     
   3600576515.8766241     
   3399752325.9851723     
   3200206340.6049275     
   3002041758.0048761     
   2805464445.1129761     
   3819955168.1546135     
   3607463674.7732053     
   3395917602.3881397     
   3185353273.2433619     
   2975898846.5987897     
 </DataArray>
 <DataArray  type="Float64" Name="strain" NumberOfComponents="3" format="ascii">
  0.20348567742878096        0.0000000000000000       0.12540518872181536     
  0.18665586634575931       -2.7324319280425037E-002   7.4351606477444668E-002
  0.16982605526273770       -4.4675553240748421E-002   3.5131948340384932E-002
  0.15299624417971608       -5.2053701880970124E-002   7.7462143106361188E-003
  0.13616643309669446       -4.9458765201090202E-002  -7.8055956118016911E-003
  0.15985561975579010        0.0000000000000000        9.6448968606228355E-002
  0.15317811329519695       -2.1844413172369133E-002   6.2690353442672153E-002
  0.14650060683460381       -3.6174496108080274E-002   3.7402423416661931E-002
  0.13982310037401066       -4.2990248807133410E-002   2.0585178528197717E-002
  0.13314559391341751       -4.2291671269528541E-002   1.2238618777279560E-002
  0.12645844087011635        0.0000000000000000        7.4202032140419094E-002
  0.12657000006218674       -1.6364507064313232E-002   5.5279628974233684E-002
  0.12668155925425714       -2.7673438975412135E-002   4.1464671975829377E-002
  0.12679311844632754       -3.3926795733296697E-002   3.2757161145206076E-002
  0.12690467763839791       -3.5124577337966929E-002   2.9157096482363861E-002
  0.10329414077175972        0.0000000000000000        5.8664379324387568E-002
  0.10683152664672872       -1.0884600956257331E-002   5.2119433072129295E-002
  0.11036891252169771       -1.9172381842743991E-002   4.7318694017887165E-002
  0.11390629839666670       -2.4863342659459983E-002   4.4262162161661171E-002
  0.11744368427163569       -2.7957483406405297E-002   4.2949837503451299E-002
   9.0362719460720192E-002   0.0000000000000000        4.9836010158133763E-002
   9.3962693048822848E-002  -5.4046948482014299E-003   5.3209765736358973E-002
   9.7562666636925519E-002  -1.0671324710075852E-002   5.4964489542835400E-002
  0.10116264022502816       -1.5799889585623266E-002   5.5100181577562989E-002
  0.10476261381313083       -2.0790389474843678E-002   5.3616841840541794E-002
  0.13616643309669446       -4.9458765201090202E-002  -7.8055956118016911E-003
  0.13296147383410356       -4.2925312943663370E-002  -3.3906914764429419E-003
  0.12975651457151260       -3.8487914851244490E-002  -3.9021808329125010E-004
  0.12655155530892173       -3.6146570923833651E-002   1.1958245676534189E-003
  0.12334659604633078       -3.5901281161430626E-002   1.3674364763910374E-003
  0.13314559391341751       -4.2291671269528541E-002   1.2238618777279560E-002
  0.12891421857086535       -3.8426625483132103E-002   1.2182736531100108E-002
  0.12468284322831322       -3.5742973435810364E-002   1.1488452867205255E-002
  0.12045146788576107       -3.4240715127563444E-002   1.0155767785595056E-002
  0.11622009254320889       -3.3919850558391279E-002   8.1846812862692575E-003
  0.12690467763839791       -3.5124577337966929E-002   2.9157096482363861E-002
  0.12242291554037618       -3.3927938022600801E-002   2.5545088280579442E-002
  0.11794115344235444       -3.2998032020376218E-002   2.2070707985571238E-002
  0.11345939134433274       -3.2334859331293257E-002   1.8733955597339261E-002
  0.10897762924631094       -3.1938419955351863E-002   1.5534831115883434E-002
  0.11744368427163569       -2.7957483406405297E-002   4.2949837503451299E-002
  0.11348756474263598       -2.9429250562069492E-002   3.6696363771995012E-002
  0.10953144521363628       -3.0253090604942082E-002   3.1356547271806617E-002
  0.10557532568463657       -3.0429003535023060E-002   2.6930388002886087E-002
  0.10161920615563691       -2.9956989352312481E-002   2.3417885965233441E-002
  0.10476261381313083       -2.0790389474843678E-002   5.3616841840541794E-002
  0.10210816617764480       -2.4930563101538190E-002   4.5636563005346839E-002
   9.9453718542158745E-002  -2.7508149189507905E-002   3.9345970725911471E-002
   9.6799270906672730E-002  -2.8523147738752880E-002   3.4745065002235544E-002
   9.4144823271186687E-002  -2.7975558749273086E-002   3.1833845834319113E-002
  0.12334659604633078       -3.5901281161430626E-002   1.3674364763910374E-003
  0.12041430224024327       -3.6398196344471140E-002   6.3572054754856833E-004
  0.11748200843415572       -3.6283467253390426E-002   9.7258016459891850E-005
  0.11454971462806823       -3.5557093888188548E-002  -2.4795111687524879E-004
  0.11161742082198067       -3.4219076248865499E-002  -3.9990685245683277E-004
  0.11622009254320889       -3.3919850558391279E-002   8.1846812862692575E-003
  0.11346672593543350       -3.3994194635974626E-002   7.8239897240518358E-003
  0.11071335932765806       -3.3677562267994239E-002   7.6278991607050886E-003
  0.10795999271988263       -3.2969953454450279E-002   7.5964095962286551E-003
  0.10520662611210727       -3.1871368195342531E-002   7.7295210306230211E-003
  0.10897762924631094       -3.1938419955351863E-002   1.5534831115883434E-002
  0.10637453743796471       -3.1590192927478181E-002   1.5324496091733343E-002
  0.10377144562961843       -3.1071657282598194E-002   1.5250109667570819E-002
  0.10116835382127214       -3.0382813020711961E-002   1.5311671843396117E-002
   9.8565262012925842E-002  -2.9523660141819480E-002   1.5509182619209139E-002
  0.10161920615563691       -2.9956989352312481E-002   2.3417885965233441E-002
   9.9137736747836810E-002  -2.9186191218981673E-002   2.3137239650593229E-002
   9.6656267340036725E-002  -2.8465752297202079E-002   2.2963889537057781E-002
   9.4174797932236640E-002  -2.7795672586973696E-002   2.2897835624627019E-002
   9.1693328524436568E-002  -2.7175952088296526E-002   2.2939077913301006E-002
   9.4144823271186687E-002  -2.7975558749273086E-002   3.1833845834319113E-002
   9.1756323865049880E-002  -2.6782189510485208E-002   3.1262220400631410E-002
   8.9367824458913031E-002  -2.5859847311805986E-002   3.0769238769165465E-002
   8.6979325052776196E-002  -2.5208532153235395E-002   3.0354900939921405E-002
   8.4590825646639389E-002  -2.4828244034773517E-002   3.0019206912898944E-002
  0.11161742082198067       -3.4219076248865499E-002  -3.9990685245683277E-004
  0.10853403304985360       -3.2699309587079728E-002  -1.4602828272899937E-004
  0.10545064527772657       -3.1427689154489624E-002   1.6866113866584320E-004
  0.10236725750559952       -3.0404214951095090E-002   5.4416141172797250E-004
   9.9283869733472474E-002  -2.9628886976896307E-002   9.8047253645744403E-004
  0.10520662611210727       -3.1871368195342531E-002   7.7295210306230211E-003
  0.10221178989857396       -3.0651896539742013E-002   7.5818959770825867E-003
   9.9216953685040729E-002  -2.9581628536719570E-002   7.5505631890625258E-003
   9.6222117471507412E-002  -2.8660564186275213E-002   7.6355226665631576E-003
   9.3227281257974248E-002  -2.7888703488409050E-002   7.8367744095837188E-003
   9.8565262012925842E-002  -2.9523660141819480E-002   1.5509182619209139E-002
   9.5714458771839539E-002  -2.8604483492404215E-002   1.5058996519018097E-002
   9.2863655530753250E-002  -2.7735567918949516E-002   1.4780584098200392E-002
   9.0012852289666989E-002  -2.6916913421455392E-002   1.4673945356756313E-002
   8.7162049048580686E-002  -2.6148519999921876E-002   1.4739080294686027E-002
   9.1693328524436568E-002  -2.7175952088296526E-002   2.2939077913301006E-002
   8.9042039669650436E-002  -2.6557070445066430E-002   2.2285273343076752E-002
   8.6390750814864276E-002  -2.5889507301179462E-002   2.1858723866079219E-002
   8.3739461960078157E-002  -2.5173262656635543E-002   2.1659429482308496E-002
   8.1088173105291983E-002  -2.4408336511434717E-002   2.1687390191764192E-002
   8.4590825646639389E-002  -2.4828244034773517E-002   3.0019206912898944E-002
   8.2194532592006542E-002  -2.4509657397728715E-002   2.9260726449259131E-002
   7.9798239537373722E-002  -2.4043446683409422E-002   2.8784982492699174E-002
   7.7401946482740902E-002  -2.3429611891815683E-002   2.8591975043218941E-002
   7.5005653428108110E-002  -2.2668153022947446E-002   2.8681704100818772E-002
   9.9283869733472474E-002  -2.9628886976896307E-002   9.8047253645744403E-004
   9.6342092383842171E-002  -2.8930075902920321E-002   6.9916903863831426E-004
   9.3400315034211978E-002  -2.8136152400194833E-002   5.8554584861159054E-004
   9.0458537684581758E-002  -2.7247116468719298E-002   6.3960296637748104E-004
   8.7516760334951482E-002  -2.6262968108494045E-002   8.6134039193508372E-004
   9.3227281257974248E-002  -2.7888703488409050E-002   7.8367744095837188E-003
   9.0451321394049211E-002  -2.7160948981975491E-002   7.6230162050134609E-003
   8.7675361530124230E-002  -2.6372203205829267E-002   7.5732126640615655E-003
   8.4899401666199206E-002  -2.5522466159970097E-002   7.6873637867280534E-003
   8.2123441802274266E-002  -2.4611737844398074E-002   7.9654695730122516E-003
   8.7162049048580686E-002  -2.6148519999921876E-002   1.4739080294686027E-002
   8.4548181026186803E-002  -2.5391822061030758E-002   1.4558746224327887E-002
   8.1934313003792877E-002  -2.4608254011463819E-002   1.4538641173414017E-002
   7.9320444981399035E-002  -2.3797815851220844E-002   1.4678765141943734E-002
   7.6706576959005096E-002  -2.2960507580302214E-002   1.4979118129917812E-002
   8.1088173105291983E-002  -2.4408336511434717E-002   2.1687390191764192E-002
   7.8632671280255029E-002  -2.3622695140085866E-002   2.1506359096581346E-002
   7.6177169455218019E-002  -2.2844304817098256E-002   2.1481831376668085E-002
   7.3721667630181051E-002  -2.2073165542471671E-002   2.1613807032024958E-002
   7.1266165805144055E-002  -2.1309277316206188E-002   2.1902286062651405E-002
   7.5005653428108110E-002  -2.2668153022947446E-002   2.8681704100818772E-002
   7.2704792156253861E-002  -2.1853568219141084E-002   2.8465854821773939E-002
   7.0403930884399585E-002  -2.1080355622732777E-002   2.8402783273824728E-002
   6.8103069612545392E-002  -2.0348515233722393E-002   2.8492489456971276E-002
   6.5802208340691087E-002  -1.9658047052110217E-002   2.8734973371213335E-002
   8.7516760334951482E-002  -2.6262968108494045E-002   8.6134039193508372E-004
   8.4220167991170491E-002  -2.5254421238664060E-002   6.3837487461182452E-004
   8.0923575647389556E-002  -2.4292189778374662E-002   6.0204084104953370E-004
   7.7626983303608565E-002  -2.3376273727624824E-002   7.5233829124835006E-004
   7.4330390959827630E-002  -2.2506673086415518E-002   1.0892672252086344E-003
   8.2123441802274266E-002  -2.4611737844398074E-002   7.9654695730122516E-003
   7.9015894813475873E-002  -2.3685865877449280E-002   7.6828619280689681E-003
   7.5908347824677425E-002  -2.2790697877459715E-002   7.5917135093294952E-003
   7.2800800835879032E-002  -2.1926233844428801E-002   7.6920243167942770E-003
   6.9693253847080638E-002  -2.1092473778356990E-002   7.9837943504627029E-003
   7.6706576959005096E-002  -2.2960507580302214E-002   1.4979118129917812E-002
   7.3792903067632115E-002  -2.2117310516234445E-002   1.4652479799935253E-002
   7.0879229176259217E-002  -2.1289205976544767E-002   1.4522128438600013E-002
   6.7965555284886306E-002  -2.0476193961232667E-002   1.4588064045911245E-002
   6.5051881393513367E-002  -1.9678274470298740E-002   1.4850286621869602E-002
   7.1266165805144055E-002  -2.1309277316206188E-002   2.1902286062651405E-002
   6.8551192753639412E-002  -2.0548755155019638E-002   2.1547228490211338E-002
   6.5836219702134796E-002  -1.9787714075629875E-002   2.1393285628861045E-002
   6.3121246650630181E-002  -1.9026154078036699E-002   2.1440457478600496E-002
   6.0406273599125586E-002  -1.8264075162240351E-002   2.1688744039429539E-002
   6.5802208340691087E-002  -1.9658047052110217E-002   2.8734973371213335E-002
   6.3290763871497707E-002  -1.8980199793804886E-002   2.8367107998896551E-002
   6.0779319402304258E-002  -1.8286222174714872E-002   2.8205185080112494E-002
   5.8267874933110843E-002  -1.7576114194840786E-002   2.8249204614860995E-002
   5.5756430463917372E-002  -1.6849875854182017E-002   2.8499166603142223E-002
   7.4330390959827630E-002  -2.2506673086415518E-002   1.0892672252086344E-003
   7.1676756641538830E-002  -2.1643771037186066E-002   8.5240973590949842E-004
   6.9023122323250086E-002  -2.0747950762376510E-002   8.1281297501578642E-004
   6.6369488004961369E-002  -1.9819212261986921E-002   9.7047694252697103E-004
   6.3715853686672541E-002  -1.8857555536017201E-002   1.3254016384440792E-003
   6.9693253847080638E-002  -2.1092473778356990E-002   7.9837943504627029E-003
   6.7227474438428914E-002  -2.0262815971240467E-002   7.7610045388892268E-003
   6.4761695029777105E-002  -1.9410658715075135E-002   7.7166638181842551E-003
   6.2295915621125339E-002  -1.8536002009861288E-002   7.8507721883480514E-003
   5.9830136212473628E-002  -1.7638845855598606E-002   8.1633296493806018E-003
   6.5051881393513367E-002  -1.9678274470298740E-002   1.4850286621869602E-002
   6.2755145256961853E-002  -1.8881860905294923E-002   1.4631145711490295E-002
   6.0458409120410381E-002  -1.8073366667773844E-002   1.4571642254443087E-002
   5.8161672983858916E-002  -1.7252791757735537E-002   1.4671776250727811E-002
   5.5864936847307395E-002  -1.6420136175180067E-002   1.4931547700344522E-002
   6.0406273599125586E-002  -1.8264075162240351E-002   2.1688744039429539E-002
   5.8259769097137704E-002  -1.7500905839349462E-002   2.1462833253713093E-002
   5.6113264595149856E-002  -1.6736074620472788E-002   2.1377748283791978E-002
   5.3966760093161918E-002  -1.5969581505610068E-002   2.1433489129666031E-002
   5.1820255591174140E-002  -1.5201426494761278E-002   2.1630055791335458E-002
   5.5756430463917372E-002  -1.6849875854182017E-002   2.8499166603142223E-002
   5.3741345958956410E-002  -1.6119950773403890E-002   2.8256067165557175E-002
   5.1726261453995476E-002  -1.5398782573171441E-002   2.8134981906230677E-002
   4.9711176949034527E-002  -1.4686371253484303E-002   2.8135910825162994E-002
   4.7696092444073579E-002  -1.3982716814342711E-002   2.8258853922353722E-002
   6.3715853686672541E-002  -1.8857555536017201E-002   1.3254016384440792E-003
   6.0149716188376390E-002  -1.7910775582019145E-002   1.0441831768895904E-003
   5.6583578690080072E-002  -1.7026667397544742E-002   9.6980503470994739E-004
   5.3017441191784004E-002  -1.6205230982593181E-002   1.1022672119055943E-003
   4.9451303693487603E-002  -1.5446466337165177E-002   1.4415697084766421E-003
   5.9830136212473628E-002  -1.7638845855598606E-002   8.1633296493806018E-003
   5.6468440286840393E-002  -1.6750158977424157E-002   7.7491756647725119E-003
   5.3106744361207270E-002  -1.5900910100474647E-002   7.5370645061152430E-003
   4.9745048435574035E-002  -1.5091099224750180E-002   7.5269961734089619E-003
   4.6383352509940856E-002  -1.4320726350250723E-002   7.7189706666529467E-003
   5.5864936847307395E-002  -1.6420136175180067E-002   1.4931547700344522E-002
   5.2702885000912969E-002  -1.5589542372828946E-002   1.4407691960981156E-002
   4.9540833154518585E-002  -1.4775152803404787E-002   1.4081081554144295E-002
   4.6378781308124152E-002  -1.3976967466906961E-002   1.3951716479833919E-002
   4.3216729461729830E-002  -1.3194986363336270E-002   1.4019596738050644E-002
   5.1820255591174140E-002  -1.5201426494761278E-002   2.1630055791335458E-002
   4.8853050330594117E-002  -1.4428925768233958E-002   2.1019732065514975E-002
   4.5885845070014100E-002  -1.3649395506334920E-002   2.0601856178797267E-002
   4.2918639809434118E-002  -1.2862835709064295E-002   2.0376428131181575E-002
   3.9951434548854081E-002  -1.2069246376421927E-002   2.0343447922668040E-002
   4.7696092444073579E-002  -1.3982716814342711E-002   2.8258853922353722E-002
   4.4918936275883670E-002  -1.3268309163638914E-002   2.7585295978374780E-002
   4.2141780107693871E-002  -1.2523638209265192E-002   2.7099388380074252E-002
   3.9364623939504073E-002  -1.1748703951221302E-002   2.6801131127451389E-002
   3.6587467771314275E-002  -1.0943506389507363E-002   2.6690524220506662E-002
   9.0362719460720192E-002   0.0000000000000000        4.9836010158133763E-002
   9.3962693048822848E-002  -5.4046948482014299E-003   5.3209765736358973E-002
   9.7562666636925519E-002  -1.0671324710075852E-002   5.4964489542835400E-002
  0.10116264022502816       -1.5799889585623266E-002   5.5100181577562989E-002
  0.10476261381313083       -2.0790389474843678E-002   5.3616841840541794E-002
   8.2425818896556757E-002   0.0000000000000000        4.4784145010753701E-002
   8.4635867676716173E-002  -4.5744004298822463E-003   4.8267805275895970E-002
   8.6845916456875588E-002  -9.0375958127386132E-003   5.0590647696900568E-002
   8.9055965237034990E-002  -1.3389586148569103E-002   5.1752672273767494E-002
   9.1266014017194405E-002  -1.7630371437373709E-002   5.1753879006496743E-002
   7.4245081038828348E-002   0.0000000000000000        4.0576004251343382E-002
   7.5523418938655648E-002  -3.7441060115630648E-003   4.4142709264101590E-002
   7.6801756838482962E-002  -7.4038669154013782E-003   4.7006810360333239E-002
   7.8080094738310277E-002  -1.0979282711514939E-002   4.9168307540038349E-002
   7.9358432638137605E-002  -1.4470353399903751E-002   5.0627200803216942E-002
   6.5820505887534991E-002   0.0000000000000000        3.7211587879902822E-002
   6.6625346834641330E-002  -2.9138115932438834E-003   4.0834477700975820E-002
   6.7430187781747669E-002  -5.7701380180641424E-003   4.4212977533133392E-002
   6.8235028728853994E-002  -8.5689792744607762E-003   4.7347087376375586E-002
   6.9039869675960333E-002  -1.1310335362433791E-002   5.0236807230702361E-002
   5.7152093442676667E-002   0.0000000000000000        3.4690895896431997E-002
   5.7941651364673170E-002  -2.0835171749247006E-003   3.8343110586518667E-002
   5.8731209286669681E-002  -4.1364091207269048E-003   4.2209149215301049E-002
   5.9520767208666184E-002  -6.1586758374066099E-003   4.6289011782779166E-002
   6.0310325130662687E-002  -8.1503173249638291E-003   5.0582698288953017E-002
  0.10476261381313083       -2.0790389474843678E-002   5.3616841840541794E-002
  0.10210816617764480       -2.4930563101538190E-002   4.5636563005346839E-002
   9.9453718542158745E-002  -2.7508149189507905E-002   3.9345970725911471E-002
   9.6799270906672730E-002  -2.8523147738752880E-002   3.4745065002235544E-002
   9.4144823271186687E-002  -2.7975558749273086E-002   3.1833845834319113E-002
   9.1266014017194405E-002  -1.7630371437373709E-002   5.1753879006496743E-002
   9.0063476880363522E-002  -2.1205236974382327E-002   4.6516453528722537E-002
   8.8860939743532638E-002  -2.3559468054824808E-002   4.2493162492499098E-002
   8.7658402606701755E-002  -2.4693064678701169E-002   3.9684005897826481E-002
   8.6455865469870857E-002  -2.4606026846011403E-002   3.8088983744704624E-002
   7.9358432638137605E-002  -1.4470353399903751E-002   5.0627200803216942E-002
   7.9132253885753151E-002  -1.7479910847226447E-002   4.7790675600704741E-002
   7.8906075133368725E-002  -1.9610786920141669E-002   4.5692732725534681E-002
   7.8679896380984271E-002  -2.0862981618649436E-002   4.4333372177706679E-002
   7.8453717628599831E-002  -2.1236494942749699E-002   4.3712593957220797E-002
   6.9039869675960333E-002  -1.1310335362433791E-002   5.0236807230702361E-002
   6.9314497193813648E-002  -1.3754584720070578E-002   4.9459229221293546E-002
   6.9589124711666978E-002  -1.5662105785458548E-002   4.8944681425018156E-002
   6.9863752229520307E-002  -1.7032898558597687E-002   4.8693163841876191E-002
   7.0138379747373608E-002  -1.7866963039488020E-002   4.8704676471867596E-002
   6.0310325130662687E-002  -8.1503173249638291E-003   5.0582698288953017E-002
   6.0610206804545069E-002  -1.0029258592914704E-002   5.1522114390488975E-002
   6.0910088478427452E-002  -1.1713424650775432E-002   5.2249008590949601E-002
   6.1209970152309848E-002  -1.3202815498545982E-002   5.2763380890334936E-002
   6.1509851826192223E-002  -1.4497431136226313E-002   5.3065231288645057E-002
   9.4144823271186687E-002  -2.7975558749273086E-002   3.1833845834319113E-002
   9.1756323865049880E-002  -2.6782189510485208E-002   3.1262220400631410E-002
   8.9367824458913031E-002  -2.5859847311805986E-002   3.0769238769165465E-002
   8.6979325052776196E-002  -2.5208532153235395E-002   3.0354900939921405E-002
   8.4590825646639389E-002  -2.4828244034773517E-002   3.0019206912898944E-002
   8.6455865469870857E-002  -2.4606026846011403E-002   3.8088983744704624E-002
   8.4192889646725139E-002  -2.3961918001993956E-002   3.7062288314821334E-002
   8.1929913823579406E-002  -2.3424301591887329E-002   3.6207996248698533E-002
   7.9666938000433674E-002  -2.2993177615691474E-002   3.5526107546336241E-002
   7.7403962177287983E-002  -2.2668546073406445E-002   3.5016622207734285E-002
   7.8453717628599831E-002  -2.1236494942749699E-002   4.3712593957220797E-002
   7.6410024949983918E-002  -2.1141646493502704E-002   4.2395363137339839E-002
   7.4366332271367949E-002  -2.0988755871968676E-002   4.1344295242757928E-002
   7.2322639592752022E-002  -2.0777823078147555E-002   4.0559390273475202E-002
   7.0278946914136067E-002  -2.0508848112039402E-002   4.0040648229491591E-002
   7.0138379747373608E-002  -1.7866963039488020E-002   4.8704676471867596E-002
   6.8407729774826120E-002  -1.8321374985011459E-002   4.7261444868186821E-002
   6.6677079802278647E-002  -1.8553210152050012E-002   4.6178135751343649E-002
   6.4946429829731173E-002  -1.8562468540603654E-002   4.5454749121338407E-002
   6.3215779857183657E-002  -1.8349150150672330E-002   4.5091284978170956E-002
   6.1509851826192223E-002  -1.4497431136226313E-002   5.3065231288645057E-002
   6.0186004121251864E-002  -1.5501103476520190E-002   5.1660533507362230E-002
   5.8862156416311484E-002  -1.6117664432131352E-002   5.0709517774455794E-002
   5.7538308711371125E-002  -1.6347114003059698E-002   5.0212184089925838E-002
   5.6214461006430752E-002  -1.6189452189305301E-002   5.0168532453772410E-002
   8.4590825646639389E-002  -2.4828244034773517E-002   3.0019206912898944E-002
   8.2194532592006542E-002  -2.4509657397728715E-002   2.9260726449259131E-002
   7.9798239537373722E-002  -2.4043446683409422E-002   2.8784982492699174E-002
   7.7401946482740902E-002  -2.3429611891815683E-002   2.8591975043218941E-002
   7.5005653428108110E-002  -2.2668153022947446E-002   2.8681704100818772E-002
   7.7403962177287983E-002  -2.2668546073406445E-002   3.5016622207734285E-002
   7.5276097276509593E-002  -2.2343069524867712E-002   3.4433584858914762E-002
   7.3148232375731259E-002  -2.1909410529910547E-002   3.4104667310724417E-002
   7.1020367474952911E-002  -2.1367569088535120E-002   3.4029869563162951E-002
   6.8892502574174536E-002  -2.0717545200741400E-002   3.4209191616230705E-002
   7.0278946914136067E-002  -2.0508848112039402E-002   4.0040648229491591E-002
   6.8390893460761326E-002  -2.0176481652006646E-002   3.9593612364636377E-002
   6.6502840007386557E-002  -1.9775374376411699E-002   3.9372079593959448E-002
   6.4614786554011788E-002  -1.9305526285254580E-002   3.9376049917460562E-002
   6.2726733100637047E-002  -1.8766937378535326E-002   3.9605523335139947E-002
   6.3215779857183657E-002  -1.8349150150672330E-002   4.5091284978170956E-002
   6.1538921144761644E-002  -1.8009893779145584E-002   4.4740808966423920E-002
   5.9862062432339602E-002  -1.7641338222912837E-002   4.4587219342404297E-002
   5.8185203719917609E-002  -1.7243483481974031E-002   4.4630516106111830E-002
   5.6508345007495547E-002  -1.6816329556329238E-002   4.4870699257546727E-002
   5.6214461006430752E-002  -1.6189452189305301E-002   5.0168532453772410E-002
   5.4720180328510587E-002  -1.5843305906284577E-002   4.9875174664277350E-002
   5.3225899650590415E-002  -1.5507302069413986E-002   4.9750086556058830E-002
   5.1731618972670271E-002  -1.5181440678693457E-002   4.9793268129116705E-002
   5.0237338294750078E-002  -1.4865721734123177E-002   5.0004719383450885E-002
   7.5005653428108110E-002  -2.2668153022947446E-002   2.8681704100818772E-002
   7.2704792156253861E-002  -2.1853568219141084E-002   2.8465854821773939E-002
   7.0403930884399585E-002  -2.1080355622732777E-002   2.8402783273824728E-002
   6.8103069612545392E-002  -2.0348515233722393E-002   2.8492489456971276E-002
   6.5802208340691087E-002  -1.9658047052110217E-002   2.8734973371213335E-002
   6.8892502574174536E-002  -2.0717545200741400E-002   3.4209191616230705E-002
   6.6752639880760967E-002  -2.0022219009865380E-002   3.3919469541100769E-002
   6.4612777187347398E-002  -1.9344470659243461E-002   3.3798966891756752E-002
   6.2472914493933877E-002  -1.8684300148875350E-002   3.3847683668198139E-002
   6.0333051800520288E-002  -1.8041707478761215E-002   3.4065619870425473E-002
   6.2726733100637047E-002  -1.8766937378535326E-002   3.9605523335139947E-002
   6.0764310680354192E-002  -1.8190869800589871E-002   3.9265722831069293E-002
   5.8801888260071329E-002  -1.7608585695754228E-002   3.9111583447474299E-002
   5.6839465839788439E-002  -1.7020085064028360E-002   3.9143105184355063E-002
   5.4877043419505604E-002  -1.6425367905412297E-002   3.9360288041711669E-002
   5.6508345007495547E-002  -1.6816329556329238E-002   4.4870699257546727E-002
   5.4739804555033383E-002  -1.6359520591314292E-002   4.4504614691679364E-002
   5.2971264102571247E-002  -1.5872700732264926E-002   4.4340632940977801E-002
   5.1202723650109097E-002  -1.5355869979181315E-002   4.4378754005441765E-002
   4.9434183197646919E-002  -1.4809028332063309E-002   4.4618977885071603E-002
   5.0237338294750078E-002  -1.4865721734123177E-002   5.0004719383450885E-002
   4.8679121504798681E-002  -1.4528171382038699E-002   4.9636145122930936E-002
   4.7120904714847256E-002  -1.4136815768775672E-002   4.9486115372266840E-002
   4.5562687924895859E-002  -1.3691654894334325E-002   4.9554630131458464E-002
   4.4004471134944434E-002  -1.3192688758714377E-002   4.9841689400505651E-002
   6.5802208340691087E-002  -1.9658047052110217E-002   2.8734973371213335E-002
   6.3290763871497707E-002  -1.8980199793804886E-002   2.8367107998896551E-002
   6.0779319402304258E-002  -1.8286222174714872E-002   2.8205185080112494E-002
   5.8267874933110843E-002  -1.7576114194840786E-002   2.8249204614860995E-002
   5.5756430463917372E-002  -1.6849875854182017E-002   2.8499166603142223E-002
   6.0333051800520288E-002  -1.8041707478761215E-002   3.4065619870425473E-002
   5.8025435509344789E-002  -1.7403053169587110E-002   3.3721704121329368E-002
   5.5717819218169359E-002  -1.6754697742038915E-002   3.3579502274736522E-002
   5.3410202926993854E-002  -1.6096641196116798E-002   3.3639014330647046E-002
   5.1102586635818431E-002  -1.5428883531820925E-002   3.3900240289060857E-002
   5.4877043419505604E-002  -1.6425367905412297E-002   3.9360288041711669E-002
   5.2769026755318728E-002  -1.5825906545369389E-002   3.9033892673425732E-002
   5.0661010091131845E-002  -1.5223173309362847E-002   3.8904982656613629E-002
   4.8552993426944968E-002  -1.4617168197393032E-002   3.8973557991275443E-002
   4.6444976762758147E-002  -1.4007891209459583E-002   3.9239618677411478E-002
   4.9434183197646919E-002  -1.4809028332063309E-002   4.4618977885071603E-002
   4.7521537609419323E-002  -1.4248759921151780E-002   4.4303673655185470E-002
   4.5608892021191762E-002  -1.3691648876686918E-002   4.4181626225743786E-002
   4.3696246432964186E-002  -1.3137695198669169E-002   4.4252835596746816E-002
   4.1783600844736604E-002  -1.2586898887098200E-002   4.4517301768194351E-002
   4.4004471134944434E-002  -1.3192688758714377E-002   4.9841689400505651E-002
   4.2282968071646762E-002  -1.2671613296933892E-002   4.9531047066608713E-002
   4.0561465008349118E-002  -1.2160124444010878E-002   4.9409432982127022E-002
   3.8839961945051460E-002  -1.1658222199945292E-002   4.9476847147060757E-002
   3.7118458881753802E-002  -1.1165906564737094E-002   4.9733289561409544E-002
   5.5756430463917372E-002  -1.6849875854182017E-002   2.8499166603142223E-002
   5.3741345958956410E-002  -1.6119950773403890E-002   2.8256067165557175E-002
   5.1726261453995476E-002  -1.5398782573171441E-002   2.8134981906230677E-002
   4.9711176949034527E-002  -1.4686371253484303E-002   2.8135910825162994E-002
   4.7696092444073579E-002  -1.3982716814342711E-002   2.8258853922353722E-002
   5.1102586635818431E-002  -1.5428883531820925E-002   3.3900240289060857E-002
   4.9217816650052842E-002  -1.4756345033773738E-002   3.3657226981742672E-002
   4.7333046664287351E-002  -1.4083945986598345E-002   3.3552828534556933E-002
   4.5448276678521825E-002  -1.3411686390294969E-002   3.3587044947503530E-002
   4.3563506692756326E-002  -1.2739566244863387E-002   3.3759876220582408E-002
   4.6444976762758147E-002  -1.4007891209459583E-002   3.9239618677411478E-002
   4.4707121978061773E-002  -1.3392739294143419E-002   3.9005308930034108E-002
   4.2969267193365447E-002  -1.2769109400025479E-002   3.8926214724662712E-002
   4.1231412408669121E-002  -1.2137001527105581E-002   3.9002336061297271E-002
   3.9493557623972747E-002  -1.1496415675383953E-002   3.9233672939938152E-002
   4.1783600844736604E-002  -1.2586898887098200E-002   4.4517301768194351E-002
   4.0209261942983188E-002  -1.2029133554513294E-002   4.4300313010431157E-002
   3.8634923041229785E-002  -1.1454272813452498E-002   4.4255140476547890E-002
   3.7060584139476355E-002  -1.0862316663916276E-002   4.4381784166544445E-002
   3.5486245237722973E-002  -1.0253265105904574E-002   4.4680244080420616E-002
   3.7118458881753802E-002  -1.1165906564737094E-002   4.9733289561409544E-002
   3.5724236544817045E-002  -1.0665527814882919E-002   4.9542239222934270E-002
   3.4330014207880330E-002  -1.0139436226879545E-002   4.9539605790212687E-002
   3.2935791870943580E-002  -9.5876318007270048E-003   4.9725389263244685E-002
   3.1541569534006858E-002  -9.0101145364251400E-003   5.0099589642030151E-002
   4.7696092444073579E-002  -1.3982716814342711E-002   2.8258853922353722E-002
   4.4918936275883670E-002  -1.3268309163638914E-002   2.7585295978374780E-002
   4.2141780107693871E-002  -1.2523638209265192E-002   2.7099388380074252E-002
   3.9364623939504073E-002  -1.1748703951221302E-002   2.6801131127451389E-002
   3.6587467771314275E-002  -1.0943506389507363E-002   2.6690524220506662E-002
   4.3563506692756326E-002  -1.2739566244863387E-002   3.3759876220582408E-002
   4.0975297702453090E-002  -1.2057282526463764E-002   3.3175616741585034E-002
   3.8387088712149853E-002  -1.1354532211256402E-002   3.2781601272682731E-002
   3.5798879721846644E-002  -1.0631315299240836E-002   3.2577829813875747E-002
   3.3210670731543324E-002  -9.8876317904177391E-003   3.2564302365164055E-002
   3.9493557623972747E-002  -1.1496415675383953E-002   3.9233672939938152E-002
   3.7096889475973380E-002  -1.0846255889288420E-002   3.8728915219059801E-002
   3.4700221327973957E-002  -1.0185426213247431E-002   3.8416995172693938E-002
   3.2303553179974617E-002  -9.5139266472607543E-003   3.8297912800840626E-002
   2.9906885031975222E-002  -8.8317571913283377E-003   3.8371668103499179E-002
   3.5486245237722973E-002  -1.0253265105904574E-002   4.4680244080420616E-002
   3.3283711596444679E-002  -9.6352292521132282E-003   4.4245191410799418E-002
   3.1081177955166399E-002  -9.0163202152385505E-003   4.4005570080107706E-002
   2.8878644313888240E-002  -8.3965379952805359E-003   4.3961380088345423E-002
   2.6676110672609873E-002  -7.7758825922387698E-003   4.4112621435513477E-002
   3.1541569534006858E-002  -9.0101145364251400E-003   5.0099589642030151E-002
   2.9535764063866959E-002  -8.4242026149379812E-003   4.9724445316803423E-002
   2.7529958593727061E-002  -7.8472142172297393E-003   4.9547325994923702E-002
   2.5524153123587121E-002  -7.2791493433002515E-003   4.9568231676390975E-002
   2.3518347653447291E-002  -6.7200079931493129E-003   4.9787162361205395E-002
   5.7152093442676667E-002   0.0000000000000000        3.4690895896431997E-002
   5.7941651364673170E-002  -2.0835171749247006E-003   3.8343110586518667E-002
   5.8731209286669681E-002  -4.1364091207269048E-003   4.2209149215301049E-002
   5.9520767208666184E-002  -6.1586758374066099E-003   4.6289011782779166E-002
   6.0310325130662687E-002  -8.1503173249638291E-003   5.0582698288953017E-002
   4.8651898928698284E-002   0.0000000000000000        3.2790454167881990E-002
   4.9590033092583224E-002  -1.7090601430941790E-003   3.6966000455567319E-002
   5.0528167256468158E-002  -3.4321332371485807E-003   4.1224875288333782E-002
   5.1466301420353092E-002  -5.1692192821632087E-003   4.5567078666181378E-002
   5.2404435584238032E-002  -6.9203182781380629E-003   4.9992610589110129E-002
   4.0731977570044729E-002   0.0000000000000000        3.1286788561203864E-002
   4.1688192582203507E-002  -1.3346031112636569E-003   3.5941028266405141E-002
   4.2644407594362277E-002  -2.7278573535702601E-003   4.0548101123072958E-002
   4.3600622606521054E-002  -4.1797627269198048E-003   4.5108007131207301E-002
   4.4556837618679818E-002  -5.6903192313122941E-003   4.9620746290808190E-002
   3.3392329366716003E-002   0.0000000000000000        3.0179899076397620E-002
   3.4236129833534010E-002  -9.6014607943313546E-004   3.5268194019032126E-002
   3.5079930300352030E-002  -2.0235814699919360E-003   4.0178826719518571E-002
   3.5923730767170051E-002  -3.1903061716764014E-003   4.4911797177856948E-002
   3.6767531233988064E-002  -4.4603201844865305E-003   4.9467105394047285E-002
   2.6632954318712113E-002   0.0000000000000000        2.9469785713463259E-002
   2.7233844846574769E-002  -5.8568904760261317E-004   3.4947497713448274E-002
   2.7834735374437425E-002  -1.3193055864136154E-003   4.0117052077670627E-002
   2.8435625902300084E-002  -2.2008496164329979E-003   4.4978448806130319E-002
   2.9036516430162741E-002  -3.2303211376607617E-003   4.9531687898827378E-002
   6.0310325130662687E-002  -8.1503173249638291E-003   5.0582698288953017E-002
   6.0610206804545069E-002  -1.0029258592914704E-002   5.1522114390488975E-002
   6.0910088478427452E-002  -1.1713424650775432E-002   5.2249008590949601E-002
   6.1209970152309848E-002  -1.3202815498545982E-002   5.2763380890334936E-002
   6.1509851826192223E-002  -1.4497431136226313E-002   5.3065231288645057E-002
   5.2404435584238032E-002  -6.9203182781380629E-003   4.9992610589110129E-002
   5.2530728501667068E-002  -8.5840373296832955E-003   5.1221025441089238E-002
   5.2657021419096096E-002  -1.0058983541409097E-002   5.2314784681236882E-002
   5.2783314336525125E-002  -1.1345156913315455E-002   5.3273888309553132E-002
   5.2909607253954147E-002  -1.2442557445402347E-002   5.4098336326037930E-002
   4.4556837618679818E-002  -5.6903192313122941E-003   4.9620746290808190E-002
   4.4587408068899353E-002  -7.1388160664518927E-003   5.1132157522959742E-002
   4.4617978519118875E-002  -8.4045424320427758E-003   5.2586779432523732E-002
   4.4648548969338404E-002  -9.4874983280849416E-003   5.3984612019500125E-002
   4.4679119419557933E-002  -1.0387683754578367E-002   5.5325655283888969E-002
   3.6767531233988064E-002  -4.4603201844865305E-003   4.9467105394047285E-002
   3.6780245506241940E-002  -5.6935948032204899E-003   5.1255510636100593E-002
   3.6792959778495810E-002  -6.7501013226764521E-003   5.3064992844810137E-002
   3.6805674050749693E-002  -7.6298397428544110E-003   5.4895552020175965E-002
   3.6818388323003562E-002  -8.3328100637543798E-003   5.6747188162198078E-002
   2.9036516430162741E-002  -3.2303211376607617E-003   4.9531687898827378E-002
   2.9109240813694807E-002  -4.2483735399890818E-003   5.1591084780511658E-002
   2.9181965197226892E-002  -5.0956602133101188E-003   5.3749424918096082E-002
   2.9254689580758959E-002  -5.7721811576239212E-003   5.6006708311580618E-002
   2.9327413964291039E-002  -6.2779363729304066E-003   5.8362934960965299E-002
   6.1509851826192223E-002  -1.4497431136226313E-002   5.3065231288645057E-002
   6.0186004121251864E-002  -1.5501103476520190E-002   5.1660533507362230E-002
   5.8862156416311484E-002  -1.6117664432131352E-002   5.0709517774455794E-002
   5.7538308711371125E-002  -1.6347114003059698E-002   5.0212184089925838E-002
   5.6214461006430752E-002  -1.6189452189305301E-002   5.0168532453772410E-002
   5.2909607253954147E-002  -1.2442557445402347E-002   5.4098336326037930E-002
   5.1987029671035356E-002  -1.3292376647988283E-002   5.3357733958174683E-002
   5.1064452088116559E-002  -1.3835806031391819E-002   5.2965989785978072E-002
   5.0141874505197762E-002  -1.4072845595612770E-002   5.2923103809448237E-002
   4.9219296922278971E-002  -1.4003495340651345E-002   5.3229076028584982E-002
   4.4679119419557933E-002  -1.0387683754578367E-002   5.5325655283888969E-002
   4.4052988105950944E-002  -1.1083649819456360E-002   5.5168426763944976E-002
   4.3426856792343968E-002  -1.1553947630652187E-002   5.5255232586957900E-002
   4.2800725478736985E-002  -1.1798577188165868E-002   5.5586072752927776E-002
   4.2174594165130003E-002  -1.1817538491997383E-002   5.6160947261854569E-002
   3.6818388323003562E-002  -8.3328100637543798E-003   5.6747188162198078E-002
   3.6383879425998626E-002  -8.8749229909244297E-003   5.7092611924673034E-002
   3.5949370528993677E-002  -9.2720892299126244E-003   5.7577246177395187E-002
   3.5514861631988734E-002  -9.5243087807189430E-003   5.8201090920364490E-002
   3.5080352734983798E-002  -9.6315816433434100E-003   5.8964146153580949E-002
   2.9327413964291039E-002  -6.2779363729304066E-003   5.8362934960965299E-002
   2.8979703631178383E-002  -6.6661961623924876E-003   5.9130289440358919E-002
   2.8631993298065723E-002  -6.9902308291730185E-003   5.9932030557289996E-002
   2.8284282964953077E-002  -7.2500403732720297E-003   6.0768158311758441E-002
   2.7936572631840413E-002  -7.4456247946894649E-003   6.1638672703764275E-002
   5.6214461006430752E-002  -1.6189452189305301E-002   5.0168532453772410E-002
   5.4720180328510587E-002  -1.5843305906284577E-002   4.9875174664277350E-002
   5.3225899650590415E-002  -1.5507302069413986E-002   4.9750086556058830E-002
   5.1731618972670271E-002  -1.5181440678693457E-002   4.9793268129116705E-002
   5.0237338294750078E-002  -1.4865721734123177E-002   5.0004719383450885E-002
   4.9219296922278971E-002  -1.4003495340651345E-002   5.3229076028584982E-002
   4.7899816148115434E-002  -1.3773391049562420E-002   5.2895197692034102E-002
   4.6580335373951925E-002  -1.3528168505401068E-002   5.2742649481720194E-002
   4.5260854599788410E-002  -1.3267827708167252E-002   5.2771431397643009E-002
   4.3941373825624866E-002  -1.2992368657861048E-002   5.2981543439802728E-002
   4.2174594165130003E-002  -1.1817538491997383E-002   5.6160947261854569E-002
   4.1042973739683540E-002  -1.1703476192840290E-002   5.5811809077470430E-002
   3.9911353314237084E-002  -1.1549034941388208E-002   5.5657061464283612E-002
   3.8779732888790629E-002  -1.1354214737641049E-002   5.5696704422294116E-002
   3.7648112463344166E-002  -1.1119015581598932E-002   5.5930737951501837E-002
   3.5080352734983798E-002  -9.6315816433434100E-003   5.8964146153580949E-002
   3.4149653103214835E-002  -9.6335613361181738E-003   5.8625008820586182E-002
   3.3218953471445878E-002  -9.5699013773753207E-003   5.8493322503749133E-002
   3.2288253839676914E-002  -9.4406017671148715E-003   5.8569087203069761E-002
   3.1357554207907964E-002  -9.2456625053367811E-003   5.8852302918548052E-002
   2.7936572631840413E-002  -7.4456247946894649E-003   6.1638672703764275E-002
   2.7219854238709366E-002  -7.5636464793960440E-003   6.1334796921381399E-002
   2.6503135845578323E-002  -7.5907678133624451E-003   6.1251432600116618E-002
   2.5786417452447280E-002  -7.5269887965886302E-003   6.1388579739970014E-002
   2.5069699059316233E-002  -7.3723094290746860E-003   6.1746238340941589E-002
   5.0237338294750078E-002  -1.4865721734123177E-002   5.0004719383450885E-002
   4.8679121504798681E-002  -1.4528171382038699E-002   4.9636145122930936E-002
   4.7120904714847256E-002  -1.4136815768775672E-002   4.9486115372266840E-002
   4.5562687924895859E-002  -1.3691654894334325E-002   4.9554630131458464E-002
   4.4004471134944434E-002  -1.3192688758714377E-002   4.9841689400505651E-002
   4.3941373825624866E-002  -1.2992368657861048E-002   5.2981543439802728E-002
   4.2596950040085658E-002  -1.2688601420912979E-002   5.2658572471378604E-002
   4.1252526254546444E-002  -1.2343336063753367E-002   5.2544643001923276E-002
   3.9908102469007195E-002  -1.1956572586382551E-002   5.2639755031436461E-002
   3.8563678683468008E-002  -1.1528310988800416E-002   5.2943908559918373E-002
   3.7648112463344166E-002  -1.1119015581598932E-002   5.5930737951501837E-002
   3.6507978671330016E-002  -1.0849031459787155E-002   5.5641063134206505E-002
   3.5367844879315873E-002  -1.0549856358731066E-002   5.5550926804992712E-002
   3.4227711087301743E-002  -1.0221490278430834E-002   5.5660328963860431E-002
   3.3087577295287565E-002  -9.8639332188862894E-003   5.5969269610809641E-002
   3.1357554207907964E-002  -9.2456625053367811E-003   5.8852302918548052E-002
   3.0412207398531788E-002  -9.0094614986613412E-003   5.8583617111414313E-002
   2.9466860589155604E-002  -8.7563766537087900E-003   5.8504966781475140E-002
   2.8521513779779416E-002  -8.4864079704791429E-003   5.8616351928730166E-002
   2.7576166970403267E-002  -8.1995554489722178E-003   5.8917772553179704E-002
   2.5069699059316233E-002  -7.3723094290746860E-003   6.1746238340941589E-002
   2.4309636221690904E-002  -7.1698915375355970E-003   6.1486234403002354E-002
   2.3549573384065589E-002  -6.9628969486864589E-003   6.1406762931370457E-002
   2.2789510546440267E-002  -6.7513256625273826E-003   6.1507823926045993E-002
   2.2029447708814945E-002  -6.5351776790582017E-003   6.1789417387028645E-002
   4.4004471134944434E-002  -1.3192688758714377E-002   4.9841689400505651E-002
   4.2282968071646762E-002  -1.2671613296933892E-002   4.9531047066608713E-002
   4.0561465008349118E-002  -1.2160124444010878E-002   4.9409432982127022E-002
   3.8839961945051460E-002  -1.1658222199945292E-002   4.9476847147060757E-002
   3.7118458881753802E-002  -1.1165906564737094E-002   4.9733289561409544E-002
   3.8563678683468008E-002  -1.1528310988800416E-002   5.2943908559918373E-002
   3.7036494827279207E-002  -1.1080768686656486E-002   5.2596986587038250E-002
   3.5509310971090412E-002  -1.0636163095600989E-002   5.2449674778960564E-002
   3.3982127114901603E-002  -1.0194494215633825E-002   5.2501973135685456E-002
   3.2454943258712843E-002  -9.7557620467549899E-003   5.2753881657212703E-002
   3.3087577295287565E-002  -9.8639332188862894E-003   5.5969269610809641E-002
   3.1765294561594895E-002  -9.4899240763791637E-003   5.5592717896715563E-002
   3.0443011827902225E-002  -9.1122017471912675E-003   5.5426358262811004E-002
   2.9120729094209544E-002  -8.7307662313224135E-003   5.5470190709096326E-002
   2.7798446360516850E-002  -8.3456175287728029E-003   5.5724215235571334E-002
   2.7576166970403267E-002  -8.1995554489722178E-003   5.8917772553179704E-002
   2.6469367274593904E-002  -7.8990794661019104E-003   5.8518240995640680E-002
   2.5362567578784537E-002  -7.5882403987815178E-003   5.8339483433678514E-002
   2.4255767882975177E-002  -7.2670382470110852E-003   5.8381499867293268E-002
   2.3148968187165810E-002  -6.9354730107906853E-003   5.8644290296485012E-002
   2.2029447708814945E-002  -6.5351776790582017E-003   6.1789417387028645E-002
   2.1148712966276142E-002  -6.3082348558244628E-003   6.1373555883813713E-002
   2.0267978223737347E-002  -6.0642790503715044E-003   6.1189050291563046E-002
   1.9387243481198541E-002  -5.8033102626996354E-003   6.1235900610276603E-002
   1.8506508738659749E-002  -5.5253284928085677E-003   6.1514106839954230E-002
   3.7118458881753802E-002  -1.1165906564737094E-002   4.9733289561409544E-002
   3.5724236544817045E-002  -1.0665527814882919E-002   4.9542239222934270E-002
   3.4330014207880330E-002  -1.0139436226879545E-002   4.9539605790212687E-002
   3.2935791870943580E-002  -9.5876318007270048E-003   4.9725389263244685E-002
   3.1541569534006858E-002  -9.0101145364251400E-003   5.0099589642030151E-002
   3.2454943258712843E-002  -9.7557620467549899E-003   5.2753881657212703E-002
   3.1244066299398285E-002  -9.3087249643394321E-003   5.2587408203606467E-002
   3.0033189340083727E-002  -8.8421413437622665E-003   5.2599208599491118E-002
   2.8822312380769162E-002  -8.3560111850238539E-003   5.2789282844866330E-002
   2.7611435421454625E-002  -7.8503344881240000E-003   5.3157630939732525E-002
   2.7798446360516850E-002  -8.3456175287728029E-003   5.5724215235571334E-002
   2.6760771722561714E-002  -7.9519221137957924E-003   5.5576152366846238E-002
   2.5723097084606582E-002  -7.5448464606452520E-003   5.5596220291349113E-002
   2.4685422446651464E-002  -7.1243905693208660E-003   5.5784419009080301E-002
   2.3647747808696315E-002  -6.6905544398227768E-003   5.6140748520039266E-002
   2.3148968187165810E-002  -6.9354730107906853E-003   5.8644290296485012E-002
   2.2274352814307362E-002  -6.5951192632523678E-003   5.8508471712653443E-002
   2.1399737441448904E-002  -6.2475515775279947E-003   5.8530640865787076E-002
   2.0525122068590442E-002  -5.8927699536177967E-003   5.8710797755886064E-002
   1.9650506695731994E-002  -5.5307743915215951E-003   5.9048942382950331E-002
   1.8506508738659749E-002  -5.5253284928085677E-003   6.1514106839954230E-002
   1.7784809574635213E-002  -5.2383164127086379E-003   6.1384366241028165E-002
   1.7063110410610691E-002  -4.9502566944109178E-003   6.1402470322804825E-002
   1.6341411246586141E-002  -4.6611493379147724E-003   6.1568419085283779E-002
   1.5619712082561604E-002  -4.3709943432204135E-003   6.1882212528465486E-002
   3.1541569534006858E-002  -9.0101145364251400E-003   5.0099589642030151E-002
   2.9535764063866959E-002  -8.4242026149379812E-003   4.9724445316803423E-002
   2.7529958593727061E-002  -7.8472142172297393E-003   4.9547325994923702E-002
   2.5524153123587121E-002  -7.2791493433002515E-003   4.9568231676390975E-002
   2.3518347653447291E-002  -6.7200079931493129E-003   4.9787162361205395E-002
   2.7611435421454625E-002  -7.8503344881240000E-003   5.3157630939732525E-002
   2.5813271998140333E-002  -7.3362474663090649E-003   5.2752725451723381E-002
   2.4015108574826048E-002  -6.8248863328257692E-003   5.2565079054018082E-002
   2.2216945151511739E-002  -6.3162510876742586E-003   5.2594691746616837E-002
   2.0418781728197444E-002  -5.8103417308543737E-003   5.2841563529520741E-002
   2.3647747808696315E-002  -6.6905544398227768E-003   5.6140748520039266E-002
   2.2076460519164863E-002  -6.2482923176801208E-003   5.5712279504694512E-002
   2.0505173229633418E-002  -5.8025584484220696E-003   5.5520303666611141E-002
   1.8933885940101893E-002  -5.3533528320485416E-003   5.5564821005789022E-002
   1.7362598650570507E-002  -4.9006754685594345E-003   5.5845831522228495E-002
   1.9650506695731994E-002  -5.5307743915215951E-003   5.9048942382950331E-002
   1.8325329626940577E-002  -5.1603371690512462E-003   5.8603107475717002E-002
   1.7000152558149170E-002  -4.7802305640181793E-003   5.8412999832702574E-002
   1.5674975489357743E-002  -4.3904545764227977E-003   5.8478619453906172E-002
   1.4349798420566346E-002  -3.9910092062645508E-003   5.8799966339329365E-002
   1.5619712082561604E-002  -4.3709943432204135E-003   6.1882212528465486E-002
   1.4559879321467489E-002  -4.0723820204222605E-003   6.1425209364790900E-002
   1.3500046560373319E-002  -3.7579026796143444E-003   6.1243167552292255E-002
   1.2440213799279155E-002  -3.4275563207969290E-003   6.1336087090969355E-002
   1.1380381038185006E-002  -3.0813429439695561E-003   6.1703967980822227E-002
   2.6632954318712113E-002   0.0000000000000000        2.9469785713463259E-002
   2.7233844846574769E-002  -5.8568904760261317E-004   3.4947497713448274E-002
   2.7834735374437425E-002  -1.3193055864136154E-003   4.0117052077670627E-002
   2.8435625902300084E-002  -2.2008496164329979E-003   4.4978448806130319E-002
   2.9036516430162741E-002  -3.2303211376607617E-003   4.9531687898827378E-002
   2.0116465820819957E-002   0.0000000000000000        2.9022026074351490E-002
   2.0448682463797781E-002  -4.3926678542389758E-004   3.4315285215309993E-002
   2.0780899106775604E-002  -9.8947918924534306E-004   3.9379354222261492E-002
   2.1113115749753428E-002  -1.6506372114643399E-003   4.4214233095205981E-002
   2.1445332392731251E-002  -2.4227408520808829E-003   4.8819921834143451E-002
   1.3505477267826438E-002   0.0000000000000000        2.8702197761013012E-002
   1.3647987527675074E-002  -2.9284452324518026E-004   3.3847985915755843E-002
   1.3790497787523710E-002  -6.5965279207707596E-004   3.8843551438247324E-002
   1.3933008047372346E-002  -1.1004248064956845E-003   4.3688894328487431E-002
   1.4075518307220983E-002  -1.6151605665010080E-003   4.8384014586476183E-002
   6.7999886597315540E-003   0.0000000000000000        2.8510300773447843E-002
   6.8317600382066515E-003  -1.4642226106646424E-004   3.3545599814785845E-002
   6.8635314166817481E-003  -3.2982639490880799E-004   3.8509643725628116E-002
   6.8953027951568447E-003  -5.5021240152702605E-004   4.3402432505974690E-002
   6.9270741736319414E-003  -8.0758028092112427E-004   4.8223966155825526E-002
  -3.4646912075442238E-012   0.0000000000000000        2.8446335111655965E-002
  -4.6074871348777968E-012   1.1122535184537874E-012   3.3408126912399957E-002
  -5.7502843632539768E-012   2.2594617149485074E-012   3.8377631084403889E-002
  -6.8930800737471154E-012   3.4416271915693741E-012   4.3354847627667753E-002
  -8.0358766516019919E-012   4.6587482135929115E-012   4.8339776542191536E-002
   2.9036516430162741E-002  -3.2303211376607617E-003   4.9531687898827378E-002
   2.9109240813694807E-002  -4.2483735399890818E-003   5.1591084780511658E-002
   2.9181965197226892E-002  -5.0956602133101188E-003   5.3749424918096082E-002
   2.9254689580758959E-002  -5.7721811576239212E-003   5.6006708311580618E-002
   2.9327413964291039E-002  -6.2779363729304066E-003   5.8362934960965299E-002
   2.1445332392731251E-002  -2.4227408520808829E-003   4.8819921834143451E-002
   2.1587718944228028E-002  -3.1862801535949216E-003   5.1220827592618458E-002
   2.1730105495724808E-002  -3.8217451585063947E-003   5.3662114431122766E-002
   2.1872492047221588E-002  -4.3291358668153023E-003   5.6143782349656356E-002
   2.2014878598718375E-002  -4.7084522785216520E-003   5.8665831348219191E-002
   1.4075518307220983E-002  -1.6151605665010080E-003   4.8384014586476183E-002
   1.4229004850811631E-002  -2.1241867672007618E-003   5.1083737789337190E-002
   1.4382491394402277E-002  -2.5478301037026572E-003   5.3765279896356662E-002
   1.4535977937992925E-002  -2.8860905760067115E-003   5.6428640907534570E-002
   1.4689464481583573E-002  -3.1389681841129044E-003   5.9073820822870951E-002
   6.9270741736319414E-003  -8.0758028092112427E-004   4.8223966155825526E-002
   7.0330985334456147E-003  -1.0620933808065983E-003   5.1179815370667840E-002
   7.1391228932592855E-003  -1.2739150488989299E-003   5.4058921313797789E-002
   7.2451472530729588E-003  -1.4430452851981101E-003   5.6861283985215304E-002
   7.3511716128866304E-003  -1.5694840897041672E-003   5.9586903384920432E-002
  -8.0358766516019919E-012   4.6587482135929115E-012   4.8339776542191536E-002
  -7.8700206074255874E-012   5.5875694696116973E-012   5.1509060336610450E-002
  -7.7041623948448379E-012   5.9048016042700935E-012   5.4543038683446135E-002
  -7.5383043991045229E-012   5.6104870640831528E-012   5.7441711582698569E-002
  -7.3724481380876838E-012   4.7045908835308126E-012   6.0205079034367774E-002
   2.9327413964291039E-002  -6.2779363729304066E-003   5.8362934960965299E-002
   2.8979703631178383E-002  -6.6661961623924876E-003   5.9130289440358919E-002
   2.8631993298065723E-002  -6.9902308291730185E-003   5.9932030557289996E-002
   2.8284282964953077E-002  -7.2500403732720297E-003   6.0768158311758441E-002
   2.7936572631840413E-002  -7.4456247946894649E-003   6.1638672703764275E-002
   2.2014878598718375E-002  -4.7084522785216520E-003   5.8665831348219191E-002
   2.1714690139352837E-002  -4.9996471206156419E-003   5.9489639294912300E-002
   2.1414501679987308E-002  -5.2426731200873218E-003   6.0374104351562284E-002
   2.1114313220621770E-002  -5.4375302769368939E-003   6.1319226518169109E-002
   2.0814124761256245E-002  -5.5842185911642445E-003   6.2325005794732755E-002
   1.4689464481583573E-002  -3.1389681841129044E-003   5.9073820822870951E-002
   1.4463068368384614E-002  -3.3330980788387685E-003   5.9938025956804170E-002
   1.4236672255185649E-002  -3.4951154110016962E-003   6.0889158673113730E-002
   1.4010276141986690E-002  -3.6250201806017862E-003   6.1927218971799543E-002
   1.3783880028787729E-002  -3.7228123876389685E-003   6.3052206852861725E-002
   7.3511716128866304E-003  -1.5694840897041672E-003   5.9586903384920432E-002
   7.2248383182736929E-003  -1.6665490370618673E-003   6.0475449426034493E-002
   7.0985050236607528E-003  -1.7475577019160490E-003   6.1477193521944300E-002
   6.9721717290478153E-003  -1.8125100842666505E-003   6.2592135672649846E-002
   6.8458384344348786E-003  -1.8614061841137203E-003   6.3820275878151117E-002
  -7.3724481380876838E-012   4.7045908835308126E-012   6.0205079034367774E-002
  -1.0979915761322179E-011   4.7149818771519136E-012   6.1101909702603256E-002
  -1.4587382517194936E-011   7.1696242692764756E-012   6.2138208898053979E-002
  -1.8194849273067693E-011   1.2068436094220258E-011   6.3313976620719872E-002
  -2.1802316896302187E-011   1.9411527940604856E-011   6.4629212870600944E-002
   2.7936572631840413E-002  -7.4456247946894649E-003   6.1638672703764275E-002
   2.7219854238709366E-002  -7.5636464793960440E-003   6.1334796921381399E-002
   2.6503135845578323E-002  -7.5907678133624451E-003   6.1251432600116618E-002
   2.5786417452447280E-002  -7.5269887965886302E-003   6.1388579739970014E-002
   2.5069699059316233E-002  -7.3723094290746860E-003   6.1746238340941589E-002
   2.0814124761256245E-002  -5.5842185911642445E-003   6.2325005794732755E-002
   2.0307584863467832E-002  -5.6727348533827521E-003   6.2182537990757847E-002
   1.9801044965679415E-002  -5.6930758542058334E-003   6.2239915716350076E-002
   1.9294505067891002E-002  -5.6452415936335187E-003   6.2497138971509408E-002
   1.8787965170102588E-002  -5.5292320716657239E-003   6.2954207756235878E-002
   1.3783880028787729E-002  -3.7228123876389685E-003   6.3052206852861725E-002
   1.3466852694790947E-002  -3.7818232273694116E-003   6.3048421937949989E-002
   1.3149825360794166E-002  -3.7953838950491661E-003   6.3223816621054363E-002
   1.2832798026797380E-002  -3.7634943906782962E-003   6.3578390902174917E-002
   1.2515770692800597E-002  -3.6861547142567896E-003   6.4112144781311567E-002
   6.8458384344348786E-003  -1.8614061841137203E-003   6.3820275878151117E-002
   6.6976577326787242E-003  -1.8909116013560816E-003   6.3932448762957811E-002
   6.5494770309225733E-003  -1.8976919358925960E-003   6.4203135314229623E-002
   6.4012963291664197E-003  -1.8817471877231153E-003   6.4632335531966650E-002
   6.2531156274102610E-003  -1.8430773568478276E-003   6.5220049416168699E-002
  -2.1802316896302187E-011   1.9411527940604856E-011   6.4629212870600944E-002
  -2.2868838767120536E-011   2.4657262343019681E-011   6.4834618465781313E-002
  -2.3935364107385837E-011   2.3264105919462708E-011   6.5177871795875808E-002
  -2.5001884243480710E-011   1.5232091629679978E-011   6.5658972860884457E-002
  -2.6068411318469487E-011   5.6107896106993849E-013   6.6277921660807204E-002
   2.5069699059316233E-002  -7.3723094290746860E-003   6.1746238340941589E-002
   2.4309636221690904E-002  -7.1698915375355970E-003   6.1486234403002354E-002
   2.3549573384065589E-002  -6.9628969486864589E-003   6.1406762931370457E-002
   2.2789510546440267E-002  -6.7513256625273826E-003   6.1507823926045993E-002
   2.2029447708814945E-002  -6.5351776790582017E-003   6.1789417387028645E-002
   1.8787965170102588E-002  -5.5292320716657239E-003   6.2954207756235878E-002
   1.8210805610368405E-002  -5.3774186573513627E-003   6.2710118652096136E-002
   1.7633646050634208E-002  -5.2221727197393070E-003   6.2651303637431266E-002
   1.7056486490900028E-002  -5.0634942588294353E-003   6.2777762712241392E-002
   1.6479326931165834E-002  -4.9013832746218622E-003   6.3089495876526486E-002
   1.2515770692800597E-002  -3.6861547142567896E-003   6.4112144781311567E-002
   1.2126256034125217E-002  -3.5849457771672186E-003   6.3882826336958951E-002
   1.1736741375449822E-002  -3.4814484907921273E-003   6.3843523605248878E-002
   1.1347226716774435E-002  -3.3756628551315435E-003   6.3994236586181433E-002
   1.0957712058099051E-002  -3.2675888701854672E-003   6.4334965279756670E-002
   6.2531156274102610E-003  -1.8430773568478276E-003   6.5220049416168699E-002
   6.0559874929613476E-003  -1.7924728969830016E-003   6.5004357457590853E-002
   5.8588593585124230E-003  -1.7407242618449059E-003   6.4983422834823307E-002
   5.6617312240635036E-003  -1.6878314514336794E-003   6.5157245547866005E-002
   5.4646030896145789E-003  -1.6337944657490999E-003   6.5525825596719128E-002
  -2.6068411318469487E-011   5.6107896106993849E-013   6.6277921660807204E-002
  -1.3123196973552353E-011  -1.6798853974542283E-011   6.6074712013991926E-002
  -1.7798956752912432E-013  -3.2897747026527924E-011   6.6071001326154635E-002
   1.2767226512111485E-011  -4.7735706013019019E-011   6.6266789597295289E-002
   2.5712432183411238E-011  -6.1312732668739045E-011   6.6662076827413819E-002
   2.2029447708814945E-002  -6.5351776790582017E-003   6.1789417387028645E-002
   2.1148712966276142E-002  -6.3082348558244628E-003   6.1373555883813713E-002
   2.0267978223737347E-002  -6.0642790503715044E-003   6.1189050291563046E-002
   1.9387243481198541E-002  -5.8033102626996354E-003   6.1235900610276603E-002
   1.8506508738659749E-002  -5.5253284928085677E-003   6.1514106839954230E-002
   1.6479326931165834E-002  -4.9013832746218622E-003   6.3089495876526486E-002
   1.5827155043261806E-002  -4.7311761595363738E-003   6.2714233581903020E-002
   1.5174983155357768E-002  -4.5482093059932838E-003   6.2564741085584949E-002
   1.4522811267453752E-002  -4.3524827139921826E-003   6.2641018387572245E-002
   1.3870639379549708E-002  -4.1439963835334104E-003   6.2943065487864797E-002
   1.0957712058099051E-002  -3.2675888701854672E-003   6.4334965279756670E-002
   1.0528516912170990E-002  -3.1541174632484653E-003   6.3996048949963177E-002
   1.0099321766242919E-002  -3.0321395616149452E-003   6.3877316305816390E-002
   9.6701266203148561E-003  -2.9016551652848947E-003   6.3978767347316140E-002
   9.2409314743867876E-003  -2.7626642742583918E-003   6.4300402074462290E-002
   5.4646030896145789E-003  -1.6337944657490999E-003   6.5525825596719128E-002
   5.2527985730036813E-003  -1.5770587669604944E-003   6.5219001987994435E-002
   5.0409940563927794E-003  -1.5160698172367211E-003   6.5126775952257576E-002
   4.8291895397818817E-003  -1.4508276165774133E-003   6.5249147489508469E-002
   4.6173850231709789E-003  -1.3813321649832760E-003   6.5586116599747168E-002
   2.5712432183411238E-011  -6.1312732668739045E-011   6.6662076827413819E-002
   2.5759894217713963E-011  -7.0672440122265812E-011   6.6383092695996709E-002
   2.5807359721463641E-011  -7.2858247213147820E-011   6.6313120024908412E-002
   2.5854826959936794E-011  -6.7870063735764319E-011   6.6452158814149148E-002
   2.5902287259516044E-011  -5.5708215818128792E-011   6.6800209063718752E-002
   1.8506508738659749E-002  -5.5253284928085677E-003   6.1514106839954230E-002
   1.7784809574635213E-002  -5.2383164127086379E-003   6.1384366241028165E-002
   1.7063110410610691E-002  -4.9502566944109178E-003   6.1402470322804825E-002
   1.6341411246586141E-002  -4.6611493379147724E-003   6.1568419085283779E-002
   1.5619712082561604E-002  -4.3709943432204135E-003   6.1882212528465486E-002
   1.3870639379549708E-002  -4.1439963835334104E-003   6.2943065487864797E-002
   1.3304929923314487E-002  -3.9287373201454256E-003   6.2828548052772104E-002
   1.2739220467079256E-002  -3.7126925293567148E-003   6.2878165352555485E-002
   1.2173511010844037E-002  -3.4958620111673125E-003   6.3091917387214813E-002
   1.1607801554608804E-002  -3.2782457655772257E-003   6.3469804156750298E-002
   9.2409314743867876E-003  -2.7626642742583918E-003   6.4300402074462290E-002
   8.8475017801143835E-003  -2.6191582275820607E-003   6.4200845892405517E-002
   8.4540720858419828E-003  -2.4751283643025604E-003   6.4281714499398096E-002
   8.0606423915695752E-003  -2.3305746844200174E-003   6.4543007895440291E-002
   7.6672126972971780E-003  -2.1854971879342600E-003   6.4984726080532185E-002
   4.6173850231709789E-003  -1.3813321649832760E-003   6.5586116599747168E-002
   4.4125251450349064E-003  -1.3095791350187166E-003   6.5501259759928349E-002
   4.2076652668988418E-003  -1.2375641992484372E-003   6.5613117763332757E-002
   4.0028053887627727E-003  -1.1652873576725844E-003   6.5921690609960337E-002
   3.7979455106266977E-003  -1.0927486102912387E-003   6.6426978299810743E-002
   2.5902287259516044E-011  -5.5708215818128792E-011   6.6800209063718752E-002
   1.8076061480964967E-011  -4.2455455817602683E-011   6.6729789655340765E-002
   1.0249842641307794E-011  -3.4194230780215662E-011   6.6872375144359453E-002
   2.4236151280332408E-012  -3.0925297045403255E-011   6.7227965530774592E-002
  -5.4026019769004563E-012  -3.2648106440547053E-011   6.7796560814586515E-002
   1.5619712082561604E-002  -4.3709943432204135E-003   6.1882212528465486E-002
   1.4559879321467489E-002  -4.0723820204222605E-003   6.1425209364790900E-002
   1.3500046560373319E-002  -3.7579026796143444E-003   6.1243167552292255E-002
   1.2440213799279155E-002  -3.4275563207969290E-003   6.1336087090969355E-002
   1.1380381038185006E-002  -3.0813429439695561E-003   6.1703967980822227E-002
   1.1607801554608804E-002  -3.2782457655772257E-003   6.3469804156750298E-002
   1.0820429355261264E-002  -3.0542865251633189E-003   6.3095505514416172E-002
   1.0033057155913745E-002  -2.8184270225021929E-003   6.2991166644399216E-002
   9.2456849565662191E-003  -2.5706672575939345E-003   6.3156787546699844E-002
   8.4583127572187000E-003  -2.3110072304384222E-003   6.3592368221317530E-002
   7.6672126972971780E-003  -2.1854971879342600E-003   6.4984726080532185E-002
   7.1472994808377405E-003  -2.0361910299045993E-003   6.4689165203775753E-002
   6.6273862643783030E-003  -1.8789513653901524E-003   6.4658562520478149E-002
   6.1074730479188741E-003  -1.7137781943911620E-003   6.4892918030639596E-002
   5.5875598314594349E-003  -1.5406715169071772E-003   6.5392231734259343E-002
   3.7979455106266977E-003  -1.0927486102912387E-003   6.6426978299810743E-002
   3.5404896981968380E-003  -1.0180955346457687E-003   6.6206188432869850E-002
   3.2830338857669731E-003  -9.3947570827822291E-004   6.6245355180529264E-002
   3.0255780733371069E-003  -8.5688913118816754E-004   6.6544478542789026E-002
   2.7681222609072485E-003  -7.7033580337598773E-004   6.7103558519649081E-002
  -5.4026019769004563E-012  -3.2648106440547053E-011   6.7796560814586515E-002
   7.3385880705600925E-012  -3.9386882644265597E-011   6.7646575201698533E-002
   2.0079778118020641E-011  -5.1166043624206736E-011   6.7751544624552240E-002
   3.2820964696034238E-011  -6.7985554685900951E-011   6.8111469083147774E-002
   4.5562151274047835E-011  -8.9844798267790793E-011   6.8726348577485163E-002
  -3.4646912075442238E-012   0.0000000000000000        2.8446335111655965E-002
  -4.6074871348777968E-012   1.1122535184537874E-012   3.3408126912399957E-002
  -5.7502843632539768E-012   2.2594617149485074E-012   3.8377631084403889E-002
  -6.8930800737471154E-012   3.4416271915693741E-012   4.3354847627667753E-002
  -8.0358766516019919E-012   4.6587482135929115E-012   4.8339776542191536E-002
  -6.7999886665446839E-003   0.0000000000000000        2.8510300775614471E-002
  -6.8317600472737276E-003   1.4642226322395587E-004   3.3545599817265355E-002
  -6.8635314280027704E-003   3.2982639925134734E-004   3.8509643728483825E-002
  -6.8953028087318114E-003   5.5021240808218047E-004   4.3402432509269867E-002
  -6.9270741894608551E-003   8.0758028971645267E-004   4.8223966159623488E-002
  -1.3505477274290809E-002   0.0000000000000000        2.8702197765300440E-002
  -1.3647987536298450E-002   2.9284452533565779E-004   3.3847985920626697E-002
  -1.3790497798306092E-002   6.5965279624323383E-004   3.8843551443828180E-002
  -1.3933008060313733E-002   1.1004248127227311E-003   4.3688894334904881E-002
  -1.4075518322321371E-002   1.6151605747741506E-003   4.8384014593856828E-002
  -2.0116465826703060E-002   0.0000000000000000        2.9022026080713862E-002
  -2.0448682471681655E-002   4.3926678744735949E-004   3.4315285222483977E-002
  -2.0780899116660249E-002   9.8947919323511989E-004   3.9379354230436960E-002
  -2.1113115761638841E-002   1.6506372173632831E-003   4.4214233104572814E-002
  -2.1445332406617432E-002   2.4227408598318503E-003   4.8819921844891548E-002
  -2.6632954323781450E-002   0.0000000000000000        2.9469785721854755E-002
  -2.7233844853423346E-002   5.8568904955906293E-004   3.4947497722837201E-002
  -2.7834735383065242E-002   1.3193055902270059E-003   4.0117052088310172E-002
  -2.8435625912707138E-002   2.2008496220038351E-003   4.4978448818273647E-002
  -2.9036516442349038E-002   3.2303211448895513E-003   4.9531687912727669E-002
  -8.0358766516019919E-012   4.6587482135929115E-012   4.8339776542191536E-002
  -7.8700206074255874E-012   5.5875694696116973E-012   5.1509060336610450E-002
  -7.7041623948448379E-012   5.9048016042700935E-012   5.4543038683446135E-002
  -7.5383043991045229E-012   5.6104870640831528E-012   5.7441711582698569E-002
  -7.3724481380876838E-012   4.7045908835308126E-012   6.0205079034367774E-002
  -6.9270741894608551E-003   8.0758028971645267E-004   4.8223966159623488E-002
  -7.0330985489560089E-003   1.0620933912931642E-003   5.1179815373764002E-002
  -7.1391229084511653E-003   1.2739150599513096E-003   5.4058921316165756E-002
  -7.2451472679463226E-003   1.4430452956909240E-003   5.6861283986828715E-002
  -7.3511716274414756E-003   1.5694840985119793E-003   5.9586903385752857E-002
  -1.4075518322321371E-002   1.6151605747741506E-003   4.8384014593856828E-002
  -1.4229004865633098E-002   2.1241867769987628E-003   5.1083737795411990E-002
  -1.4382491408944821E-002   2.5478301139978386E-003   5.3765279901072806E-002
  -1.4535977952256548E-002   2.8860905857713780E-003   5.6428640910839281E-002
  -1.4689464495568273E-002   3.1389681923193850E-003   5.9073820824711382E-002
  -2.1445332406617432E-002   2.4227408598318503E-003   4.8819921844891548E-002
  -2.1587718957901281E-002   3.1862801627043627E-003   5.1220827601554365E-002
  -2.1730105509185131E-002   3.8217451680443429E-003   5.3662114438167298E-002
  -2.1872492060468981E-002   4.3291358758518307E-003   5.6143782354730276E-002
  -2.2014878611752827E-002   4.7084522861267821E-003   5.8665831351243418E-002
  -2.9036516442349038E-002   3.2303211448895513E-003   4.9531687912727669E-002
  -2.9109240825760559E-002   4.2483735484099552E-003   5.1591084792191155E-002
  -2.9181965209172094E-002   5.0956602220908632E-003   5.3749424927449205E-002
  -2.9254689592583621E-002   5.7721811659322796E-003   5.6006708318501783E-002
  -2.9327413975995149E-002   6.2779363799341931E-003   5.8362934965348917E-002
  -7.3724481380876838E-012   4.7045908835308126E-012   6.0205079034367774E-002
  -1.0979915761322179E-011   4.7149818771519136E-012   6.1101909702603256E-002
  -1.4587382517194936E-011   7.1696242692764756E-012   6.2138208898053979E-002
  -1.8194849273067693E-011   1.2068436094220258E-011   6.3313976620719872E-002
  -2.1802316896302187E-011   1.9411527940604856E-011   6.4629212870600944E-002
  -7.3511716274414756E-003   1.5694840985119793E-003   5.9586903385752857E-002
  -7.2248383398570044E-003   1.6665490458005229E-003   6.0475449432056197E-002
  -7.0985050522725333E-003   1.7475577149425516E-003   6.1477193533528235E-002
  -6.9721717646880621E-003   1.8125101059381691E-003   6.2592135690168971E-002
  -6.8458384771035875E-003   1.8614062187872205E-003   6.3820275901978363E-002
  -1.4689464495568273E-002   3.1389681923193850E-003   5.9073820824711382E-002
  -1.4463068388838377E-002   3.3330980868860483E-003   5.9938025968491911E-002
  -1.4236672282108478E-002   3.4951154227155215E-003   6.0889158695394588E-002
  -1.4010276175378578E-002   3.6250201998078609E-003   6.1927219005419427E-002
  -1.3783880068648679E-002   3.7228124181629685E-003   6.3052206898566443E-002
  -2.2014878611752827E-002   4.7084522861267821E-003   5.8665831351243418E-002
  -2.1714690157924026E-002   4.9996471279715954E-003   5.9489639311910397E-002
  -2.1414501704095208E-002   5.2426731304884844E-003   6.0374104383652996E-002
  -2.1114313250266400E-002   5.4375302936775175E-003   6.1319226566471298E-002
  -2.0814124796437586E-002   5.5842186175387026E-003   6.2325005860365226E-002
  -2.9327413975995149E-002   6.2779363799341931E-003   5.8362934965348917E-002
  -2.8979703647113941E-002   6.6661961690571113E-003   5.9130289462311650E-002
  -2.8631993318232733E-002   6.9902308382614325E-003   5.9932030598303529E-002
  -2.8284282989351522E-002   7.2500403875472540E-003   6.0768158373324513E-002
  -2.7936572660470310E-002   7.4456248169144229E-003   6.1638672787374685E-002
  -2.1802316896302187E-011   1.9411527940604856E-011   6.4629212870600944E-002
  -2.2868838767120536E-011   2.4657262343019681E-011   6.4834618465781313E-002
  -2.3935364107385837E-011   2.3264105919462708E-011   6.5177871795875808E-002
  -2.5001884243480710E-011   1.5232091629679978E-011   6.5658972860884457E-002
  -2.6068411318469487E-011   5.6107896106993849E-013   6.6277921660807204E-002
  -6.8458384771035875E-003   1.8614062187872205E-003   6.3820275901978363E-002
  -6.6976577773783718E-003   1.8909116452001593E-003   6.3932448776110179E-002
  -6.5494770776531562E-003   1.8976919768872655E-003   6.4203135316911325E-002
  -6.4012963779279406E-003   1.8817472138485721E-003   6.4632335524381815E-002
  -6.2531156782027249E-003   1.8430773560840219E-003   6.5220049398521648E-002
  -1.3783880068648679E-002   3.7228124181629685E-003   6.3052206898566443E-002
  -1.3466852736376491E-002   3.7818232657431325E-003   6.3048421963562723E-002
  -1.3149825404104313E-002   3.7953839305105118E-003   6.3223816626983620E-002
  -1.2832798071832130E-002   3.7634944124651229E-003   6.3578390888829106E-002
  -1.2515770739559937E-002   3.6861547116069787E-003   6.4112144749099154E-002
  -2.0814124796437586E-002   5.5842186175387026E-003   6.2325005860365226E-002
  -2.0307584899863208E-002   5.6727348862861231E-003   6.2182538028139063E-002
  -1.9801045003288841E-002   5.6930758841337147E-003   6.2239915726092707E-002
  -1.9294505106714464E-002   5.6452416110816944E-003   6.2497138954226185E-002
  -1.8787965210140097E-002   5.5292320671299286E-003   6.2954207712539414E-002
  -2.7936572660470310E-002   7.4456248169144229E-003   6.1638672787374685E-002
  -2.7219854267838527E-002   7.5636465068289957E-003   6.1334796969839164E-002
  -2.6503135875206738E-002   7.5907678377569766E-003   6.1251432614238634E-002
  -2.5786417482574958E-002   7.5269888096982521E-003   6.1388579720573100E-002
  -2.5069699089943165E-002   7.3723094226528785E-003   6.1746238288842653E-002
  -2.6068411318469487E-011   5.6107896106993849E-013   6.6277921660807204E-002
  -1.3123196973552353E-011  -1.6798853974542283E-011   6.6074712013991926E-002
  -1.7798956752912432E-013  -3.2897747026527924E-011   6.6071001326154635E-002
   1.2767226512111485E-011  -4.7735706013019019E-011   6.6266789597295289E-002
   2.5712432183411238E-011  -6.1312732668739045E-011   6.6662076827413819E-002
  -6.2531156782027249E-003   1.8430773560840219E-003   6.5220049398521648E-002
  -6.0559875184742493E-003   1.7924728644973104E-003   6.5004357444459968E-002
  -5.8588593587457849E-003   1.7407241999918763E-003   6.4983422824986786E-002
  -5.6617311990173145E-003   1.6878313625679747E-003   6.5157245540102174E-002
  -5.4646030392888519E-003   1.6337943522253540E-003   6.5525825589806103E-002
  -1.2515770739559937E-002   3.6861547116069787E-003   6.4112144749099154E-002
  -1.2126256057437636E-002   3.5849457457933706E-003   6.3882826313611391E-002
  -1.1736741375315322E-002   3.4814484328815863E-003   6.3843523588322765E-002
  -1.1347226693193017E-002   3.3756627728717117E-003   6.3994236573233304E-002
  -1.0957712011070708E-002   3.2675887657636071E-003   6.4334965268342981E-002
  -1.8787965210140097E-002   5.5292320671299286E-003   6.2954207712539414E-002
  -1.8210805630013354E-002   5.3774186270894968E-003   6.2710118621446168E-002
  -1.7633646049886622E-002   5.2221726657713085E-003   6.2651303616162557E-002
  -1.7056486469759886E-002   5.0634941831753932E-003   6.2777762696688708E-002
  -1.6479326889633151E-002   4.9013831793017215E-003   6.3089495863024619E-002
  -2.5069699089943165E-002   7.3723094226528785E-003   6.1746238288842653E-002
  -2.4309636236201408E-002   7.1698915083855813E-003   6.1486234367964271E-002
  -2.3549573382459662E-002   6.9628968986609197E-003   6.1406762908506135E-002
  -2.2789510528717902E-002   6.7513255934792266E-003   6.1507823910468343E-002
  -2.2029447674976166E-002   6.5351775928400024E-003   6.1789417373850797E-002
   2.5712432183411238E-011  -6.1312732668739045E-011   6.6662076827413819E-002
   2.5759894217713963E-011  -7.0672440122265812E-011   6.6383092695996709E-002
   2.5807359721463641E-011  -7.2858247213147820E-011   6.6313120024908412E-002
   2.5854826959936794E-011  -6.7870063735764319E-011   6.6452158814149148E-002
   2.5902287259516044E-011  -5.5708215818128792E-011   6.6800209063718752E-002
  -5.4646030392888519E-003   1.6337943522253540E-003   6.5525825589806103E-002
  -5.2527985226401754E-003   1.5770586363916539E-003   6.5219001992435466E-002
  -5.0409940059914955E-003   1.5160696824937300E-003   6.5126775967938325E-002
  -4.8291894893428174E-003   1.4508274905318651E-003   6.5249147516314610E-002
  -4.6173849726941392E-003   1.3813320605060575E-003   6.5586116637564279E-002
  -1.0957712011070708E-002   3.2675887657636071E-003   6.4334965268342981E-002
  -1.0528516865276314E-002   3.1541173434555120E-003   6.3996048959781116E-002
  -1.0099321719481927E-002   3.0321394378455407E-003   6.3877316336637194E-002
  -9.6701265736875413E-003   2.9016550489338495E-003   6.3978767398911285E-002
  -9.2409314278931436E-003   2.7626641767202753E-003   6.4300402146603319E-002
  -1.6479326889633151E-002   4.9013831793017215E-003   6.3089495863024619E-002
  -1.5827155002148541E-002   4.7311760505194880E-003   6.2714233598033672E-002
  -1.5174983114663943E-002   4.5482091931975180E-003   6.2564741131005130E-002
  -1.4522811227179338E-002   4.3524826073358617E-003   6.2641018461939091E-002
  -1.3870639339694733E-002   4.1439962929345764E-003   6.2943065590835595E-002
  -2.2029447674976166E-002   6.5351775928400024E-003   6.1789417373850797E-002
  -2.1148712933256854E-002   6.3082347575834641E-003   6.1373555907192984E-002
  -2.0267978191537531E-002   6.0642789485493565E-003   6.1189050351042107E-002
  -1.9387243449818216E-002   5.8033101657378253E-003   6.1235900705398166E-002
  -1.8506508708098904E-002   5.5253284091487664E-003   6.1514106970261162E-002
   2.5902287259516044E-011  -5.5708215818128792E-011   6.6800209063718752E-002
   1.8076061480964967E-011  -4.2455455817602683E-011   6.6729789655340765E-002
   1.0249842641307794E-011  -3.4194230780215662E-011   6.6872375144359453E-002
   2.4236151280332408E-012  -3.0925297045403255E-011   6.7227965530774592E-002
  -5.4026019769004563E-012  -3.2648106440547053E-011   6.7796560814586515E-002
  -4.6173849726941392E-003   1.3813320605060575E-003   6.5586116637564279E-002
  -4.4125251096978190E-003   1.3095790539281726E-003   6.5501259785993887E-002
  -4.2076652467014936E-003   1.2375641323103537E-003   6.5613117778671723E-002
  -4.0028053837051743E-003   1.1652872956526839E-003   6.5921690615598133E-002
  -3.7979455207088550E-003   1.0927485439549134E-003   6.6426978296773076E-002
  -9.2409314278931436E-003   2.7626641767202753E-003   6.4300402146603319E-002
  -8.8475017472224027E-003   2.6191581503117317E-003   6.4200845941792123E-002
  -8.4540720665516669E-003   2.4751282988152851E-003   6.4281714528081180E-002
  -8.0606423858809225E-003   2.3305746222306127E-003   6.4543007905470795E-002
  -7.6672127052101920E-003   2.1854971205580442E-003   6.4984726073960525E-002
  -1.3870639339694733E-002   4.1439962929345764E-003   6.2943065590835595E-002
  -1.3304929894497698E-002   3.9287372466953810E-003   6.2828548122735667E-002
  -1.2739220449300648E-002   3.7126924653199320E-003   6.2878165392587990E-002
  -1.2173511004103606E-002   3.4958619488087341E-003   6.3091917400392453E-002
  -1.1607801558906575E-002   3.2782456971611751E-003   6.3469804146149389E-002
  -1.8506508708098904E-002   5.5253284091487664E-003   6.1514106970261162E-002
  -1.7784809551523693E-002   5.2383163430788915E-003   6.1384366328824491E-002
  -1.7063110394948466E-002   4.9502566318247870E-003   6.1402470372191875E-002
  -1.6341411238373245E-002   4.6611492753866300E-003   6.1568419100363495E-002
  -1.5619712081798028E-002   4.3709942737642504E-003   6.1882212513339085E-002
  -5.4026019769004563E-012  -3.2648106440547053E-011   6.7796560814586515E-002
   7.3385880705600925E-012  -3.9386882644265597E-011   6.7646575201698533E-002
   2.0079778118020641E-011  -5.1166043624206736E-011   6.7751544624552240E-002
   3.2820964696034238E-011  -6.7985554685900951E-011   6.8111469083147774E-002
   4.5562151274047835E-011  -8.9844798267790793E-011   6.8726348577485163E-002
  -3.7979455207088550E-003   1.0927485439549134E-003   6.6426978296773076E-002
  -3.5404896831041574E-003   1.0180954555036592E-003   6.6206188422058082E-002
  -3.2830338454994633E-003   9.3947560858523294E-004   6.6245355161328040E-002
  -3.0255780078947744E-003   8.5688900319944722E-004   6.6544478514583602E-002
  -2.7681221702900577E-003   7.7033563934647553E-004   6.7103558481824033E-002
  -7.6672127052101920E-003   2.1854971205580442E-003   6.4984726073960525E-002
  -7.1472994644985414E-003   2.0361909503942288E-003   6.4689165183991482E-002
  -6.6273862237869116E-003   1.8789512683362181E-003   6.4658562486250973E-002
  -6.1074729830752914E-003   1.7137780743840293E-003   6.4892917980739262E-002
  -5.5875597423636313E-003   1.5406713685375273E-003   6.5392231667456058E-002
  -1.1607801558906575E-002   3.2782456971611751E-003   6.3469804146149389E-002
  -1.0820429336844564E-002   3.0542864452851176E-003   6.3095505487499037E-002
  -1.0033057114782553E-002   2.8184269280875709E-003   6.2991166599320872E-002
  -9.2456848927205317E-003   2.5706671455687103E-003   6.3156787481614921E-002
  -8.4583126706585174E-003   2.3110070977286346E-003   6.3592368134380697E-002
  -1.5619712081798028E-002   4.3709942737642504E-003   6.1882212513339085E-002
  -1.4559879300142207E-002   4.0723819401755068E-003   6.1425209332580666E-002
  -1.3500046518486398E-002   3.7579025878385769E-003   6.1243167500537793E-002
  -1.2440213736830590E-002   3.4275562167534711E-003   6.1336087017210397E-002
  -1.1380380955174768E-002   3.0813428269198528E-003   6.1703967882598798E-002
  -2.6632954323781450E-002   0.0000000000000000        2.9469785721854755E-002
  -2.7233844853423346E-002   5.8568904955906293E-004   3.4947497722837201E-002
  -2.7834735383065242E-002   1.3193055902270059E-003   4.0117052088310172E-002
  -2.8435625912707138E-002   2.2008496220038351E-003   4.4978448818273647E-002
  -2.9036516442349038E-002   3.2303211448895513E-003   4.9531687912727669E-002
  -3.3392329370803976E-002   0.0000000000000000        3.0179899086639615E-002
  -3.4236129839111180E-002   9.6014608107888345E-004   3.5268194030312297E-002
  -3.5079930307418392E-002   2.0235814731853190E-003   4.0178826732163844E-002
  -3.5923730775725596E-002   3.1903061763193007E-003   4.4911797192194250E-002
  -3.6767531244032800E-002   4.4603201904808328E-003   4.9467105410403521E-002
  -4.0731977573048660E-002   0.0000000000000000        3.1286788572984968E-002
  -4.1688192586332828E-002   1.3346031125987035E-003   3.5941028279266547E-002
  -4.2644407599617011E-002   2.7278573561436252E-003   4.0548101137415339E-002
  -4.3600622612901180E-002   4.1797627306347611E-003   4.5108007147431330E-002
  -4.4556837626185349E-002   5.6903192360721220E-003   4.9620746309314519E-002
  -4.8651898930515497E-002   0.0000000000000000        3.2790454180890806E-002
  -4.9590033095088297E-002   1.7090601441185238E-003   3.6966000469699958E-002
  -5.0528167259661097E-002   3.4321332391019331E-003   4.1224875304064650E-002
  -5.1466301424233897E-002   5.1692192849502293E-003   4.5567078683984900E-002
  -5.2404435588806690E-002   6.9203182816634078E-003   4.9992610609460690E-002
  -5.7152093443204488E-002   0.0000000000000000        3.4690895910357129E-002
  -5.7941651365377572E-002   2.0835171756383442E-003   3.8343110601612523E-002
  -5.8731209287550656E-002   4.1364091220602427E-003   4.2209149232111789E-002
  -5.9520767209723734E-002   6.1586758392656871E-003   4.6289011801854955E-002
  -6.0310325131896818E-002   8.1503173272546962E-003   5.0582698310842000E-002
  -2.9036516442349038E-002   3.2303211448895513E-003   4.9531687912727669E-002
  -2.9109240825760559E-002   4.2483735484099552E-003   5.1591084792191155E-002
  -2.9181965209172094E-002   5.0956602220908632E-003   5.3749424927449205E-002
  -2.9254689592583621E-002   5.7721811659322796E-003   5.6006708318501783E-002
  -2.9327413975995149E-002   6.2779363799341931E-003   5.8362934965348917E-002
  -3.6767531244032800E-002   4.4603201904808328E-003   4.9467105410403521E-002
  -3.6780245516313183E-002   5.6935948101819889E-003   5.1255510649840907E-002
  -3.6792959788593579E-002   6.7501013299348144E-003   5.3064992855746049E-002
  -3.6805674060873969E-002   7.6298397497393177E-003   5.4895552028118952E-002
  -3.6818388333154359E-002   8.3328100695955337E-003   5.6747188166959547E-002
  -4.4556837626185349E-002   5.6903192360721220E-003   4.9620746309314519E-002
  -4.4587408076661415E-002   7.1388160719540114E-003   5.1132157538617003E-002
  -4.4617978527137468E-002   8.4045424377787656E-003   5.2586779445060412E-002
  -4.4648548977613528E-002   9.4874983335463663E-003   5.3984612028644768E-002
  -4.4679119428089588E-002   1.0387683759256840E-002   5.5325655289370029E-002
  -5.2404435588806690E-002   6.9203182816634078E-003   4.9992610609460690E-002
  -5.2530728506805222E-002   8.5840373337260460E-003   5.1221025458519420E-002
  -5.2657021424803739E-002   1.0058983545622718E-002   5.2314784695392275E-002
  -5.2783314342802271E-002   1.1345156917353418E-002   5.3273888320079288E-002
  -5.2909607260800795E-002   1.2442557448918177E-002   5.4098336332580377E-002
  -6.0310325131896818E-002   8.1503173272546962E-003   5.0582698310842000E-002
  -6.0610206806744608E-002   1.0029258595498068E-002   5.1522114409548174E-002
  -6.0910088481592427E-002   1.1713424653466670E-002   5.2249008606741663E-002
  -6.1209970156440224E-002   1.3202815501160439E-002   5.2763380902422490E-002
  -6.1509851831288029E-002   1.4497431138579479E-002   5.3065231296590638E-002
  -2.9327413975995149E-002   6.2779363799341931E-003   5.8362934965348917E-002
  -2.8979703647113941E-002   6.6661961690571113E-003   5.9130289462311650E-002
  -2.8631993318232733E-002   6.9902308382614325E-003   5.9932030598303529E-002
  -2.8284282989351522E-002   7.2500403875472540E-003   6.0768158373324513E-002
  -2.7936572660470310E-002   7.4456248169144229E-003   6.1638672787374685E-002
  -3.6818388333154359E-002   8.3328100695955337E-003   5.6747188166959547E-002
  -3.6383879438814673E-002   8.8749229961183167E-003   5.7092611949257077E-002
  -3.5949370544474994E-002   9.2720892359226571E-003   5.7577246223442416E-002
  -3.5514861650135301E-002   9.5243087890084545E-003   5.8201090989515564E-002
  -3.5080352755795637E-002   9.6315816553758510E-003   5.8964146247476458E-002
  -4.4679119428089588E-002   1.0387683759256840E-002   5.5325655289370029E-002
  -4.4052988115432769E-002   1.1083649823179552E-002   5.5168426790202466E-002
  -4.3426856802775957E-002   1.1553947633583854E-002   5.5255232635781318E-002
  -4.2800725490119165E-002   1.1798577190469740E-002   5.5586072826106642E-002
  -4.2174594177462360E-002   1.1817538493837244E-002   5.6160947361178409E-002
  -5.2909607260800795E-002   1.2442557448918177E-002   5.4098336332580377E-002
  -5.1987029676968201E-002   1.3292376650240759E-002   5.3357733985147794E-002
  -5.1064452093135621E-002   1.3835806031245058E-002   5.2965989835320269E-002
  -5.0141874509303033E-002   1.4072845591931039E-002   5.2923103883097872E-002
  -4.9219296925470460E-002   1.4003495332298613E-002   5.3229076128480532E-002
  -6.1509851831288029E-002   1.4497431138579479E-002   5.3065231296590638E-002
  -6.0186004123421011E-002   1.5501103477302002E-002   5.1660533534093042E-002
  -5.8862156415553979E-002   1.6117664428906268E-002   5.0709517822059180E-002
  -5.7538308707686975E-002   1.6347113993392275E-002   5.0212184160489150E-002
  -5.6214460999819950E-002   1.6189452170760052E-002   5.0168532549382847E-002
  -2.7936572660470310E-002   7.4456248169144229E-003   6.1638672787374685E-002
  -2.7219854267838527E-002   7.5636465068289957E-003   6.1334796969839164E-002
  -2.6503135875206738E-002   7.5907678377569766E-003   6.1251432614238634E-002
  -2.5786417482574958E-002   7.5269888096982521E-003   6.1388579720573100E-002
  -2.5069699089943165E-002   7.3723094226528785E-003   6.1746238288842653E-002
  -3.5080352755795637E-002   9.6315816553758510E-003   5.8964146247476458E-002
  -3.4149653123546765E-002   9.6335613499746453E-003   5.8625008873378931E-002
  -3.3218953491297908E-002   9.5699013877548096E-003   5.8493322516580543E-002
  -3.2288253859049022E-002   9.4406017687162468E-003   5.8569087177081224E-002
  -3.1357554226800179E-002   9.2456624928591025E-003   5.8852302854881203E-002
  -4.2174594177462360E-002   1.1817538493837244E-002   5.6160947361178409E-002
  -4.1042973750232289E-002   1.1703476193120229E-002   5.5811809132686879E-002
  -3.9911353323002226E-002   1.1549034937752530E-002   5.5657061476858630E-002
  -3.8779732895772134E-002   1.1354214727734256E-002   5.5696704393693647E-002
  -3.7648112468542091E-002   1.1119015563065299E-002   5.5930737883191861E-002
  -4.9219296925470460E-002   1.4003495332298613E-002   5.3229076128480532E-002
  -4.7899816147895069E-002   1.3773391036265846E-002   5.2895197747763113E-002
  -4.6580335370319713E-002   1.3528168487750333E-002   5.2742649495073013E-002
  -4.5260854592744322E-002   1.3267827686752259E-002   5.2771431370410168E-002
  -4.3941373815168945E-002   1.2992368633271481E-002   5.2981543373774864E-002
  -5.6214460999819950E-002   1.6189452170760052E-002   5.0168532549382847E-002
  -5.4720180316535132E-002   1.5843305879411441E-002   4.9875174718607376E-002
  -5.3225899633250334E-002   1.5507302037748086E-002   4.9750086571223449E-002
  -5.1731618949965544E-002   1.5181440645770233E-002   4.9793268107230948E-002
  -5.0237338266680712E-002   1.4865721703477691E-002   5.0004719326630004E-002
  -2.5069699089943165E-002   7.3723094226528785E-003   6.1746238288842653E-002
  -2.4309636236201408E-002   7.1698915083855813E-003   6.1486234367964271E-002
  -2.3549573382459662E-002   6.9628968986609197E-003   6.1406762908506135E-002
  -2.2789510528717902E-002   6.7513255934792266E-003   6.1507823910468343E-002
  -2.2029447674976166E-002   6.5351775928400024E-003   6.1789417373850797E-002
  -3.1357554226800179E-002   9.2456624928591025E-003   5.8852302854881203E-002
  -3.0412207406504611E-002   9.0094614703836451E-003   5.8583617068313776E-002
  -2.9466860586209027E-002   8.7563766114903269E-003   5.8504966753433661E-002
  -2.8521513765913456E-002   8.4864079161792207E-003   5.8616351910240921E-002
  -2.7576166945617885E-002   8.1995553844501912E-003   5.8917772538735508E-002
  -3.7648112468542091E-002   1.1119015563065299E-002   5.5930737883191861E-002
  -3.6507978671425682E-002   1.0849031432381799E-002   5.5641063089974893E-002
  -3.5367844874309273E-002   1.0549856324319762E-002   5.5550926778712276E-002
  -3.4227711077192878E-002   1.0221490238879354E-002   5.5660328949404009E-002
  -3.3087577280076455E-002   9.8639331760604076E-003   5.5969269602050023E-002
  -4.3941373815168945E-002   1.2992368633271481E-002   5.2981543373774864E-002
  -4.2596950030964677E-002   1.2688601394379880E-002   5.2658572432947678E-002
  -4.1252526246760429E-002   1.2343336037149294E-002   5.2544642984341791E-002
  -3.9908102462556161E-002   1.1956572561579473E-002   5.2639755027957383E-002
  -3.8563678678351872E-002   1.1528310967670638E-002   5.2943908563794266E-002
  -5.0237338266680712E-002   1.4865721703477691E-002   5.0004719326630004E-002
  -4.8679121485121574E-002   1.4528171356378003E-002   4.9636145097232048E-002
  -4.7120904703562443E-002   1.4136815749978583E-002   4.9486115370322423E-002
  -4.5562687922003298E-002   1.3691654884279559E-002   4.9554630145901189E-002
  -4.4004471140444174E-002   1.3192688759280868E-002   4.9841689423968327E-002
  -2.2029447674976166E-002   6.5351775928400024E-003   6.1789417373850797E-002
  -2.1148712933256854E-002   6.3082347575834641E-003   6.1373555907192984E-002
  -2.0267978191537531E-002   6.0642789485493565E-003   6.1189050351042107E-002
  -1.9387243449818216E-002   5.8033101657378253E-003   6.1235900705398166E-002
  -1.8506508708098904E-002   5.5253284091487664E-003   6.1514106970261162E-002
  -2.7576166945617885E-002   8.1995553844501912E-003   5.8917772538735508E-002
  -2.6469367251191905E-002   7.8990793946300819E-003   5.8518241023689715E-002
  -2.5362567556765879E-002   7.5882403250458128E-003   5.8339483503550255E-002
  -2.4255767862339895E-002   7.2670381756973681E-003   5.8381499978317306E-002
  -2.3148968167913876E-002   6.9354729465848086E-003   5.8644290447990660E-002
  -3.3087577280076455E-002   9.8639331760604076E-003   5.5969269602050023E-002
  -3.1765294548544341E-002   9.4899240316768108E-003   5.5592717932629550E-002
  -3.0443011817012179E-002   9.1122017015423801E-003   5.5426358342515011E-002
  -2.9120729085480024E-002   8.7307661856570774E-003   5.5470190831706255E-002
  -2.7798446353947903E-002   8.3456174840209063E-003   5.5724215400203433E-002
  -3.8563678678351872E-002   1.1528310967670638E-002   5.2943908563794266E-002
  -3.7036494825314174E-002   1.1080768668723512E-002   5.2596986634012487E-002
  -3.5509310972276421E-002   1.0636163078038892E-002   5.2449674867936044E-002
  -3.3982127119238682E-002   1.0194494195616759E-002   5.2501973265564945E-002
  -3.2454943266200971E-002   9.7557620214570318E-003   5.2753881826899024E-002
  -4.4004471140444174E-002   1.3192688759280868E-002   4.9841689423968327E-002
  -4.2282968081501407E-002   1.2671613305770157E-002   4.9531047127838623E-002
  -4.0561465022558627E-002   1.2160124454535418E-002   4.9409433079813658E-002
  -3.8839961963615839E-002   1.1658222205576305E-002   4.9476847279893543E-002
  -3.7118458904673052E-002   1.1165906558893046E-002   4.9733289728078112E-002
  -1.8506508708098904E-002   5.5253284091487664E-003   6.1514106970261162E-002
  -1.7784809551523693E-002   5.2383163430788915E-003   6.1384366328824491E-002
  -1.7063110394948466E-002   4.9502566318247870E-003   6.1402470372191875E-002
  -1.6341411238373245E-002   4.6611492753866300E-003   6.1568419100363495E-002
  -1.5619712081798028E-002   4.3709942737642504E-003   6.1882212513339085E-002
  -2.3148968167913876E-002   6.9354729465848086E-003   5.8644290447990660E-002
  -2.2274352798430250E-002   6.5951192058459340E-003   5.8508471814102958E-002
  -2.1399737428946661E-002   6.2475515216185856E-003   5.8530640921227853E-002
  -2.0525122059463038E-002   5.8927698939027183E-003   5.8710797769365629E-002
  -1.9650506689979447E-002   5.5307743226983841E-003   5.9048942358515821E-002
  -2.7798446353947903E-002   8.3456174840209063E-003   5.5724215400203433E-002
  -2.6760771715347319E-002   7.9519220686129904E-003   5.5576152475560303E-002
  -2.5723097076746748E-002   7.5448464114123356E-003   5.5596220348138416E-002
  -2.4685422438146181E-002   7.1243905124189193E-003   5.5784419017937736E-002
  -2.3647747799545565E-002   6.6905543716327120E-003   5.6140748484958328E-002
  -3.2454943266200971E-002   9.7557620214570318E-003   5.2753881826899024E-002
  -3.1244066302274859E-002   9.3087249313800399E-003   5.2587408313196332E-002
  -3.0033189338348781E-002   8.8421413012061099E-003   5.2599208652923390E-002
  -2.8822312374422669E-002   8.3560111309351759E-003   5.2789282846080310E-002
  -2.7611435410496585E-002   7.8503344205669984E-003   5.3157630892666938E-002
  -3.7118458904673052E-002   1.1165906558893046E-002   4.9733289728078112E-002
  -3.5724236559212877E-002   1.0665527794147145E-002   4.9542239327011350E-002
  -3.4330014213752688E-002   1.0139436190999884E-002   4.9539605835583034E-002
  -3.2935791868292499E-002   9.5876317494511532E-003   4.9725389253793051E-002
  -3.1541569522832311E-002   9.0101144695011737E-003   5.0099589581641513E-002
  -1.5619712081798028E-002   4.3709942737642504E-003   6.1882212513339085E-002
  -1.4559879300142207E-002   4.0723819401755068E-003   6.1425209332580666E-002
  -1.3500046518486398E-002   3.7579025878385769E-003   6.1243167500537793E-002
  -1.2440213736830590E-002   3.4275562167534711E-003   6.1336087017210397E-002
  -1.1380380955174768E-002   3.0813428269198528E-003   6.1703967882598798E-002
  -1.9650506689979447E-002   5.5307743226983841E-003   5.9048942358515821E-002
  -1.8325329602716069E-002   5.1603370893332223E-003   5.8603107433473578E-002
  -1.7000152515452713E-002   4.7802304751345531E-003   5.8412999770931229E-002
  -1.5674975428189349E-002   4.3904544801023106E-003   5.8478619370888121E-002
  -1.4349798340925986E-002   3.9910091042366647E-003   5.8799966233344714E-002
  -2.3647747799545565E-002   6.6905543716327120E-003   5.6140748484958328E-002
  -2.2076460492890693E-002   6.2482922384908546E-003   5.5712279453547467E-002
  -2.0505173186235778E-002   5.8025583624304253E-003   5.5520303598420008E-002
  -1.8933885879580840E-002   5.3533527434512073E-003   5.5564820919576222E-002
  -1.7362598572925984E-002   4.9006753815534765E-003   5.5845831417015934E-002
  -2.7611435410496585E-002   7.8503344205669984E-003   5.3157630892666938E-002
  -2.5813271970666067E-002   7.3362473876484730E-003   5.2752725392801902E-002
  -2.4015108530835508E-002   6.8248862497261829E-003   5.2565078983004693E-002
  -2.2216945091005084E-002   6.3162510068001864E-003   5.2594691663274816E-002
  -2.0418781651174459E-002   5.8103416588702883E-003   5.2841563433612973E-002
  -3.1541569522832311E-002   9.0101144695011737E-003   5.0099589581641513E-002
  -2.9535764036042203E-002   8.4242025368060913E-003   4.9724445251237315E-002
  -2.7529958549252075E-002   7.8472141370221349E-003   4.9547325924684971E-002
  -2.5524153062461950E-002   7.2791492701489921E-003   4.9568231601984036E-002
  -2.3518347575671839E-002   6.7200079361871001E-003   4.9787162283134956E-002
  -5.7152093443204488E-002   0.0000000000000000        3.4690895910357129E-002
  -5.7941651365377572E-002   2.0835171756383442E-003   3.8343110601612523E-002
  -5.8731209287550656E-002   4.1364091220602427E-003   4.2209149232111789E-002
  -5.9520767209723734E-002   6.1586758392656871E-003   4.6289011801854955E-002
  -6.0310325131896818E-002   8.1503173272546962E-003   5.0582698310842000E-002
  -6.5820505886650310E-002   0.0000000000000000        3.7211587894383474E-002
  -6.6625346833431756E-002   2.9138115935474452E-003   4.0834477716628209E-002
  -6.7430187780213202E-002   5.7701380185775529E-003   4.4212977550412334E-002
  -6.8235028726994648E-002   8.5689792750903333E-003   4.7347087395735843E-002
  -6.9039869673776094E-002   1.1310335363085776E-002   5.0236807252598721E-002
  -7.4245081036387620E-002   0.0000000000000000        4.0576004265969356E-002
  -7.5523418935481951E-002   3.7441060114565428E-003   4.4142709279902569E-002
  -7.6801756834576268E-002   7.4038669150948682E-003   4.7006810377670655E-002
  -7.8080094733670585E-002   1.0979282710914981E-002   4.9168307559273622E-002
  -7.9358432632764889E-002   1.4470353398916868E-002   5.0627200824711491E-002
  -8.2425818892416444E-002   0.0000000000000000        4.4784145025114776E-002
  -8.4635867671528128E-002   4.5744004293656448E-003   4.8267805291435574E-002
  -8.6845916450639840E-002   9.0375958116121861E-003   5.0590647713886751E-002
  -8.9055965229751524E-002   1.3389586146739626E-002   5.1752672292468292E-002
  -9.1266014008863222E-002   1.7630371434747959E-002   5.1753879027180198E-002
  -9.0362719454736770E-002   0.0000000000000000        4.9836010171819739E-002
  -9.3962693041570344E-002   5.4046948472747432E-003   5.3209765751227239E-002
  -9.7562666628403918E-002   1.0671324708129497E-002   5.4964489559060609E-002
 -0.10116264021523748        1.5799889582564272E-002   5.5100181595319861E-002
 -0.10476261380207107        2.0790389470579047E-002   5.3616841860004975E-002
  -6.0310325131896818E-002   8.1503173272546962E-003   5.0582698310842000E-002
  -6.0610206806744608E-002   1.0029258595498068E-002   5.1522114409548174E-002
  -6.0910088481592427E-002   1.1713424653466670E-002   5.2249008606741663E-002
  -6.1209970156440224E-002   1.3202815501160439E-002   5.2763380902422490E-002
  -6.1509851831288029E-002   1.4497431138579479E-002   5.3065231296590638E-002
  -6.9039869673776094E-002   1.1310335363085776E-002   5.0236807252598721E-002
  -6.9314497192916658E-002   1.3754584720797854E-002   4.9459229240253234E-002
  -6.9589124712057193E-002   1.5662105786460552E-002   4.8944681440834907E-002
  -6.9863752231197743E-002   1.7032898560073825E-002   4.8693163854343802E-002
  -7.0138379750338264E-002   1.7866963041637735E-002   4.8704676480779835E-002
  -7.9358432632764889E-002   1.4470353398916868E-002   5.0627200824711491E-002
  -7.9132253881758333E-002   1.7479910846097658E-002   4.7790675619539674E-002
  -7.8906075130751777E-002   1.9610786919454434E-002   4.5692732741734923E-002
  -7.8679896379745179E-002   2.0862981618987204E-002   4.4333372191297259E-002
  -7.8453717628738651E-002   2.1236494944695952E-002   4.3712593968226597E-002
  -9.1266014008863222E-002   1.7630371434747959E-002   5.1753879027180198E-002
  -9.0063476873269668E-002   2.1205236971397447E-002   4.6516453547407528E-002
  -8.8860939737676101E-002   2.3559468052448303E-002   4.2493162509441747E-002
  -8.7658402602082547E-002   2.4693064677900552E-002   3.9684005913282909E-002
  -8.6455865466489007E-002   2.4606026847754196E-002   3.8088983758930960E-002
 -0.10476261380207107        2.0790389470579047E-002   5.3616841860004975E-002
 -0.10210816616745066        2.4930563096697254E-002   4.5636563023856769E-002
  -9.9453718532830249E-002   2.7508149185442199E-002   3.9345970743955322E-002
  -9.6799270898209847E-002   2.8523147736813949E-002   3.4745065020300690E-002
  -9.4144823263589444E-002   2.7975558750812410E-002   3.1833845852892853E-002
  -6.1509851831288029E-002   1.4497431138579479E-002   5.3065231296590638E-002
  -6.0186004123421011E-002   1.5501103477302002E-002   5.1660533534093042E-002
  -5.8862156415553979E-002   1.6117664428906268E-002   5.0709517822059180E-002
  -5.7538308707686975E-002   1.6347113993392275E-002   5.0212184160489150E-002
  -5.6214460999819950E-002   1.6189452170760052E-002   5.0168532549382847E-002
  -7.0138379750338264E-002   1.7866963041637735E-002   4.8704676480779835E-002
  -6.8407729773231965E-002   1.8321374986183241E-002   4.7261444893154946E-002
  -6.6677079796125652E-002   1.8553210148741468E-002   4.6178135793544878E-002
  -6.4946429819019325E-002   1.8562468529312301E-002   4.5454749181949694E-002
  -6.3215779841913025E-002   1.8349150127895883E-002   4.5091285058369353E-002
  -7.8453717628738651E-002   2.1236494944695952E-002   4.3712593968226597E-002
  -7.6410024944841920E-002   2.1141646495064510E-002   4.2395363160605312E-002
  -7.4366332260945203E-002   2.0988755868576663E-002   4.1344295278549978E-002
  -7.2322639577048459E-002   2.0777823065232400E-002   4.0559390322060566E-002
  -7.0278946893151728E-002   2.0508848085031693E-002   4.0040648291137071E-002
  -8.6455865466489007E-002   2.4606026847754196E-002   3.8088983758930960E-002
  -8.4192889638250806E-002   2.3961918003945770E-002   3.7062288336444191E-002
  -8.1929913810012633E-002   2.3424301588411842E-002   3.6207996277074467E-002
  -7.9666937981774433E-002   2.2993177601152433E-002   3.5526107580821767E-002
  -7.7403962153536260E-002   2.2668546042167514E-002   3.5016622247686043E-002
  -9.4144823263589444E-002   2.7975558750812410E-002   3.1833845852892853E-002
  -9.1756323853458693E-002   2.6782189512827015E-002   3.1262220420671519E-002
  -8.9367824443327942E-002   2.5859847308247055E-002   3.0769238789118365E-002
  -8.6979325033197191E-002   2.5208532137072477E-002   3.0354900958233230E-002
  -8.4590825623066440E-002   2.4828243999303334E-002   3.0019206928016268E-002
  -5.6214460999819950E-002   1.6189452170760052E-002   5.0168532549382847E-002
  -5.4720180316535132E-002   1.5843305879411441E-002   4.9875174718607376E-002
  -5.3225899633250334E-002   1.5507302037748086E-002   4.9750086571223449E-002
  -5.1731618949965544E-002   1.5181440645770233E-002   4.9793268107230948E-002
  -5.0237338266680712E-002   1.4865721703477691E-002   5.0004719326630004E-002
  -6.3215779841913025E-002   1.8349150127895883E-002   4.5091285058369353E-002
  -6.1538921122108819E-002   1.8009893745608851E-002   4.4740809006541843E-002
  -5.9862062402304607E-002   1.7641338183568171E-002   4.4587219344361703E-002
  -5.8185203682500380E-002   1.7243483441773531E-002   4.4630516071828823E-002
  -5.6508344962696196E-002   1.6816329520225270E-002   4.4870699188943222E-002
  -7.0278946893151728E-002   2.0508848085031693E-002   4.0040648291137071E-002
  -6.8390893430572405E-002   2.0176481611806369E-002   3.9593612388818436E-002
  -6.6502839967993013E-002   1.9775374329388085E-002   3.9372079582402936E-002
  -6.4614786505413663E-002   1.9305526237776913E-002   3.9376049871890521E-002
  -6.2726733042834257E-002   1.8766937336972808E-002   3.9605523257281068E-002
  -7.7403962153536260E-002   2.2668546042167514E-002   3.5016622247686043E-002
  -7.5276097241925896E-002   2.2343069478003817E-002   3.4433584865437135E-002
  -7.3148232330315532E-002   2.1909410475208058E-002   3.4104667285347050E-002
  -7.1020367418705196E-002   2.1367569033780252E-002   3.4029869507415871E-002
  -6.8892502507094833E-002   2.0717545153720339E-002   3.4209191531643493E-002
  -8.4590825623066440E-002   2.4828243999303334E-002   3.0019206928016268E-002
  -8.2194532556169320E-002   2.4509657344201310E-002   2.9260726436397808E-002
  -7.9798239489272213E-002   2.4043446621028086E-002   2.8784982453194108E-002
  -7.7401946422375106E-002   2.3429611829783606E-002   2.8591974978405044E-002
  -7.5005653355477986E-002   2.2668152970467925E-002   2.8681704012030684E-002
  -5.0237338266680712E-002   1.4865721703477691E-002   5.0004719326630004E-002
  -4.8679121485121574E-002   1.4528171356378003E-002   4.9636145097232048E-002
  -4.7120904703562443E-002   1.4136815749978583E-002   4.9486115370322423E-002
  -4.5562687922003298E-002   1.3691654884279559E-002   4.9554630145901189E-002
  -4.4004471140444174E-002   1.3192688759280868E-002   4.9841689423968327E-002
  -5.6508344962696196E-002   1.6816329520225270E-002   4.4870699188943222E-002
  -5.4739804525106503E-002   1.6359520563107202E-002   4.4504614653622196E-002
  -5.2971264087516748E-002   1.5872700714603463E-002   4.4340632927873956E-002
  -5.1202723649927041E-002   1.5355869974714099E-002   4.4378754011698648E-002
  -4.9434183212337342E-002   1.4809028343439001E-002   4.4618977905095947E-002
  -6.2726733042834257E-002   1.8766937336972808E-002   3.9605523257281068E-002
  -6.0764310642129567E-002   1.8190869769836408E-002   3.9265722783951018E-002
  -5.8801888241424814E-002   1.7608585679228340E-002   3.9111583427278246E-002
  -5.6839465840720083E-002   1.7020085065148554E-002   3.9143105187262668E-002
  -5.4877043440015365E-002   1.6425367927597107E-002   3.9360288063904250E-002
  -6.8892502507094833E-002   2.0717545153720339E-002   3.4209191531643493E-002
  -6.6752639836190703E-002   2.0022218976565583E-002   3.3919469488218459E-002
  -6.4612777165286558E-002   1.9344470643853105E-002   3.3798966868535084E-002
  -6.2472914494382449E-002   1.8684300155583027E-002   3.3847683672593325E-002
  -6.0333051823478277E-002   1.8041707511755281E-002   3.4065619900393168E-002
  -7.5005653355477986E-002   2.2668152970467925E-002   2.8681704012030684E-002
  -7.2704792107290056E-002   2.1853568183294772E-002   2.8465854766424603E-002
  -7.0403930859102071E-002   2.1080355608477999E-002   2.8402783251644581E-002
  -6.8103069610914085E-002   2.0348515246017541E-002   2.8492489467690688E-002
  -6.5802208362726128E-002   1.9658047095913345E-002   2.8734973414562659E-002
  -4.4004471140444174E-002   1.3192688759280868E-002   4.9841689423968327E-002
  -4.2282968081501407E-002   1.2671613305770157E-002   4.9531047127838623E-002
  -4.0561465022558627E-002   1.2160124454535418E-002   4.9409433079813658E-002
  -3.8839961963615839E-002   1.1658222205576305E-002   4.9476847279893543E-002
  -3.7118458904673052E-002   1.1165906558893046E-002   4.9733289728078112E-002
  -4.9434183212337342E-002   1.4809028343439001E-002   4.4618977905095947E-002
  -4.7521537629716927E-002   1.4248759945302614E-002   4.4303673708723651E-002
  -4.5608892047096519E-002   1.3691648904829254E-002   4.4181626311601815E-002
  -4.3696246464476146E-002   1.3137695222018946E-002   4.4252835713730385E-002
  -4.1783600881855711E-002   1.2586898896871812E-002   4.4517301915109497E-002
  -5.4877043440015365E-002   1.6425367927597107E-002   3.9360288063904250E-002
  -5.2769026782571615E-002   1.5825906584834959E-002   3.9033892722676530E-002
  -5.0661010125127900E-002   1.5223173355123194E-002   3.8904982731845124E-002
  -4.8552993467684193E-002   1.4617168238461752E-002   3.8973558091409746E-002
  -4.6444976810240492E-002   1.4007891234850633E-002   3.9239618801370668E-002
  -6.0333051823478277E-002   1.8041707511755281E-002   3.4065619900393168E-002
  -5.8025435540065513E-002   1.7403053224367360E-002   3.3721704169697372E-002
  -5.5717819256652784E-002   1.6754697805417166E-002   3.3579502340543473E-002
  -5.3410202973240055E-002   1.6096641254904447E-002   3.3639014412931531E-002
  -5.1102586689827291E-002   1.5428883572829427E-002   3.3900240386861430E-002
  -6.5802208362726128E-002   1.9658047095913345E-002   2.8734973414562659E-002
  -6.3290763902198649E-002   1.8980199863899760E-002   2.8367108049786066E-002
  -6.0779319441671142E-002   1.8286222255711027E-002   2.8205185137697153E-002
  -5.8267874981143650E-002   1.7576114271347212E-002   2.8249204678295753E-002
  -5.5756430520616157E-002   1.6849875910808165E-002   2.8499166671581921E-002
  -3.7118458904673052E-002   1.1165906558893046E-002   4.9733289728078112E-002
  -3.5724236559212877E-002   1.0665527794147145E-002   4.9542239327011350E-002
  -3.4330014213752688E-002   1.0139436190999884E-002   4.9539605835583034E-002
  -3.2935791868292499E-002   9.5876317494511532E-003   4.9725389253793051E-002
  -3.1541569522832311E-002   9.0101144695011737E-003   5.0099589581641513E-002
  -4.1783600881855711E-002   1.2586898896871812E-002   4.4517301915109497E-002
  -4.0209261967922384E-002   1.2029133546421933E-002   4.4300313098340566E-002
  -3.8634923053989023E-002   1.1454272787703779E-002   4.4255140508879715E-002
  -3.7060584140055669E-002   1.0862316620716753E-002   4.4381784146726735E-002
  -3.5486245226122329E-002   1.0253265045461424E-002   4.4680244011881809E-002
  -4.6444976810240492E-002   1.4007891234850633E-002   3.9239618801370668E-002
  -4.4707122010164344E-002   1.3392739298696915E-002   3.9005308999032415E-002
  -4.2969267210088272E-002   1.2769109384407451E-002   3.8926214741671752E-002
  -4.1231412410012179E-002   1.2137001491982463E-002   3.9002336029288584E-002
  -3.9493557609936059E-002   1.1496415621421896E-002   3.9233672861883034E-002
  -5.1102586689827291E-002   1.5428883572829427E-002   3.3900240386861430E-002
  -4.9217816685938817E-002   1.4756345050971745E-002   3.3657227029086717E-002
  -4.7333046682050378E-002   1.4083945981111290E-002   3.3552828533959307E-002
  -4.5448276678161946E-002   1.3411686363248174E-002   3.3587044901478749E-002
  -4.3563506674273514E-002   1.2739566197382313E-002   3.3759876131645654E-002
  -5.5756430520616157E-002   1.6849875910808165E-002   2.8499166671581921E-002
  -5.3741345995245798E-002   1.6119950803246685E-002   2.8256067188503597E-002
  -5.1726261469875398E-002   1.5398782577815073E-002   2.8134981885742094E-002
  -4.9711176944505005E-002   1.4686371234513787E-002   2.8135910763297273E-002
  -4.7696092419134639E-002   1.3982716773342563E-002   2.8258853821169161E-002
  -3.1541569522832311E-002   9.0101144695011737E-003   5.0099589581641513E-002
  -2.9535764036042203E-002   8.4242025368060913E-003   4.9724445251237315E-002
  -2.7529958549252075E-002   7.8472141370221349E-003   4.9547325924684971E-002
  -2.5524153062461950E-002   7.2791492701489921E-003   4.9568231601984036E-002
  -2.3518347575671839E-002   6.7200079361871001E-003   4.9787162283134956E-002
  -3.5486245226122329E-002   1.0253265045461424E-002   4.4680244011881809E-002
  -3.3283711568837929E-002   9.6352291793515843E-003   4.4245191347331542E-002
  -3.1081177911553584E-002   9.0163201398007209E-003   4.4005570019918366E-002
  -2.8878644254269191E-002   8.3965379268088405E-003   4.3961380029642019E-002
  -2.6676110596984853E-002   7.7758825403762000E-003   4.4112621376502292E-002
  -3.9493557609936059E-002   1.1496415621421896E-002   3.9233672861883034E-002
  -3.7096889448872197E-002   1.0846255821897077E-002   3.8728915156834992E-002
  -3.4700221287808225E-002   1.0185426142579265E-002   3.8416995122209086E-002
  -3.2303553126744440E-002   9.5139265834687479E-003   3.8297912758005155E-002
  -2.9906884965680419E-002   8.8317571445652998E-003   3.8371668064223596E-002
  -4.3563506674273514E-002   1.2739566197382313E-002   3.3759876131645654E-002
  -4.0975297676144863E-002   1.2057282464442515E-002   3.3175616679747583E-002
  -3.8387088678016261E-002   1.1354532145357830E-002   3.2781601231556934E-002
  -3.5798879679887659E-002   1.0631315240128681E-002   3.2577829787073520E-002
  -3.3210670681759064E-002   9.8876317487544552E-003   3.2564302346297522E-002
  -4.7696092419134639E-002   1.3982716773342563E-002   2.8258853821169161E-002
  -4.4918936250656016E-002   1.3268309106987952E-002   2.7585295916069230E-002
  -4.2141780082177366E-002   1.2523638148136493E-002   2.7099388347961967E-002
  -3.9364623913698771E-002   1.1748703896788417E-002   2.6801131116847413E-002
  -3.6587467745220148E-002   1.0943506352943499E-002   2.6690524222725109E-002
  -9.0362719454736770E-002   0.0000000000000000        4.9836010171819739E-002
  -9.3962693041570344E-002   5.4046948472747432E-003   5.3209765751227239E-002
  -9.7562666628403918E-002   1.0671324708129497E-002   5.4964489559060609E-002
 -0.10116264021523748        1.5799889582564272E-002   5.5100181595319861E-002
 -0.10476261380207107        2.0790389470579047E-002   5.3616841860004975E-002
 -0.10329414076442868        0.0000000000000000        5.8664379336982535E-002
 -0.10683152663789336        1.0884600954992309E-002   5.2119433084822871E-002
 -0.11036891251135802        1.9172381840287533E-002   4.7318694030975134E-002
 -0.11390629838482269        2.4863342655885676E-002   4.4262162175439337E-002
 -0.11744368425828736        2.7957483401786713E-002   4.2949837518215475E-002
 -0.12645844086257224        0.0000000000000000        7.4202032151501437E-002
 -0.12657000005278196        1.6364507062709879E-002   5.5279628984497516E-002
 -0.12668155924299165        2.7673438972445574E-002   4.1464671985691592E-002
 -0.12679311843320135        3.3926795729207079E-002   3.2757161155083661E-002
 -0.12690467762341107        3.5124577332994400E-002   2.9157096492673687E-002
 -0.15985561974916745        0.0000000000000000        9.6448968615376468E-002
 -0.15317811328623615        2.1844413170427440E-002   6.2690353450251188E-002
 -0.14650060682330485        3.6174496104603604E-002   3.7402423423209964E-002
 -0.13982310036037354        4.2990248802528490E-002   2.0585178534252773E-002
 -0.13314559389744221        4.2291671264202080E-002   1.2238618783379625E-002
 -0.20348567742421433        0.0000000000000000       0.12540518872860762     
 -0.18665586633825593        2.7324319278145017E-002   7.4351606482083860E-002
 -0.16982605525229755        4.4675553236761645E-002   3.5131948343530242E-002
 -0.15299624416633914        5.2053701875849900E-002   7.7462143129467254E-003
 -0.13616643308038079        4.9458765195409746E-002  -7.8055956096666976E-003
 -0.10476261380207107        2.0790389470579047E-002   5.3616841860004975E-002
 -0.10210816616745066        2.4930563096697254E-002   4.5636563023856769E-002
  -9.9453718532830249E-002   2.7508149185442199E-002   3.9345970743955322E-002
  -9.6799270898209847E-002   2.8523147736813949E-002   3.4745065020300690E-002
  -9.4144823263589444E-002   2.7975558750812410E-002   3.1833845852892853E-002
 -0.11744368425828736        2.7957483401786713E-002   4.2949837518215475E-002
 -0.11348756472950165        2.9429250556915039E-002   3.6696363786467540E-002
 -0.10953144520071598        3.0253090600194925E-002   3.1356547286803475E-002
 -0.10557532567193027        3.0429003531626385E-002   2.6930388019223123E-002
 -0.10161920614314460        2.9956989351209426E-002   2.3417885983726676E-002
 -0.12690467762341107        3.5124577332994400E-002   2.9157096492673687E-002
 -0.12242291552462305        3.3927938017132821E-002   2.5545088290850830E-002
 -0.11794115342583503        3.2998032014947623E-002   2.2070707996948866E-002
 -0.11345939132704699        3.2334859326438849E-002   1.8733955610967745E-002
 -0.10897762922825897        3.1938419951606491E-002   1.5534831132907441E-002
 -0.13314559389744221        4.2291671264202080E-002   1.2238618783379625E-002
 -0.12891421855281487        3.8426625477350644E-002   1.2182736537006690E-002
 -0.12468284320818744        3.5742973429700384E-002   1.1488452874391703E-002
 -0.12045146786356006        3.4240715121251313E-002   1.0155767795534480E-002
 -0.11622009251893267        3.3919850552003528E-002   8.1846813004352349E-003
 -0.13616643308038079        4.9458765195409746E-002  -7.8055956096666976E-003
 -0.13296147381407697        4.2925312937568419E-002  -3.3906914750648914E-003
 -0.12975651454777321        3.8487914844453130E-002  -3.9021808086821090E-004
 -0.12655155528146939        3.6146570916063818E-002   1.1958245729233427E-003
 -0.12334659601516562        3.5901281152400544E-002   1.3674364863098809E-003
  -9.4144823263589444E-002   2.7975558750812410E-002   3.1833845852892853E-002
  -9.1756323853458693E-002   2.6782189512827015E-002   3.1262220420671519E-002
  -8.9367824443327942E-002   2.5859847308247055E-002   3.0769238789118365E-002
  -8.6979325033197191E-002   2.5208532137072477E-002   3.0354900958233230E-002
  -8.4590825623066440E-002   2.4828243999303334E-002   3.0019206928016268E-002
 -0.10161920614314460        2.9956989351209426E-002   2.3417885983726676E-002
  -9.9137736732430704E-002   2.9186191218220602E-002   2.3137239665916111E-002
  -9.6656267321716866E-002   2.8465752291936392E-002   2.2963889548603643E-002
  -9.4174797911003055E-002   2.7795672572356833E-002   2.2897835631789213E-002
  -9.1693328500289148E-002   2.7175952059481923E-002   2.2939077915472866E-002
 -0.10897762922825897        3.1938419951606491E-002   1.5534831132907441E-002
 -0.10637453741713206        3.1590192923614202E-002   1.5324496102806760E-002
 -0.10377144560600514        3.1071657275625705E-002   1.5250109673034333E-002
 -0.10116835379487821        3.0382813007641205E-002   1.5311671843589718E-002
  -9.8565261983751318E-002   2.9523660119660483E-002   1.5509182614473316E-002
 -0.11622009251893267        3.3919850552003528E-002   8.1846813004352349E-003
 -0.11346672590756267        3.3994194629007754E-002   7.8239897313436800E-003
 -0.11071335929619272        3.3677562259315223E-002   7.6278991624102385E-003
 -0.10795999268482274        3.2969953442925595E-002   7.5964095936349538E-003
 -0.10520662607345280        3.1871368179839057E-002   7.7295210250175640E-003
 -0.12334659601516562        3.5901281152400544E-002   1.3674364863098809E-003
 -0.12041430220372262        3.6398196334401361E-002   6.3572055152663620E-004
 -0.11748200839227965        3.6283467243004394E-002   9.7258016731743835E-005
 -0.11454971458083667        3.5557093878209989E-002  -2.4795111807544151E-004
 -0.11161742076939368        3.4219076240017632E-002  -3.9990685289448269E-004
  -8.4590825623066440E-002   2.4828243999303334E-002   3.0019206928016268E-002
  -8.2194532556169320E-002   2.4509657344201310E-002   2.9260726436397808E-002
  -7.9798239489272213E-002   2.4043446621028086E-002   2.8784982453194108E-002
  -7.7401946422375106E-002   2.3429611829783606E-002   2.8591974978405044E-002
  -7.5005653355477986E-002   2.2668152970467925E-002   2.8681704012030684E-002
  -9.1693328500289148E-002   2.7175952059481923E-002   2.2939077915472866E-002
  -8.9042039634733200E-002   2.6557070403055716E-002   2.2285273326920069E-002
  -8.6390750769177266E-002   2.5889507252822255E-002   2.1858723827270263E-002
  -8.3739461903621318E-002   2.5173262608781579E-002   2.1659429416523487E-002
  -8.1088173038065342E-002   2.4408336470933711E-002   2.1687390094679806E-002
  -9.8565261983751318E-002   2.9523660119660483E-002   1.5509182614473316E-002
  -9.5714458739048158E-002   2.8604483461910003E-002   1.5058996503250113E-002
  -9.2863655494344971E-002   2.7735567884616480E-002   1.4780584061418262E-002
  -9.0012852249641798E-002   2.6916913387779635E-002   1.4673945288977856E-002
  -8.7162049004938624E-002   2.6148519971399525E-002   1.4739080185928774E-002
 -0.10520662607345280        3.1871368179839057E-002   7.7295210250175640E-003
 -0.10221178986911407        3.0651896520764447E-002   7.5818959653878495E-003
  -9.9216953664775301E-002   2.9581628516410732E-002   7.5505631556379380E-003
  -9.6222117460436560E-002   2.8660564166777747E-002   7.6355225957678973E-003
  -9.3227281256097805E-002   2.7888703471865464E-002   7.8367742857775348E-003
 -0.11161742076939368        3.4219076240017632E-002  -3.9990685289448269E-004
 -0.10853403302493098        3.2699309579618752E-002  -1.4602828666637757E-004
 -0.10545064528046830        3.1427689148204860E-002   1.6866110992957983E-004
 -0.10236725753600563        3.0404214945775648E-002   5.4416133689398627E-004
  -9.9283869791542911E-002   2.9628886972331181E-002   9.8047239422627275E-004
  -7.5005653355477986E-002   2.2668152970467925E-002   2.8681704012030684E-002
  -7.2704792107290056E-002   2.1853568183294772E-002   2.8465854766424603E-002
  -7.0403930859102071E-002   2.1080355608477999E-002   2.8402783251644581E-002
  -6.8103069610914085E-002   2.0348515246017541E-002   2.8492489467690688E-002
  -6.5802208362726128E-002   1.9658047095913345E-002   2.8734973414562659E-002
  -8.1088173038065342E-002   2.4408336470933711E-002   2.1687390094679806E-002
  -7.8632671234753537E-002   2.3622695112456529E-002   2.1506359021538066E-002
  -7.6177169431441732E-002   2.2844304806527632E-002   2.1481831327817981E-002
  -7.3721667628129955E-002   2.2073165553147221E-002   2.1613807013519486E-002
  -7.1266165824818123E-002   2.1309277352315248E-002   2.1902286078642696E-002
  -8.7162049004938624E-002   2.6148519971399525E-002   1.4739080185928774E-002
  -8.4548180997907341E-002   2.5391822041618224E-002   1.4558746125443361E-002
  -8.1934312990876071E-002   2.4608254004577369E-002   1.4538641092975167E-002
  -7.9320444983844746E-002   2.3797815860276898E-002   1.4678765088524399E-002
  -7.6706576976813573E-002   2.2960507608717151E-002   1.4979118112090836E-002
  -9.3227281256097805E-002   2.7888703471865464E-002   7.8367742857775348E-003
  -9.0451321396751494E-002   2.7160948970780033E-002   7.6230160781406014E-003
  -8.7675361537405114E-002   2.6372203202627082E-002   7.5732125471166204E-003
  -8.4899401678058775E-002   2.5522466167406690E-002   7.6873636927054017E-003
  -8.2123441818712423E-002   2.4611737865118999E-002   7.9654695149071961E-003
  -9.9283869791542911E-002   2.9628886972331181E-002   9.8047239422627275E-004
  -9.6342092431285831E-002   2.8930075899941621E-002   6.9916887962984120E-004
  -9.3400315071028805E-002   2.8136152400676753E-002   5.8554569024191205E-004
  -9.0458537710771725E-002   2.7247116474536277E-002   6.3960282606261715E-004
  -8.7516760350514700E-002   2.6262968121520958E-002   8.6134028709172750E-004
  -6.5802208362726128E-002   1.9658047095913345E-002   2.8734973414562659E-002
  -6.3290763902198649E-002   1.8980199863899760E-002   2.8367108049786066E-002
  -6.0779319441671142E-002   1.8286222255711027E-002   2.8205185137697153E-002
  -5.8267874981143650E-002   1.7576114271347212E-002   2.8249204678295753E-002
  -5.5756430520616157E-002   1.6849875910808165E-002   2.8499166671581921E-002
  -7.1266165824818123E-002   2.1309277352315248E-002   2.1902286078642696E-002
  -6.8551192780139839E-002   2.0548755212156281E-002   2.1547228501737084E-002
  -6.5836219735461554E-002   1.9787714140794818E-002   2.1393285640445486E-002
  -6.3121246690783256E-002   1.9026154138230871E-002   2.1440457494767778E-002
  -6.0406273646104999E-002   1.8264075204464603E-002   2.1688744064704141E-002
  -7.6706576976813573E-002   2.2960507608717151E-002   1.4979118112090836E-002
  -7.3792903085058065E-002   2.2117310560412717E-002   1.4652479768028887E-002
  -7.0879229193302543E-002   2.1289206025878610E-002   1.4522128402507342E-002
  -6.7965555301547076E-002   2.0476194005114585E-002   1.4588064015526356E-002
  -6.5051881409791568E-002   1.9678274498121068E-002   1.4850286607085594E-002
  -8.2123441818712423E-002   2.4611737865118999E-002   7.9654695149071961E-003
  -7.9015894816953286E-002   2.3685865908669196E-002   7.6828618486616505E-003
  -7.5908347815194205E-002   2.2790697910962235E-002   7.5917134238829564E-003
  -7.2800800813435082E-002   2.1926233871998522E-002   7.6920242405711121E-003
  -6.9693253811675987E-002   2.1092473791777408E-002   7.9837942987259630E-003
  -8.7516760350514700E-002   2.6262968121520958E-002   8.6134028709172750E-004
  -8.4220167975825544E-002   2.5254421256925563E-002   6.3837474363548363E-004
  -8.0923575601136444E-002   2.4292189796046082E-002   6.0204070457214875E-004
  -7.7626983226447371E-002   2.3376273738882153E-002   7.5233816990205593E-004
  -7.4330390851758188E-002   2.2506673085433970E-002   1.0892671396255382E-003
  -5.5756430520616157E-002   1.6849875910808165E-002   2.8499166671581921E-002
  -5.3741345995245798E-002   1.6119950803246685E-002   2.8256067188503597E-002
  -5.1726261469875398E-002   1.5398782577815073E-002   2.8134981885742094E-002
  -4.9711176944505005E-002   1.4686371234513787E-002   2.8135910763297273E-002
  -4.7696092419134639E-002   1.3982716773342563E-002   2.8258853821169161E-002
  -6.0406273646104999E-002   1.8264075204464603E-002   2.1688744064704141E-002
  -5.8259769124450259E-002   1.7500905858585158E-002   2.1462833253949098E-002
  -5.6113264602795566E-002   1.6736074619682337E-002   2.1377748255445805E-002
  -5.3966760081140833E-002   1.5969581487755940E-002   2.1433489069194345E-002
  -5.1820255559486134E-002   1.5201426462805923E-002   2.1630055695195050E-002
  -6.5051881409791568E-002   1.9678274498121068E-002   1.4850286607085594E-002
  -6.2755145259917350E-002   1.8881860913923909E-002   1.4631145693499867E-002
  -6.0458409110043049E-002   1.8073366661549600E-002   1.4571642224101178E-002
  -5.8161672960168859E-002   1.7252791740998259E-002   1.4671776198889798E-002
  -5.5864936810294599E-002   1.6420136152269421E-002   1.4931547617865484E-002
  -6.9693253811675987E-002   2.1092473791777408E-002   7.9837942987259630E-003
  -6.7227474401646989E-002   2.0262815969262354E-002   7.7610045071560378E-003
  -6.4761694991617949E-002   1.9410658703416808E-002   7.7166637917085237E-003
  -6.2295915581588951E-002   1.8536001994240218E-002   7.8507721523830374E-003
  -5.9830136171559897E-002   1.7638845841732906E-002   8.1633295891803230E-003
  -7.4330390851758188E-002   2.2506673085433970E-002   1.0892671396255382E-003
  -7.1676756549639231E-002   2.1643771024601244E-002   8.5240969491762186E-004
  -6.9023122247520219E-002   2.0747950745283905E-002   8.1281295826715616E-004
  -6.6369487945401234E-002   1.9819212247482620E-002   9.7047692967463378E-004
  -6.3715853643282250E-002   1.8857555531196279E-002   1.3254016091396315E-003
  -4.7696092419134639E-002   1.3982716773342563E-002   2.8258853821169161E-002
  -4.4918936250656016E-002   1.3268309106987952E-002   2.7585295916069230E-002
  -4.2141780082177366E-002   1.2523638148136493E-002   2.7099388347961967E-002
  -3.9364623913698771E-002   1.1748703896788417E-002   2.6801131116847413E-002
  -3.6587467745220148E-002   1.0943506352943499E-002   2.6690524222725109E-002
  -5.1820255559486134E-002   1.5201426462805923E-002   2.1630055695195050E-002
  -4.8853050306651019E-002   1.4428925727982378E-002   2.1019732017392018E-002
  -4.5885845053815807E-002   1.3649395466435357E-002   2.0601856171309191E-002
  -4.2918639800980769E-002   1.2862835678164337E-002   2.0376428156946735E-002
  -3.9951434548145592E-002   1.2069246363170083E-002   2.0343447974304985E-002
  -5.5864936810294599E-002   1.6420136152269421E-002   1.4931547617865484E-002
  -5.2702884978375122E-002   1.5589542348976859E-002   1.4407691933132294E-002
  -4.9540833146455687E-002   1.4775152784734007E-002   1.4081081574847214E-002
  -4.6378781314536238E-002   1.3976967459540536E-002   1.3951716543010122E-002
  -4.3216729482616845E-002   1.3194986373396778E-002   1.4019596837621606E-002
  -5.9830136171559897E-002   1.7638845841732906E-002   8.1633295891803230E-003
  -5.6468440265828444E-002   1.6750158969971424E-002   7.7491756632902288E-003
  -5.3106744360096957E-002   1.5900910103032486E-002   7.5370645585759854E-003
  -4.9745048454365351E-002   1.5091099240916596E-002   7.5269962750377914E-003
  -4.6383352548634009E-002   1.4320726383623472E-002   7.7189708126754741E-003
  -6.3715853643282250E-002   1.8857555531196279E-002   1.3254016091396315E-003
  -6.0149716169010770E-002   1.7910775590965433E-002   1.0441832078659230E-003
  -5.6583578694739511E-002   1.7026667421331521E-002   9.6980512249583706E-004
  -5.3017441220468198E-002   1.6205231022292654E-002   1.1022673530289989E-003
  -4.9451303746196773E-002   1.5446466393850056E-002   1.4415698994667547E-003
 </DataArray>
 </PointData>
 </Piece>
 <Piece  NumberOfPoints="          1600 "  NumberOfCells="         1024 ">
 <Points>
 <DataArray  type="Float64" NumberOfComponents="3"  format="ascii" >
  0.50000000000000000        0.0000000000000000        0.0000000000000000     
  0.53125000000000000        0.0000000000000000        0.0000000000000000     
  0.56250000000000000        0.0000000000000000        0.0000000000000000     
  0.59375000000000000        0.0000000000000000        0.0000000000000000     
  0.62500000000000000        0.0000000000000000        0.0000000000000000     
  0.50000000000000000        3.1250000000000000E-002   0.0000000000000000     
  0.53125000000000000        3.1250000000000000E-002   0.0000000000000000     
  0.56250000000000000        3.1250000000000000E-002   0.0000000000000000     
  0.59375000000000000        3.1250000000000000E-002   0.0000000000000000     
  0.62500000000000000        3.1250000000000000E-002   0.0000000000000000     
  0.50000000000000000        6.2500000000000000E-002   0.0000000000000000     
  0.53125000000000000        6.2500000000000000E-002   0.0000000000000000     
  0.56250000000000000        6.2500000000000000E-002   0.0000000000000000     
  0.59375000000000000        6.2500000000000000E-002   0.0000000000000000     
  0.62500000000000000        6.2500000000000000E-002   0.0000000000000000     
  0.50000000000000000        9.3750000000000000E-002   0.0000000000000000     
  0.53125000000000000        9.3750000000000000E-002   0.0000000000000000     
  0.56250000000000000        9.3750000000000000E-002   0.0000000000000000     
  0.59375000000000000        9.3750000000000000E-002   0.0000000000000000     
  0.62500000000000000        9.3750000000000000E-002   0.0000000000000000     
  0.50000000000000000       0.12500000000000000        0.0000000000000000     
  0.53125000000000000       0.12500000000000000        0.0000000000000000     
  0.56250000000000000       0.12500000000000000        0.0000000000000000     
  0.59375000000000000       0.12500000000000000        0.0000000000000000     
  0.62500000000000000       0.12500000000000000        0.0000000000000000     
  0.62500000000000000        0.0000000000000000        0.0000000000000000     
  0.65625000000000000        0.0000000000000000        0.0000000000000000     
  0.68750000000000000        0.0000000000000000        0.0000000000000000     
  0.71875000000000000        0.0000000000000000        0.0000000000000000     
  0.75000000000000000        0.0000000000000000        0.0000000000000000     
  0.62500000000000000        3.1250000000000000E-002   0.0000000000000000     
  0.65625000000000000        3.1250000000000000E-002   0.0000000000000000     
  0.68750000000000000        3.1250000000000000E-002   0.0000000000000000     
  0.71875000000000000        3.1250000000000000E-002   0.0000000000000000     
  0.75000000000000000        3.1250000000000000E-002   0.0000000000000000     
  0.62500000000000000        6.2500000000000000E-002   0.0000000000000000     
  0.65625000000000000        6.2500000000000000E-002   0.0000000000000000     
  0.68750000000000000        6.2500000000000000E-002   0.0000000000000000     
  0.71875000000000000        6.2500000000000000E-002   0.0000000000000000     
  0.75000000000000000        6.2500000000000000E-002   0.0000000000000000     
  0.62500000000000000        9.3750000000000000E-002   0.0000000000000000     
  0.65625000000000000        9.3750000000000000E-002   0.0000000000000000     
  0.68750000000000000        9.3750000000000000E-002   0.0000000000000000     
  0.71875000000000000        9.3750000000000000E-002   0.0000000000000000     
  0.75000000000000000        9.3750000000000000E-002   0.0000000000000000     
  0.62500000000000000       0.12500000000000000        0.0000000000000000     
  0.65625000000000000       0.12500000000000000        0.0000000000000000     
  0.68750000000000000       0.12500000000000000        0.0000000000000000     
  0.71875000000000000       0.12500000000000000        0.0000000000000000     
  0.75000000000000000       0.12500000000000000        0.0000000000000000     
  0.75000000000000000        0.0000000000000000        0.0000000000000000     
  0.78125000000000000        0.0000000000000000        0.0000000000000000     
  0.81250000000000000        0.0000000000000000        0.0000000000000000     
  0.84375000000000000        0.0000000000000000        0.0000000000000000     
  0.87500000000000000        0.0000000000000000        0.0000000000000000     
  0.75000000000000000        3.1250000000000000E-002   0.0000000000000000     
  0.78125000000000000        3.1250000000000000E-002   0.0000000000000000     
  0.81250000000000000        3.1250000000000000E-002   0.0000000000000000     
  0.84375000000000000        3.1250000000000000E-002   0.0000000000000000     
  0.87500000000000000        3.1250000000000000E-002   0.0000000000000000     
  0.75000000000000000        6.2500000000000000E-002   0.0000000000000000     
  0.78125000000000000        6.2500000000000000E-002   0.0000000000000000     
  0.81250000000000000        6.2500000000000000E-002   0.0000000000000000     
  0.84375000000000000        6.2500000000000000E-002   0.0000000000000000     
  0.87500000000000000        6.2500000000000000E-002   0.0000000000000000     
  0.75000000000000000        9.3750000000000000E-002   0.0000000000000000     
  0.78125000000000000        9.3750000000000000E-002   0.0000000000000000     
  0.81250000000000000        9.3750000000000000E-002   0.0000000000000000     
  0.84375000000000000        9.3750000000000000E-002   0.0000000000000000     
  0.87500000000000000        9.3750000000000000E-002   0.0000000000000000     
  0.75000000000000000       0.12500000000000000        0.0000000000000000     
  0.78125000000000000       0.12500000000000000        0.0000000000000000     
  0.81250000000000000       0.12500000000000000        0.0000000000000000     
  0.84375000000000000       0.12500000000000000        0.0000000000000000     
  0.87500000000000000       0.12500000000000000        0.0000000000000000     
  0.87500000000000000        0.0000000000000000        0.0000000000000000     
  0.90625000000000000        0.0000000000000000        0.0000000000000000     
  0.93750000000000000        0.0000000000000000        0.0000000000000000     
  0.96875000000000000        0.0000000000000000        0.0000000000000000     
   1.0000000000000000        0.0000000000000000        0.0000000000000000     
  0.87500000000000000        3.1250000000000000E-002   0.0000000000000000     
  0.90625000000000000        3.1250000000000000E-002   0.0000000000000000     
  0.93750000000000000        3.1250000000000000E-002   0.0000000000000000     
  0.96875000000000000        3.1250000000000000E-002   0.0000000000000000     
   1.0000000000000000        3.1250000000000000E-002   0.0000000000000000     
  0.87500000000000000        6.2500000000000000E-002   0.0000000000000000     
  0.90625000000000000        6.2500000000000000E-002   0.0000000000000000     
  0.93750000000000000        6.2500000000000000E-002   0.0000000000000000     
  0.96875000000000000        6.2500000000000000E-002   0.0000000000000000     
   1.0000000000000000        6.2500000000000000E-002   0.0000000000000000     
  0.87500000000000000        9.3750000000000000E-002   0.0000000000000000     
  0.90625000000000000        9.3750000000000000E-002   0.0000000000000000     
  0.93750000000000000        9.3750000000000000E-002   0.0000000000000000     
  0.96875000000000000        9.3750000000000000E-002   0.0000000000000000     
   1.0000000000000000        9.3750000000000000E-002   0.0000000000000000     
  0.87500000000000000       0.12500000000000000        0.0000000000000000     
  0.90625000000000000       0.12500000000000000        0.0000000000000000     
  0.93750000000000000       0.12500000000000000        0.0000000000000000     
  0.96875000000000000       0.12500000000000000        0.0000000000000000     
   1.0000000000000000       0.12500000000000000        0.0000000000000000     
   1.0000000000000000        0.0000000000000000        0.0000000000000000     
   1.0312500000000000        0.0000000000000000        0.0000000000000000     
   1.0625000000000000        0.0000000000000000        0.0000000000000000     
   1.0937500000000000        0.0000000000000000        0.0000000000000000     
   1.1250000000000000        0.0000000000000000        0.0000000000000000     
   1.0000000000000000        3.1250000000000000E-002   0.0000000000000000     
   1.0312500000000000        3.1250000000000000E-002   0.0000000000000000     
   1.0625000000000000        3.1250000000000000E-002   0.0000000000000000     
   1.0937500000000000        3.1250000000000000E-002   0.0000000000000000     
   1.1250000000000000        3.1250000000000000E-002   0.0000000000000000     
   1.0000000000000000        6.2500000000000000E-002   0.0000000000000000     
   1.0312500000000000        6.2500000000000000E-002   0.0000000000000000     
   1.0625000000000000        6.2500000000000000E-002   0.0000000000000000     
   1.0937500000000000        6.2500000000000000E-002   0.0000000000000000     
   1.1250000000000000        6.2500000000000000E-002   0.0000000000000000     
   1.0000000000000000        9.3750000000000000E-002   0.0000000000000000     
   1.0312500000000000        9.3750000000000000E-002   0.0000000000000000     
   1.0625000000000000        9.3750000000000000E-002   0.0000000000000000     
   1.0937500000000000        9.3750000000000000E-002   0.0000000000000000     
   1.1250000000000000        9.3750000000000000E-002   0.0000000000000000     
   1.0000000000000000       0.12500000000000000        0.0000000000000000     
   1.0312500000000000       0.12500000000000000        0.0000000000000000     
   1.0625000000000000       0.12500000000000000        0.0000000000000000     
   1.0937500000000000       0.12500000000000000        0.0000000000000000     
   1.1250000000000000       0.12500000000000000        0.0000000000000000     
   1.1250000000000000        0.0000000000000000        0.0000000000000000     
   1.1562500000000000        0.0000000000000000        0.0000000000000000     
   1.1875000000000000        0.0000000000000000        0.0000000000000000     
   1.2187500000000000        0.0000000000000000        0.0000000000000000     
   1.2500000000000000        0.0000000000000000        0.0000000000000000     
   1.1250000000000000        3.1250000000000000E-002   0.0000000000000000     
   1.1562500000000000        3.1250000000000000E-002   0.0000000000000000     
   1.1875000000000000        3.1250000000000000E-002   0.0000000000000000     
   1.2187500000000000        3.1250000000000000E-002   0.0000000000000000     
   1.2500000000000000        3.1250000000000000E-002   0.0000000000000000     
   1.1250000000000000        6.2500000000000000E-002   0.0000000000000000     
   1.1562500000000000        6.2500000000000000E-002   0.0000000000000000     
   1.1875000000000000        6.2500000000000000E-002   0.0000000000000000     
   1.2187500000000000        6.2500000000000000E-002   0.0000000000000000     
   1.2500000000000000        6.2500000000000000E-002   0.0000000000000000     
   1.1250000000000000        9.3750000000000000E-002   0.0000000000000000     
   1.1562500000000000        9.3750000000000000E-002   0.0000000000000000     
   1.1875000000000000        9.3750000000000000E-002   0.0000000000000000     
   1.2187500000000000        9.3750000000000000E-002   0.0000000000000000     
   1.2500000000000000        9.3750000000000000E-002   0.0000000000000000     
   1.1250000000000000       0.12500000000000000        0.0000000000000000     
   1.1562500000000000       0.12500000000000000        0.0000000000000000     
   1.1875000000000000       0.12500000000000000        0.0000000000000000     
   1.2187500000000000       0.12500000000000000        0.0000000000000000     
   1.2500000000000000       0.12500000000000000        0.0000000000000000     
   1.2500000000000000        0.0000000000000000        0.0000000000000000     
   1.2812500000000000        0.0000000000000000        0.0000000000000000     
   1.3125000000000000        0.0000000000000000        0.0000000000000000     
   1.3437500000000000        0.0000000000000000        0.0000000000000000     
   1.3750000000000000        0.0000000000000000        0.0000000000000000     
   1.2500000000000000        3.1250000000000000E-002   0.0000000000000000     
   1.2812500000000000        3.1250000000000000E-002   0.0000000000000000     
   1.3125000000000000        3.1250000000000000E-002   0.0000000000000000     
   1.3437500000000000        3.1250000000000000E-002   0.0000000000000000     
   1.3750000000000000        3.1250000000000000E-002   0.0000000000000000     
   1.2500000000000000        6.2500000000000000E-002   0.0000000000000000     
   1.2812500000000000        6.2500000000000000E-002   0.0000000000000000     
   1.3125000000000000        6.2500000000000000E-002   0.0000000000000000     
   1.3437500000000000        6.2500000000000000E-002   0.0000000000000000     
   1.3750000000000000        6.2500000000000000E-002   0.0000000000000000     
   1.2500000000000000        9.3750000000000000E-002   0.0000000000000000     
   1.2812500000000000        9.3750000000000000E-002   0.0000000000000000     
   1.3125000000000000        9.3750000000000000E-002   0.0000000000000000     
   1.3437500000000000        9.3750000000000000E-002   0.0000000000000000     
   1.3750000000000000        9.3750000000000000E-002   0.0000000000000000     
   1.2500000000000000       0.12500000000000000        0.0000000000000000     
   1.2812500000000000       0.12500000000000000        0.0000000000000000     
   1.3125000000000000       0.12500000000000000        0.0000000000000000     
   1.3437500000000000       0.12500000000000000        0.0000000000000000     
   1.3750000000000000       0.12500000000000000        0.0000000000000000     
   1.3750000000000000        0.0000000000000000        0.0000000000000000     
   1.4062500000000000        0.0000000000000000        0.0000000000000000     
   1.4375000000000000        0.0000000000000000        0.0000000000000000     
   1.4687500000000000        0.0000000000000000        0.0000000000000000     
   1.5000000000000000        0.0000000000000000        0.0000000000000000     
   1.3750000000000000        3.1250000000000000E-002   0.0000000000000000     
   1.4062500000000000        3.1250000000000000E-002   0.0000000000000000     
   1.4375000000000000        3.1250000000000000E-002   0.0000000000000000     
   1.4687500000000000        3.1250000000000000E-002   0.0000000000000000     
   1.5000000000000000        3.1250000000000000E-002   0.0000000000000000     
   1.3750000000000000        6.2500000000000000E-002   0.0000000000000000     
   1.4062500000000000        6.2500000000000000E-002   0.0000000000000000     
   1.4375000000000000        6.2500000000000000E-002   0.0000000000000000     
   1.4687500000000000        6.2500000000000000E-002   0.0000000000000000     
   1.5000000000000000        6.2500000000000000E-002   0.0000000000000000     
   1.3750000000000000        9.3750000000000000E-002   0.0000000000000000     
   1.4062500000000000        9.3750000000000000E-002   0.0000000000000000     
   1.4375000000000000        9.3750000000000000E-002   0.0000000000000000     
   1.4687500000000000        9.3750000000000000E-002   0.0000000000000000     
   1.5000000000000000        9.3750000000000000E-002   0.0000000000000000     
   1.3750000000000000       0.12500000000000000        0.0000000000000000     
   1.4062500000000000       0.12500000000000000        0.0000000000000000     
   1.4375000000000000       0.12500000000000000        0.0000000000000000     
   1.4687500000000000       0.12500000000000000        0.0000000000000000     
   1.5000000000000000       0.12500000000000000        0.0000000000000000     
  0.50000000000000000       0.12500000000000000        0.0000000000000000     
  0.53125000000000000       0.12500000000000000        0.0000000000000000     
  0.56250000000000000       0.12500000000000000        0.0000000000000000     
  0.59375000000000000       0.12500000000000000        0.0000000000000000     
  0.62500000000000000       0.12500000000000000        0.0000000000000000     
  0.50000000000000000       0.15625000000000000        0.0000000000000000     
  0.53125000000000000       0.15625000000000000        0.0000000000000000     
  0.56250000000000000       0.15625000000000000        0.0000000000000000     
  0.59375000000000000       0.15625000000000000        0.0000000000000000     
  0.62500000000000000       0.15625000000000000        0.0000000000000000     
  0.50000000000000000       0.18750000000000000        0.0000000000000000     
  0.53125000000000000       0.18750000000000000        0.0000000000000000     
  0.56250000000000000       0.18750000000000000        0.0000000000000000     
  0.59375000000000000       0.18750000000000000        0.0000000000000000     
  0.62500000000000000       0.18750000000000000        0.0000000000000000     
  0.50000000000000000       0.21875000000000000        0.0000000000000000     
  0.53125000000000000       0.21875000000000000        0.0000000000000000     
  0.56250000000000000       0.21875000000000000        0.0000000000000000     
  0.59375000000000000       0.21875000000000000        0.0000000000000000     
  0.62500000000000000       0.21875000000000000        0.0000000000000000     
  0.50000000000000000       0.25000000000000000        0.0000000000000000     
  0.53125000000000000       0.25000000000000000        0.0000000000000000     
  0.56250000000000000       0.25000000000000000        0.0000000000000000     
  0.59375000000000000       0.25000000000000000        0.0000000000000000     
  0.62500000000000000       0.25000000000000000        0.0000000000000000     
  0.62500000000000000       0.12500000000000000        0.0000000000000000     
  0.65625000000000000       0.12500000000000000        0.0000000000000000     
  0.68750000000000000       0.12500000000000000        0.0000000000000000     
  0.71875000000000000       0.12500000000000000        0.0000000000000000     
  0.75000000000000000       0.12500000000000000        0.0000000000000000     
  0.62500000000000000       0.15625000000000000        0.0000000000000000     
  0.65625000000000000       0.15625000000000000        0.0000000000000000     
  0.68750000000000000       0.15625000000000000        0.0000000000000000     
  0.71875000000000000       0.15625000000000000        0.0000000000000000     
  0.75000000000000000       0.15625000000000000        0.0000000000000000     
  0.62500000000000000       0.18750000000000000        0.0000000000000000     
  0.65625000000000000       0.18750000000000000        0.0000000000000000     
  0.68750000000000000       0.18750000000000000        0.0000000000000000     
  0.71875000000000000       0.18750000000000000        0.0000000000000000     
  0.75000000000000000       0.18750000000000000        0.0000000000000000     
  0.62500000000000000       0.21875000000000000        0.0000000000000000     
  0.65625000000000000       0.21875000000000000        0.0000000000000000     
  0.68750000000000000       0.21875000000000000        0.0000000000000000     
  0.71875000000000000       0.21875000000000000        0.0000000000000000     
  0.75000000000000000       0.21875000000000000        0.0000000000000000     
  0.62500000000000000       0.25000000000000000        0.0000000000000000     
  0.65625000000000000       0.25000000000000000        0.0000000000000000     
  0.68750000000000000       0.25000000000000000        0.0000000000000000     
  0.71875000000000000       0.25000000000000000        0.0000000000000000     
  0.75000000000000000       0.25000000000000000        0.0000000000000000     
  0.75000000000000000       0.12500000000000000        0.0000000000000000     
  0.78125000000000000       0.12500000000000000        0.0000000000000000     
  0.81250000000000000       0.12500000000000000        0.0000000000000000     
  0.84375000000000000       0.12500000000000000        0.0000000000000000     
  0.87500000000000000       0.12500000000000000        0.0000000000000000     
  0.75000000000000000       0.15625000000000000        0.0000000000000000     
  0.78125000000000000       0.15625000000000000        0.0000000000000000     
  0.81250000000000000       0.15625000000000000        0.0000000000000000     
  0.84375000000000000       0.15625000000000000        0.0000000000000000     
  0.87500000000000000       0.15625000000000000        0.0000000000000000     
  0.75000000000000000       0.18750000000000000        0.0000000000000000     
  0.78125000000000000       0.18750000000000000        0.0000000000000000     
  0.81250000000000000       0.18750000000000000        0.0000000000000000     
  0.84375000000000000       0.18750000000000000        0.0000000000000000     
  0.87500000000000000       0.18750000000000000        0.0000000000000000     
  0.75000000000000000       0.21875000000000000        0.0000000000000000     
  0.78125000000000000       0.21875000000000000        0.0000000000000000     
  0.81250000000000000       0.21875000000000000        0.0000000000000000     
  0.84375000000000000       0.21875000000000000        0.0000000000000000     
  0.87500000000000000       0.21875000000000000        0.0000000000000000     
  0.75000000000000000       0.25000000000000000        0.0000000000000000     
  0.78125000000000000       0.25000000000000000        0.0000000000000000     
  0.81250000000000000       0.25000000000000000        0.0000000000000000     
  0.84375000000000000       0.25000000000000000        0.0000000000000000     
  0.87500000000000000       0.25000000000000000        0.0000000000000000     
  0.87500000000000000       0.12500000000000000        0.0000000000000000     
  0.90625000000000000       0.12500000000000000        0.0000000000000000     
  0.93750000000000000       0.12500000000000000        0.0000000000000000     
  0.96875000000000000       0.12500000000000000        0.0000000000000000     
   1.0000000000000000       0.12500000000000000        0.0000000000000000     
  0.87500000000000000       0.15625000000000000        0.0000000000000000     
  0.90625000000000000       0.15625000000000000        0.0000000000000000     
  0.93750000000000000       0.15625000000000000        0.0000000000000000     
  0.96875000000000000       0.15625000000000000        0.0000000000000000     
   1.0000000000000000       0.15625000000000000        0.0000000000000000     
  0.87500000000000000       0.18750000000000000        0.0000000000000000     
  0.90625000000000000       0.18750000000000000        0.0000000000000000     
  0.93750000000000000       0.18750000000000000        0.0000000000000000     
  0.96875000000000000       0.18750000000000000        0.0000000000000000     
   1.0000000000000000       0.18750000000000000        0.0000000000000000     
  0.87500000000000000       0.21875000000000000        0.0000000000000000     
  0.90625000000000000       0.21875000000000000        0.0000000000000000     
  0.93750000000000000       0.21875000000000000        0.0000000000000000     
  0.96875000000000000       0.21875000000000000        0.0000000000000000     
   1.0000000000000000       0.21875000000000000        0.0000000000000000     
  0.87500000000000000       0.25000000000000000        0.0000000000000000     
  0.90625000000000000       0.25000000000000000        0.0000000000000000     
  0.93750000000000000       0.25000000000000000        0.0000000000000000     
  0.96875000000000000       0.25000000000000000        0.0000000000000000     
   1.0000000000000000       0.25000000000000000        0.0000000000000000     
   1.0000000000000000       0.12500000000000000        0.0000000000000000     
   1.0312500000000000       0.12500000000000000        0.0000000000000000     
   1.0625000000000000       0.12500000000000000        0.0000000000000000     
   1.0937500000000000       0.12500000000000000        0.0000000000000000     
   1.1250000000000000       0.12500000000000000        0.0000000000000000     
   1.0000000000000000       0.15625000000000000        0.0000000000000000     
   1.0312500000000000       0.15625000000000000        0.0000000000000000     
   1.0625000000000000       0.15625000000000000        0.0000000000000000     
   1.0937500000000000       0.15625000000000000        0.0000000000000000     
   1.1250000000000000       0.15625000000000000        0.0000000000000000     
   1.0000000000000000       0.18750000000000000        0.0000000000000000     
   1.0312500000000000       0.18750000000000000        0.0000000000000000     
   1.0625000000000000       0.18750000000000000        0.0000000000000000     
   1.0937500000000000       0.18750000000000000        0.0000000000000000     
   1.1250000000000000       0.18750000000000000        0.0000000000000000     
   1.0000000000000000       0.21875000000000000        0.0000000000000000     
   1.0312500000000000       0.21875000000000000        0.0000000000000000     
   1.0625000000000000       0.21875000000000000        0.0000000000000000     
   1.0937500000000000       0.21875000000000000        0.0000000000000000     
   1.1250000000000000       0.21875000000000000        0.0000000000000000     
   1.0000000000000000       0.25000000000000000        0.0000000000000000     
   1.0312500000000000       0.25000000000000000        0.0000000000000000     
   1.0625000000000000       0.25000000000000000        0.0000000000000000     
   1.0937500000000000       0.25000000000000000        0.0000000000000000     
   1.1250000000000000       0.25000000000000000        0.0000000000000000     
   1.1250000000000000       0.12500000000000000        0.0000000000000000     
   1.1562500000000000       0.12500000000000000        0.0000000000000000     
   1.1875000000000000       0.12500000000000000        0.0000000000000000     
   1.2187500000000000       0.12500000000000000        0.0000000000000000     
   1.2500000000000000       0.12500000000000000        0.0000000000000000     
   1.1250000000000000       0.15625000000000000        0.0000000000000000     
   1.1562500000000000       0.15625000000000000        0.0000000000000000     
   1.1875000000000000       0.15625000000000000        0.0000000000000000     
   1.2187500000000000       0.15625000000000000        0.0000000000000000     
   1.2500000000000000       0.15625000000000000        0.0000000000000000     
   1.1250000000000000       0.18750000000000000        0.0000000000000000     
   1.1562500000000000       0.18750000000000000        0.0000000000000000     
   1.1875000000000000       0.18750000000000000        0.0000000000000000     
   1.2187500000000000       0.18750000000000000        0.0000000000000000     
   1.2500000000000000       0.18750000000000000        0.0000000000000000     
   1.1250000000000000       0.21875000000000000        0.0000000000000000     
   1.1562500000000000       0.21875000000000000        0.0000000000000000     
   1.1875000000000000       0.21875000000000000        0.0000000000000000     
   1.2187500000000000       0.21875000000000000        0.0000000000000000     
   1.2500000000000000       0.21875000000000000        0.0000000000000000     
   1.1250000000000000       0.25000000000000000        0.0000000000000000     
   1.1562500000000000       0.25000000000000000        0.0000000000000000     
   1.1875000000000000       0.25000000000000000        0.0000000000000000     
   1.2187500000000000       0.25000000000000000        0.0000000000000000     
   1.2500000000000000       0.25000000000000000        0.0000000000000000     
   1.2500000000000000       0.12500000000000000        0.0000000000000000     
   1.2812500000000000       0.12500000000000000        0.0000000000000000     
   1.3125000000000000       0.12500000000000000        0.0000000000000000     
   1.3437500000000000       0.12500000000000000        0.0000000000000000     
   1.3750000000000000       0.12500000000000000        0.0000000000000000     
   1.2500000000000000       0.15625000000000000        0.0000000000000000     
   1.2812500000000000       0.15625000000000000        0.0000000000000000     
   1.3125000000000000       0.15625000000000000        0.0000000000000000     
   1.3437500000000000       0.15625000000000000        0.0000000000000000     
   1.3750000000000000       0.15625000000000000        0.0000000000000000     
   1.2500000000000000       0.18750000000000000        0.0000000000000000     
   1.2812500000000000       0.18750000000000000        0.0000000000000000     
   1.3125000000000000       0.18750000000000000        0.0000000000000000     
   1.3437500000000000       0.18750000000000000        0.0000000000000000     
   1.3750000000000000       0.18750000000000000        0.0000000000000000     
   1.2500000000000000       0.21875000000000000        0.0000000000000000     
   1.2812500000000000       0.21875000000000000        0.0000000000000000     
   1.3125000000000000       0.21875000000000000        0.0000000000000000     
   1.3437500000000000       0.21875000000000000        0.0000000000000000     
   1.3750000000000000       0.21875000000000000        0.0000000000000000     
   1.2500000000000000       0.25000000000000000        0.0000000000000000     
   1.2812500000000000       0.25000000000000000        0.0000000000000000     
   1.3125000000000000       0.25000000000000000        0.0000000000000000     
   1.3437500000000000       0.25000000000000000        0.0000000000000000     
   1.3750000000000000       0.25000000000000000        0.0000000000000000     
   1.3750000000000000       0.12500000000000000        0.0000000000000000     
   1.4062500000000000       0.12500000000000000        0.0000000000000000     
   1.4375000000000000       0.12500000000000000        0.0000000000000000     
   1.4687500000000000       0.12500000000000000        0.0000000000000000     
   1.5000000000000000       0.12500000000000000        0.0000000000000000     
   1.3750000000000000       0.15625000000000000        0.0000000000000000     
   1.4062500000000000       0.15625000000000000        0.0000000000000000     
   1.4375000000000000       0.15625000000000000        0.0000000000000000     
   1.4687500000000000       0.15625000000000000        0.0000000000000000     
   1.5000000000000000       0.15625000000000000        0.0000000000000000     
   1.3750000000000000       0.18750000000000000        0.0000000000000000     
   1.4062500000000000       0.18750000000000000        0.0000000000000000     
   1.4375000000000000       0.18750000000000000        0.0000000000000000     
   1.4687500000000000       0.18750000000000000        0.0000000000000000     
   1.5000000000000000       0.18750000000000000        0.0000000000000000     
   1.3750000000000000       0.21875000000000000        0.0000000000000000     
   1.4062500000000000       0.21875000000000000        0.0000000000000000     
   1.4375000000000000       0.21875000000000000        0.0000000000000000     
   1.4687500000000000       0.21875000000000000        0.0000000000000000     
   1.5000000000000000       0.21875000000000000        0.0000000000000000     
   1.3750000000000000       0.25000000000000000        0.0000000000000000     
   1.4062500000000000       0.25000000000000000        0.0000000000000000     
   1.4375000000000000       0.25000000000000000        0.0000000000000000     
   1.4687500000000000       0.25000000000000000        0.0000000000000000     
   1.5000000000000000       0.25000000000000000        0.0000000000000000     
  0.50000000000000000       0.25000000000000000        0.0000000000000000     
  0.53125000000000000       0.25000000000000000        0.0000000000000000     
  0.56250000000000000       0.25000000000000000        0.0000000000000000     
  0.59375000000000000       0.25000000000000000        0.0000000000000000     
  0.62500000000000000       0.25000000000000000        0.0000000000000000     
  0.50000000000000000       0.28125000000000000        0.0000000000000000     
  0.53125000000000000       0.28125000000000000        0.0000000000000000     
  0.56250000000000000       0.28125000000000000        0.0000000000000000     
  0.59375000000000000       0.28125000000000000        0.0000000000000000     
  0.62500000000000000       0.28125000000000000        0.0000000000000000     
  0.50000000000000000       0.31250000000000000        0.0000000000000000     
  0.53125000000000000       0.31250000000000000        0.0000000000000000     
  0.56250000000000000       0.31250000000000000        0.0000000000000000     
  0.59375000000000000       0.31250000000000000        0.0000000000000000     
  0.62500000000000000       0.31250000000000000        0.0000000000000000     
  0.50000000000000000       0.34375000000000000        0.0000000000000000     
  0.53125000000000000       0.34375000000000000        0.0000000000000000     
  0.56250000000000000       0.34375000000000000        0.0000000000000000     
  0.59375000000000000       0.34375000000000000        0.0000000000000000     
  0.62500000000000000       0.34375000000000000        0.0000000000000000     
  0.50000000000000000       0.37500000000000000        0.0000000000000000     
  0.53125000000000000       0.37500000000000000        0.0000000000000000     
  0.56250000000000000       0.37500000000000000        0.0000000000000000     
  0.59375000000000000       0.37500000000000000        0.0000000000000000     
  0.62500000000000000       0.37500000000000000        0.0000000000000000     
  0.62500000000000000       0.25000000000000000        0.0000000000000000     
  0.65625000000000000       0.25000000000000000        0.0000000000000000     
  0.68750000000000000       0.25000000000000000        0.0000000000000000     
  0.71875000000000000       0.25000000000000000        0.0000000000000000     
  0.75000000000000000       0.25000000000000000        0.0000000000000000     
  0.62500000000000000       0.28125000000000000        0.0000000000000000     
  0.65625000000000000       0.28125000000000000        0.0000000000000000     
  0.68750000000000000       0.28125000000000000        0.0000000000000000     
  0.71875000000000000       0.28125000000000000        0.0000000000000000     
  0.75000000000000000       0.28125000000000000        0.0000000000000000     
  0.62500000000000000       0.31250000000000000        0.0000000000000000     
  0.65625000000000000       0.31250000000000000        0.0000000000000000     
  0.68750000000000000       0.31250000000000000        0.0000000000000000     
  0.71875000000000000       0.31250000000000000        0.0000000000000000     
  0.75000000000000000       0.31250000000000000        0.0000000000000000     
  0.62500000000000000       0.34375000000000000        0.0000000000000000     
  0.65625000000000000       0.34375000000000000        0.0000000000000000     
  0.68750000000000000       0.34375000000000000        0.0000000000000000     
  0.71875000000000000       0.34375000000000000        0.0000000000000000     
  0.75000000000000000       0.34375000000000000        0.0000000000000000     
  0.62500000000000000       0.37500000000000000        0.0000000000000000     
  0.65625000000000000       0.37500000000000000        0.0000000000000000     
  0.68750000000000000       0.37500000000000000        0.0000000000000000     
  0.71875000000000000       0.37500000000000000        0.0000000000000000     
  0.75000000000000000       0.37500000000000000        0.0000000000000000     
  0.75000000000000000       0.25000000000000000        0.0000000000000000     
  0.78125000000000000       0.25000000000000000        0.0000000000000000     
  0.81250000000000000       0.25000000000000000        0.0000000000000000     
  0.84375000000000000       0.25000000000000000        0.0000000000000000     
  0.87500000000000000       0.25000000000000000        0.0000000000000000     
  0.75000000000000000       0.28125000000000000        0.0000000000000000     
  0.78125000000000000       0.28125000000000000        0.0000000000000000     
  0.81250000000000000       0.28125000000000000        0.0000000000000000     
  0.84375000000000000       0.28125000000000000        0.0000000000000000     
  0.87500000000000000       0.28125000000000000        0.0000000000000000     
  0.75000000000000000       0.31250000000000000        0.0000000000000000     
  0.78125000000000000       0.31250000000000000        0.0000000000000000     
  0.81250000000000000       0.31250000000000000        0.0000000000000000     
  0.84375000000000000       0.31250000000000000        0.0000000000000000     
  0.87500000000000000       0.31250000000000000        0.0000000000000000     
  0.75000000000000000       0.34375000000000000        0.0000000000000000     
  0.78125000000000000       0.34375000000000000        0.0000000000000000     
  0.81250000000000000       0.34375000000000000        0.0000000000000000     
  0.84375000000000000       0.34375000000000000        0.0000000000000000     
  0.87500000000000000       0.34375000000000000        0.0000000000000000     
  0.75000000000000000       0.37500000000000000        0.0000000000000000     
  0.78125000000000000       0.37500000000000000        0.0000000000000000     
  0.81250000000000000       0.37500000000000000        0.0000000000000000     
  0.84375000000000000       0.37500000000000000        0.0000000000000000     
  0.87500000000000000       0.37500000000000000        0.0000000000000000     
  0.87500000000000000       0.25000000000000000        0.0000000000000000     
  0.90625000000000000       0.25000000000000000        0.0000000000000000     
  0.93750000000000000       0.25000000000000000        0.0000000000000000     
  0.96875000000000000       0.25000000000000000        0.0000000000000000     
   1.0000000000000000       0.25000000000000000        0.0000000000000000     
  0.87500000000000000       0.28125000000000000        0.0000000000000000     
  0.90625000000000000       0.28125000000000000        0.0000000000000000     
  0.93750000000000000       0.28125000000000000        0.0000000000000000     
  0.96875000000000000       0.28125000000000000        0.0000000000000000     
   1.0000000000000000       0.28125000000000000        0.0000000000000000     
  0.87500000000000000       0.31250000000000000        0.0000000000000000     
  0.90625000000000000       0.31250000000000000        0.0000000000000000     
  0.93750000000000000       0.31250000000000000        0.0000000000000000     
  0.96875000000000000       0.31250000000000000        0.0000000000000000     
   1.0000000000000000       0.31250000000000000        0.0000000000000000     
  0.87500000000000000       0.34375000000000000        0.0000000000000000     
  0.90625000000000000       0.34375000000000000        0.0000000000000000     
  0.93750000000000000       0.34375000000000000        0.0000000000000000     
  0.96875000000000000       0.34375000000000000        0.0000000000000000     
   1.0000000000000000       0.34375000000000000        0.0000000000000000     
  0.87500000000000000       0.37500000000000000        0.0000000000000000     
  0.90625000000000000       0.37500000000000000        0.0000000000000000     
  0.93750000000000000       0.37500000000000000        0.0000000000000000     
  0.96875000000000000       0.37500000000000000        0.0000000000000000     
   1.0000000000000000       0.37500000000000000        0.0000000000000000     
   1.0000000000000000       0.25000000000000000        0.0000000000000000     
   1.0312500000000000       0.25000000000000000        0.0000000000000000     
   1.0625000000000000       0.25000000000000000        0.0000000000000000     
   1.0937500000000000       0.25000000000000000        0.0000000000000000     
   1.1250000000000000       0.25000000000000000        0.0000000000000000     
   1.0000000000000000       0.28125000000000000        0.0000000000000000     
   1.0312500000000000       0.28125000000000000        0.0000000000000000     
   1.0625000000000000       0.28125000000000000        0.0000000000000000     
   1.0937500000000000       0.28125000000000000        0.0000000000000000     
   1.1250000000000000       0.28125000000000000        0.0000000000000000     
   1.0000000000000000       0.31250000000000000        0.0000000000000000     
   1.0312500000000000       0.31250000000000000        0.0000000000000000     
   1.0625000000000000       0.31250000000000000        0.0000000000000000     
   1.0937500000000000       0.31250000000000000        0.0000000000000000     
   1.1250000000000000       0.31250000000000000        0.0000000000000000     
   1.0000000000000000       0.34375000000000000        0.0000000000000000     
   1.0312500000000000       0.34375000000000000        0.0000000000000000     
   1.0625000000000000       0.34375000000000000        0.0000000000000000     
   1.0937500000000000       0.34375000000000000        0.0000000000000000     
   1.1250000000000000       0.34375000000000000        0.0000000000000000     
   1.0000000000000000       0.37500000000000000        0.0000000000000000     
   1.0312500000000000       0.37500000000000000        0.0000000000000000     
   1.0625000000000000       0.37500000000000000        0.0000000000000000     
   1.0937500000000000       0.37500000000000000        0.0000000000000000     
   1.1250000000000000       0.37500000000000000        0.0000000000000000     
   1.1250000000000000       0.25000000000000000        0.0000000000000000     
   1.1562500000000000       0.25000000000000000        0.0000000000000000     
   1.1875000000000000       0.25000000000000000        0.0000000000000000     
   1.2187500000000000       0.25000000000000000        0.0000000000000000     
   1.2500000000000000       0.25000000000000000        0.0000000000000000     
   1.1250000000000000       0.28125000000000000        0.0000000000000000     
   1.1562500000000000       0.28125000000000000        0.0000000000000000     
   1.1875000000000000       0.28125000000000000        0.0000000000000000     
   1.2187500000000000       0.28125000000000000        0.0000000000000000     
   1.2500000000000000       0.28125000000000000        0.0000000000000000     
   1.1250000000000000       0.31250000000000000        0.0000000000000000     
   1.1562500000000000       0.31250000000000000        0.0000000000000000     
   1.1875000000000000       0.31250000000000000        0.0000000000000000     
   1.2187500000000000       0.31250000000000000        0.0000000000000000     
   1.2500000000000000       0.31250000000000000        0.0000000000000000     
   1.1250000000000000       0.34375000000000000        0.0000000000000000     
   1.1562500000000000       0.34375000000000000        0.0000000000000000     
   1.1875000000000000       0.34375000000000000        0.0000000000000000     
   1.2187500000000000       0.34375000000000000        0.0000000000000000     
   1.2500000000000000       0.34375000000000000        0.0000000000000000     
   1.1250000000000000       0.37500000000000000        0.0000000000000000     
   1.1562500000000000       0.37500000000000000        0.0000000000000000     
   1.1875000000000000       0.37500000000000000        0.0000000000000000     
   1.2187500000000000       0.37500000000000000        0.0000000000000000     
   1.2500000000000000       0.37500000000000000        0.0000000000000000     
   1.2500000000000000       0.25000000000000000        0.0000000000000000     
   1.2812500000000000       0.25000000000000000        0.0000000000000000     
   1.3125000000000000       0.25000000000000000        0.0000000000000000     
   1.3437500000000000       0.25000000000000000        0.0000000000000000     
   1.3750000000000000       0.25000000000000000        0.0000000000000000     
   1.2500000000000000       0.28125000000000000        0.0000000000000000     
   1.2812500000000000       0.28125000000000000        0.0000000000000000     
   1.3125000000000000       0.28125000000000000        0.0000000000000000     
   1.3437500000000000       0.28125000000000000        0.0000000000000000     
   1.3750000000000000       0.28125000000000000        0.0000000000000000     
   1.2500000000000000       0.31250000000000000        0.0000000000000000     
   1.2812500000000000       0.31250000000000000        0.0000000000000000     
   1.3125000000000000       0.31250000000000000        0.0000000000000000     
   1.3437500000000000       0.31250000000000000        0.0000000000000000     
   1.3750000000000000       0.31250000000000000        0.0000000000000000     
   1.2500000000000000       0.34375000000000000        0.0000000000000000     
   1.2812500000000000       0.34375000000000000        0.0000000000000000     
   1.3125000000000000       0.34375000000000000        0.0000000000000000     
   1.3437500000000000       0.34375000000000000        0.0000000000000000     
   1.3750000000000000       0.34375000000000000        0.0000000000000000     
   1.2500000000000000       0.37500000000000000        0.0000000000000000     
   1.2812500000000000       0.37500000000000000        0.0000000000000000     
   1.3125000000000000       0.37500000000000000        0.0000000000000000     
   1.3437500000000000       0.37500000000000000        0.0000000000000000     
   1.3750000000000000       0.37500000000000000        0.0000000000000000     
   1.3750000000000000       0.25000000000000000        0.0000000000000000     
   1.4062500000000000       0.25000000000000000        0.0000000000000000     
   1.4375000000000000       0.25000000000000000        0.0000000000000000     
   1.4687500000000000       0.25000000000000000        0.0000000000000000     
   1.5000000000000000       0.25000000000000000        0.0000000000000000     
   1.3750000000000000       0.28125000000000000        0.0000000000000000     
   1.4062500000000000       0.28125000000000000        0.0000000000000000     
   1.4375000000000000       0.28125000000000000        0.0000000000000000     
   1.4687500000000000       0.28125000000000000        0.0000000000000000     
   1.5000000000000000       0.28125000000000000        0.0000000000000000     
   1.3750000000000000       0.31250000000000000        0.0000000000000000     
   1.4062500000000000       0.31250000000000000        0.0000000000000000     
   1.4375000000000000       0.31250000000000000        0.0000000000000000     
   1.4687500000000000       0.31250000000000000        0.0000000000000000     
   1.5000000000000000       0.31250000000000000        0.0000000000000000     
   1.3750000000000000       0.34375000000000000        0.0000000000000000     
   1.4062500000000000       0.34375000000000000        0.0000000000000000     
   1.4375000000000000       0.34375000000000000        0.0000000000000000     
   1.4687500000000000       0.34375000000000000        0.0000000000000000     
   1.5000000000000000       0.34375000000000000        0.0000000000000000     
   1.3750000000000000       0.37500000000000000        0.0000000000000000     
   1.4062500000000000       0.37500000000000000        0.0000000000000000     
   1.4375000000000000       0.37500000000000000        0.0000000000000000     
   1.4687500000000000       0.37500000000000000        0.0000000000000000     
   1.5000000000000000       0.37500000000000000        0.0000000000000000     
  0.50000000000000000       0.37500000000000000        0.0000000000000000     
  0.53125000000000000       0.37500000000000000        0.0000000000000000     
  0.56250000000000000       0.37500000000000000        0.0000000000000000     
  0.59375000000000000       0.37500000000000000        0.0000000000000000     
  0.62500000000000000       0.37500000000000000        0.0000000000000000     
  0.50000000000000000       0.40625000000000000        0.0000000000000000     
  0.53125000000000000       0.40625000000000000        0.0000000000000000     
  0.56250000000000000       0.40625000000000000        0.0000000000000000     
  0.59375000000000000       0.40625000000000000        0.0000000000000000     
  0.62500000000000000       0.40625000000000000        0.0000000000000000     
  0.50000000000000000       0.43750000000000000        0.0000000000000000     
  0.53125000000000000       0.43750000000000000        0.0000000000000000     
  0.56250000000000000       0.43750000000000000        0.0000000000000000     
  0.59375000000000000       0.43750000000000000        0.0000000000000000     
  0.62500000000000000       0.43750000000000000        0.0000000000000000     
  0.50000000000000000       0.46875000000000000        0.0000000000000000     
  0.53125000000000000       0.46875000000000000        0.0000000000000000     
  0.56250000000000000       0.46875000000000000        0.0000000000000000     
  0.59375000000000000       0.46875000000000000        0.0000000000000000     
  0.62500000000000000       0.46875000000000000        0.0000000000000000     
  0.50000000000000000       0.50000000000000000        0.0000000000000000     
  0.53125000000000000       0.50000000000000000        0.0000000000000000     
  0.56250000000000000       0.50000000000000000        0.0000000000000000     
  0.59375000000000000       0.50000000000000000        0.0000000000000000     
  0.62500000000000000       0.50000000000000000        0.0000000000000000     
  0.62500000000000000       0.37500000000000000        0.0000000000000000     
  0.65625000000000000       0.37500000000000000        0.0000000000000000     
  0.68750000000000000       0.37500000000000000        0.0000000000000000     
  0.71875000000000000       0.37500000000000000        0.0000000000000000     
  0.75000000000000000       0.37500000000000000        0.0000000000000000     
  0.62500000000000000       0.40625000000000000        0.0000000000000000     
  0.65625000000000000       0.40625000000000000        0.0000000000000000     
  0.68750000000000000       0.40625000000000000        0.0000000000000000     
  0.71875000000000000       0.40625000000000000        0.0000000000000000     
  0.75000000000000000       0.40625000000000000        0.0000000000000000     
  0.62500000000000000       0.43750000000000000        0.0000000000000000     
  0.65625000000000000       0.43750000000000000        0.0000000000000000     
  0.68750000000000000       0.43750000000000000        0.0000000000000000     
  0.71875000000000000       0.43750000000000000        0.0000000000000000     
  0.75000000000000000       0.43750000000000000        0.0000000000000000     
  0.62500000000000000       0.46875000000000000        0.0000000000000000     
  0.65625000000000000       0.46875000000000000        0.0000000000000000     
  0.68750000000000000       0.46875000000000000        0.0000000000000000     
  0.71875000000000000       0.46875000000000000        0.0000000000000000     
  0.75000000000000000       0.46875000000000000        0.0000000000000000     
  0.62500000000000000       0.50000000000000000        0.0000000000000000     
  0.65625000000000000       0.50000000000000000        0.0000000000000000     
  0.68750000000000000       0.50000000000000000        0.0000000000000000     
  0.71875000000000000       0.50000000000000000        0.0000000000000000     
  0.75000000000000000       0.50000000000000000        0.0000000000000000     
  0.75000000000000000       0.37500000000000000        0.0000000000000000     
  0.78125000000000000       0.37500000000000000        0.0000000000000000     
  0.81250000000000000       0.37500000000000000        0.0000000000000000     
  0.84375000000000000       0.37500000000000000        0.0000000000000000     
  0.87500000000000000       0.37500000000000000        0.0000000000000000     
  0.75000000000000000       0.40625000000000000        0.0000000000000000     
  0.78125000000000000       0.40625000000000000        0.0000000000000000     
  0.81250000000000000       0.40625000000000000        0.0000000000000000     
  0.84375000000000000       0.40625000000000000        0.0000000000000000     
  0.87500000000000000       0.40625000000000000        0.0000000000000000     
  0.75000000000000000       0.43750000000000000        0.0000000000000000     
  0.78125000000000000       0.43750000000000000        0.0000000000000000     
  0.81250000000000000       0.43750000000000000        0.0000000000000000     
  0.84375000000000000       0.43750000000000000        0.0000000000000000     
  0.87500000000000000       0.43750000000000000        0.0000000000000000     
  0.75000000000000000       0.46875000000000000        0.0000000000000000     
  0.78125000000000000       0.46875000000000000        0.0000000000000000     
  0.81250000000000000       0.46875000000000000        0.0000000000000000     
  0.84375000000000000       0.46875000000000000        0.0000000000000000     
  0.87500000000000000       0.46875000000000000        0.0000000000000000     
  0.75000000000000000       0.50000000000000000        0.0000000000000000     
  0.78125000000000000       0.50000000000000000        0.0000000000000000     
  0.81250000000000000       0.50000000000000000        0.0000000000000000     
  0.84375000000000000       0.50000000000000000        0.0000000000000000     
  0.87500000000000000       0.50000000000000000        0.0000000000000000     
  0.87500000000000000       0.37500000000000000        0.0000000000000000     
  0.90625000000000000       0.37500000000000000        0.0000000000000000     
  0.93750000000000000       0.37500000000000000        0.0000000000000000     
  0.96875000000000000       0.37500000000000000        0.0000000000000000     
   1.0000000000000000       0.37500000000000000        0.0000000000000000     
  0.87500000000000000       0.40625000000000000        0.0000000000000000     
  0.90625000000000000       0.40625000000000000        0.0000000000000000     
  0.93750000000000000       0.40625000000000000        0.0000000000000000     
  0.96875000000000000       0.40625000000000000        0.0000000000000000     
   1.0000000000000000       0.40625000000000000        0.0000000000000000     
  0.87500000000000000       0.43750000000000000        0.0000000000000000     
  0.90625000000000000       0.43750000000000000        0.0000000000000000     
  0.93750000000000000       0.43750000000000000        0.0000000000000000     
  0.96875000000000000       0.43750000000000000        0.0000000000000000     
   1.0000000000000000       0.43750000000000000        0.0000000000000000     
  0.87500000000000000       0.46875000000000000        0.0000000000000000     
  0.90625000000000000       0.46875000000000000        0.0000000000000000     
  0.93750000000000000       0.46875000000000000        0.0000000000000000     
  0.96875000000000000       0.46875000000000000        0.0000000000000000     
   1.0000000000000000       0.46875000000000000        0.0000000000000000     
  0.87500000000000000       0.50000000000000000        0.0000000000000000     
  0.90625000000000000       0.50000000000000000        0.0000000000000000     
  0.93750000000000000       0.50000000000000000        0.0000000000000000     
  0.96875000000000000       0.50000000000000000        0.0000000000000000     
   1.0000000000000000       0.50000000000000000        0.0000000000000000     
   1.0000000000000000       0.37500000000000000        0.0000000000000000     
   1.0312500000000000       0.37500000000000000        0.0000000000000000     
   1.0625000000000000       0.37500000000000000        0.0000000000000000     
   1.0937500000000000       0.37500000000000000        0.0000000000000000     
   1.1250000000000000       0.37500000000000000        0.0000000000000000     
   1.0000000000000000       0.40625000000000000        0.0000000000000000     
   1.0312500000000000       0.40625000000000000        0.0000000000000000     
   1.0625000000000000       0.40625000000000000        0.0000000000000000     
   1.0937500000000000       0.40625000000000000        0.0000000000000000     
   1.1250000000000000       0.40625000000000000        0.0000000000000000     
   1.0000000000000000       0.43750000000000000        0.0000000000000000     
   1.0312500000000000       0.43750000000000000        0.0000000000000000     
   1.0625000000000000       0.43750000000000000        0.0000000000000000     
   1.0937500000000000       0.43750000000000000        0.0000000000000000     
   1.1250000000000000       0.43750000000000000        0.0000000000000000     
   1.0000000000000000       0.46875000000000000        0.0000000000000000     
   1.0312500000000000       0.46875000000000000        0.0000000000000000     
   1.0625000000000000       0.46875000000000000        0.0000000000000000     
   1.0937500000000000       0.46875000000000000        0.0000000000000000     
   1.1250000000000000       0.46875000000000000        0.0000000000000000     
   1.0000000000000000       0.50000000000000000        0.0000000000000000     
   1.0312500000000000       0.50000000000000000        0.0000000000000000     
   1.0625000000000000       0.50000000000000000        0.0000000000000000     
   1.0937500000000000       0.50000000000000000        0.0000000000000000     
   1.1250000000000000       0.50000000000000000        0.0000000000000000     
   1.1250000000000000       0.37500000000000000        0.0000000000000000     
   1.1562500000000000       0.37500000000000000        0.0000000000000000     
   1.1875000000000000       0.37500000000000000        0.0000000000000000     
   1.2187500000000000       0.37500000000000000        0.0000000000000000     
   1.2500000000000000       0.37500000000000000        0.0000000000000000     
   1.1250000000000000       0.40625000000000000        0.0000000000000000     
   1.1562500000000000       0.40625000000000000        0.0000000000000000     
   1.1875000000000000       0.40625000000000000        0.0000000000000000     
   1.2187500000000000       0.40625000000000000        0.0000000000000000     
   1.2500000000000000       0.40625000000000000        0.0000000000000000     
   1.1250000000000000       0.43750000000000000        0.0000000000000000     
   1.1562500000000000       0.43750000000000000        0.0000000000000000     
   1.1875000000000000       0.43750000000000000        0.0000000000000000     
   1.2187500000000000       0.43750000000000000        0.0000000000000000     
   1.2500000000000000       0.43750000000000000        0.0000000000000000     
   1.1250000000000000       0.46875000000000000        0.0000000000000000     
   1.1562500000000000       0.46875000000000000        0.0000000000000000     
   1.1875000000000000       0.46875000000000000        0.0000000000000000     
   1.2187500000000000       0.46875000000000000        0.0000000000000000     
   1.2500000000000000       0.46875000000000000        0.0000000000000000     
   1.1250000000000000       0.50000000000000000        0.0000000000000000     
   1.1562500000000000       0.50000000000000000        0.0000000000000000     
   1.1875000000000000       0.50000000000000000        0.0000000000000000     
   1.2187500000000000       0.50000000000000000        0.0000000000000000     
   1.2500000000000000       0.50000000000000000        0.0000000000000000     
   1.2500000000000000       0.37500000000000000        0.0000000000000000     
   1.2812500000000000       0.37500000000000000        0.0000000000000000     
   1.3125000000000000       0.37500000000000000        0.0000000000000000     
   1.3437500000000000       0.37500000000000000        0.0000000000000000     
   1.3750000000000000       0.37500000000000000        0.0000000000000000     
   1.2500000000000000       0.40625000000000000        0.0000000000000000     
   1.2812500000000000       0.40625000000000000        0.0000000000000000     
   1.3125000000000000       0.40625000000000000        0.0000000000000000     
   1.3437500000000000       0.40625000000000000        0.0000000000000000     
   1.3750000000000000       0.40625000000000000        0.0000000000000000     
   1.2500000000000000       0.43750000000000000        0.0000000000000000     
   1.2812500000000000       0.43750000000000000        0.0000000000000000     
   1.3125000000000000       0.43750000000000000        0.0000000000000000     
   1.3437500000000000       0.43750000000000000        0.0000000000000000     
   1.3750000000000000       0.43750000000000000        0.0000000000000000     
   1.2500000000000000       0.46875000000000000        0.0000000000000000     
   1.2812500000000000       0.46875000000000000        0.0000000000000000     
   1.3125000000000000       0.46875000000000000        0.0000000000000000     
   1.3437500000000000       0.46875000000000000        0.0000000000000000     
   1.3750000000000000       0.46875000000000000        0.0000000000000000     
   1.2500000000000000       0.50000000000000000        0.0000000000000000     
   1.2812500000000000       0.50000000000000000        0.0000000000000000     
   1.3125000000000000       0.50000000000000000        0.0000000000000000     
   1.3437500000000000       0.50000000000000000        0.0000000000000000     
   1.3750000000000000       0.50000000000000000        0.0000000000000000     
   1.3750000000000000       0.37500000000000000        0.0000000000000000     
   1.4062500000000000       0.37500000000000000        0.0000000000000000     
   1.4375000000000000       0.37500000000000000        0.0000000000000000     
   1.4687500000000000       0.37500000000000000        0.0000000000000000     
   1.5000000000000000       0.37500000000000000        0.0000000000000000     
   1.3750000000000000       0.40625000000000000        0.0000000000000000     
   1.4062500000000000       0.40625000000000000        0.0000000000000000     
   1.4375000000000000       0.40625000000000000        0.0000000000000000     
   1.4687500000000000       0.40625000000000000        0.0000000000000000     
   1.5000000000000000       0.40625000000000000        0.0000000000000000     
   1.3750000000000000       0.43750000000000000        0.0000000000000000     
   1.4062500000000000       0.43750000000000000        0.0000000000000000     
   1.4375000000000000       0.43750000000000000        0.0000000000000000     
   1.4687500000000000       0.43750000000000000        0.0000000000000000     
   1.5000000000000000       0.43750000000000000        0.0000000000000000     
   1.3750000000000000       0.46875000000000000        0.0000000000000000     
   1.4062500000000000       0.46875000000000000        0.0000000000000000     
   1.4375000000000000       0.46875000000000000        0.0000000000000000     
   1.4687500000000000       0.46875000000000000        0.0000000000000000     
   1.5000000000000000       0.46875000000000000        0.0000000000000000     
   1.3750000000000000       0.50000000000000000        0.0000000000000000     
   1.4062500000000000       0.50000000000000000        0.0000000000000000     
   1.4375000000000000       0.50000000000000000        0.0000000000000000     
   1.4687500000000000       0.50000000000000000        0.0000000000000000     
   1.5000000000000000       0.50000000000000000        0.0000000000000000     
  0.50000000000000000       0.50000000000000000        0.0000000000000000     
  0.53125000000000000       0.50000000000000000        0.0000000000000000     
  0.56250000000000000       0.50000000000000000        0.0000000000000000     
  0.59375000000000000       0.50000000000000000        0.0000000000000000     
  0.62500000000000000       0.50000000000000000        0.0000000000000000     
  0.50000000000000000       0.53125000000000000        0.0000000000000000     
  0.53125000000000000       0.53125000000000000        0.0000000000000000     
  0.56250000000000000       0.53125000000000000        0.0000000000000000     
  0.59375000000000000       0.53125000000000000        0.0000000000000000     
  0.62500000000000000       0.53125000000000000        0.0000000000000000     
  0.50000000000000000       0.56250000000000000        0.0000000000000000     
  0.53125000000000000       0.56250000000000000        0.0000000000000000     
  0.56250000000000000       0.56250000000000000        0.0000000000000000     
  0.59375000000000000       0.56250000000000000        0.0000000000000000     
  0.62500000000000000       0.56250000000000000        0.0000000000000000     
  0.50000000000000000       0.59375000000000000        0.0000000000000000     
  0.53125000000000000       0.59375000000000000        0.0000000000000000     
  0.56250000000000000       0.59375000000000000        0.0000000000000000     
  0.59375000000000000       0.59375000000000000        0.0000000000000000     
  0.62500000000000000       0.59375000000000000        0.0000000000000000     
  0.50000000000000000       0.62500000000000000        0.0000000000000000     
  0.53125000000000000       0.62500000000000000        0.0000000000000000     
  0.56250000000000000       0.62500000000000000        0.0000000000000000     
  0.59375000000000000       0.62500000000000000        0.0000000000000000     
  0.62500000000000000       0.62500000000000000        0.0000000000000000     
  0.62500000000000000       0.50000000000000000        0.0000000000000000     
  0.65625000000000000       0.50000000000000000        0.0000000000000000     
  0.68750000000000000       0.50000000000000000        0.0000000000000000     
  0.71875000000000000       0.50000000000000000        0.0000000000000000     
  0.75000000000000000       0.50000000000000000        0.0000000000000000     
  0.62500000000000000       0.53125000000000000        0.0000000000000000     
  0.65625000000000000       0.53125000000000000        0.0000000000000000     
  0.68750000000000000       0.53125000000000000        0.0000000000000000     
  0.71875000000000000       0.53125000000000000        0.0000000000000000     
  0.75000000000000000       0.53125000000000000        0.0000000000000000     
  0.62500000000000000       0.56250000000000000        0.0000000000000000     
  0.65625000000000000       0.56250000000000000        0.0000000000000000     
  0.68750000000000000       0.56250000000000000        0.0000000000000000     
  0.71875000000000000       0.56250000000000000        0.0000000000000000     
  0.75000000000000000       0.56250000000000000        0.0000000000000000     
  0.62500000000000000       0.59375000000000000        0.0000000000000000     
  0.65625000000000000       0.59375000000000000        0.0000000000000000     
  0.68750000000000000       0.59375000000000000        0.0000000000000000     
  0.71875000000000000       0.59375000000000000        0.0000000000000000     
  0.75000000000000000       0.59375000000000000        0.0000000000000000     
  0.62500000000000000       0.62500000000000000        0.0000000000000000     
  0.65625000000000000       0.62500000000000000        0.0000000000000000     
  0.68750000000000000       0.62500000000000000        0.0000000000000000     
  0.71875000000000000       0.62500000000000000        0.0000000000000000     
  0.75000000000000000       0.62500000000000000        0.0000000000000000     
  0.75000000000000000       0.50000000000000000        0.0000000000000000     
  0.78125000000000000       0.50000000000000000        0.0000000000000000     
  0.81250000000000000       0.50000000000000000        0.0000000000000000     
  0.84375000000000000       0.50000000000000000        0.0000000000000000     
  0.87500000000000000       0.50000000000000000        0.0000000000000000     
  0.75000000000000000       0.53125000000000000        0.0000000000000000     
  0.78125000000000000       0.53125000000000000        0.0000000000000000     
  0.81250000000000000       0.53125000000000000        0.0000000000000000     
  0.84375000000000000       0.53125000000000000        0.0000000000000000     
  0.87500000000000000       0.53125000000000000        0.0000000000000000     
  0.75000000000000000       0.56250000000000000        0.0000000000000000     
  0.78125000000000000       0.56250000000000000        0.0000000000000000     
  0.81250000000000000       0.56250000000000000        0.0000000000000000     
  0.84375000000000000       0.56250000000000000        0.0000000000000000     
  0.87500000000000000       0.56250000000000000        0.0000000000000000     
  0.75000000000000000       0.59375000000000000        0.0000000000000000     
  0.78125000000000000       0.59375000000000000        0.0000000000000000     
  0.81250000000000000       0.59375000000000000        0.0000000000000000     
  0.84375000000000000       0.59375000000000000        0.0000000000000000     
  0.87500000000000000       0.59375000000000000        0.0000000000000000     
  0.75000000000000000       0.62500000000000000        0.0000000000000000     
  0.78125000000000000       0.62500000000000000        0.0000000000000000     
  0.81250000000000000       0.62500000000000000        0.0000000000000000     
  0.84375000000000000       0.62500000000000000        0.0000000000000000     
  0.87500000000000000       0.62500000000000000        0.0000000000000000     
  0.87500000000000000       0.50000000000000000        0.0000000000000000     
  0.90625000000000000       0.50000000000000000        0.0000000000000000     
  0.93750000000000000       0.50000000000000000        0.0000000000000000     
  0.96875000000000000       0.50000000000000000        0.0000000000000000     
   1.0000000000000000       0.50000000000000000        0.0000000000000000     
  0.87500000000000000       0.53125000000000000        0.0000000000000000     
  0.90625000000000000       0.53125000000000000        0.0000000000000000     
  0.93750000000000000       0.53125000000000000        0.0000000000000000     
  0.96875000000000000       0.53125000000000000        0.0000000000000000     
   1.0000000000000000       0.53125000000000000        0.0000000000000000     
  0.87500000000000000       0.56250000000000000        0.0000000000000000     
  0.90625000000000000       0.56250000000000000        0.0000000000000000     
  0.93750000000000000       0.56250000000000000        0.0000000000000000     
  0.96875000000000000       0.56250000000000000        0.0000000000000000     
   1.0000000000000000       0.56250000000000000        0.0000000000000000     
  0.87500000000000000       0.59375000000000000        0.0000000000000000     
  0.90625000000000000       0.59375000000000000        0.0000000000000000     
  0.93750000000000000       0.59375000000000000        0.0000000000000000     
  0.96875000000000000       0.59375000000000000        0.0000000000000000     
   1.0000000000000000       0.59375000000000000        0.0000000000000000     
  0.87500000000000000       0.62500000000000000        0.0000000000000000     
  0.90625000000000000       0.62500000000000000        0.0000000000000000     
  0.93750000000000000       0.62500000000000000        0.0000000000000000     
  0.96875000000000000       0.62500000000000000        0.0000000000000000     
   1.0000000000000000       0.62500000000000000        0.0000000000000000     
   1.0000000000000000       0.50000000000000000        0.0000000000000000     
   1.0312500000000000       0.50000000000000000        0.0000000000000000     
   1.0625000000000000       0.50000000000000000        0.0000000000000000     
   1.0937500000000000       0.50000000000000000        0.0000000000000000     
   1.1250000000000000       0.50000000000000000        0.0000000000000000     
   1.0000000000000000       0.53125000000000000        0.0000000000000000     
   1.0312500000000000       0.53125000000000000        0.0000000000000000     
   1.0625000000000000       0.53125000000000000        0.0000000000000000     
   1.0937500000000000       0.53125000000000000        0.0000000000000000     
   1.1250000000000000       0.53125000000000000        0.0000000000000000     
   1.0000000000000000       0.56250000000000000        0.0000000000000000     
   1.0312500000000000       0.56250000000000000        0.0000000000000000     
   1.0625000000000000       0.56250000000000000        0.0000000000000000     
   1.0937500000000000       0.56250000000000000        0.0000000000000000     
   1.1250000000000000       0.56250000000000000        0.0000000000000000     
   1.0000000000000000       0.59375000000000000        0.0000000000000000     
   1.0312500000000000       0.59375000000000000        0.0000000000000000     
   1.0625000000000000       0.59375000000000000        0.0000000000000000     
   1.0937500000000000       0.59375000000000000        0.0000000000000000     
   1.1250000000000000       0.59375000000000000        0.0000000000000000     
   1.0000000000000000       0.62500000000000000        0.0000000000000000     
   1.0312500000000000       0.62500000000000000        0.0000000000000000     
   1.0625000000000000       0.62500000000000000        0.0000000000000000     
   1.0937500000000000       0.62500000000000000        0.0000000000000000     
   1.1250000000000000       0.62500000000000000        0.0000000000000000     
   1.1250000000000000       0.50000000000000000        0.0000000000000000     
   1.1562500000000000       0.50000000000000000        0.0000000000000000     
   1.1875000000000000       0.50000000000000000        0.0000000000000000     
   1.2187500000000000       0.50000000000000000        0.0000000000000000     
   1.2500000000000000       0.50000000000000000        0.0000000000000000     
   1.1250000000000000       0.53125000000000000        0.0000000000000000     
   1.1562500000000000       0.53125000000000000        0.0000000000000000     
   1.1875000000000000       0.53125000000000000        0.0000000000000000     
   1.2187500000000000       0.53125000000000000        0.0000000000000000     
   1.2500000000000000       0.53125000000000000        0.0000000000000000     
   1.1250000000000000       0.56250000000000000        0.0000000000000000     
   1.1562500000000000       0.56250000000000000        0.0000000000000000     
   1.1875000000000000       0.56250000000000000        0.0000000000000000     
   1.2187500000000000       0.56250000000000000        0.0000000000000000     
   1.2500000000000000       0.56250000000000000        0.0000000000000000     
   1.1250000000000000       0.59375000000000000        0.0000000000000000     
   1.1562500000000000       0.59375000000000000        0.0000000000000000     
   1.1875000000000000       0.59375000000000000        0.0000000000000000     
   1.2187500000000000       0.59375000000000000        0.0000000000000000     
   1.2500000000000000       0.59375000000000000        0.0000000000000000     
   1.1250000000000000       0.62500000000000000        0.0000000000000000     
   1.1562500000000000       0.62500000000000000        0.0000000000000000     
   1.1875000000000000       0.62500000000000000        0.0000000000000000     
   1.2187500000000000       0.62500000000000000        0.0000000000000000     
   1.2500000000000000       0.62500000000000000        0.0000000000000000     
   1.2500000000000000       0.50000000000000000        0.0000000000000000     
   1.2812500000000000       0.50000000000000000        0.0000000000000000     
   1.3125000000000000       0.50000000000000000        0.0000000000000000     
   1.3437500000000000       0.50000000000000000        0.0000000000000000     
   1.3750000000000000       0.50000000000000000        0.0000000000000000     
   1.2500000000000000       0.53125000000000000        0.0000000000000000     
   1.2812500000000000       0.53125000000000000        0.0000000000000000     
   1.3125000000000000       0.53125000000000000        0.0000000000000000     
   1.3437500000000000       0.53125000000000000        0.0000000000000000     
   1.3750000000000000       0.53125000000000000        0.0000000000000000     
   1.2500000000000000       0.56250000000000000        0.0000000000000000     
   1.2812500000000000       0.56250000000000000        0.0000000000000000     
   1.3125000000000000       0.56250000000000000        0.0000000000000000     
   1.3437500000000000       0.56250000000000000        0.0000000000000000     
   1.3750000000000000       0.56250000000000000        0.0000000000000000     
   1.2500000000000000       0.59375000000000000        0.0000000000000000     
   1.2812500000000000       0.59375000000000000        0.0000000000000000     
   1.3125000000000000       0.59375000000000000        0.0000000000000000     
   1.3437500000000000       0.59375000000000000        0.0000000000000000     
   1.3750000000000000       0.59375000000000000        0.0000000000000000     
   1.2500000000000000       0.62500000000000000        0.0000000000000000     
   1.2812500000000000       0.62500000000000000        0.0000000000000000     
   1.3125000000000000       0.62500000000000000        0.0000000000000000     
   1.3437500000000000       0.62500000000000000        0.0000000000000000     
   1.3750000000000000       0.62500000000000000        0.0000000000000000     
   1.3750000000000000       0.50000000000000000        0.0000000000000000     
   1.4062500000000000       0.50000000000000000        0.0000000000000000     
   1.4375000000000000       0.50000000000000000        0.0000000000000000     
   1.4687500000000000       0.50000000000000000        0.0000000000000000     
   1.5000000000000000       0.50000000000000000        0.0000000000000000     
   1.3750000000000000       0.53125000000000000        0.0000000000000000     
   1.4062500000000000       0.53125000000000000        0.0000000000000000     
   1.4375000000000000       0.53125000000000000        0.0000000000000000     
   1.4687500000000000       0.53125000000000000        0.0000000000000000     
   1.5000000000000000       0.53125000000000000        0.0000000000000000     
   1.3750000000000000       0.56250000000000000        0.0000000000000000     
   1.4062500000000000       0.56250000000000000        0.0000000000000000     
   1.4375000000000000       0.56250000000000000        0.0000000000000000     
   1.4687500000000000       0.56250000000000000        0.0000000000000000     
   1.5000000000000000       0.56250000000000000        0.0000000000000000     
   1.3750000000000000       0.59375000000000000        0.0000000000000000     
   1.4062500000000000       0.59375000000000000        0.0000000000000000     
   1.4375000000000000       0.59375000000000000        0.0000000000000000     
   1.4687500000000000       0.59375000000000000        0.0000000000000000     
   1.5000000000000000       0.59375000000000000        0.0000000000000000     
   1.3750000000000000       0.62500000000000000        0.0000000000000000     
   1.4062500000000000       0.62500000000000000        0.0000000000000000     
   1.4375000000000000       0.62500000000000000        0.0000000000000000     
   1.4687500000000000       0.62500000000000000        0.0000000000000000     
   1.5000000000000000       0.62500000000000000        0.0000000000000000     
  0.50000000000000000       0.62500000000000000        0.0000000000000000     
  0.53125000000000000       0.62500000000000000        0.0000000000000000     
  0.56250000000000000       0.62500000000000000        0.0000000000000000     
  0.59375000000000000       0.62500000000000000        0.0000000000000000     
  0.62500000000000000       0.62500000000000000        0.0000000000000000     
  0.50000000000000000       0.65625000000000000        0.0000000000000000     
  0.53125000000000000       0.65625000000000000        0.0000000000000000     
  0.56250000000000000       0.65625000000000000        0.0000000000000000     
  0.59375000000000000       0.65625000000000000        0.0000000000000000     
  0.62500000000000000       0.65625000000000000        0.0000000000000000     
  0.50000000000000000       0.68750000000000000        0.0000000000000000     
  0.53125000000000000       0.68750000000000000        0.0000000000000000     
  0.56250000000000000       0.68750000000000000        0.0000000000000000     
  0.59375000000000000       0.68750000000000000        0.0000000000000000     
  0.62500000000000000       0.68750000000000000        0.0000000000000000     
  0.50000000000000000       0.71875000000000000        0.0000000000000000     
  0.53125000000000000       0.71875000000000000        0.0000000000000000     
  0.56250000000000000       0.71875000000000000        0.0000000000000000     
  0.59375000000000000       0.71875000000000000        0.0000000000000000     
  0.62500000000000000       0.71875000000000000        0.0000000000000000     
  0.50000000000000000       0.75000000000000000        0.0000000000000000     
  0.53125000000000000       0.75000000000000000        0.0000000000000000     
  0.56250000000000000       0.75000000000000000        0.0000000000000000     
  0.59375000000000000       0.75000000000000000        0.0000000000000000     
  0.62500000000000000       0.75000000000000000        0.0000000000000000     
  0.62500000000000000       0.62500000000000000        0.0000000000000000     
  0.65625000000000000       0.62500000000000000        0.0000000000000000     
  0.68750000000000000       0.62500000000000000        0.0000000000000000     
  0.71875000000000000       0.62500000000000000        0.0000000000000000     
  0.75000000000000000       0.62500000000000000        0.0000000000000000     
  0.62500000000000000       0.65625000000000000        0.0000000000000000     
  0.65625000000000000       0.65625000000000000        0.0000000000000000     
  0.68750000000000000       0.65625000000000000        0.0000000000000000     
  0.71875000000000000       0.65625000000000000        0.0000000000000000     
  0.75000000000000000       0.65625000000000000        0.0000000000000000     
  0.62500000000000000       0.68750000000000000        0.0000000000000000     
  0.65625000000000000       0.68750000000000000        0.0000000000000000     
  0.68750000000000000       0.68750000000000000        0.0000000000000000     
  0.71875000000000000       0.68750000000000000        0.0000000000000000     
  0.75000000000000000       0.68750000000000000        0.0000000000000000     
  0.62500000000000000       0.71875000000000000        0.0000000000000000     
  0.65625000000000000       0.71875000000000000        0.0000000000000000     
  0.68750000000000000       0.71875000000000000        0.0000000000000000     
  0.71875000000000000       0.71875000000000000        0.0000000000000000     
  0.75000000000000000       0.71875000000000000        0.0000000000000000     
  0.62500000000000000       0.75000000000000000        0.0000000000000000     
  0.65625000000000000       0.75000000000000000        0.0000000000000000     
  0.68750000000000000       0.75000000000000000        0.0000000000000000     
  0.71875000000000000       0.75000000000000000        0.0000000000000000     
  0.75000000000000000       0.75000000000000000        0.0000000000000000     
  0.75000000000000000       0.62500000000000000        0.0000000000000000     
  0.78125000000000000       0.62500000000000000        0.0000000000000000     
  0.81250000000000000       0.62500000000000000        0.0000000000000000     
  0.84375000000000000       0.62500000000000000        0.0000000000000000     
  0.87500000000000000       0.62500000000000000        0.0000000000000000     
  0.75000000000000000       0.65625000000000000        0.0000000000000000     
  0.78125000000000000       0.65625000000000000        0.0000000000000000     
  0.81250000000000000       0.65625000000000000        0.0000000000000000     
  0.84375000000000000       0.65625000000000000        0.0000000000000000     
  0.87500000000000000       0.65625000000000000        0.0000000000000000     
  0.75000000000000000       0.68750000000000000        0.0000000000000000     
  0.78125000000000000       0.68750000000000000        0.0000000000000000     
  0.81250000000000000       0.68750000000000000        0.0000000000000000     
  0.84375000000000000       0.68750000000000000        0.0000000000000000     
  0.87500000000000000       0.68750000000000000        0.0000000000000000     
  0.75000000000000000       0.71875000000000000        0.0000000000000000     
  0.78125000000000000       0.71875000000000000        0.0000000000000000     
  0.81250000000000000       0.71875000000000000        0.0000000000000000     
  0.84375000000000000       0.71875000000000000        0.0000000000000000     
  0.87500000000000000       0.71875000000000000        0.0000000000000000     
  0.75000000000000000       0.75000000000000000        0.0000000000000000     
  0.78125000000000000       0.75000000000000000        0.0000000000000000     
  0.81250000000000000       0.75000000000000000        0.0000000000000000     
  0.84375000000000000       0.75000000000000000        0.0000000000000000     
  0.87500000000000000       0.75000000000000000        0.0000000000000000     
  0.87500000000000000       0.62500000000000000        0.0000000000000000     
  0.90625000000000000       0.62500000000000000        0.0000000000000000     
  0.93750000000000000       0.62500000000000000        0.0000000000000000     
  0.96875000000000000       0.62500000000000000        0.0000000000000000     
   1.0000000000000000       0.62500000000000000        0.0000000000000000     
  0.87500000000000000       0.65625000000000000        0.0000000000000000     
  0.90625000000000000       0.65625000000000000        0.0000000000000000     
  0.93750000000000000       0.65625000000000000        0.0000000000000000     
  0.96875000000000000       0.65625000000000000        0.0000000000000000     
   1.0000000000000000       0.65625000000000000        0.0000000000000000     
  0.87500000000000000       0.68750000000000000        0.0000000000000000     
  0.90625000000000000       0.68750000000000000        0.0000000000000000     
  0.93750000000000000       0.68750000000000000        0.0000000000000000     
  0.96875000000000000       0.68750000000000000        0.0000000000000000     
   1.0000000000000000       0.68750000000000000        0.0000000000000000     
  0.87500000000000000       0.71875000000000000        0.0000000000000000     
  0.90625000000000000       0.71875000000000000        0.0000000000000000     
  0.93750000000000000       0.71875000000000000        0.0000000000000000     
  0.96875000000000000       0.71875000000000000        0.0000000000000000     
   1.0000000000000000       0.71875000000000000        0.0000000000000000     
  0.87500000000000000       0.75000000000000000        0.0000000000000000     
  0.90625000000000000       0.75000000000000000        0.0000000000000000     
  0.93750000000000000       0.75000000000000000        0.0000000000000000     
  0.96875000000000000       0.75000000000000000        0.0000000000000000     
   1.0000000000000000       0.75000000000000000        0.0000000000000000     
   1.0000000000000000       0.62500000000000000        0.0000000000000000     
   1.0312500000000000       0.62500000000000000        0.0000000000000000     
   1.0625000000000000       0.62500000000000000        0.0000000000000000     
   1.0937500000000000       0.62500000000000000        0.0000000000000000     
   1.1250000000000000       0.62500000000000000        0.0000000000000000     
   1.0000000000000000       0.65625000000000000        0.0000000000000000     
   1.0312500000000000       0.65625000000000000        0.0000000000000000     
   1.0625000000000000       0.65625000000000000        0.0000000000000000     
   1.0937500000000000       0.65625000000000000        0.0000000000000000     
   1.1250000000000000       0.65625000000000000        0.0000000000000000     
   1.0000000000000000       0.68750000000000000        0.0000000000000000     
   1.0312500000000000       0.68750000000000000        0.0000000000000000     
   1.0625000000000000       0.68750000000000000        0.0000000000000000     
   1.0937500000000000       0.68750000000000000        0.0000000000000000     
   1.1250000000000000       0.68750000000000000        0.0000000000000000     
   1.0000000000000000       0.71875000000000000        0.0000000000000000     
   1.0312500000000000       0.71875000000000000        0.0000000000000000     
   1.0625000000000000       0.71875000000000000        0.0000000000000000     
   1.0937500000000000       0.71875000000000000        0.0000000000000000     
   1.1250000000000000       0.71875000000000000        0.0000000000000000     
   1.0000000000000000       0.75000000000000000        0.0000000000000000     
   1.0312500000000000       0.75000000000000000        0.0000000000000000     
   1.0625000000000000       0.75000000000000000        0.0000000000000000     
   1.0937500000000000       0.75000000000000000        0.0000000000000000     
   1.1250000000000000       0.75000000000000000        0.0000000000000000     
   1.1250000000000000       0.62500000000000000        0.0000000000000000     
   1.1562500000000000       0.62500000000000000        0.0000000000000000     
   1.1875000000000000       0.62500000000000000        0.0000000000000000     
   1.2187500000000000       0.62500000000000000        0.0000000000000000     
   1.2500000000000000       0.62500000000000000        0.0000000000000000     
   1.1250000000000000       0.65625000000000000        0.0000000000000000     
   1.1562500000000000       0.65625000000000000        0.0000000000000000     
   1.1875000000000000       0.65625000000000000        0.0000000000000000     
   1.2187500000000000       0.65625000000000000        0.0000000000000000     
   1.2500000000000000       0.65625000000000000        0.0000000000000000     
   1.1250000000000000       0.68750000000000000        0.0000000000000000     
   1.1562500000000000       0.68750000000000000        0.0000000000000000     
   1.1875000000000000       0.68750000000000000        0.0000000000000000     
   1.2187500000000000       0.68750000000000000        0.0000000000000000     
   1.2500000000000000       0.68750000000000000        0.0000000000000000     
   1.1250000000000000       0.71875000000000000        0.0000000000000000     
   1.1562500000000000       0.71875000000000000        0.0000000000000000     
   1.1875000000000000       0.71875000000000000        0.0000000000000000     
   1.2187500000000000       0.71875000000000000        0.0000000000000000     
   1.2500000000000000       0.71875000000000000        0.0000000000000000     
   1.1250000000000000       0.75000000000000000        0.0000000000000000     
   1.1562500000000000       0.75000000000000000        0.0000000000000000     
   1.1875000000000000       0.75000000000000000        0.0000000000000000     
   1.2187500000000000       0.75000000000000000        0.0000000000000000     
   1.2500000000000000       0.75000000000000000        0.0000000000000000     
   1.2500000000000000       0.62500000000000000        0.0000000000000000     
   1.2812500000000000       0.62500000000000000        0.0000000000000000     
   1.3125000000000000       0.62500000000000000        0.0000000000000000     
   1.3437500000000000       0.62500000000000000        0.0000000000000000     
   1.3750000000000000       0.62500000000000000        0.0000000000000000     
   1.2500000000000000       0.65625000000000000        0.0000000000000000     
   1.2812500000000000       0.65625000000000000        0.0000000000000000     
   1.3125000000000000       0.65625000000000000        0.0000000000000000     
   1.3437500000000000       0.65625000000000000        0.0000000000000000     
   1.3750000000000000       0.65625000000000000        0.0000000000000000     
   1.2500000000000000       0.68750000000000000        0.0000000000000000     
   1.2812500000000000       0.68750000000000000        0.0000000000000000     
   1.3125000000000000       0.68750000000000000        0.0000000000000000     
   1.3437500000000000       0.68750000000000000        0.0000000000000000     
   1.3750000000000000       0.68750000000000000        0.0000000000000000     
   1.2500000000000000       0.71875000000000000        0.0000000000000000     
   1.2812500000000000       0.71875000000000000        0.0000000000000000     
   1.3125000000000000       0.71875000000000000        0.0000000000000000     
   1.3437500000000000       0.71875000000000000        0.0000000000000000     
   1.3750000000000000       0.71875000000000000        0.0000000000000000     
   1.2500000000000000       0.75000000000000000        0.0000000000000000     
   1.2812500000000000       0.75000000000000000        0.0000000000000000     
   1.3125000000000000       0.75000000000000000        0.0000000000000000     
   1.3437500000000000       0.75000000000000000        0.0000000000000000     
   1.3750000000000000       0.75000000000000000        0.0000000000000000     
   1.3750000000000000       0.62500000000000000        0.0000000000000000     
   1.4062500000000000       0.62500000000000000        0.0000000000000000     
   1.4375000000000000       0.62500000000000000        0.0000000000000000     
   1.4687500000000000       0.62500000000000000        0.0000000000000000     
   1.5000000000000000       0.62500000000000000        0.0000000000000000     
   1.3750000000000000       0.65625000000000000        0.0000000000000000     
   1.4062500000000000       0.65625000000000000        0.0000000000000000     
   1.4375000000000000       0.65625000000000000        0.0000000000000000     
   1.4687500000000000       0.65625000000000000        0.0000000000000000     
   1.5000000000000000       0.65625000000000000        0.0000000000000000     
   1.3750000000000000       0.68750000000000000        0.0000000000000000     
   1.4062500000000000       0.68750000000000000        0.0000000000000000     
   1.4375000000000000       0.68750000000000000        0.0000000000000000     
   1.4687500000000000       0.68750000000000000        0.0000000000000000     
   1.5000000000000000       0.68750000000000000        0.0000000000000000     
   1.3750000000000000       0.71875000000000000        0.0000000000000000     
   1.4062500000000000       0.71875000000000000        0.0000000000000000     
   1.4375000000000000       0.71875000000000000        0.0000000000000000     
   1.4687500000000000       0.71875000000000000        0.0000000000000000     
   1.5000000000000000       0.71875000000000000        0.0000000000000000     
   1.3750000000000000       0.75000000000000000        0.0000000000000000     
   1.4062500000000000       0.75000000000000000        0.0000000000000000     
   1.4375000000000000       0.75000000000000000        0.0000000000000000     
   1.4687500000000000       0.75000000000000000        0.0000000000000000     
   1.5000000000000000       0.75000000000000000        0.0000000000000000     
  0.50000000000000000       0.75000000000000000        0.0000000000000000     
  0.53125000000000000       0.75000000000000000        0.0000000000000000     
  0.56250000000000000       0.75000000000000000        0.0000000000000000     
  0.59375000000000000       0.75000000000000000        0.0000000000000000     
  0.62500000000000000       0.75000000000000000        0.0000000000000000     
  0.50000000000000000       0.78125000000000000        0.0000000000000000     
  0.53125000000000000       0.78125000000000000        0.0000000000000000     
  0.56250000000000000       0.78125000000000000        0.0000000000000000     
  0.59375000000000000       0.78125000000000000        0.0000000000000000     
  0.62500000000000000       0.78125000000000000        0.0000000000000000     
  0.50000000000000000       0.81250000000000000        0.0000000000000000     
  0.53125000000000000       0.81250000000000000        0.0000000000000000     
  0.56250000000000000       0.81250000000000000        0.0000000000000000     
  0.59375000000000000       0.81250000000000000        0.0000000000000000     
  0.62500000000000000       0.81250000000000000        0.0000000000000000     
  0.50000000000000000       0.84375000000000000        0.0000000000000000     
  0.53125000000000000       0.84375000000000000        0.0000000000000000     
  0.56250000000000000       0.84375000000000000        0.0000000000000000     
  0.59375000000000000       0.84375000000000000        0.0000000000000000     
  0.62500000000000000       0.84375000000000000        0.0000000000000000     
  0.50000000000000000       0.87500000000000000        0.0000000000000000     
  0.53125000000000000       0.87500000000000000        0.0000000000000000     
  0.56250000000000000       0.87500000000000000        0.0000000000000000     
  0.59375000000000000       0.87500000000000000        0.0000000000000000     
  0.62500000000000000       0.87500000000000000        0.0000000000000000     
  0.62500000000000000       0.75000000000000000        0.0000000000000000     
  0.65625000000000000       0.75000000000000000        0.0000000000000000     
  0.68750000000000000       0.75000000000000000        0.0000000000000000     
  0.71875000000000000       0.75000000000000000        0.0000000000000000     
  0.75000000000000000       0.75000000000000000        0.0000000000000000     
  0.62500000000000000       0.78125000000000000        0.0000000000000000     
  0.65625000000000000       0.78125000000000000        0.0000000000000000     
  0.68750000000000000       0.78125000000000000        0.0000000000000000     
  0.71875000000000000       0.78125000000000000        0.0000000000000000     
  0.75000000000000000       0.78125000000000000        0.0000000000000000     
  0.62500000000000000       0.81250000000000000        0.0000000000000000     
  0.65625000000000000       0.81250000000000000        0.0000000000000000     
  0.68750000000000000       0.81250000000000000        0.0000000000000000     
  0.71875000000000000       0.81250000000000000        0.0000000000000000     
  0.75000000000000000       0.81250000000000000        0.0000000000000000     
  0.62500000000000000       0.84375000000000000        0.0000000000000000     
  0.65625000000000000       0.84375000000000000        0.0000000000000000     
  0.68750000000000000       0.84375000000000000        0.0000000000000000     
  0.71875000000000000       0.84375000000000000        0.0000000000000000     
  0.75000000000000000       0.84375000000000000        0.0000000000000000     
  0.62500000000000000       0.87500000000000000        0.0000000000000000     
  0.65625000000000000       0.87500000000000000        0.0000000000000000     
  0.68750000000000000       0.87500000000000000        0.0000000000000000     
  0.71875000000000000       0.87500000000000000        0.0000000000000000     
  0.75000000000000000       0.87500000000000000        0.0000000000000000     
  0.75000000000000000       0.75000000000000000        0.0000000000000000     
  0.78125000000000000       0.75000000000000000        0.0000000000000000     
  0.81250000000000000       0.75000000000000000        0.0000000000000000     
  0.84375000000000000       0.75000000000000000        0.0000000000000000     
  0.87500000000000000       0.75000000000000000        0.0000000000000000     
  0.75000000000000000       0.78125000000000000        0.0000000000000000     
  0.78125000000000000       0.78125000000000000        0.0000000000000000     
  0.81250000000000000       0.78125000000000000        0.0000000000000000     
  0.84375000000000000       0.78125000000000000        0.0000000000000000     
  0.87500000000000000       0.78125000000000000        0.0000000000000000     
  0.75000000000000000       0.81250000000000000        0.0000000000000000     
  0.78125000000000000       0.81250000000000000        0.0000000000000000     
  0.81250000000000000       0.81250000000000000        0.0000000000000000     
  0.84375000000000000       0.81250000000000000        0.0000000000000000     
  0.87500000000000000       0.81250000000000000        0.0000000000000000     
  0.75000000000000000       0.84375000000000000        0.0000000000000000     
  0.78125000000000000       0.84375000000000000        0.0000000000000000     
  0.81250000000000000       0.84375000000000000        0.0000000000000000     
  0.84375000000000000       0.84375000000000000        0.0000000000000000     
  0.87500000000000000       0.84375000000000000        0.0000000000000000     
  0.75000000000000000       0.87500000000000000        0.0000000000000000     
  0.78125000000000000       0.87500000000000000        0.0000000000000000     
  0.81250000000000000       0.87500000000000000        0.0000000000000000     
  0.84375000000000000       0.87500000000000000        0.0000000000000000     
  0.87500000000000000       0.87500000000000000        0.0000000000000000     
  0.87500000000000000       0.75000000000000000        0.0000000000000000     
  0.90625000000000000       0.75000000000000000        0.0000000000000000     
  0.93750000000000000       0.75000000000000000        0.0000000000000000     
  0.96875000000000000       0.75000000000000000        0.0000000000000000     
   1.0000000000000000       0.75000000000000000        0.0000000000000000     
  0.87500000000000000       0.78125000000000000        0.0000000000000000     
  0.90625000000000000       0.78125000000000000        0.0000000000000000     
  0.93750000000000000       0.78125000000000000        0.0000000000000000     
  0.96875000000000000       0.78125000000000000        0.0000000000000000     
   1.0000000000000000       0.78125000000000000        0.0000000000000000     
  0.87500000000000000       0.81250000000000000        0.0000000000000000     
  0.90625000000000000       0.81250000000000000        0.0000000000000000     
  0.93750000000000000       0.81250000000000000        0.0000000000000000     
  0.96875000000000000       0.81250000000000000        0.0000000000000000     
   1.0000000000000000       0.81250000000000000        0.0000000000000000     
  0.87500000000000000       0.84375000000000000        0.0000000000000000     
  0.90625000000000000       0.84375000000000000        0.0000000000000000     
  0.93750000000000000       0.84375000000000000        0.0000000000000000     
  0.96875000000000000       0.84375000000000000        0.0000000000000000     
   1.0000000000000000       0.84375000000000000        0.0000000000000000     
  0.87500000000000000       0.87500000000000000        0.0000000000000000     
  0.90625000000000000       0.87500000000000000        0.0000000000000000     
  0.93750000000000000       0.87500000000000000        0.0000000000000000     
  0.96875000000000000       0.87500000000000000        0.0000000000000000     
   1.0000000000000000       0.87500000000000000        0.0000000000000000     
   1.0000000000000000       0.75000000000000000        0.0000000000000000     
   1.0312500000000000       0.75000000000000000        0.0000000000000000     
   1.0625000000000000       0.75000000000000000        0.0000000000000000     
   1.0937500000000000       0.75000000000000000        0.0000000000000000     
   1.1250000000000000       0.75000000000000000        0.0000000000000000     
   1.0000000000000000       0.78125000000000000        0.0000000000000000     
   1.0312500000000000       0.78125000000000000        0.0000000000000000     
   1.0625000000000000       0.78125000000000000        0.0000000000000000     
   1.0937500000000000       0.78125000000000000        0.0000000000000000     
   1.1250000000000000       0.78125000000000000        0.0000000000000000     
   1.0000000000000000       0.81250000000000000        0.0000000000000000     
   1.0312500000000000       0.81250000000000000        0.0000000000000000     
   1.0625000000000000       0.81250000000000000        0.0000000000000000     
   1.0937500000000000       0.81250000000000000        0.0000000000000000     
   1.1250000000000000       0.81250000000000000        0.0000000000000000     
   1.0000000000000000       0.84375000000000000        0.0000000000000000     
   1.0312500000000000       0.84375000000000000        0.0000000000000000     
   1.0625000000000000       0.84375000000000000        0.0000000000000000     
   1.0937500000000000       0.84375000000000000        0.0000000000000000     
   1.1250000000000000       0.84375000000000000        0.0000000000000000     
   1.0000000000000000       0.87500000000000000        0.0000000000000000     
   1.0312500000000000       0.87500000000000000        0.0000000000000000     
   1.0625000000000000       0.87500000000000000        0.0000000000000000     
   1.0937500000000000       0.87500000000000000        0.0000000000000000     
   1.1250000000000000       0.87500000000000000        0.0000000000000000     
   1.1250000000000000       0.75000000000000000        0.0000000000000000     
   1.1562500000000000       0.75000000000000000        0.0000000000000000     
   1.1875000000000000       0.75000000000000000        0.0000000000000000     
   1.2187500000000000       0.75000000000000000        0.0000000000000000     
   1.2500000000000000       0.75000000000000000        0.0000000000000000     
   1.1250000000000000       0.78125000000000000        0.0000000000000000     
   1.1562500000000000       0.78125000000000000        0.0000000000000000     
   1.1875000000000000       0.78125000000000000        0.0000000000000000     
   1.2187500000000000       0.78125000000000000        0.0000000000000000     
   1.2500000000000000       0.78125000000000000        0.0000000000000000     
   1.1250000000000000       0.81250000000000000        0.0000000000000000     
   1.1562500000000000       0.81250000000000000        0.0000000000000000     
   1.1875000000000000       0.81250000000000000        0.0000000000000000     
   1.2187500000000000       0.81250000000000000        0.0000000000000000     
   1.2500000000000000       0.81250000000000000        0.0000000000000000     
   1.1250000000000000       0.84375000000000000        0.0000000000000000     
   1.1562500000000000       0.84375000000000000        0.0000000000000000     
   1.1875000000000000       0.84375000000000000        0.0000000000000000     
   1.2187500000000000       0.84375000000000000        0.0000000000000000     
   1.2500000000000000       0.84375000000000000        0.0000000000000000     
   1.1250000000000000       0.87500000000000000        0.0000000000000000     
   1.1562500000000000       0.87500000000000000        0.0000000000000000     
   1.1875000000000000       0.87500000000000000        0.0000000000000000     
   1.2187500000000000       0.87500000000000000        0.0000000000000000     
   1.2500000000000000       0.87500000000000000        0.0000000000000000     
   1.2500000000000000       0.75000000000000000        0.0000000000000000     
   1.2812500000000000       0.75000000000000000        0.0000000000000000     
   1.3125000000000000       0.75000000000000000        0.0000000000000000     
   1.3437500000000000       0.75000000000000000        0.0000000000000000     
   1.3750000000000000       0.75000000000000000        0.0000000000000000     
   1.2500000000000000       0.78125000000000000        0.0000000000000000     
   1.2812500000000000       0.78125000000000000        0.0000000000000000     
   1.3125000000000000       0.78125000000000000        0.0000000000000000     
   1.3437500000000000       0.78125000000000000        0.0000000000000000     
   1.3750000000000000       0.78125000000000000        0.0000000000000000     
   1.2500000000000000       0.81250000000000000        0.0000000000000000     
   1.2812500000000000       0.81250000000000000        0.0000000000000000     
   1.3125000000000000       0.81250000000000000        0.0000000000000000     
   1.3437500000000000       0.81250000000000000        0.0000000000000000     
   1.3750000000000000       0.81250000000000000        0.0000000000000000     
   1.2500000000000000       0.84375000000000000        0.0000000000000000     
   1.2812500000000000       0.84375000000000000        0.0000000000000000     
   1.3125000000000000       0.84375000000000000        0.0000000000000000     
   1.3437500000000000       0.84375000000000000        0.0000000000000000     
   1.3750000000000000       0.84375000000000000        0.0000000000000000     
   1.2500000000000000       0.87500000000000000        0.0000000000000000     
   1.2812500000000000       0.87500000000000000        0.0000000000000000     
   1.3125000000000000       0.87500000000000000        0.0000000000000000     
   1.3437500000000000       0.87500000000000000        0.0000000000000000     
   1.3750000000000000       0.87500000000000000        0.0000000000000000     
   1.3750000000000000       0.75000000000000000        0.0000000000000000     
   1.4062500000000000       0.75000000000000000        0.0000000000000000     
   1.4375000000000000       0.75000000000000000        0.0000000000000000     
   1.4687500000000000       0.75000000000000000        0.0000000000000000     
   1.5000000000000000       0.75000000000000000        0.0000000000000000     
   1.3750000000000000       0.78125000000000000        0.0000000000000000     
   1.4062500000000000       0.78125000000000000        0.0000000000000000     
   1.4375000000000000       0.78125000000000000        0.0000000000000000     
   1.4687500000000000       0.78125000000000000        0.0000000000000000     
   1.5000000000000000       0.78125000000000000        0.0000000000000000     
   1.3750000000000000       0.81250000000000000        0.0000000000000000     
   1.4062500000000000       0.81250000000000000        0.0000000000000000     
   1.4375000000000000       0.81250000000000000        0.0000000000000000     
   1.4687500000000000       0.81250000000000000        0.0000000000000000     
   1.5000000000000000       0.81250000000000000        0.0000000000000000     
   1.3750000000000000       0.84375000000000000        0.0000000000000000     
   1.4062500000000000       0.84375000000000000        0.0000000000000000     
   1.4375000000000000       0.84375000000000000        0.0000000000000000     
   1.4687500000000000       0.84375000000000000        0.0000000000000000     
   1.5000000000000000       0.84375000000000000        0.0000000000000000     
   1.3750000000000000       0.87500000000000000        0.0000000000000000     
   1.4062500000000000       0.87500000000000000        0.0000000000000000     
   1.4375000000000000       0.87500000000000000        0.0000000000000000     
   1.4687500000000000       0.87500000000000000        0.0000000000000000     
   1.5000000000000000       0.87500000000000000        0.0000000000000000     
  0.50000000000000000       0.87500000000000000        0.0000000000000000     
  0.53125000000000000       0.87500000000000000        0.0000000000000000     
  0.56250000000000000       0.87500000000000000        0.0000000000000000     
  0.59375000000000000       0.87500000000000000        0.0000000000000000     
  0.62500000000000000       0.87500000000000000        0.0000000000000000     
  0.50000000000000000       0.90625000000000000        0.0000000000000000     
  0.53125000000000000       0.90625000000000000        0.0000000000000000     
  0.56250000000000000       0.90625000000000000        0.0000000000000000     
  0.59375000000000000       0.90625000000000000        0.0000000000000000     
  0.62500000000000000       0.90625000000000000        0.0000000000000000     
  0.50000000000000000       0.93750000000000000        0.0000000000000000     
  0.53125000000000000       0.93750000000000000        0.0000000000000000     
  0.56250000000000000       0.93750000000000000        0.0000000000000000     
  0.59375000000000000       0.93750000000000000        0.0000000000000000     
  0.62500000000000000       0.93750000000000000        0.0000000000000000     
  0.50000000000000000       0.96875000000000000        0.0000000000000000     
  0.53125000000000000       0.96875000000000000        0.0000000000000000     
  0.56250000000000000       0.96875000000000000        0.0000000000000000     
  0.59375000000000000       0.96875000000000000        0.0000000000000000     
  0.62500000000000000       0.96875000000000000        0.0000000000000000     
  0.50000000000000000        1.0000000000000000        0.0000000000000000     
  0.53125000000000000        1.0000000000000000        0.0000000000000000     
  0.56250000000000000        1.0000000000000000        0.0000000000000000     
  0.59375000000000000        1.0000000000000000        0.0000000000000000     
  0.62500000000000000        1.0000000000000000        0.0000000000000000     
  0.62500000000000000       0.87500000000000000        0.0000000000000000     
  0.65625000000000000       0.87500000000000000        0.0000000000000000     
  0.68750000000000000       0.87500000000000000        0.0000000000000000     
  0.71875000000000000       0.87500000000000000        0.0000000000000000     
  0.75000000000000000       0.87500000000000000        0.0000000000000000     
  0.62500000000000000       0.90625000000000000        0.0000000000000000     
  0.65625000000000000       0.90625000000000000        0.0000000000000000     
  0.68750000000000000       0.90625000000000000        0.0000000000000000     
  0.71875000000000000       0.90625000000000000        0.0000000000000000     
  0.75000000000000000       0.90625000000000000        0.0000000000000000     
  0.62500000000000000       0.93750000000000000        0.0000000000000000     
  0.65625000000000000       0.93750000000000000        0.0000000000000000     
  0.68750000000000000       0.93750000000000000        0.0000000000000000     
  0.71875000000000000       0.93750000000000000        0.0000000000000000     
  0.75000000000000000       0.93750000000000000        0.0000000000000000     
  0.62500000000000000       0.96875000000000000        0.0000000000000000     
  0.65625000000000000       0.96875000000000000        0.0000000000000000     
  0.68750000000000000       0.96875000000000000        0.0000000000000000     
  0.71875000000000000       0.96875000000000000        0.0000000000000000     
  0.75000000000000000       0.96875000000000000        0.0000000000000000     
  0.62500000000000000        1.0000000000000000        0.0000000000000000     
  0.65625000000000000        1.0000000000000000        0.0000000000000000     
  0.68750000000000000        1.0000000000000000        0.0000000000000000     
  0.71875000000000000        1.0000000000000000        0.0000000000000000     
  0.75000000000000000        1.0000000000000000        0.0000000000000000     
  0.75000000000000000       0.87500000000000000        0.0000000000000000     
  0.78125000000000000       0.87500000000000000        0.0000000000000000     
  0.81250000000000000       0.87500000000000000        0.0000000000000000     
  0.84375000000000000       0.87500000000000000        0.0000000000000000     
  0.87500000000000000       0.87500000000000000        0.0000000000000000     
  0.75000000000000000       0.90625000000000000        0.0000000000000000     
  0.78125000000000000       0.90625000000000000        0.0000000000000000     
  0.81250000000000000       0.90625000000000000        0.0000000000000000     
  0.84375000000000000       0.90625000000000000        0.0000000000000000     
  0.87500000000000000       0.90625000000000000        0.0000000000000000     
  0.75000000000000000       0.93750000000000000        0.0000000000000000     
  0.78125000000000000       0.93750000000000000        0.0000000000000000     
  0.81250000000000000       0.93750000000000000        0.0000000000000000     
  0.84375000000000000       0.93750000000000000        0.0000000000000000     
  0.87500000000000000       0.93750000000000000        0.0000000000000000     
  0.75000000000000000       0.96875000000000000        0.0000000000000000     
  0.78125000000000000       0.96875000000000000        0.0000000000000000     
  0.81250000000000000       0.96875000000000000        0.0000000000000000     
  0.84375000000000000       0.96875000000000000        0.0000000000000000     
  0.87500000000000000       0.96875000000000000        0.0000000000000000     
  0.75000000000000000        1.0000000000000000        0.0000000000000000     
  0.78125000000000000        1.0000000000000000        0.0000000000000000     
  0.81250000000000000        1.0000000000000000        0.0000000000000000     
  0.84375000000000000        1.0000000000000000        0.0000000000000000     
  0.87500000000000000        1.0000000000000000        0.0000000000000000     
  0.87500000000000000       0.87500000000000000        0.0000000000000000     
  0.90625000000000000       0.87500000000000000        0.0000000000000000     
  0.93750000000000000       0.87500000000000000        0.0000000000000000     
  0.96875000000000000       0.87500000000000000        0.0000000000000000     
   1.0000000000000000       0.87500000000000000        0.0000000000000000     
  0.87500000000000000       0.90625000000000000        0.0000000000000000     
  0.90625000000000000       0.90625000000000000        0.0000000000000000     
  0.93750000000000000       0.90625000000000000        0.0000000000000000     
  0.96875000000000000       0.90625000000000000        0.0000000000000000     
   1.0000000000000000       0.90625000000000000        0.0000000000000000     
  0.87500000000000000       0.93750000000000000        0.0000000000000000     
  0.90625000000000000       0.93750000000000000        0.0000000000000000     
  0.93750000000000000       0.93750000000000000        0.0000000000000000     
  0.96875000000000000       0.93750000000000000        0.0000000000000000     
   1.0000000000000000       0.93750000000000000        0.0000000000000000     
  0.87500000000000000       0.96875000000000000        0.0000000000000000     
  0.90625000000000000       0.96875000000000000        0.0000000000000000     
  0.93750000000000000       0.96875000000000000        0.0000000000000000     
  0.96875000000000000       0.96875000000000000        0.0000000000000000     
   1.0000000000000000       0.96875000000000000        0.0000000000000000     
  0.87500000000000000        1.0000000000000000        0.0000000000000000     
  0.90625000000000000        1.0000000000000000        0.0000000000000000     
  0.93750000000000000        1.0000000000000000        0.0000000000000000     
  0.96875000000000000        1.0000000000000000        0.0000000000000000     
   1.0000000000000000        1.0000000000000000        0.0000000000000000     
   1.0000000000000000       0.87500000000000000        0.0000000000000000     
   1.0312500000000000       0.87500000000000000        0.0000000000000000     
   1.0625000000000000       0.87500000000000000        0.0000000000000000     
   1.0937500000000000       0.87500000000000000        0.0000000000000000     
   1.1250000000000000       0.87500000000000000        0.0000000000000000     
   1.0000000000000000       0.90625000000000000        0.0000000000000000     
   1.0312500000000000       0.90625000000000000        0.0000000000000000     
   1.0625000000000000       0.90625000000000000        0.0000000000000000     
   1.0937500000000000       0.90625000000000000        0.0000000000000000     
   1.1250000000000000       0.90625000000000000        0.0000000000000000     
   1.0000000000000000       0.93750000000000000        0.0000000000000000     
   1.0312500000000000       0.93750000000000000        0.0000000000000000     
   1.0625000000000000       0.93750000000000000        0.0000000000000000     
   1.0937500000000000       0.93750000000000000        0.0000000000000000     
   1.1250000000000000       0.93750000000000000        0.0000000000000000     
   1.0000000000000000       0.96875000000000000        0.0000000000000000     
   1.0312500000000000       0.96875000000000000        0.0000000000000000     
   1.0625000000000000       0.96875000000000000        0.0000000000000000     
   1.0937500000000000       0.96875000000000000        0.0000000000000000     
   1.1250000000000000       0.96875000000000000        0.0000000000000000     
   1.0000000000000000        1.0000000000000000        0.0000000000000000     
   1.0312500000000000        1.0000000000000000        0.0000000000000000     
   1.0625000000000000        1.0000000000000000        0.0000000000000000     
   1.0937500000000000        1.0000000000000000        0.0000000000000000     
   1.1250000000000000        1.0000000000000000        0.0000000000000000     
   1.1250000000000000       0.87500000000000000        0.0000000000000000     
   1.1562500000000000       0.87500000000000000        0.0000000000000000     
   1.1875000000000000       0.87500000000000000        0.0000000000000000     
   1.2187500000000000       0.87500000000000000        0.0000000000000000     
   1.2500000000000000       0.87500000000000000        0.0000000000000000     
   1.1250000000000000       0.90625000000000000        0.0000000000000000     
   1.1562500000000000       0.90625000000000000        0.0000000000000000     
   1.1875000000000000       0.90625000000000000        0.0000000000000000     
   1.2187500000000000       0.90625000000000000        0.0000000000000000     
   1.2500000000000000       0.90625000000000000        0.0000000000000000     
   1.1250000000000000       0.93750000000000000        0.0000000000000000     
   1.1562500000000000       0.93750000000000000        0.0000000000000000     
   1.1875000000000000       0.93750000000000000        0.0000000000000000     
   1.2187500000000000       0.93750000000000000        0.0000000000000000     
   1.2500000000000000       0.93750000000000000        0.0000000000000000     
   1.1250000000000000       0.96875000000000000        0.0000000000000000     
   1.1562500000000000       0.96875000000000000        0.0000000000000000     
   1.1875000000000000       0.96875000000000000        0.0000000000000000     
   1.2187500000000000       0.96875000000000000        0.0000000000000000     
   1.2500000000000000       0.96875000000000000        0.0000000000000000     
   1.1250000000000000        1.0000000000000000        0.0000000000000000     
   1.1562500000000000        1.0000000000000000        0.0000000000000000     
   1.1875000000000000        1.0000000000000000        0.0000000000000000     
   1.2187500000000000        1.0000000000000000        0.0000000000000000     
   1.2500000000000000        1.0000000000000000        0.0000000000000000     
   1.2500000000000000       0.87500000000000000        0.0000000000000000     
   1.2812500000000000       0.87500000000000000        0.0000000000000000     
   1.3125000000000000       0.87500000000000000        0.0000000000000000     
   1.3437500000000000       0.87500000000000000        0.0000000000000000     
   1.3750000000000000       0.87500000000000000        0.0000000000000000     
   1.2500000000000000       0.90625000000000000        0.0000000000000000     
   1.2812500000000000       0.90625000000000000        0.0000000000000000     
   1.3125000000000000       0.90625000000000000        0.0000000000000000     
   1.3437500000000000       0.90625000000000000        0.0000000000000000     
   1.3750000000000000       0.90625000000000000        0.0000000000000000     
   1.2500000000000000       0.93750000000000000        0.0000000000000000     
   1.2812500000000000       0.93750000000000000        0.0000000000000000     
   1.3125000000000000       0.93750000000000000        0.0000000000000000     
   1.3437500000000000       0.93750000000000000        0.0000000000000000     
   1.3750000000000000       0.93750000000000000        0.0000000000000000     
   1.2500000000000000       0.96875000000000000        0.0000000000000000     
   1.2812500000000000       0.96875000000000000        0.0000000000000000     
   1.3125000000000000       0.96875000000000000        0.0000000000000000     
   1.3437500000000000       0.96875000000000000        0.0000000000000000     
   1.3750000000000000       0.96875000000000000        0.0000000000000000     
   1.2500000000000000        1.0000000000000000        0.0000000000000000     
   1.2812500000000000        1.0000000000000000        0.0000000000000000     
   1.3125000000000000        1.0000000000000000        0.0000000000000000     
   1.3437500000000000        1.0000000000000000        0.0000000000000000     
   1.3750000000000000        1.0000000000000000        0.0000000000000000     
   1.3750000000000000       0.87500000000000000        0.0000000000000000     
   1.4062500000000000       0.87500000000000000        0.0000000000000000     
   1.4375000000000000       0.87500000000000000        0.0000000000000000     
   1.4687500000000000       0.87500000000000000        0.0000000000000000     
   1.5000000000000000       0.87500000000000000        0.0000000000000000     
   1.3750000000000000       0.90625000000000000        0.0000000000000000     
   1.4062500000000000       0.90625000000000000        0.0000000000000000     
   1.4375000000000000       0.90625000000000000        0.0000000000000000     
   1.4687500000000000       0.90625000000000000        0.0000000000000000     
   1.5000000000000000       0.90625000000000000        0.0000000000000000     
   1.3750000000000000       0.93750000000000000        0.0000000000000000     
   1.4062500000000000       0.93750000000000000        0.0000000000000000     
   1.4375000000000000       0.93750000000000000        0.0000000000000000     
   1.4687500000000000       0.93750000000000000        0.0000000000000000     
   1.5000000000000000       0.93750000000000000        0.0000000000000000     
   1.3750000000000000       0.96875000000000000        0.0000000000000000     
   1.4062500000000000       0.96875000000000000        0.0000000000000000     
   1.4375000000000000       0.96875000000000000        0.0000000000000000     
   1.4687500000000000       0.96875000000000000        0.0000000000000000     
   1.5000000000000000       0.96875000000000000        0.0000000000000000     
   1.3750000000000000        1.0000000000000000        0.0000000000000000     
   1.4062500000000000        1.0000000000000000        0.0000000000000000     
   1.4375000000000000        1.0000000000000000        0.0000000000000000     
   1.4687500000000000        1.0000000000000000        0.0000000000000000     
   1.5000000000000000        1.0000000000000000        0.0000000000000000     
 </DataArray>
 </Points>
 <Cells>
 <DataArray  type="Int32"  Name="connectivity"  format="ascii">
           0           1           6           5
           1           2           7           6
           2           3           8           7
           3           4           9           8
           5           6          11          10
           6           7          12          11
           7           8          13          12
           8           9          14          13
          10          11          16          15
          11          12          17          16
          12          13          18          17
          13          14          19          18
          15          16          21          20
          16          17          22          21
          17          18          23          22
          18          19          24          23
          25          26          31          30
          26          27          32          31
          27          28          33          32
          28          29          34          33
          30          31          36          35
          31          32          37          36
          32          33          38          37
          33          34          39          38
          35          36          41          40
          36          37          42          41
          37          38          43          42
          38          39          44          43
          40          41          46          45
          41          42          47          46
          42          43          48          47
          43          44          49          48
          50          51          56          55
          51          52          57          56
          52          53          58          57
          53          54          59          58
          55          56          61          60
          56          57          62          61
          57          58          63          62
          58          59          64          63
          60          61          66          65
          61          62          67          66
          62          63          68          67
          63          64          69          68
          65          66          71          70
          66          67          72          71
          67          68          73          72
          68          69          74          73
          75          76          81          80
          76          77          82          81
          77          78          83          82
          78          79          84          83
          80          81          86          85
          81          82          87          86
          82          83          88          87
          83          84          89          88
          85          86          91          90
          86          87          92          91
          87          88          93          92
          88          89          94          93
          90          91          96          95
          91          92          97          96
          92          93          98          97
          93          94          99          98
         100         101         106         105
         101         102         107         106
         102         103         108         107
         103         104         109         108
         105         106         111         110
         106         107         112         111
         107         108         113         112
         108         109         114         113
         110         111         116         115
         111         112         117         116
         112         113         118         117
         113         114         119         118
         115         116         121         120
         116         117         122         121
         117         118         123         122
         118         119         124         123
         125         126         131         130
         126         127         132         131
         127         128         133         132
         128         129         134         133
         130         131         136         135
         131         132         137         136
         132         133         138         137
         133         134         139         138
         135         136         141         140
         136         137         142         141
         137         138         143         142
         138         139         144         143
         140         141         146         145
         141         142         147         146
         142         143         148         147
         143         144         149         148
         150         151         156         155
         151         152         157         156
         152         153         158         157
         153         154         159         158
         155         156         161         160
         156         157         162         161
         157         158         163         162
         158         159         164         163
         160         161         166         165
         161         162         167         166
         162         163         168         167
         163         164         169         168
         165         166         171         170
         166         167         172         171
         167         168         173         172
         168         169         174         173
         175         176         181         180
         176         177         182         181
         177         178         183         182
         178         179         184         183
         180         181         186         185
         181         182         187         186
         182         183         188         187
         183         184         189         188
         185         186         191         190
         186         187         192         191
         187         188         193         192
         188         189         194         193
         190         191         196         195
         191         192         197         196
         192         193         198         197
         193         194         199         198
         200         201         206         205
         201         202         207         206
         202         203         208         207
         203         204         209         208
         205         206         211         210
         206         207         212         211
         207         208         213         212
         208         209         214         213
         210         211         216         215
         211         212         217         216
         212         213         218         217
         213         214         219         218
         215         216         221         220
         216         217         222         221
         217         218         223         222
         218         219         224         223
         225         226         231         230
         226         227         232         231
         227         228         233         232
         228         229         234         233
         230         231         236         235
         231         232         237         236
         232         233         238         237
         233         234         239         238
         235         236         241         240
         236         237         242         241
         237         238         243         242
         238         239         244         243
         240         241         246         245
         241         242         247         246
         242         243         248         247
         243         244         249         248
         250         251         256         255
         251         252         257         256
         252         253         258         257
         253         254         259         258
         255         256         261         260
         256         257         262         261
         257         258         263         262
         258         259         264         263
         260         261         266         265
         261         262         267         266
         262         263         268         267
         263         264         269         268
         265         266         271         270
         266         267         272         271
         267         268         273         272
         268         269         274         273
         275         276         281         280
         276         277         282         281
         277         278         283         282
         278         279         284         283
         280         281         286         285
         281         282         287         286
         282         283         288         287
         283         284         289         288
         285         286         291         290
         286         287         292         291
         287         288         293         292
         288         289         294         293
         290         291         296         295
         291         292         297         296
         292         293         298         297
         293         294         299         298
         300         301         306         305
         301         302         307         306
         302         303         308         307
         303         304         309         308
         305         306         311         310
         306         307         312         311
         307         308         313         312
         308         309         314         313
         310         311         316         315
         311         312         317         316
         312         313         318         317
         313         314         319         318
         315         316         321         320
         316         317         322         321
         317         318         323         322
         318         319         324         323
         325         326         331         330
         326         327         332         331
         327         328         333         332
         328         329         334         333
         330         331         336         335
         331         332         337         336
         332         333         338         337
         333         334         339         338
         335         336         341         340
         336         337         342         341
         337         338         343         342
         338         339         344         343
         340         341         346         345
         341         342         347         346
         342         343         348         347
         343         344         349         348
         350         351         356         355
         351         352         357         356
         352         353         358         357
         353         354         359         358
         355         356         361         360
         356         357         362         361
         357         358         363         362
         358         359         364         363
         360         361         366         365
         361         362         367         366
         362         363         368         367
         363         364         369         368
         365         366         371         370
         366         367         372         371
         367         368         373         372
         368         369         374         373
         375         376         381         380
         376         377         382         381
         377         378         383         382
         378         379         384         383
         380         381         386         385
         381         382         387         386
         382         383         388         387
         383         384         389         388
         385         386         391         390
         386         387         392         391
         387         388         393         392
         388         389         394         393
         390         391         396         395
         391         392         397         396
         392         393         398         397
         393         394         399         398
         400         401         406         405
         401         402         407         406
         402         403         408         407
         403         404         409         408
         405         406         411         410
         406         407         412         411
         407         408         413         412
         408         409         414         413
         410         411         416         415
         411         412         417         416
         412         413         418         417
         413         414         419         418
         415         416         421         420
         416         417         422         421
         417         418         423         422
         418         419         424         423
         425         426         431         430
         426         427         432         431
         427         428         433         432
         428         429         434         433
         430         431         436         435
         431         432         437         436
         432         433         438         437
         433         434         439         438
         435         436         441         440
         436         437         442         441
         437         438         443         442
         438         439         444         443
         440         441         446         445
         441         442         447         446
         442         443         448         447
         443         444         449         448
         450         451         456         455
         451         452         457         456
         452         453         458         457
         453         454         459         458
         455         456         461         460
         456         457         462         461
         457         458         463         462
         458         459         464         463
         460         461         466         465
         461         462         467         466
         462         463         468         467
         463         464         469         468
         465         466         471         470
         466         467         472         471
         467         468         473         472
         468         469         474         473
         475         476         481         480
         476         477         482         481
         477         478         483         482
         478         479         484         483
         480         481         486         485
         481         482         487         486
         482         483         488         487
         483         484         489         488
         485         486         491         490
         486         487         492         491
         487         488         493         492
         488         489         494         493
         490         491         496         495
         491         492         497         496
         492         493         498         497
         493         494         499         498
         500         501         506         505
         501         502         507         506
         502         503         508         507
         503         504         509         508
         505         506         511         510
         506         507         512         511
         507         508         513         512
         508         509         514         513
         510         511         516         515
         511         512         517         516
         512         513         518         517
         513         514         519         518
         515         516         521         520
         516         517         522         521
         517         518         523         522
         518         519         524         523
         525         526         531         530
         526         527         532         531
         527         528         533         532
         528         529         534         533
         530         531         536         535
         531         532         537         536
         532         533         538         537
         533         534         539         538
         535         536         541         540
         536         537         542         541
         537         538         543         542
         538         539         544         543
         540         541         546         545
         541         542         547         546
         542         543         548         547
         543         544         549         548
         550         551         556         555
         551         552         557         556
         552         553         558         557
         553         554         559         558
         555         556         561         560
         556         557         562         561
         557         558         563         562
         558         559         564         563
         560         561         566         565
         561         562         567         566
         562         563         568         567
         563         564         569         568
         565         566         571         570
         566         567         572         571
         567         568         573         572
         568         569         574         573
         575         576         581         580
         576         577         582         581
         577         578         583         582
         578         579         584         583
         580         581         586         585
         581         582         587         586
         582         583         588         587
         583         584         589         588
         585         586         591         590
         586         587         592         591
         587         588         593         592
         588         589         594         593
         590         591         596         595
         591         592         597         596
         592         593         598         597
         593         594         599         598
         600         601         606         605
         601         602         607         606
         602         603         608         607
         603         604         609         608
         605         606         611         610
         606         607         612         611
         607         608         613         612
         608         609         614         613
         610         611         616         615
         611         612         617         616
         612         613         618         617
         613         614         619         618
         615         616         621         620
         616         617         622         621
         617         618         623         622
         618         619         624         623
         625         626         631         630
         626         627         632         631
         627         628         633         632
         628         629         634         633
         630         631         636         635
         631         632         637         636
         632         633         638         637
         633         634         639         638
         635         636         641         640
         636         637         642         641
         637         638         643         642
         638         639         644         643
         640         641         646         645
         641         642         647         646
         642         643         648         647
         643         644         649         648
         650         651         656         655
         651         652         657         656
         652         653         658         657
         653         654         659         658
         655         656         661         660
         656         657         662         661
         657         658         663         662
         658         659         664         663
         660         661         666         665
         661         662         667         666
         662         663         668         667
         663         664         669         668
         665         666         671         670
         666         667         672         671
         667         668         673         672
         668         669         674         673
         675         676         681         680
         676         677         682         681
         677         678         683         682
         678         679         684         683
         680         681         686         685
         681         682         687         686
         682         683         688         687
         683         684         689         688
         685         686         691         690
         686         687         692         691
         687         688         693         692
         688         689         694         693
         690         691         696         695
         691         692         697         696
         692         693         698         697
         693         694         699         698
         700         701         706         705
         701         702         707         706
         702         703         708         707
         703         704         709         708
         705         706         711         710
         706         707         712         711
         707         708         713         712
         708         709         714         713
         710         711         716         715
         711         712         717         716
         712         713         718         717
         713         714         719         718
         715         716         721         720
         716         717         722         721
         717         718         723         722
         718         719         724         723
         725         726         731         730
         726         727         732         731
         727         728         733         732
         728         729         734         733
         730         731         736         735
         731         732         737         736
         732         733         738         737
         733         734         739         738
         735         736         741         740
         736         737         742         741
         737         738         743         742
         738         739         744         743
         740         741         746         745
         741         742         747         746
         742         743         748         747
         743         744         749         748
         750         751         756         755
         751         752         757         756
         752         753         758         757
         753         754         759         758
         755         756         761         760
         756         757         762         761
         757         758         763         762
         758         759         764         763
         760         761         766         765
         761         762         767         766
         762         763         768         767
         763         764         769         768
         765         766         771         770
         766         767         772         771
         767         768         773         772
         768         769         774         773
         775         776         781         780
         776         777         782         781
         777         778         783         782
         778         779         784         783
         780         781         786         785
         781         782         787         786
         782         783         788         787
         783         784         789         788
         785         786         791         790
         786         787         792         791
         787         788         793         792
         788         789         794         793
         790         791         796         795
         791         792         797         796
         792         793         798         797
         793         794         799         798
         800         801         806         805
         801         802         807         806
         802         803         808         807
         803         804         809         808
         805         806         811         810
         806         807         812         811
         807         808         813         812
         808         809         814         813
         810         811         816         815
         811         812         817         816
         812         813         818         817
         813         814         819         818
         815         816         821         820
         816         817         822         821
         817         818         823         822
         818         819         824         823
         825         826         831         830
         826         827         832         831
         827         828         833         832
         828         829         834         833
         830         831         836         835
         831         832         837         836
         832         833         838         837
         833         834         839         838
         835         836         841         840
         836         837         842         841
         837         838         843         842
         838         839         844         843
         840         841         846         845
         841         842         847         846
         842         843         848         847
         843         844         849         848
         850         851         856         855
         851         852         857         856
         852         853         858         857
         853         854         859         858
         855         856         861         860
         856         857         862         861
         857         858         863         862
         858         859         864         863
         860         861         866         865
         861         862         867         866
         862         863         868         867
         863         864         869         868
         865         866         871         870
         866         867         872         871
         867         868         873         872
         868         869         874         873
         875         876         881         880
         876         877         882         881
         877         878         883         882
         878         879         884         883
         880         881         886         885
         881         882         887         886
         882         883         888         887
         883         884         889         888
         885         886         891         890
         886         887         892         891
         887         888         893         892
         888         889         894         893
         890         891         896         895
         891         892         897         896
         892         893         898         897
         893         894         899         898
         900         901         906         905
         901         902         907         906
         902         903         908         907
         903         904         909         908
         905         906         911         910
         906         907         912         911
         907         908         913         912
         908         909         914         913
         910         911         916         915
         911         912         917         916
         912         913         918         917
         913         914         919         918
         915         916         921         920
         916         917         922         921
         917         918         923         922
         918         919         924         923
         925         926         931         930
         926         927         932         931
         927         928         933         932
         928         929         934         933
         930         931         936         935
         931         932         937         936
         932         933         938         937
         933         934         939         938
         935         936         941         940
         936         937         942         941
         937         938         943         942
         938         939         944         943
         940         941         946         945
         941         942         947         946
         942         943         948         947
         943         944         949         948
         950         951         956         955
         951         952         957         956
         952         953         958         957
         953         954         959         958
         955         956         961         960
         956         957         962         961
         957         958         963         962
         958         959         964         963
         960         961         966         965
         961         962         967         966
         962         963         968         967
         963         964         969         968
         965         966         971         970
         966         967         972         971
         967         968         973         972
         968         969         974         973
         975         976         981         980
         976         977         982         981
         977         978         983         982
         978         979         984         983
         980         981         986         985
         981         982         987         986
         982         983         988         987
         983         984         989         988
         985         986         991         990
         986         987         992         991
         987         988         993         992
         988         989         994         993
         990         991         996         995
         991         992         997         996
         992         993         998         997
         993         994         999         998
        1000        1001        1006        1005
        1001        1002        1007        1006
        1002        1003        1008        1007
        1003        1004        1009        1008
        1005        1006        1011        1010
        1006        1007        1012        1011
        1007        1008        1013        1012
        1008        1009        1014        1013
        1010        1011        1016        1015
        1011        1012        1017        1016
        1012        1013        1018        1017
        1013        1014        1019        1018
        1015        1016        1021        1020
        1016        1017        1022        1021
        1017        1018        1023        1022
        1018        1019        1024        1023
        1025        1026        1031        1030
        1026        1027        1032        1031
        1027        1028        1033        1032
        1028        1029        1034        1033
        1030        1031        1036        1035
        1031        1032        1037        1036
        1032        1033        1038        1037
        1033        1034        1039        1038
        1035        1036        1041        1040
        1036        1037        1042        1041
        1037        1038        1043        1042
        1038        1039        1044        1043
        1040        1041        1046        1045
        1041        1042        1047        1046
        1042        1043        1048        1047
        1043        1044        1049        1048
        1050        1051        1056        1055
        1051        1052        1057        1056
        1052        1053        1058        1057
        1053        1054        1059        1058
        1055        1056        1061        1060
        1056        1057        1062        1061
        1057        1058        1063        1062
        1058        1059        1064        1063
        1060        1061        1066        1065
        1061        1062        1067        1066
        1062        1063        1068        1067
        1063        1064        1069        1068
        1065        1066        1071        1070
        1066        1067        1072        1071
        1067        1068        1073        1072
        1068        1069        1074        1073
        1075        1076        1081        1080
        1076        1077        1082        1081
        1077        1078        1083        1082
        1078        1079        1084        1083
        1080        1081        1086        1085
        1081        1082        1087        1086
        1082        1083        1088        1087
        1083        1084        1089        1088
        1085        1086        1091        1090
        1086        1087        1092        1091
        1087        1088        1093        1092
        1088        1089        1094        1093
        1090        1091        1096        1095
        1091        1092        1097        1096
        1092        1093        1098        1097
        1093        1094        1099        1098
        1100        1101        1106        1105
        1101        1102        1107        1106
        1102        1103        1108        1107
        1103        1104        1109        1108
        1105        1106        1111        1110
        1106        1107        1112        1111
        1107        1108        1113        1112
        1108        1109        1114        1113
        1110        1111        1116        1115
        1111        1112        1117        1116
        1112        1113        1118        1117
        1113        1114        1119        1118
        1115        1116        1121        1120
        1116        1117        1122        1121
        1117        1118        1123        1122
        1118        1119        1124        1123
        1125        1126        1131        1130
        1126        1127        1132        1131
        1127        1128        1133        1132
        1128        1129        1134        1133
        1130        1131        1136        1135
        1131        1132        1137        1136
        1132        1133        1138        1137
        1133        1134        1139        1138
        1135        1136        1141        1140
        1136        1137        1142        1141
        1137        1138        1143        1142
        1138        1139        1144        1143
        1140        1141        1146        1145
        1141        1142        1147        1146
        1142        1143        1148        1147
        1143        1144        1149        1148
        1150        1151        1156        1155
        1151        1152        1157        1156
        1152        1153        1158        1157
        1153        1154        1159        1158
        1155        1156        1161        1160
        1156        1157        1162        1161
        1157        1158        1163        1162
        1158        1159        1164        1163
        1160        1161        1166        1165
        1161        1162        1167        1166
        1162        1163        1168        1167
        1163        1164        1169        1168
        1165        1166        1171        1170
        1166        1167        1172        1171
        1167        1168        1173        1172
        1168        1169        1174        1173
        1175        1176        1181        1180
        1176        1177        1182        1181
        1177        1178        1183        1182
        1178        1179        1184        1183
        1180        1181        1186        1185
        1181        1182        1187        1186
        1182        1183        1188        1187
        1183        1184        1189        1188
        1185        1186        1191        1190
        1186        1187        1192        1191
        1187        1188        1193        1192
        1188        1189        1194        1193
        1190        1191        1196        1195
        1191        1192        1197        1196
        1192        1193        1198        1197
        1193        1194        1199        1198
        1200        1201        1206        1205
        1201        1202        1207        1206
        1202        1203        1208        1207
        1203        1204        1209        1208
        1205        1206        1211        1210
        1206        1207        1212        1211
        1207        1208        1213        1212
        1208        1209        1214        1213
        1210        1211        1216        1215
        1211        1212        1217        1216
        1212        1213        1218        1217
        1213        1214        1219        1218
        1215        1216        1221        1220
        1216        1217        1222        1221
        1217        1218        1223        1222
        1218        1219        1224        1223
        1225        1226        1231        1230
        1226        1227        1232        1231
        1227        1228        1233        1232
        1228        1229        1234        1233
        1230        1231        1236        1235
        1231        1232        1237        1236
        1232        1233        1238        1237
        1233        1234        1239        1238
        1235        1236        1241        1240
        1236        1237        1242        1241
        1237        1238        1243        1242
        1238        1239        1244        1243
        1240        1241        1246        1245
        1241        1242        1247        1246
        1242        1243        1248        1247
        1243        1244        1249        1248
        1250        1251        1256        1255
        1251        1252        1257        1256
        1252        1253        1258        1257
        1253        1254        1259        1258
        1255        1256        1261        1260
        1256        1257        1262        1261
        1257        1258        1263        1262
        1258        1259        1264        1263
        1260        1261        1266        1265
        1261        1262        1267        1266
        1262        1263        1268        1267
        1263        1264        1269        1268
        1265        1266        1271        1270
        1266        1267        1272        1271
        1267        1268        1273        1272
        1268        1269        1274        1273
        1275        1276        1281        1280
        1276        1277        1282        1281
        1277        1278        1283        1282
        1278        1279        1284        1283
        1280        1281        1286        1285
        1281        1282        1287        1286
        1282        1283        1288        1287
        1283        1284        1289        1288
        1285        1286        1291        1290
        1286        1287        1292        1291
        1287        1288        1293        1292
        1288        1289        1294        1293
        1290        1291        1296        1295
        1291        1292        1297        1296
        1292        1293        1298        1297
        1293        1294        1299        1298
        1300        1301        1306        1305
        1301        1302        1307        1306
        1302        1303        1308        1307
        1303        1304        1309        1308
        1305        1306        1311        1310
        1306        1307        1312        1311
        1307        1308        1313        1312
        1308        1309        1314        1313
        1310        1311        1316        1315
        1311        1312        1317        1316
        1312        1313        1318        1317
        1313        1314        1319        1318
        1315        1316        1321        1320
        1316        1317        1322        1321
        1317        1318        1323        1322
        1318        1319        1324        1323
        1325        1326        1331        1330
        1326        1327        1332        1331
        1327        1328        1333        1332
        1328        1329        1334        1333
        1330        1331        1336        1335
        1331        1332        1337        1336
        1332        1333        1338        1337
        1333        1334        1339        1338
        1335        1336        1341        1340
        1336        1337        1342        1341
        1337        1338        1343        1342
        1338        1339        1344        1343
        1340        1341        1346        1345
        1341        1342        1347        1346
        1342        1343        1348        1347
        1343        1344        1349        1348
        1350        1351        1356        1355
        1351        1352        1357        1356
        1352        1353        1358        1357
        1353        1354        1359        1358
        1355        1356        1361        1360
        1356        1357        1362        1361
        1357        1358        1363        1362
        1358        1359        1364        1363
        1360        1361        1366        1365
        1361        1362        1367        1366
        1362        1363        1368        1367
        1363        1364        1369        1368
        1365        1366        1371        1370
        1366        1367        1372        1371
        1367        1368        1373        1372
        1368        1369        1374        1373
        1375        1376        1381        1380
        1376        1377        1382        1381
        1377        1378        1383        1382
        1378        1379        1384        1383
        1380        1381        1386        1385
        1381        1382        1387        1386
        1382        1383        1388        1387
        1383        1384        1389        1388
        1385        1386        1391        1390
        1386        1387        1392        1391
        1387        1388        1393        1392
        1388        1389        1394        1393
        1390        1391        1396        1395
        1391        1392        1397        1396
        1392        1393        1398        1397
        1393        1394        1399        1398
        1400        1401        1406        1405
        1401        1402        1407        1406
        1402        1403        1408        1407
        1403        1404        1409        1408
        1405        1406        1411        1410
        1406        1407        1412        1411
        1407        1408        1413        1412
        1408        1409        1414        1413
        1410        1411        1416        1415
        1411        1412        1417        1416
        1412        1413        1418        1417
        1413        1414        1419        1418
        1415        1416        1421        1420
        1416        1417        1422        1421
        1417        1418        1423        1422
        1418        1419        1424        1423
        1425        1426        1431        1430
        1426        1427        1432        1431
        1427        1428        1433        1432
        1428        1429        1434        1433
        1430        1431        1436        1435
        1431        1432        1437        1436
        1432        1433        1438        1437
        1433        1434        1439        1438
        1435        1436        1441        1440
        1436        1437        1442        1441
        1437        1438        1443        1442
        1438        1439        1444        1443
        1440        1441        1446        1445
        1441        1442        1447        1446
        1442        1443        1448        1447
        1443        1444        1449        1448
        1450        1451        1456        1455
        1451        1452        1457        1456
        1452        1453        1458        1457
        1453        1454        1459        1458
        1455        1456        1461        1460
        1456        1457        1462        1461
        1457        1458        1463        1462
        1458        1459        1464        1463
        1460        1461        1466        1465
        1461        1462        1467        1466
        1462        1463        1468        1467
        1463        1464        1469        1468
        1465        1466        1471        1470
        1466        1467        1472        1471
        1467        1468        1473        1472
        1468        1469        1474        1473
        1475        1476        1481        1480
        1476        1477        1482        1481
        1477        1478        1483        1482
        1478        1479        1484        1483
        1480        1481        1486        1485
        1481        1482        1487        1486
        1482        1483        1488        1487
        1483        1484        1489        1488
        1485        1486        1491        1490
        1486        1487        1492        1491
        1487        1488        1493        1492
        1488        1489        1494        1493
        1490        1491        1496        1495
        1491        1492        1497        1496
        1492        1493        1498        1497
        1493        1494        1499        1498
        1500        1501        1506        1505
        1501        1502        1507        1506
        1502        1503        1508        1507
        1503        1504        1509        1508
        1505        1506        1511        1510
        1506        1507        1512        1511
        1507        1508        1513        1512
        1508        1509        1514        1513
        1510        1511        1516        1515
        1511        1512        1517        1516
        1512        1513        1518        1517
        1513        1514        1519        1518
        1515        1516        1521        1520
        1516        1517        1522        1521
        1517        1518        1523        1522
        1518        1519        1524        1523
        1525        1526        1531        1530
        1526        1527        1532        1531
        1527        1528        1533        1532
        1528        1529        1534        1533
        1530        1531        1536        1535
        1531        1532        1537        1536
        1532        1533        1538        1537
        1533        1534        1539        1538
        1535        1536        1541        1540
        1536        1537        1542        1541
        1537        1538        1543        1542
        1538        1539        1544        1543
        1540        1541        1546        1545
        1541        1542        1547        1546
        1542        1543        1548        1547
        1543        1544        1549        1548
        1550        1551        1556        1555
        1551        1552        1557        1556
        1552        1553        1558        1557
        1553        1554        1559        1558
        1555        1556        1561        1560
        1556        1557        1562        1561
        1557        1558        1563        1562
        1558        1559        1564        1563
        1560        1561        1566        1565
        1561        1562        1567        1566
        1562        1563        1568        1567
        1563        1564        1569        1568
        1565        1566        1571        1570
        1566        1567        1572        1571
        1567        1568        1573        1572
        1568        1569        1574        1573
        1575        1576        1581        1580
        1576        1577        1582        1581
        1577        1578        1583        1582
        1578        1579        1584        1583
        1580        1581        1586        1585
        1581        1582        1587        1586
        1582        1583        1588        1587
        1583        1584        1589        1588
        1585        1586        1591        1590
        1586        1587        1592        1591
        1587        1588        1593        1592
        1588        1589        1594        1593
        1590        1591        1596        1595
        1591        1592        1597        1596
        1592        1593        1598        1597
        1593        1594        1599        1598
 </DataArray>
 <DataArray  type="Int32"  Name="offsets"  format="ascii"> 
           4
           8
          12
          16
          20
          24
          28
          32
          36
          40
          44
          48
          52
          56
          60
          64
          68
          72
          76
          80
          84
          88
          92
          96
         100
         104
         108
         112
         116
         120
         124
         128
         132
         136
         140
         144
         148
         152
         156
         160
         164
         168
         172
         176
         180
         184
         188
         192
         196
         200
         204
         208
         212
         216
         220
         224
         228
         232
         236
         240
         244
         248
         252
         256
         260
         264
         268
         272
         276
         280
         284
         288
         292
         296
         300
         304
         308
         312
         316
         320
         324
         328
         332
         336
         340
         344
         348
         352
         356
         360
         364
         368
         372
         376
         380
         384
         388
         392
         396
         400
         404
         408
         412
         416
         420
         424
         428
         432
         436
         440
         444
         448
         452
         456
         460
         464
         468
         472
         476
         480
         484
         488
         492
         496
         500
         504
         508
         512
         516
         520
         524
         528
         532
         536
         540
         544
         548
         552
         556
         560
         564
         568
         572
         576
         580
         584
         588
         592
         596
         600
         604
         608
         612
         616
         620
         624
         628
         632
         636
         640
         644
         648
         652
         656
         660
         664
         668
         672
         676
         680
         684
         688
         692
         696
         700
         704
         708
         712
         716
         720
         724
         728
         732
         736
         740
         744
         748
         752
         756
         760
         764
         768
         772
         776
         780
         784
         788
         792
         796
         800
         804
         808
         812
         816
         820
         824
         828
         832
         836
         840
         844
         848
         852
         856
         860
         864
         868
         872
         876
         880
         884
         888
         892
         896
         900
         904
         908
         912
         916
         920
         924
         928
         932
         936
         940
         944
         948
         952
         956
         960
         964
         968
         972
         976
         980
         984
         988
         992
         996
        1000
        1004
        1008
        1012
        1016
        1020
        1024
        1028
        1032
        1036
        1040
        1044
        1048
        1052
        1056
        1060
        1064
        1068
        1072
        1076
        1080
        1084
        1088
        1092
        1096
        1100
        1104
        1108
        1112
        1116
        1120
        1124
        1128
        1132
        1136
        1140
        1144
        1148
        1152
        1156
        1160
        1164
        1168
        1172
        1176
        1180
        1184
        1188
        1192
        1196
        1200
        1204
        1208
        1212
        1216
        1220
        1224
        1228
        1232
        1236
        1240
        1244
        1248
        1252
        1256
        1260
        1264
        1268
        1272
        1276
        1280
        1284
        1288
        1292
        1296
        1300
        1304
        1308
        1312
        1316
        1320
        1324
        1328
        1332
        1336
        1340
        1344
        1348
        1352
        1356
        1360
        1364
        1368
        1372
        1376
        1380
        1384
        1388
        1392
        1396
        1400
        1404
        1408
        1412
        1416
        1420
        1424
        1428
        1432
        1436
        1440
        1444
        1448
        1452
        1456
        1460
        1464
        1468
        1472
        1476
        1480
        1484
        1488
        1492
        1496
        1500
        1504
        1508
        1512
        1516
        1520
        1524
        1528
        1532
        1536
        1540
        1544
        1548
        1552
        1556
        1560
        1564
        1568
        1572
        1576
        1580
        1584
        1588
        1592
        1596
        1600
        1604
        1608
        1612
        1616
        1620
        1624
        1628
        1632
        1636
        1640
        1644
        1648
        1652
        1656
        1660
        1664
        1668
        1672
        1676
        1680
        1684
        1688
        1692
        1696
        1700
        1704
        1708
        1712
        1716
        1720
        1724
        1728
        1732
        1736
        1740
        1744
        1748
        1752
        1756
        1760
        1764
        1768
        1772
        1776
        1780
        1784
        1788
        1792
        1796
        1800
        1804
        1808
        1812
        1816
        1820
        1824
        1828
        1832
        1836
        1840
        1844
        1848
        1852
        1856
        1860
        1864
        1868
        1872
        1876
        1880
        1884
        1888
        1892
        1896
        1900
        1904
        1908
        1912
        1916
        1920
        1924
        1928
        1932
        1936
        1940
        1944
        1948
        1952
        1956
        1960
        1964
        1968
        1972
        1976
        1980
        1984
        1988
        1992
        1996
        2000
        2004
        2008
        2012
        2016
        2020
        2024
        2028
        2032
        2036
        2040
        2044
        2048
        2052
        2056
        2060
        2064
        2068
        2072
        2076
        2080
        2084
        2088
        2092
        2096
        2100
        2104
        2108
        2112
        2116
        2120
        2124
        2128
        2132
        2136
        2140
        2144
        2148
        2152
        2156
        2160
        2164
        2168
        2172
        2176
        2180
        2184
        2188
        2192
        2196
        2200
        2204
        2208
        2212
        2216
        2220
        2224
        2228
        2232
        2236
        2240
        2244
        2248
        2252
        2256
        2260
        2264
        2268
        2272
        2276
        2280
        2284
        2288
        2292
        2296
        2300
        2304
        2308
        2312
        2316
        2320
        2324
        2328
        2332
        2336
        2340
        2344
        2348
        2352
        2356
        2360
        2364
        2368
        2372
        2376
        2380
        2384
        2388
        2392
        2396
        2400
        2404
        2408
        2412
        2416
        2420
        2424
        2428
        2432
        2436
        2440
        2444
        2448
        2452
        2456
        2460
        2464
        2468
        2472
        2476
        2480
        2484
        2488
        2492
        2496
        2500
        2504
        2508
        2512
        2516
        2520
        2524
        2528
        2532
        2536
        2540
        2544
        2548
        2552
        2556
        2560
        2564
        2568
        2572
        2576
        2580
        2584
        2588
        2592
        2596
        2600
        2604
        2608
        2612
        2616
        2620
        2624
        2628
        2632
        2636
        2640
        2644
        2648
        2652
        2656
        2660
        2664
        2668
        2672
        2676
        2680
        2684
        2688
        2692
        2696
        2700
        2704
        2708
        2712
        2716
        2720
        2724
        2728
        2732
        2736
        2740
        2744
        2748
        2752
        2756
        2760
        2764
        2768
        2772
        2776
        2780
        2784
        2788
        2792
        2796
        2800
        2804
        2808
        2812
        2816
        2820
        2824
        2828
        2832
        2836
        2840
        2844
        2848
        2852
        2856
        2860
        2864
        2868
        2872
        2876
        2880
        2884
        2888
        2892
        2896
        2900
        2904
        2908
        2912
        2916
        2920
        2924
        2928
        2932
        2936
        2940
        2944
        2948
        2952
        2956
        2960
        2964
        2968
        2972
        2976
        2980
        2984
        2988
        2992
        2996
        3000
        3004
        3008
        3012
        3016
        3020
        3024
        3028
        3032
        3036
        3040
        3044
        3048
        3052
        3056
        3060
        3064
        3068
        3072
        3076
        3080
        3084
        3088
        3092
        3096
        3100
        3104
        3108
        3112
        3116
        3120
        3124
        3128
        3132
        3136
        3140
        3144
        3148
        3152
        3156
        3160
        3164
        3168
        3172
        3176
        3180
        3184
        3188
        3192
        3196
        3200
        3204
        3208
        3212
        3216
        3220
        3224
        3228
        3232
        3236
        3240
        3244
        3248
        3252
        3256
        3260
        3264
        3268
        3272
        3276
        3280
        3284
        3288
        3292
        3296
        3300
        3304
        3308
        3312
        3316
        3320
        3324
        3328
        3332
        3336
        3340
        3344
        3348
        3352
        3356
        3360
        3364
        3368
        3372
        3376
        3380
        3384
        3388
        3392
        3396
        3400
        3404
        3408
        3412
        3416
        3420
        3424
        3428
        3432
        3436
        3440
        3444
        3448
        3452
        3456
        3460
        3464
        3468
        3472
        3476
        3480
        3484
        3488
        3492
        3496
        3500
        3504
        3508
        3512
        3516
        3520
        3524
        3528
        3532
        3536
        3540
        3544
        3548
        3552
        3556
        3560
        3564
        3568
        3572
        3576
        3580
        3584
        3588
        3592
        3596
        3600
        3604
        3608
        3612
        3616
        3620
        3624
        3628
        3632
        3636
        3640
        3644
        3648
        3652
        3656
        3660
        3664
        3668
        3672
        3676
        3680
        3684
        3688
        3692
        3696
        3700
        3704
        3708
        3712
        3716
        3720
        3724
        3728
        3732
        3736
        3740
        3744
        3748
        3752
        3756
        3760
        3764
        3768
        3772
        3776
        3780
        3784
        3788
        3792
        3796
        3800
        3804
        3808
        3812
        3816
        3820
        3824
        3828
        3832
        3836
        3840
        3844
        3848
        3852
        3856
        3860
        3864
        3868
        3872
        3876
        3880
        3884
        3888
        3892
        3896
        3900
        3904
        3908
        3912
        3916
        3920
        3924
        3928
        3932
        3936
        3940
        3944
        3948
        3952
        3956
        3960
        3964
        3968
        3972
        3976
        3980
        3984
        3988
        3992
        3996
        4000
        4004
        4008
        4012
        4016
        4020
        4024
        4028
        4032
        4036
        4040
        4044
        4048
        4052
        4056
        4060
        4064
        4068
        4072
        4076
        4080
        4084
        4088
        4092
        4096
 </DataArray>
 <DataArray  type="UInt8"  Name="types"  format="ascii">
 9
 9
 9
 9
 9
 9
 9
 9
 9
 9
 9
 9
 9
 9
 9
 9
 9
 9
 9
 9
 9
 9
 9
 9
 9
 9
 9
 9
 9
 9
 9
 9
 9
 9
 9
 9
 9
 9
 9
 9
 9
 9
 9
 9
 9
 9
 9
 9
 9
 9
 9
 9
 9
 9
 9
 9
 9
 9
 9
 9
 9
 9
 9
 9
 9
 9
 9
 9
 9
 9
 9
 9
 9
 9
 9
 9
 9
 9
 9
 9
 9
 9
 9
 9
 9
 9
 9
 9
 9
 9
 9
 9
 9
 9
 9
 9
 9
 9
 9
 9
 9
 9
 9
 9
 9
 9
 9
 9
 9
 9
 9
 9
 9
 9
 9
 9
 9
 9
 9
 9
 9
 9
 9
 9
 9
 9
 9
 9
 9
 9
 9
 9
 9
 9
 9
 9
 9
 9
 9
 9
 9
 9
 9
 9
 9
 9
 9
 9
 9
 9
 9
 9
 9
 9
 9
 9
 9
 9
 9
 9
 9
 9
 9
 9
 9
 9
 9
 9
 9
 9
 9
 9
 9
 9
 9
 9
 9
 9
 9
 9
 9
 9
 9
 9
 9
 9
 9
 9
 9
 9
 9
 9
 9
 9
 9
 9
 9
 9
 9
 9
 9
 9
 9
 9
 9
 9
 9
 9
 9
 9
 9
 9
 9
 9
 9
 9
 9
 9
 9
 9
 9
 9
 9
 9
 9
 9
 9
 9
 9
 9
 9
 9
 9
 9
 9
 9
 9
 9
 9
 9
 9
 9
 9
 9
 9
 9
 9
 9
 9
 9
 9
 9
 9
 9
 9
 9
 9
 9
 9
 9
 9
 9
 9
 9
 9
 9
 9
 9
 9
 9
 9
 9
 9
 9
 9
 9
 9
 9
 9
 9
 9
 9
 9
 9
 9
 9
 9
 9
 9
 9
 9
 9
 9
 9
 9
 9
 9
 9
 9
 9
 9
 9
 9
 9
 9
 9
 9
 9
 9
 9
 9
 9
 9
 9
 9
 9
 9
 9
 9
 9
 9
 9
 9
 9
 9
 9
 9
 9
 9
 9
 9
 9
 9
 9
 9
 9
 9
 9
 9
 9
 9
 9
 9
 9
 9
 9
 9
 9
 9
 9
 9
 9
 9
 9
 9
 9
 9
 9
 9
 9
 9
 9
 9
 9
 9
 9
 9
 9
 9
 9
 9
 9
 9
 9
 9
 9
 9
 9
 9
 9
 9
 9
 9
 9
 9
 9
 9
 9
 9
 9
 9
 9
 9
 9
 9
 9
 9
 9
 9
 9
 9
 9
 9
 9
 9
 9
 9
 9
 9
 9
 9
 9
 9
 9
 9
 9
 9
 9
 9
 9
 9
 9
 9
 9
 9
 9
 9
 9
 9
 9
 9
 9
 9
 9
 9
 9
 9
 9
 9
 9
 9
 9
 9
 9
 9
 9
 9
 9
 9
 9
 9
 9
 9
 9
 9
 9
 9
 9
 9
 9
 9
 9
 9
 9
 9
 9
 9
 9
 9
 9
 9
 9
 9
 9
 9
 9
 9
 9
 9
 9
 9
 9
 9
 9
 9
 9
 9
 9
 9
 9
 9
 9
 9
 9
 9
 9
 9
 9
 9
 9
 9
 9
 9
 9
 9
 9
 9
 9
 9
 9
 9
 9
 9
 9
 9
 9
 9
 9
 9
 9
 9
 9
 9
 9
 9
 9
 9
 9
 9
 9
 9
 9
 9
 9
 9
 9
 9
 9
 9
 9
 9
 9
 9
 9
 9
 9
 9
 9
 9
 9
 9
 9
 9
 9
 9
 9
 9
 9
 9
 9
 9
 9
 9
 9
 9
 9
 9
 9
 9
 9
 9
 9
 9
 9
 9
 9
 9
 9
 9
 9
 9
 9
 9
 9
 9
 9
 9
 9
 9
 9
 9
 9
 9
 9
 9
 9
 9
 9
 9
 9
 9
 9
 9
 9
 9
 9
 9
 9
 9
 9
 9
 9
 9
 9
 9
 9
 9
 9
 9
 9
 9
 9
 9
 9
 9
 9
 9
 9
 9
 9
 9
 9
 9
 9
 9
 9
 9
 9
 9
 9
 9
 9
 9
 9
 9
 9
 9
 9
 9
 9
 9
 9
 9
 9
 9
 9
 9
 9
 9
 9
 9
 9
 9
 9
 9
 9
 9
 9
 9
 9
 9
 9
 9
 9
 9
 9
 9
 9
 9
 9
 9
 9
 9
 9
 9
 9
 9
 9
 9
 9
 9
 9
 9
 9
 9
 9
 9
 9
 9
 9
 9
 9
 9
 9
 9
 9
 9
 9
 9
 9
 9
 9
 9
 9
 9
 9
 9
 9
 9
 9
 9
 9
 9
 9
 9
 9
 9
 9
 9
 9
 9
 9
 9
 9
 9
 9
 9
 9
 9
 9
 9
 9
 9
 9
 9
 9
 9
 9
 9
 9
 9
 9
 9
 9
 9
 9
 9
 9
 9
 9
 9
 9
 9
 9
 9
 9
 9
 9
 9
 9
 9
 9
 9
 9
 9
 9
 9
 9
 9
 9
 9
 9
 9
 9
 9
 9
 9
 9
 9
 9
 9
 9
 9
 9
 9
 9
 9
 9
 9
 9
 9
 9
 9
 9
 9
 9
 9
 9
 9
 9
 9
 9
 9
 9
 9
 9
 9
 9
 9
 9
 9
 9
 9
 9
 9
 9
 9
 9
 9
 9
 9
 9
 9
 9
 9
 9
 9
 9
 9
 9
 9
 9
 9
 9
 9
 9
 9
 9
 9
 9
 9
 9
 9
 9
 9
 9
 9
 9
 9
 9
 9
 9
 9
 9
 9
 9
 9
 9
 9
 9
 9
 9
 9
 9
 9
 9
 9
 9
 9
 9
 9
 9
 9
 9
 9
 9
 9
 9
 9
 9
 9
 9
 9
 9
 9
 9
 9
 9
 9
 9
 9
 9
 9
 9
 9
 9
 9
 9
 9
 9
 9
 9
 9
 9
 9
 9
 9
 9
 9
 9
 9
 9
 9
 9
 9
 9
 9
 9
 9
 9
 9
 9
 9
 9
 9
 9
 9
 9
 9
 9
 9
 9
 9
 9
 9
 9
 9
 9
 9
 9
 9
 9
 9
 9
 9
 9
 9
 9
 9
 9
 9
 9
 9
 9
 9
 9
 9
 9
 9
 9
 9
 9
 9
 9
 9
 9
 9
 9
 9
 9
 9
 9
 9
 9
 9
 9
 9
 9
 9
 9
 9
 9
 9
 9
 9
 9
 9
 9
 9
 9
 9
 9
 9
 9
 9
 9
 9
 9
 9
 9
 9
 9
 9
 9
 9
 9
 9
 9
 9
 9
 9
 9
 9
 9
 </DataArray>
 </Cells> 
 <PointData>
 <DataArray  type="Float64" Name="disp" NumberOfComponents="3" format="ascii">
   6.5397477883927357E-002   6.2787667070630299E-002   0.0000000000000000     
   6.8418940851570825E-002   6.8179399617157216E-002   0.0000000000000000     
   7.1353939671196895E-002   7.3747927261853877E-002   0.0000000000000000     
   7.4202474342805524E-002   7.9493250004720281E-002   0.0000000000000000     
   7.6964544866396742E-002   8.5415367845756429E-002   0.0000000000000000     
   6.0114900231611645E-002   6.1887321185642857E-002   0.0000000000000000     
   6.2993659174199856E-002   6.7302742184037187E-002   0.0000000000000000     
   6.5778050600149324E-002   7.2896790100738740E-002   0.0000000000000000     
   6.8468074509460033E-002   7.8669464935747516E-002   0.0000000000000000     
   7.1063730902132000E-002   8.4620766689063542E-002   0.0000000000000000     
   5.5084626910143979E-002   6.1042029638922156E-002   0.0000000000000000     
   5.7799670287175600E-002   6.6481448861546610E-002   0.0000000000000000     
   6.0418268705106463E-002   7.2100524886190329E-002   0.0000000000000000     
   6.2940422163936569E-002   7.7899257712853304E-002   0.0000000000000000     
   6.5366130663665922E-002   8.3877647341535549E-002   0.0000000000000000     
   5.0306657919524371E-002   6.0251792430468222E-002   0.0000000000000000     
   5.2836974190498077E-002   6.5715519649685541E-002   0.0000000000000000     
   5.5274593986068335E-002   7.1359131618208657E-002   0.0000000000000000     
   5.7619517306235143E-002   7.7182628336037645E-002   0.0000000000000000     
   5.9871744150998510E-002   8.3186009803172437E-002   0.0000000000000000     
   4.5780993259752802E-002   5.9516609560281028E-002   0.0000000000000000     
   4.8105570884167261E-002   6.5004954548453911E-002   0.0000000000000000     
   5.0347026443034910E-002   7.0672610296793725E-002   0.0000000000000000     
   5.2505359936355751E-002   7.6519576805300513E-002   0.0000000000000000     
   5.4580571364129769E-002   8.2545854073974217E-002   0.0000000000000000     
   7.6964544866396742E-002   8.5415367845756429E-002   0.0000000000000000     
   7.9638550663054600E-002   9.1506064656144470E-002   0.0000000000000000     
   8.2222891153863178E-002   9.7757124307066540E-002   0.0000000000000000     
   8.4717566338822478E-002  0.10416854679852267        0.0000000000000000     
   8.7122576217932485E-002  0.11074033213051282        0.0000000000000000     
   7.1063730902132000E-002   8.4620766689063542E-002   0.0000000000000000     
   7.3570588169598383E-002   9.0741119601615502E-002   0.0000000000000000     
   7.5994214703292359E-002   9.7020947914332162E-002   0.0000000000000000     
   7.8334610503213886E-002  0.10346025162721349        0.0000000000000000     
   8.0591775569363033E-002  0.11005903074025949        0.0000000000000000     
   6.5366130663665922E-002   8.3877647341535549E-002   0.0000000000000000     
   6.7705098380716547E-002   9.0025329763773324E-002   0.0000000000000000     
   6.9967029491510457E-002   9.6331940971102925E-002   0.0000000000000000     
   7.2151923996047640E-002  0.10279748096352437        0.0000000000000000     
   7.4259781894328136E-002  0.10942194974103761        0.0000000000000000     
   5.9871744150998510E-002   8.3186009803172437E-002   0.0000000000000000     
   6.2042081296409077E-002   8.9358695142617892E-002   0.0000000000000000     
   6.4141335518517473E-002   9.5690103477378816E-002   0.0000000000000000     
   6.6169506817323698E-002  0.10218023480745526        0.0000000000000000     
   6.8126595192827766E-002  0.10882908913284718        0.0000000000000000     
   5.4580571364129769E-002   8.2545854073974217E-002   0.0000000000000000     
   5.6581536916675994E-002   8.8741215738149221E-002   0.0000000000000000     
   5.8517132784313433E-002   9.5095435433159903E-002   0.0000000000000000     
   6.0387358967042094E-002  0.10160851315900619        0.0000000000000000     
   6.2192215464861964E-002  0.10828044891568818        0.0000000000000000     
   8.7122576217932485E-002  0.11074033213051282        0.0000000000000000     
   8.9431346612460771E-002  0.11745801592419516        0.0000000000000000     
   9.1637303343674953E-002  0.12430713380072780        0.0000000000000000     
   9.3740446411574974E-002  0.13128768576011074        0.0000000000000000     
   9.5740775816160861E-002  0.13839967180234403        0.0000000000000000     
   8.0591775569363033E-002  0.11005903074025949        0.0000000000000000     
   8.2758816813965130E-002  0.11680355193112310        0.0000000000000000     
   8.4828841149245604E-002  0.12368008187745720        0.0000000000000000     
   8.6801848575204427E-002  0.13068862057926181        0.0000000000000000     
   8.8677839091841612E-002  0.13782916803653689        0.0000000000000000     
   7.4259781894328136E-002  0.10942194974103761        0.0000000000000000     
   7.6283576106852991E-002  0.11619208082329932        0.0000000000000000     
   7.8216279554123372E-002  0.12309460772996612        0.0000000000000000     
   8.0057892236139239E-002  0.13012953046103795        0.0000000000000000     
   8.1808414152900563E-002  0.13729684901651490        0.0000000000000000     
   6.8126595192827766E-002  0.10882908913284718        0.0000000000000000     
   7.0005624491124394E-002  0.11562360260072385        0.0000000000000000     
   7.1799618558308242E-002  0.12255071135825453        0.0000000000000000     
   7.3508577394379368E-002  0.12961041540543927        0.0000000000000000     
   7.5132500999337729E-002  0.13680271474227801        0.0000000000000000     
   6.2192215464861964E-002  0.10828044891568818        0.0000000000000000     
   6.3924961966779270E-002  0.11509811726339667        0.0000000000000000     
   6.5578858161800230E-002  0.12204839276232250        0.0000000000000000     
   6.7153904049924842E-002  0.12913127541246569        0.0000000000000000     
   6.8650099631153094E-002  0.13634676521382627        0.0000000000000000     
   9.5740775816160861E-002  0.13839967180234403        0.0000000000000000     
   9.7644917354153052E-002  0.14563283056745319        0.0000000000000000     
   9.9459496822271981E-002  0.15297690069546394        0.0000000000000000     
  0.10118451422051764       0.16043188218637619        0.0000000000000000     
  0.10281996954889000       0.16799777504019001        0.0000000000000000     
   8.8677839091841612E-002  0.13782916803653689        0.0000000000000000     
   9.0463273494004570E-002  0.14509064293559132        0.0000000000000000     
   9.2164612576540725E-002  0.15246196396273384        0.0000000000000000     
   9.3781856339450062E-002  0.15994313111796457        0.0000000000000000     
   9.5315004782732610E-002  0.16753414440128339        0.0000000000000000     
   8.1808414152900563E-002  0.13729684901651490        0.0000000000000000     
   8.3473866678549002E-002  0.14458499865227017        0.0000000000000000     
   8.5060271187226116E-002  0.15198241462417714        0.0000000000000000     
   8.6567627678931960E-002  0.15948909693223573        0.0000000000000000     
   8.7995936153666493E-002  0.16710504557644595        0.0000000000000000     
   7.5132500999337729E-002  0.13680271474227801        0.0000000000000000     
   7.6676696907786349E-002  0.14411589771748984        0.0000000000000000     
   7.8146472654328197E-002  0.15153825267979368        0.0000000000000000     
   7.9541828238963289E-002  0.15906977962918961        0.0000000000000000     
   8.0862763661691636E-002  0.16671047856567764        0.0000000000000000     
   6.8650099631153094E-002  0.13634676521382627        0.0000000000000000     
   7.0071764181716609E-002  0.14368334013125020        0.0000000000000000     
   7.1423216977846926E-002  0.15112947812958355        0.0000000000000000     
   7.2704458019544088E-002  0.15868517920882635        0.0000000000000000     
   7.3915487306808095E-002  0.16635044336897853        0.0000000000000000     
  0.10281996954889000       0.16799777504019001        0.0000000000000000     
  0.10436753850949151       0.17566376000573100        0.0000000000000000     
  0.10582889680442464       0.18341901783182490        0.0000000000000000     
  0.10720404443368931       0.19126354851847158        0.0000000000000000     
  0.10849298139728558       0.19919735206567118        0.0000000000000000     
   9.5315004782732610E-002  0.16753414440128339        0.0000000000000000     
   9.6763929655465222E-002  0.17522512534721132        0.0000000000000000     
   9.8128502706724782E-002  0.18300619549026922        0.0000000000000000     
   9.9408723936511290E-002  0.19087735483045715        0.0000000000000000     
  0.10060459334482477       0.19883860336777509        0.0000000000000000     
   8.7995936153666493E-002  0.16710504557644595        0.0000000000000000     
   8.9343798029114865E-002  0.17482083788027517        0.0000000000000000     
   9.0609814722962242E-002  0.18262705116719080        0.0000000000000000     
   9.1793986235208638E-002  0.19052368543719278        0.0000000000000000     
   9.2896312565854039E-002  0.19851074069028113        0.0000000000000000     
   8.0862763661691636E-002  0.16671047856567764        0.0000000000000000     
   8.2107143630440485E-002  0.17445089760492269        0.0000000000000000     
   8.3272832853137066E-002  0.18228158486258961        0.0000000000000000     
   8.4359831329781351E-002  0.19020254033867848        0.0000000000000000     
   8.5368139060373396E-002  0.19821376403318924        0.0000000000000000     
   7.3915487306808095E-002  0.16635044336897853        0.0000000000000000     
   7.5053966459442095E-002  0.17411530452115376        0.0000000000000000     
   7.6117557097249197E-002  0.18196979657646564        0.0000000000000000     
   7.7106259220229456E-002  0.18991391953491427        0.0000000000000000     
   7.8020072828382844E-002  0.19794767339649952        0.0000000000000000     
  0.10849298139728558       0.19919735206567118        0.0000000000000000     
  0.10970112429743090       0.20721668241358504        0.0000000000000000     
  0.11083388973634267       0.21531779350237465        0.0000000000000000     
  0.11189127771402094       0.22350068533204001        0.0000000000000000     
  0.11287328823046570       0.23176535790258107        0.0000000000000000     
  0.10060459334482477       0.19883860336777509        0.0000000000000000     
  0.10172170734671625       0.20688365994704269        0.0000000000000000     
  0.10276566235723682       0.21500624341307964        0.0000000000000000     
  0.10373645837638645       0.22320635376588591        0.0000000000000000     
  0.10463409540416516       0.23148399100546152        0.0000000000000000     
   9.2896312565854039E-002  0.19851074069028113        0.0000000000000000     
   9.3921690420914208E-002  0.20658052176987926        0.0000000000000000     
   9.4875016506404924E-002  0.21472533351941051        0.0000000000000000     
   9.5756290822326173E-002  0.22294517593887497        0.0000000000000000     
   9.6565513368677941E-002  0.23124004902827255        0.0000000000000000     
   8.5368139060373396E-002  0.19821376403318924        0.0000000000000000     
   8.6301073520024738E-002  0.20630726788209464        0.0000000000000000     
   8.7161952183846980E-002  0.21447506382136725        0.0000000000000000     
   8.7950775051840069E-002  0.22271715185100710        0.0000000000000000     
   8.8667542124004059E-002  0.23103353197101420        0.0000000000000000     
   7.8020072828382844E-002  0.19794767339649952        0.0000000000000000     
   7.8859856644047877E-002  0.20606389828368887        0.0000000000000000     
   7.9626469389562984E-002  0.21425543431894983        0.0000000000000000     
   8.0319911064928182E-002  0.22252228150228237        0.0000000000000000     
   8.0940181670143496E-002  0.23086443983368643        0.0000000000000000     
  0.11287328823046570       0.23176535790258107        0.0000000000000000     
  0.11380808536575276       0.24012834857382404        0.0000000000000000     
  0.11472383319995791       0.24860619470559495        0.0000000000000000     
  0.11562053173308116       0.25719889629789394        0.0000000000000000     
  0.11649818096512250       0.26590645335072083        0.0000000000000000     
  0.10463409540416516       0.23148399100546152        0.0000000000000000     
  0.10546357384094283       0.23986264436156698        0.0000000000000000     
  0.10622989408708933       0.24836580306396283        0.0000000000000000     
  0.10693305614260466       0.25699346711264898        0.0000000000000000     
  0.10757306000748887       0.26574563650762562        0.0000000000000000     
   9.6565513368677941E-002  0.23124004902827255        0.0000000000000000     
   9.7293493356270577E-002  0.23963643861620049        0.0000000000000000     
   9.7931039995914404E-002  0.24816083053125582        0.0000000000000000     
   9.8478153287609338E-002  0.25681322477343871        0.0000000000000000     
   9.8934833231355476E-002  0.26559362134274894        0.0000000000000000     
   8.8667542124004059E-002  0.23103353197101420        0.0000000000000000     
   8.9297843911736022E-002  0.23944973133772454        0.0000000000000000     
   8.9827270926433070E-002  0.24799127710747412        0.0000000000000000     
   9.0255823168095189E-002  0.25665816928026292        0.0000000000000000     
   9.0583500636722422E-002  0.26545040785609103        0.0000000000000000     
   8.0940181670143496E-002  0.23086443983368643        0.0000000000000000     
   8.1476625507339140E-002  0.23930252252613915        0.0000000000000000     
   8.1918586878645408E-002  0.24785714279261756        0.0000000000000000     
   8.2266065784062231E-002  0.25652830063312171        0.0000000000000000     
   8.2519062223589637E-002  0.26531599604765166        0.0000000000000000     
  0.11649818096512250       0.26590645335072083        0.0000000000000000     
  0.11729714265124941       0.27489346451858304        0.0000000000000000     
  0.11795777854662931       0.28432452845598777        0.0000000000000000     
  0.11848008865126224       0.29419964516293506        0.0000000000000000     
  0.11886407296514818       0.30451881463942493        0.0000000000000000     
  0.10757306000748887       0.26574563650762562        0.0000000000000000     
  0.10813094236440550       0.27475444278367989        0.0000000000000000     
  0.10858773989601828       0.28415201747559921        0.0000000000000000     
  0.10894345260232713       0.29393836058338352        0.0000000000000000     
  0.10919808048333211       0.30411347210703288        0.0000000000000000     
   9.8934833231355476E-002  0.26559362134274894        0.0000000000000000     
   9.9312113047690401E-002  0.27460029540359349        0.0000000000000000     
   9.9621025957151679E-002  0.28393152212037881        0.0000000000000000     
   9.9861571959739326E-002  0.29358730149310508        0.0000000000000000     
  0.10003375105545333       0.30356763352177230        0.0000000000000000     
   9.0583500636722422E-002  0.26545040785609103        0.0000000000000000     
   9.0840654701104084E-002  0.27443102237832379        0.0000000000000000     
   9.1057636730029534E-002  0.28366304239032680        0.0000000000000000     
   9.1234446723498813E-002  0.29314646789209992        0.0000000000000000     
   9.1371084681511866E-002  0.30288129888364324        0.0000000000000000     
   8.2519062223589637E-002  0.26531599604765166        0.0000000000000000     
   8.2716567324646550E-002  0.27424662370787090        0.0000000000000000     
   8.2897572214651855E-002  0.28334657828544291        0.0000000000000000     
   8.3062076893605563E-002  0.29261585978036786        0.0000000000000000     
   8.3210081361507676E-002  0.30205446819264570        0.0000000000000000     
   4.5780993259752802E-002   5.9516609560281028E-002   0.0000000000000000     
   4.8105570884167261E-002   6.5004954548453911E-002   0.0000000000000000     
   5.0347026443034910E-002   7.0672610296793725E-002   0.0000000000000000     
   5.2505359936355751E-002   7.6519576805300513E-002   0.0000000000000000     
   5.4580571364129769E-002   8.2545854073974217E-002   0.0000000000000000     
   4.1429854423579895E-002   5.8839277027213630E-002   0.0000000000000000     
   4.3543936291389113E-002   6.4350695745064732E-002   0.0000000000000000     
   4.5586105964891023E-002   7.0040738113114787E-002   0.0000000000000000     
   4.7556363444085641E-002   7.5909404131363781E-002   0.0000000000000000     
   4.9454708728972958E-002   8.1956693799811714E-002   0.0000000000000000     
   3.7175462903756257E-002   5.8222590830119020E-002   0.0000000000000000     
   3.9090546335369548E-002   6.3753685426730961E-002   0.0000000000000000     
   4.0942372440521492E-002   6.9463292258341067E-002   0.0000000000000000     
   4.2730941219212101E-002   7.5351411324949324E-002   0.0000000000000000     
   4.4456252671441383E-002   8.1418042626555776E-002   0.0000000000000000     
   3.3017818700281892E-002   5.7666550968997241E-002   0.0000000000000000     
   3.4745401016108568E-002   6.3213923593452584E-002   0.0000000000000000     
   3.6415825869926317E-002   6.8940272732472566E-002   0.0000000000000000     
   3.8029093261735140E-002   7.4845598386057144E-002   0.0000000000000000     
   3.9585203191535009E-002   8.0929900554206333E-002   0.0000000000000000     
   2.8956921813156795E-002   5.7171157443848250E-002   0.0000000000000000     
   3.0508500333606196E-002   6.2731410245229630E-002   0.0000000000000000     
   3.2006466253105506E-002   6.8471679535509297E-002   0.0000000000000000     
   3.3450819571654723E-002   7.4391965314687239E-002   0.0000000000000000     
   3.4841560289253865E-002   8.0492267582763469E-002   0.0000000000000000     
   5.4580571364129769E-002   8.2545854073974217E-002   0.0000000000000000     
   5.6581536916675994E-002   8.8741215738149221E-002   0.0000000000000000     
   5.8517132784313433E-002   9.5095435433159903E-002   0.0000000000000000     
   6.0387358967042094E-002  0.10160851315900619        0.0000000000000000     
   6.2192215464861964E-002  0.10828044891568818        0.0000000000000000     
   4.9454708728972958E-002   8.1956693799811714E-002   0.0000000000000000     
   5.1287125938538007E-002   8.8172860023238486E-002   0.0000000000000000     
   5.3059599191765797E-002   9.4548155706423942E-002   0.0000000000000000     
   5.4772128488656334E-002  0.10108258084936812        0.0000000000000000     
   5.6424713829209605E-002  0.10777613545207099        0.0000000000000000     
   4.4456252671441383E-002   8.1418042626555776E-002   0.0000000000000000     
   4.6122509059015840E-002   8.7653596470756795E-002   0.0000000000000000     
   4.7733912643742028E-002   9.4048483165148827E-002   0.0000000000000000     
   4.9290463425619949E-002  0.10060270270973190        0.0000000000000000     
   5.0792161404649601E-002  0.10731625510450600        0.0000000000000000     
   3.9585203191535009E-002   8.0929900554206333E-002   0.0000000000000000     
   4.1087686278109513E-002   8.7183425080704161E-002   0.0000000000000000     
   4.2540073140242156E-002   9.3596417809334545E-002   0.0000000000000000     
   4.3942363777932966E-002  0.10016887874009757        0.0000000000000000     
   4.5294558191181951E-002  0.10690080787299318        0.0000000000000000     
   3.4841560289253865E-002   8.0492267582763469E-002   0.0000000000000000     
   3.6182657595818984E-002   8.6762345853080541E-002   0.0000000000000000     
   3.7478080681266152E-002   9.3191959638981095E-002   0.0000000000000000     
   3.8727829545595373E-002   9.9781108940465088E-002   0.0000000000000000     
   3.9931904188806641E-002  0.10652979375753255        0.0000000000000000     
   6.2192215464861964E-002  0.10828044891568818        0.0000000000000000     
   6.3924961966779270E-002  0.11509811726339667        0.0000000000000000     
   6.5578858161800230E-002  0.12204839276232250        0.0000000000000000     
   6.7153904049924842E-002  0.12913127541246569        0.0000000000000000     
   6.8650099631153094E-002  0.13634676521382627        0.0000000000000000     
   5.6424713829209605E-002  0.10777613545207099        0.0000000000000000     
   5.8010994802788603E-002  0.11461554899410201        0.0000000000000000     
   5.9524610998756278E-002  0.12158755095503060        0.0000000000000000     
   6.0965562417112630E-002  0.12869214133485682        0.0000000000000000     
   6.2333849057857660E-002  0.13592932013358053        0.0000000000000000     
   5.0792161404649601E-002  0.10731625510450600        0.0000000000000000     
   5.2233129268123277E-002  0.11417582197562420        0.0000000000000000     
   5.3607489703333289E-002  0.12116808494923956        0.0000000000000000     
   5.4915242710279630E-002  0.12829304402535210        0.0000000000000000     
   5.6156388288962328E-002  0.13555069920396184        0.0000000000000000     
   4.5294558191181951E-002  0.10690080787299318        0.0000000000000000     
   4.6591365362783313E-002  0.11377893620796317        0.0000000000000000     
   4.7827494275531297E-002  0.12078999474494932        0.0000000000000000     
   4.9002944929425897E-002  0.12793398348395163        0.0000000000000000     
   5.0117717324467112E-002  0.13521090242497008        0.0000000000000000     
   3.9931904188806641E-002  0.10652979375753255        0.0000000000000000     
   4.1085703086768698E-002  0.11342489169111898        0.0000000000000000     
   4.2184624715350290E-002  0.12045328034215992        0.0000000000000000     
   4.3228669074551390E-002  0.12761495971065534        0.0000000000000000     
   4.4217836164372040E-002  0.13490992979660532        0.0000000000000000     
   6.8650099631153094E-002  0.13634676521382627        0.0000000000000000     
   7.0071764181716609E-002  0.14368334013125020        0.0000000000000000     
   7.1423216977846926E-002  0.15112947812958355        0.0000000000000000     
   7.2704458019544088E-002  0.15868517920882635        0.0000000000000000     
   7.3915487306808095E-002  0.16635044336897853        0.0000000000000000     
   6.2333849057857660E-002  0.13592932013358053        0.0000000000000000     
   6.3632797396513452E-002  0.14328786444424671        0.0000000000000000     
   6.4865733908602119E-002  0.15075655135989996        0.0000000000000000     
   6.6032658594123647E-002  0.15833538088054039        0.0000000000000000     
   6.7133571453078023E-002  0.16602435300616797        0.0000000000000000     
   5.6156388288962328E-002  0.13555069920396184        0.0000000000000000     
   5.7333525448350540E-002  0.14293000920717452        0.0000000000000000     
   5.8449253197413509E-002  0.15041993275709600        0.0000000000000000     
   5.9503571536151205E-002  0.15802046985372631        0.0000000000000000     
   6.0496480464563657E-002  0.16573162049706539        0.0000000000000000     
   5.0117717324467112E-002  0.13521090242497008        0.0000000000000000     
   5.1173948337227881E-002  0.14260977442003378        0.0000000000000000     
   5.2173774844281109E-002  0.15011962232117174        0.0000000000000000     
   5.3117196845626810E-002  0.15774044612838414        0.0000000000000000     
   5.4004214341264976E-002  0.16547224584167081        0.0000000000000000     
   4.4217836164372040E-002  0.13490992979660532        0.0000000000000000     
   4.5154066063145461E-002  0.14232716008282439        0.0000000000000000     
   4.6039298849204921E-002  0.14985562005212721        0.0000000000000000     
   4.6873534522550435E-002  0.15749530970451381        0.0000000000000000     
   4.7656773083181989E-002  0.16524622903998418        0.0000000000000000     
   7.3915487306808095E-002  0.16635044336897853        0.0000000000000000     
   7.5053966459442095E-002  0.17411530452115376        0.0000000000000000     
   7.6117557097249197E-002  0.18196979657646564        0.0000000000000000     
   7.7106259220229456E-002  0.18991391953491427        0.0000000000000000     
   7.8020072828382844E-002  0.19794767339649952        0.0000000000000000     
   6.7133571453078023E-002  0.16602435300616797        0.0000000000000000     
   6.8166163553417411E-002  0.17381284451694662        0.0000000000000000     
   6.9128125963093895E-002  0.18169023219304029        0.0000000000000000     
   7.0019458682107516E-002  0.18965651603444902        0.0000000000000000     
   7.0840161710458219E-002  0.19771169604117267        0.0000000000000000     
   6.0496480464563657E-002  0.16573162049706539        0.0000000000000000     
   6.1425631949664251E-002  0.17354230348027949        0.0000000000000000     
   6.2288677958466404E-002  0.18144143759653492        0.0000000000000000     
   6.3085618490970094E-002  0.18942902284583163        0.0000000000000000     
   6.3816453547175370E-002  0.19750505922816966        0.0000000000000000     
   5.4004214341264976E-002  0.16547224584167081        0.0000000000000000     
   5.4832371648182610E-002  0.17330368141115240        0.0000000000000000     
   5.5599213083366697E-002  0.18122341278694951        0.0000000000000000     
   5.6304738646817259E-002  0.18923143996906222        0.0000000000000000     
   5.6948948338534269E-002  0.19732776295749047        0.0000000000000000     
   4.7656773083181989E-002  0.16524622903998418        0.0000000000000000     
   4.8386382648972479E-002  0.17309697830956527        0.0000000000000000     
   4.9059731337794794E-002  0.18103615776428411        0.0000000000000000     
   4.9676819149648957E-002  0.18906376740414066        0.0000000000000000     
   5.0237646084534959E-002  0.19717980722913497        0.0000000000000000     
   7.8020072828382844E-002  0.19794767339649952        0.0000000000000000     
   7.8859856644047877E-002  0.20606389828368887        0.0000000000000000     
   7.9626469389562984E-002  0.21425543431894983        0.0000000000000000     
   8.0319911064928182E-002  0.22252228150228237        0.0000000000000000     
   8.0940181670143496E-002  0.23086443983368643        0.0000000000000000     
   7.0840161710458219E-002  0.19771169604117267        0.0000000000000000     
   7.1588731100617004E-002  0.20584957884247021        0.0000000000000000     
   7.2263662905054815E-002  0.21406397106760036        0.0000000000000000     
   7.2864957123771612E-002  0.22235487271656315        0.0000000000000000     
   7.3392613756767450E-002  0.23072228378935861        0.0000000000000000     
   6.3816453547175370E-002  0.19750505922816966        0.0000000000000000     
   6.4478388197365621E-002  0.20566347542624683        0.0000000000000000     
   6.5068627511824337E-002  0.21389820012276092        0.0000000000000000     
   6.5587171490551488E-002  0.22220923331771203        0.0000000000000000     
   6.6034020133547089E-002  0.23059657501110009        0.0000000000000000     
   5.6948948338534269E-002  0.19732776295749047        0.0000000000000000     
   5.7528827934293723E-002  0.20550558803501870        0.0000000000000000     
   5.8041363209871563E-002  0.21375812148443149        0.0000000000000000     
   5.8486554165267789E-002  0.22208536330572889        0.0000000000000000     
   5.8864400800482414E-002  0.23048731349891086        0.0000000000000000     
   5.0237646084534959E-002  0.19717980722913497        0.0000000000000000     
   5.0740050311401289E-002  0.20537591666878585        0.0000000000000000     
   5.1181869999196487E-002  0.21364373515261215        0.0000000000000000     
   5.1563105147920528E-002  0.22198326268061386        0.0000000000000000     
   5.1883755757573424E-002  0.23039449925279096        0.0000000000000000     
   8.0940181670143496E-002  0.23086443983368643        0.0000000000000000     
   8.1476625507339140E-002  0.23930252252613915        0.0000000000000000     
   8.1918586878645408E-002  0.24785714279261756        0.0000000000000000     
   8.2266065784062231E-002  0.25652830063312171        0.0000000000000000     
   8.2519062223589637E-002  0.26531599604765166        0.0000000000000000     
   7.3392613756767450E-002  0.23072228378935861        0.0000000000000000     
   7.3843327640175954E-002  0.23917983469776682        0.0000000000000000     
   7.4213793610130821E-002  0.24774115585356787        0.0000000000000000     
   7.4504011666632008E-002  0.25640624725676198        0.0000000000000000     
   7.4713981809679572E-002  0.26517510890734891        0.0000000000000000     
   6.6034020133547089E-002  0.23059657501110009        0.0000000000000000     
   6.6411439807342432E-002  0.23906669036893000        0.0000000000000000     
   6.6721696878468781E-002  0.24762604455720674        0.0000000000000000     
   6.6964791346926192E-002  0.25627463757593028        0.0000000000000000     
   6.7140723212714623E-002  0.26501246942510054        0.0000000000000000     
   5.8864400800482414E-002  0.23048731349891086        0.0000000000000000     
   5.9180962008838545E-002  0.23896308953962878        0.0000000000000000     
   5.9442296683659336E-002  0.24751180890353405        0.0000000000000000     
   5.9648404824944733E-002  0.25613347159062666        0.0000000000000000     
   5.9799286432694790E-002  0.26482807760090682        0.0000000000000000     
   5.1883755757573424E-002  0.23039449925279096        0.0000000000000000     
   5.2151894244664342E-002  0.23886903220986308        0.0000000000000000     
   5.2375593025702424E-002  0.24739844889254989        0.0000000000000000     
   5.2554852100687659E-002  0.25598274930085135        0.0000000000000000     
   5.2689671469620086E-002  0.26462193343476748        0.0000000000000000     
   8.2519062223589637E-002  0.26531599604765166        0.0000000000000000     
   8.2716567324646550E-002  0.27424662370787090        0.0000000000000000     
   8.2897572214651855E-002  0.28334657828544291        0.0000000000000000     
   8.3062076893605563E-002  0.29261585978036786        0.0000000000000000     
   8.3210081361507676E-002  0.30205446819264570        0.0000000000000000     
   7.4713981809679572E-002  0.26517510890734891        0.0000000000000000     
   7.4884660945986545E-002  0.27404141291474182        0.0000000000000000     
   7.5057005982265945E-002  0.28299883138835374        0.0000000000000000     
   7.5231016918517815E-002  0.29204736432818479        0.0000000000000000     
   7.5406693754742155E-002  0.30118701173423490        0.0000000000000000     
   6.7140723212714623E-002  0.26501246942510054        0.0000000000000000     
   6.7289745592792702E-002  0.27380970352144368        0.0000000000000000     
   6.7452111604119069E-002  0.28263650328168566        0.0000000000000000     
   6.7627821246693753E-002  0.29149286870582647        0.0000000000000000     
   6.7816874520516685E-002  0.30037879979386600        0.0000000000000000     
   5.9799286432694790E-002  0.26482807760090682        0.0000000000000000     
   5.9931821265065098E-002  0.27355149552797664        0.0000000000000000     
   6.0082889080211282E-002  0.28225959396543865        0.0000000000000000     
   6.0252489878133343E-002  0.29095237291329279        0.0000000000000000     
   6.0440623658831266E-002  0.29962983237153917        0.0000000000000000     
   5.2689671469620086E-002  0.26462193343476748        0.0000000000000000     
   5.2810887962803699E-002  0.27326678893434048        0.0000000000000000     
   5.2949338410542529E-002  0.28186810343961266        0.0000000000000000     
   5.3105022812836591E-002  0.29042587695058386        0.0000000000000000     
   5.3277941169685872E-002  0.29894010946725424        0.0000000000000000     
   2.8956921813156795E-002   5.7171157443848250E-002   0.0000000000000000     
   3.0508500333606196E-002   6.2731410245229630E-002   0.0000000000000000     
   3.2006466253105506E-002   6.8471679535509297E-002   0.0000000000000000     
   3.3450819571654723E-002   7.4391965314687239E-002   0.0000000000000000     
   3.4841560289253865E-002   8.0492267582763469E-002   0.0000000000000000     
   2.5014116486994351E-002   5.6735457015200635E-002   0.0000000000000000     
   2.6389562453227676E-002   6.2306241662145080E-002   0.0000000000000000     
   2.7714734541404905E-002   6.8058246087748950E-002   0.0000000000000000     
   2.8989632751526030E-002   7.3991470292012279E-002   0.0000000000000000     
   3.0214257083591059E-002   8.0105914274935047E-002   0.0000000000000000     
   2.1210746966407949E-002   5.6358496443582942E-002   0.0000000000000000     
   2.2398305540338302E-002   6.1938514124281932E-002   0.0000000000000000     
   2.3541071686170374E-002   6.7700705809489295E-002   0.0000000000000000     
   2.4639045403904183E-002   7.3645071499204989E-002   0.0000000000000000     
   2.5692226693539710E-002   7.9771611193429057E-002   0.0000000000000000     
   1.7546813251397585E-002   5.6040275728995163E-002   0.0000000000000000     
   1.8534729594938053E-002   6.1628227631640206E-002   0.0000000000000000     
   1.9485477687401921E-002   6.7399058700730249E-002   0.0000000000000000     
   2.0399057528789177E-002   7.3352768936265342E-002   0.0000000000000000     
   2.1275469119099825E-002   7.9489358338245469E-002   0.0000000000000000     
   1.4022315341963265E-002   5.5780794871437313E-002   0.0000000000000000     
   1.4798834617026954E-002   6.1375382184219868E-002   0.0000000000000000     
   1.5547952545099540E-002   6.7153304761471883E-002   0.0000000000000000     
   1.6269669126181021E-002   7.3114562603193350E-002   0.0000000000000000     
   1.6963984360271397E-002   7.9259155709384285E-002   0.0000000000000000     
   3.4841560289253865E-002   8.0492267582763469E-002   0.0000000000000000     
   3.6182657595818984E-002   8.6762345853080541E-002   0.0000000000000000     
   3.7478080681266152E-002   9.3191959638981095E-002   0.0000000000000000     
   3.8727829545595373E-002   9.9781108940465088E-002   0.0000000000000000     
   3.9931904188806641E-002  0.10652979375753255        0.0000000000000000     
   3.0214257083591059E-002   8.0105914274935047E-002   0.0000000000000000     
   3.1393218319909738E-002   8.6390772932615753E-002   0.0000000000000000     
   3.2531127242791835E-002   9.2835241161152854E-002   0.0000000000000000     
   3.3627983852237336E-002   9.9439318960546433E-002   0.0000000000000000     
   3.4683788148246249E-002  0.10620300633079639        0.0000000000000000     
   2.5692226693539710E-002   7.9771611193429057E-002   0.0000000000000000     
   2.6705163758147236E-002   8.6069120464039472E-002   0.0000000000000000     
   2.7682404800797016E-002   9.2526394882914323E-002   0.0000000000000000     
   2.8623949821489046E-002   9.9143434450053469E-002   0.0000000000000000     
   2.9529798820223340E-002  0.10592023916545706        0.0000000000000000     
   2.1275469119099825E-002   7.9489358338245469E-002   0.0000000000000000     
   2.2118493910531462E-002   8.5797388447351769E-002   0.0000000000000000     
   2.2931913355281688E-002   9.2265420804265350E-002   0.0000000000000000     
   2.3715727453350498E-002   9.8893455408986281E-002   0.0000000000000000     
   2.4469936204737898E-002  0.10568149226151449        0.0000000000000000     
   1.6963984360271397E-002   7.9259155709384285E-002   0.0000000000000000     
   1.7633208777062426E-002   8.5575576882552559E-002   0.0000000000000000     
   1.8279652906245857E-002   9.2052318925206059E-002   0.0000000000000000     
   1.8903316747821697E-002   9.8689381837344783E-002   0.0000000000000000     
   1.9504200301789940E-002  0.10548676561896875        0.0000000000000000     
   3.9931904188806641E-002  0.10652979375753255        0.0000000000000000     
   4.1085703086768698E-002  0.11342489169111898        0.0000000000000000     
   4.2184624715350290E-002  0.12045328034215992        0.0000000000000000     
   4.3228669074551390E-002  0.12761495971065534        0.0000000000000000     
   4.4217836164372040E-002  0.13490992979660532        0.0000000000000000     
   3.4683788148246249E-002  0.10620300633079639        0.0000000000000000     
   3.5694601867454503E-002  0.11311334322459234        0.0000000000000000     
   3.6656486746498018E-002  0.12015736959462377        0.0000000000000000     
   3.7569442785376793E-002  0.12733508544089070        0.0000000000000000     
   3.8433469984090834E-002  0.13464649076339308        0.0000000000000000     
   2.9529798820223340E-002  0.10592023916545706        0.0000000000000000     
   3.0396521132215776E-002  0.11284394560788401        0.0000000000000000     
   3.1220686092682238E-002  0.11990169035609329        0.0000000000000000     
   3.2002293701622740E-002  0.12709347341008495        0.0000000000000000     
   3.2741343959037272E-002  0.13441929476985895        0.0000000000000000     
   2.4469936204737898E-002  0.10568149226151449        0.0000000000000000     
   2.5191460881052511E-002  0.11261669884099393        0.0000000000000000     
   2.5877222753902959E-002  0.11968624262656848        0.0000000000000000     
   2.6527221823289232E-002  0.12689012361823815        0.0000000000000000     
   2.7141458089211350E-002  0.13422834181600285        0.0000000000000000     
   1.9504200301789940E-002  0.10548676561896875        0.0000000000000000     
   2.0079421113964720E-002  0.11243160292392218        0.0000000000000000     
   2.0626096730160168E-002  0.11951102640604935        0.0000000000000000     
   2.1144227150376282E-002  0.12672503606535027        0.0000000000000000     
   2.1633812374613072E-002  0.13407363190182495        0.0000000000000000     
   4.4217836164372040E-002  0.13490992979660532        0.0000000000000000     
   4.5154066063145461E-002  0.14232716008282439        0.0000000000000000     
   4.6039298849204921E-002  0.14985562005212721        0.0000000000000000     
   4.6873534522550435E-002  0.15749530970451381        0.0000000000000000     
   4.7656773083181989E-002  0.16524622903998418        0.0000000000000000     
   3.8433469984090834E-002  0.13464649076339308        0.0000000000000000     
   3.9250393549566755E-002  0.14208045848862924        0.0000000000000000     
   4.0022038688731144E-002  0.14962586154309751        0.0000000000000000     
   4.0748405401584017E-002  0.15728269992679780        0.0000000000000000     
   4.1429493688125374E-002  0.16505097363973020        0.0000000000000000     
   3.2741343959037272E-002  0.13441929476985895        0.0000000000000000     
   3.3439445719955226E-002  0.14186796193053125        0.0000000000000000     
   3.4098207839405960E-002  0.14942828238721778        0.0000000000000000     
   3.4717630317389503E-002  0.15710025613991860        0.0000000000000000     
   3.5297713153905834E-002  0.16488388318863367        0.0000000000000000     
   2.7141458089211350E-002  0.13422834181600285        0.0000000000000000     
   2.7721222574310873E-002  0.14168967040853037        0.0000000000000000     
   2.8267806301229385E-002  0.14926288258448811        0.0000000000000000     
   2.8781209269966888E-002  0.15694797834387617        0.0000000000000000     
   2.9261431480523372E-002  0.16474495768669448        0.0000000000000000     
   2.1633812374613072E-002  0.13407363190182495        0.0000000000000000     
   2.2095724112633712E-002  0.14154558392262659        0.0000000000000000     
   2.2530834074201415E-002  0.14912966213490841        0.0000000000000000     
   2.2939142259316175E-002  0.15682586653867048        0.0000000000000000     
   2.3320648667977985E-002  0.16463419713391270        0.0000000000000000     
   4.7656773083181989E-002  0.16524622903998418        0.0000000000000000     
   4.8386382648972479E-002  0.17309697830956527        0.0000000000000000     
   4.9059731337794794E-002  0.18103615776428411        0.0000000000000000     
   4.9676819149648957E-002  0.18906376740414066        0.0000000000000000     
   5.0237646084534959E-002  0.19717980722913497        0.0000000000000000     
   4.1429493688125374E-002  0.16505097363973020        0.0000000000000000     
   4.2062564899988407E-002  0.17291926837110461        0.0000000000000000     
   4.2644880388806317E-002  0.18087616981013091        0.0000000000000000     
   4.3176440154579110E-002  0.18892167795680911        0.0000000000000000     
   4.3657244197306773E-002  0.19705579281113927        0.0000000000000000     
   3.5297713153905834E-002  0.16488388318863367        0.0000000000000000     
   3.5835818349184964E-002  0.17276762579135688        0.0000000000000000     
   3.6329307903456877E-002  0.18073994620608222        0.0000000000000000     
   3.6778181816721600E-002  0.18880084443280964        0.0000000000000000     
   3.7182440088979106E-002  0.19695032047153921        0.0000000000000000     
   2.9261431480523372E-002  0.16474495768669448        0.0000000000000000     
   2.9706142996562143E-002  0.17264205057032211        0.0000000000000000     
   3.0113013881746493E-002  0.18062748695213804        0.0000000000000000     
   3.0482044136076435E-002  0.18870126683214231        0.0000000000000000     
   3.0813233759551951E-002  0.19686339021033489        0.0000000000000000     
   2.3320648667977985E-002  0.16463419713391270        0.0000000000000000     
   2.3673538842119944E-002  0.17254254270800029        0.0000000000000000     
   2.3995998323675157E-002  0.18053879204829842        0.0000000000000000     
   2.4288027112643610E-002  0.18862294515480707        0.0000000000000000     
   2.4549625209025309E-002  0.19679500202752626        0.0000000000000000     
   5.0237646084534959E-002  0.19717980722913497        0.0000000000000000     
   5.0740050311401289E-002  0.20537591666878585        0.0000000000000000     
   5.1181869999196487E-002  0.21364373515261215        0.0000000000000000     
   5.1563105147920528E-002  0.22198326268061386        0.0000000000000000     
   5.1883755757573424E-002  0.23039449925279096        0.0000000000000000     
   4.3657244197306773E-002  0.19705579281113927        0.0000000000000000     
   4.4086348276145944E-002  0.20526823206280012        0.0000000000000000     
   4.4462808150253233E-002  0.21354871340147044        0.0000000000000000     
   4.4786623819628640E-002  0.22189723682715029        0.0000000000000000     
   4.5057795284272180E-002  0.23031380233983961        0.0000000000000000     
   3.7182440088979106E-002  0.19695032047153921        0.0000000000000000     
   3.7542014775985261E-002  0.20517630495231323        0.0000000000000000     
   3.7856837933495903E-002  0.21346672850517406        0.0000000000000000     
   3.8126909561511060E-002  0.22182159113012170        0.0000000000000000     
   3.8352229660030698E-002  0.23024089282715612        0.0000000000000000     
   3.0813233759551951E-002  0.19686339021033489        0.0000000000000000     
   3.1107049810919253E-002  0.20510013533732532        0.0000000000000000     
   3.1363959348924525E-002  0.21339778046372304        0.0000000000000000     
   3.1583962373567774E-002  0.22175632558952812        0.0000000000000000     
   3.1767058884849000E-002  0.23017577071474046        0.0000000000000000     
   2.4549625209025309E-002  0.19679500202752626        0.0000000000000000     
   2.4781453380947917E-002  0.20503972321783626        0.0000000000000000     
   2.4984172396539078E-002  0.21334186927711732        0.0000000000000000     
   2.5157782255798799E-002  0.22170144020536950        0.0000000000000000     
   2.5302282958727076E-002  0.23011843600259263        0.0000000000000000     
   5.1883755757573424E-002  0.23039449925279096        0.0000000000000000     
   5.2151894244664342E-002  0.23886903220986308        0.0000000000000000     
   5.2375593025702424E-002  0.24739844889254989        0.0000000000000000     
   5.2554852100687659E-002  0.25598274930085135        0.0000000000000000     
   5.2689671469620086E-002  0.26462193343476748        0.0000000000000000     
   4.5057795284272180E-002  0.23031380233983961        0.0000000000000000     
   4.5285125038014143E-002  0.23878308870794673        0.0000000000000000     
   4.5477415574684842E-002  0.24728977469987984        0.0000000000000000     
   4.5634666894284283E-002  0.25583386031563904        0.0000000000000000     
   4.5756878996812453E-002  0.26441534555522433        0.0000000000000000     
   3.8352229660030698E-002  0.23024089282715612        0.0000000000000000     
   3.8541542912082317E-002  0.23870382936219345        0.0000000000000000     
   3.8703594000693370E-002  0.24718959650114966        0.0000000000000000     
   3.8838382925863890E-002  0.25569819424402479        0.0000000000000000     
   3.8945909687593837E-002  0.26422962259081889        0.0000000000000000     
   3.1767058884849000E-002  0.23017577071474046        0.0000000000000000     
   3.1921147866868872E-002  0.23863125417260317        0.0000000000000000     
   3.2054128303728023E-002  0.24709791429635922        0.0000000000000000     
   3.2166000195426488E-002  0.25557575108600855        0.0000000000000000     
   3.2256763541964259E-002  0.26406476454155120        0.0000000000000000     
   2.5302282958727076E-002  0.23011843600259263        0.0000000000000000     
   2.5423939902373786E-002  0.23856536313917601        0.0000000000000000     
   2.5529018483788787E-002  0.24701472808550859        0.0000000000000000     
   2.5617518702972089E-002  0.25546653084159032        0.0000000000000000     
   2.5689440559923692E-002  0.26392077140742132        0.0000000000000000     
   5.2689671469620086E-002  0.26462193343476748        0.0000000000000000     
   5.2810887962803699E-002  0.27326678893434048        0.0000000000000000     
   5.2949338410542529E-002  0.28186810343961266        0.0000000000000000     
   5.3105022812836591E-002  0.29042587695058386        0.0000000000000000     
   5.3277941169685872E-002  0.29894010946725424        0.0000000000000000     
   4.5756878996812453E-002  0.26441534555522433        0.0000000000000000     
   4.5868190328488358E-002  0.27298429189762519        0.0000000000000000     
   4.5992739335531024E-002  0.28149076082183155        0.0000000000000000     
   4.6130526017940425E-002  0.28993475232784327        0.0000000000000000     
   4.6281550375716567E-002  0.29831626641566023        0.0000000000000000     
   3.8945909687593837E-002  0.26422962259081889        0.0000000000000000     
   3.9044973004598943E-002  0.27273271257492077        0.0000000000000000     
   3.9154371595594907E-002  0.28115629522971924        0.0000000000000000     
   3.9274105460581708E-002  0.28950037055521433        0.0000000000000000     
   3.9404174599559375E-002  0.29776493855140596        0.0000000000000000     
   3.2256763541964259E-002  0.26406476454155120        0.0000000000000000     
   3.2341235991135441E-002  0.27251205096622699        0.0000000000000000     
   3.2434235190734177E-002  0.28086470666327568        0.0000000000000000     
   3.2535761140760455E-002  0.28912273163269714        0.0000000000000000     
   3.2645813841214295E-002  0.29728612587449144        0.0000000000000000     
   2.5689440559923692E-002  0.26392077140742132        0.0000000000000000     
   2.5756979288097854E-002  0.27232230707154403        0.0000000000000000     
   2.5832330120948849E-002  0.28061599512250079        0.0000000000000000     
   2.5915493058476676E-002  0.28880183556029171        0.0000000000000000     
   2.6006468100681336E-002  0.29687982838491667        0.0000000000000000     
   1.4022315341963265E-002   5.5780794871437313E-002   0.0000000000000000     
   1.4798834617026954E-002   6.1375382184219868E-002   0.0000000000000000     
   1.5547952545099540E-002   6.7153304761471883E-002   0.0000000000000000     
   1.6269669126181021E-002   7.3114562603193350E-002   0.0000000000000000     
   1.6963984360271397E-002   7.9259155709384285E-002   0.0000000000000000     
   1.0554835630679190E-002   5.5579447802808948E-002   0.0000000000000000     
   1.1119866585479640E-002   6.1179272872330742E-002   0.0000000000000000     
   1.1667337478020064E-002   6.6962723325695847E-002   0.0000000000000000     
   1.2197248308300464E-002   7.2929799162904263E-002   0.0000000000000000     
   1.2709599076320837E-002   7.9080500383955976E-002   0.0000000000000000     
   7.0619565101195624E-003   5.5435628455009607E-002   0.0000000000000000     
   7.4270714791707625E-003   6.1039194786282648E-002   0.0000000000000000     
   7.7824737049203285E-003   6.6826593727383893E-002   0.0000000000000000     
   8.1281631873682553E-003   7.2797825278313327E-002   0.0000000000000000     
   8.4641399265145481E-003   7.8952889439071014E-002   0.0000000000000000     
   3.5436779802843800E-003   5.5349336828039317E-002   0.0000000000000000     
   3.7204492981003233E-003   6.0955147926075551E-002   0.0000000000000000     
   3.8933612258003313E-003   6.6744915966535978E-002   0.0000000000000000     
   4.0624137633844008E-003   7.2718640949420599E-002   0.0000000000000000     
   4.2276069108525332E-003   7.8876322874729357E-002   0.0000000000000000     
   4.1173646523479102E-011   5.5320572921898070E-002   0.0000000000000000     
   4.2268322522631685E-011   6.0927132291709492E-002   0.0000000000000000     
   4.0660071772176398E-011   6.6717690043152131E-002   0.0000000000000000     
   3.6348895491840685E-011   7.2692246176225994E-002   0.0000000000000000     
   2.9334792841367863E-011   7.8850800690931075E-002   0.0000000000000000     
   1.6963984360271397E-002   7.9259155709384285E-002   0.0000000000000000     
   1.7633208777062426E-002   8.5575576882552559E-002   0.0000000000000000     
   1.8279652906245857E-002   9.2052318925206059E-002   0.0000000000000000     
   1.8903316747821697E-002   9.8689381837344783E-002   0.0000000000000000     
   1.9504200301789940E-002  0.10548676561896875        0.0000000000000000     
   1.2709599076320837E-002   7.9080500383955976E-002   0.0000000000000000     
   1.3205188647563546E-002   8.5403331961647122E-002   0.0000000000000000     
   1.3684815887510955E-002   9.1886798868773850E-002   0.0000000000000000     
   1.4148480796163062E-002   9.8530901105336161E-002   0.0000000000000000     
   1.4596183373519872E-002  0.10533563867133408        0.0000000000000000     
   8.4641399265145481E-003   7.8952889439071014E-002   0.0000000000000000     
   8.7903138118582518E-003   8.5280299876640681E-002   0.0000000000000000     
   9.1065947328984129E-003   9.1768570258006235E-002   0.0000000000000000     
   9.4129826896350334E-003   9.8417700583167636E-002   0.0000000000000000     
   9.7094776820681114E-003  0.10522769085212487        0.0000000000000000     
   4.2276069108525332E-003   7.8876322874729357E-002   0.0000000000000000     
   4.3885842699465409E-003   8.5206480627533249E-002   0.0000000000000000     
   4.5449894424082309E-003   9.1697633092903172E-002   0.0000000000000000     
   4.6968224282376075E-003   9.8349780270839127E-002   0.0000000000000000     
   4.8440832274346639E-003  0.10516292216134110        0.0000000000000000     
   2.9334792841367863E-011   7.8850800690931075E-002   0.0000000000000000     
   2.1828412775232175E-011   8.5181874214324826E-002   0.0000000000000000     
   1.6040410211019818E-011   9.1673987373464674E-002   0.0000000000000000     
   1.1970780459556393E-011   9.8327140168350660E-002   0.0000000000000000     
   9.6195256621411929E-012  0.10514133259898276        0.0000000000000000     
   1.9504200301789940E-002  0.10548676561896875        0.0000000000000000     
   2.0079421113964720E-002  0.11243160292392218        0.0000000000000000     
   2.0626096730160168E-002  0.11951102640604935        0.0000000000000000     
   2.1144227150376282E-002  0.12672503606535027        0.0000000000000000     
   2.1633812374613072E-002  0.13407363190182495        0.0000000000000000     
   1.4596183373519872E-002  0.10533563867133408        0.0000000000000000     
   1.5025310151068368E-002  0.11228808499346736        0.0000000000000000     
   1.5433247660295543E-002  0.11937531349843582        0.0000000000000000     
   1.5819995901201395E-002  0.12659732418623945        0.0000000000000000     
   1.6185554873785927E-002  0.13395411705687826        0.0000000000000000     
   9.7094776820681114E-003  0.10522769085212487        0.0000000000000000     
   9.9940363124794256E-003  0.11218557218642819        0.0000000000000000     
   1.0264615183150749E-002  0.11927837570762785        0.0000000000000000     
   1.0521214294082083E-002  0.12650610141572374        0.0000000000000000     
   1.0763833645273424E-002  0.13386874931071602        0.0000000000000000     
   4.8440832274346639E-003  0.10516292216134110        0.0000000000000000     
   4.9855995981978969E-003  0.11212406450280467        0.0000000000000000     
   5.1201992987257895E-003  0.11922021303362536        0.0000000000000000     
   5.2478823290183435E-003  0.12645136775380320        0.0000000000000000     
   5.3686486890755598E-003  0.13381752866333818        0.0000000000000000     
   9.6195256621411929E-012  0.10514133259898276        0.0000000000000000     
   8.2237762606685028E-012  0.11210356194259677        0.0000000000000000     
   7.0206613959900022E-012  0.11920082547642845        0.0000000000000000     
   6.0101813933663428E-012  0.12643312320047775        0.0000000000000000     
   5.1923361443773075E-012  0.13380045511474475        0.0000000000000000     
   2.1633812374613072E-002  0.13407363190182495        0.0000000000000000     
   2.2095724112633712E-002  0.14154558392262659        0.0000000000000000     
   2.2530834074201415E-002  0.14912966213490841        0.0000000000000000     
   2.2939142259316175E-002  0.15682586653867048        0.0000000000000000     
   2.3320648667977985E-002  0.16463419713391270        0.0000000000000000     
   1.6185554873785927E-002  0.13395411705687826        0.0000000000000000     
   1.6530389266106917E-002  0.14143447295083666        0.0000000000000000     
   1.6854963766222149E-002  0.14902717270859916        0.0000000000000000     
   1.7159278374131618E-002  0.15673221633016571        0.0000000000000000     
   1.7443333089835329E-002  0.16454960381553629        0.0000000000000000     
   1.0763833645273424E-002  0.13386874931071602        0.0000000000000000     
   1.0992656965913660E-002  0.14135510797117737        0.0000000000000000     
   1.1207867985191680E-002  0.14895396597568072        0.0000000000000000     
   1.1409466703107482E-002  0.15666532332422600        0.0000000000000000     
   1.1597453119661065E-002  0.16448918001681326        0.0000000000000000     
   5.3686486890755598E-003  0.13381752866333818        0.0000000000000000     
   5.4825272120539465E-003  0.14130748898364867        0.0000000000000000     
   5.5895467311100136E-003  0.14891004193615306        0.0000000000000000     
   5.6897072462437619E-003  0.15662518752085139        0.0000000000000000     
   5.7830087574551889E-003  0.16445292573774362        0.0000000000000000     
   5.1923361443773075E-012  0.13380045511474475        0.0000000000000000     
   4.5277765911566625E-012  0.14129161598825055        0.0000000000000000     
   3.9771510737529603E-012  0.14889540059001621        0.0000000000000000     
   3.5404613268896767E-012  0.15661180892004181        0.0000000000000000     
   3.2177064832050739E-012  0.16444084097832734        0.0000000000000000     
   2.3320648667977985E-002  0.16463419713391270        0.0000000000000000     
   2.3673538842119944E-002  0.17254254270800029        0.0000000000000000     
   2.3995998323675157E-002  0.18053879204829842        0.0000000000000000     
   2.4288027112643610E-002  0.18862294515480707        0.0000000000000000     
   2.4549625209025309E-002  0.19679500202752626        0.0000000000000000     
   1.7443333089835329E-002  0.16454960381553629        0.0000000000000000     
   1.7705891248159182E-002  0.17246687779795067        0.0000000000000000     
   1.7945716183929070E-002  0.18047158091064847        0.0000000000000000     
   1.8162807897145004E-002  0.18856371315362977        0.0000000000000000     
   1.8357166387806968E-002  0.19674327452689452        0.0000000000000000     
   1.1597453119661065E-002  0.16448918001681326        0.0000000000000000     
   1.1771085576980648E-002  0.17241283143373243        0.0000000000000000     
   1.1929622417194450E-002  0.18042357295527339        0.0000000000000000     
   1.2073063640302471E-002  0.18852140458143621        0.0000000000000000     
   1.2201409246304711E-002  0.19670632631222082        0.0000000000000000     
   5.7830087574551889E-003  0.16445292573774362        0.0000000000000000     
   5.8691218285843493E-003  0.17238040361534562        0.0000000000000000     
   5.9477170234712926E-003  0.18039476818217318        0.0000000000000000     
   6.0187943421160205E-003  0.18849601943822641        0.0000000000000000     
   6.0823537845185295E-003  0.19668415738350523        0.0000000000000000     
   3.2177064832050739E-012  0.16444084097832734        0.0000000000000000     
   2.9702854759117159E-012  0.17236959434279020        0.0000000000000000     
   2.7596004908286842E-012  0.18038516659134790        0.0000000000000000     
   2.5856499558628288E-012  0.18848755772400036        0.0000000000000000     
   2.4484329494423029E-012  0.19667676774074766        0.0000000000000000     
   2.4549625209025309E-002  0.19679500202752626        0.0000000000000000     
   2.4781453380947917E-002  0.20503972321783626        0.0000000000000000     
   2.4984172396539078E-002  0.21334186927711732        0.0000000000000000     
   2.5157782255798799E-002  0.22170144020536950        0.0000000000000000     
   2.5302282958727076E-002  0.23011843600259263        0.0000000000000000     
   1.8357166387806968E-002  0.19674327452689452        0.0000000000000000     
   1.8529428422966884E-002  0.20499375651758678        0.0000000000000000     
   1.8680230769676658E-002  0.21329865061285053        0.0000000000000000     
   1.8809573427936280E-002  0.22165795681268580        0.0000000000000000     
   1.8917456397745766E-002  0.23007167511709256        0.0000000000000000     
   1.2201409246304711E-002  0.19670632631222082        0.0000000000000000     
   1.2315177873871794E-002  0.20496092316031739        0.0000000000000000     
   1.2414888161674352E-002  0.21326778013841619        0.0000000000000000     
   1.2500540109712386E-002  0.22162689724651699        0.0000000000000000     
   1.2572133717985892E-002  0.23003827448462000        0.0000000000000000     
   6.0823537845185295E-003  0.19668415738350523        0.0000000000000000     
   6.1387017336626409E-003  0.20494122314602828        0.0000000000000000     
   6.1881445725321654E-003  0.21324925785381424        0.0000000000000000     
   6.2306823011271054E-003  0.22160826150686314        0.0000000000000000     
   6.2663149194474603E-003  0.23001823410517497        0.0000000000000000     
   2.4484329494423029E-012  0.19667676774074766        0.0000000000000000     
   2.3394253114566999E-012  0.20493465647471926        0.0000000000000000     
   2.2500950755399707E-012  0.21324308375904480        0.0000000000000000     
   2.1804439764155914E-012  0.22160204959372418        0.0000000000000000     
   2.1304724477644310E-012  0.23001155397875744        0.0000000000000000     
   2.5302282958727076E-002  0.23011843600259263        0.0000000000000000     
   2.5423939902373786E-002  0.23856536313917601        0.0000000000000000     
   2.5529018483788787E-002  0.24701472808550859        0.0000000000000000     
   2.5617518702972089E-002  0.25546653084159032        0.0000000000000000     
   2.5689440559923692E-002  0.26392077140742132        0.0000000000000000     
   1.8917456397745766E-002  0.23007167511709256        0.0000000000000000     
   1.9008232840504371E-002  0.23851063280325832        0.0000000000000000     
   1.9086255917611400E-002  0.24694565714837052        0.0000000000000000     
   1.9151525629066826E-002  0.25537674815242922        0.0000000000000000     
   1.9204041974870672E-002  0.26380390581543428        0.0000000000000000     
   1.2572133717985892E-002  0.23003827448462000        0.0000000000000000     
   1.2632340503167938E-002  0.23847153970619644        0.0000000000000000     
   1.2683831981931591E-002  0.24689632076471779        0.0000000000000000     
   1.2726608154276859E-002  0.25531261766018398        0.0000000000000000     
   1.2760669020203730E-002  0.26372043039259513        0.0000000000000000     
   6.2663149194474603E-003  0.23001823410517497        0.0000000000000000     
   6.2962628903644692E-003  0.23844808384799041        0.0000000000000000     
   6.3217466767493740E-003  0.24686671893455045        0.0000000000000000     
   6.3427662786021723E-003  0.25527413936485494        0.0000000000000000     
   6.3593216959228630E-003  0.26367034513890392        0.0000000000000000     
   2.1304724477644310E-012  0.23001155397875744        0.0000000000000000     
   2.0939740826703135E-012  0.23844026522864031        0.0000000000000000     
   2.0647400889722833E-012  0.24685685165786844        0.0000000000000000     
   2.0427724724443597E-012  0.25526131326644186        0.0000000000000000     
   2.0280691188923061E-012  0.26365365005436059        0.0000000000000000     
   2.5689440559923692E-002  0.26392077140742132        0.0000000000000000     
   2.5756979288097854E-002  0.27232230707154403        0.0000000000000000     
   2.5832330120948849E-002  0.28061599512250079        0.0000000000000000     
   2.5915493058476676E-002  0.28880183556029171        0.0000000000000000     
   2.6006468100681336E-002  0.29687982838491667        0.0000000000000000     
   1.9204041974870672E-002  0.26380390581543428        0.0000000000000000     
   1.9253780671849456E-002  0.27216980766357829        0.0000000000000000     
   1.9310717436829713E-002  0.28041713122305362        0.0000000000000000     
   1.9374852269811442E-002  0.28854587649386026        0.0000000000000000     
   1.9446185170794640E-002  0.29655604347599812        0.0000000000000000     
   1.2760669020203730E-002  0.26372043039259513        0.0000000000000000     
   1.2793217918753525E-002  0.27206087951503638        0.0000000000000000     
   1.2831458188967564E-002  0.28027508558059294        0.0000000000000000     
   1.2875389830845841E-002  0.28836304858926481        0.0000000000000000     
   1.2925012844388357E-002  0.29632476854105211        0.0000000000000000     
   6.3593216959228630E-003  0.26367034513890392        0.0000000000000000     
   6.3752910288100680E-003  0.27199552262591831        0.0000000000000000     
   6.3945523773624065E-003  0.28018985819511882        0.0000000000000000     
   6.4171057415798793E-003  0.28825335184650569        0.0000000000000000     
   6.4429511214624830E-003  0.29618600358007874        0.0000000000000000     
   2.0280691188923061E-012  0.26365365005436059        0.0000000000000000     
   2.0190760955524079E-012  0.27197373699622390        0.0000000000000000     
   2.0142374096768223E-012  0.28016144906663126        0.0000000000000000     
   2.0135541725727762E-012  0.28821678626558261        0.0000000000000000     
   2.0170245682016308E-012  0.29613974859307796        0.0000000000000000     
   4.1173646523479102E-011   5.5320572921898070E-002   0.0000000000000000     
   4.2268322522631685E-011   6.0927132291709492E-002   0.0000000000000000     
   4.0660071772176398E-011   6.6717690043152131E-002   0.0000000000000000     
   3.6348895491840685E-011   7.2692246176225994E-002   0.0000000000000000     
   2.9334792841367863E-011   7.8850800690931075E-002   0.0000000000000000     
  -3.5436778996643641E-003   5.5349336741212458E-002   0.0000000000000000     
  -3.7204492154140302E-003   6.0955147885422292E-002   0.0000000000000000     
  -3.8933611463056314E-003   6.6744915957815870E-002   0.0000000000000000     
  -4.0624136923391643E-003   7.2718640958393171E-002   0.0000000000000000     
  -4.2276068535146323E-003   7.8876322887154224E-002   0.0000000000000000     
  -7.0619564346813780E-003   5.5435628290609100E-002   0.0000000000000000     
  -7.4270714020355242E-003   6.1039194709451794E-002   0.0000000000000000     
  -7.7824736309019590E-003   6.6826593711110660E-002   0.0000000000000000     
  -8.1281631212806842E-003   7.2797825295585719E-002   0.0000000000000000     
  -8.4641398731716971E-003   7.8952889462876943E-002   0.0000000000000000     
  -1.0554835563877393E-002   5.5579447570087995E-002   0.0000000000000000     
  -1.1119866517596159E-002   6.1179272763798004E-002   0.0000000000000000     
  -1.1667337413128915E-002   6.6962723303036570E-002   0.0000000000000000     
  -1.2197248250475662E-002   7.2929799187803637E-002   0.0000000000000000     
  -1.2709599029636405E-002   7.9080500418099248E-002   0.0000000000000000     
  -1.4022315287252412E-002   5.5780794579649143E-002   0.0000000000000000     
  -1.4798834562095933E-002   6.1375382048460936E-002   0.0000000000000000     
  -1.5547952492986496E-002   6.7153304733593530E-002   0.0000000000000000     
  -1.6269669079924103E-002   7.3114562635046912E-002   0.0000000000000000     
  -1.6963984322908750E-002   7.9259155752821081E-002   0.0000000000000000     
   2.9334792841367863E-011   7.8850800690931075E-002   0.0000000000000000     
   2.1828412775232175E-011   8.5181874214324826E-002   0.0000000000000000     
   1.6040410211019818E-011   9.1673987373464674E-002   0.0000000000000000     
   1.1970780459556393E-011   9.8327140168350660E-002   0.0000000000000000     
   9.6195256621411929E-012  0.10514133259898276        0.0000000000000000     
  -4.2276068535146323E-003   7.8876322887154224E-002   0.0000000000000000     
  -4.3885842272653290E-003   8.5206480636654661E-002   0.0000000000000000     
  -4.5449894110245505E-003   9.1697633099450171E-002   0.0000000000000000     
  -4.6968224047922967E-003   9.8349780275540657E-002   0.0000000000000000     
  -4.8440832085685660E-003  0.10516292216492623        0.0000000000000000     
  -8.4641398731716971E-003   7.8952889462876943E-002   0.0000000000000000     
  -8.7903137721038870E-003   8.5280299894162137E-002   0.0000000000000000     
  -9.1065947036061516E-003   9.1768570270618979E-002   0.0000000000000000     
  -9.4129826676784788E-003   9.8417700592247581E-002   0.0000000000000000     
  -9.7094776643208754E-003  0.10522769085904783        0.0000000000000000     
  -1.2709599029636405E-002   7.9080500418099248E-002   0.0000000000000000     
  -1.3205188612687267E-002   8.5403331986847159E-002   0.0000000000000000     
  -1.3684815861704388E-002   9.1886798886971210E-002   0.0000000000000000     
  -1.4148480776687766E-002   9.8530901118471320E-002   0.0000000000000000     
  -1.4596183357637404E-002  0.10533563868134758        0.0000000000000000     
  -1.6963984322908750E-002   7.9259155752821081E-002   0.0000000000000000     
  -1.7633208749015465E-002   8.5575576914709794E-002   0.0000000000000000     
  -1.8279652885319270E-002   9.2052318948506767E-002   0.0000000000000000     
  -1.8903316731820163E-002   9.8689381854211986E-002   0.0000000000000000     
  -1.9504200288518146E-002  0.10548676563182546        0.0000000000000000     
   9.6195256621411929E-012  0.10514133259898276        0.0000000000000000     
   8.2237762606685028E-012  0.11210356194259677        0.0000000000000000     
   7.0206613959900022E-012  0.11920082547642845        0.0000000000000000     
   6.0101813933663428E-012  0.12643312320047775        0.0000000000000000     
   5.1923361443773075E-012  0.13380045511474475        0.0000000000000000     
  -4.8440832085685660E-003  0.10516292216492623        0.0000000000000000     
  -4.9855995820448510E-003  0.11212406450569803        0.0000000000000000     
  -5.1201992849126375E-003  0.11922021303594731        0.0000000000000000     
  -5.2478823171719273E-003  0.12645136775567406        0.0000000000000000     
  -5.3686486788227222E-003  0.13381752866487823        0.0000000000000000     
  -9.7094776643208754E-003  0.10522769085904783        0.0000000000000000     
  -9.9940362972098986E-003  0.11218557219200199        0.0000000000000000     
  -1.0264615170022110E-002  0.11927837571209227        0.0000000000000000     
  -1.0521214282757506E-002  0.12650610141931862        0.0000000000000000     
  -1.0763833635416088E-002  0.13386874931368103        0.0000000000000000     
  -1.4596183357637404E-002  0.10533563868134758        0.0000000000000000     
  -1.5025310137271377E-002  0.11228808500150865        0.0000000000000000     
  -1.5433247648307755E-002  0.11937531350486327        0.0000000000000000     
  -1.5819995890746556E-002  0.12659732419141145        0.0000000000000000     
  -1.6185554864587760E-002  0.13395411706115318        0.0000000000000000     
  -1.9504200288518146E-002  0.10548676563182546        0.0000000000000000     
  -2.0079421102229270E-002  0.11243160293421799        0.0000000000000000     
  -2.0626096719769581E-002  0.11951102641426037        0.0000000000000000     
  -2.1144227141139071E-002  0.12672503607195257        0.0000000000000000     
  -2.1633812366337744E-002  0.13407363190729465        0.0000000000000000     
   5.1923361443773075E-012  0.13380045511474475        0.0000000000000000     
   4.5277765911566625E-012  0.14129161598825055        0.0000000000000000     
   3.9771510737529603E-012  0.14889540059001621        0.0000000000000000     
   3.5404613268896767E-012  0.15661180892004181        0.0000000000000000     
   3.2177064832050739E-012  0.16444084097832734        0.0000000000000000     
  -5.3686486788227222E-003  0.13381752866487823        0.0000000000000000     
  -5.4825272030974105E-003  0.14130748898493936        0.0000000000000000     
  -5.5895467232283920E-003  0.14891004193723689        0.0000000000000000     
  -5.6897072392156633E-003  0.15662518752177088        0.0000000000000000     
  -5.7830087510592218E-003  0.16445292573854126        0.0000000000000000     
  -1.0763833635416088E-002  0.13386874931368103        0.0000000000000000     
  -1.0992656957254179E-002  0.14135510797367146        0.0000000000000000     
  -1.1207867977528100E-002  0.14895396597778179        0.0000000000000000     
  -1.1409466696237849E-002  0.15666532332601205        0.0000000000000000     
  -1.1597453113383430E-002  0.16448918001836219        0.0000000000000000     
  -1.6185554864587760E-002  0.13395411706115318        0.0000000000000000     
  -1.6530389257942521E-002  0.14143447295444686        0.0000000000000000     
  -1.6854963758921964E-002  0.14902717271165089        0.0000000000000000     
  -1.7159278367526103E-002  0.15673221633276535        0.0000000000000000     
  -1.7443333083754925E-002  0.16454960381779013        0.0000000000000000     
  -2.1633812366337744E-002  0.13407363190729465        0.0000000000000000     
  -2.2095724105162445E-002  0.14154558392726557        0.0000000000000000     
  -2.2530834067410001E-002  0.14912966213884427        0.0000000000000000     
  -2.2939142253080413E-002  0.15682586654203076        0.0000000000000000     
  -2.3320648662173690E-002  0.16463419713682512        0.0000000000000000     
   3.2177064832050739E-012  0.16444084097832734        0.0000000000000000     
   2.9702854759117159E-012  0.17236959434279020        0.0000000000000000     
   2.7596004908286842E-012  0.18038516659134790        0.0000000000000000     
   2.5856499558628288E-012  0.18848755772400036        0.0000000000000000     
   2.4484329494423029E-012  0.19667676774074766        0.0000000000000000     
  -5.7830087510592218E-003  0.16445292573854126        0.0000000000000000     
  -5.8691218226736988E-003  0.17238040361604484        0.0000000000000000     
  -5.9477170179737162E-003  0.18039476818277841        0.0000000000000000     
  -6.0187943369592748E-003  0.18849601943874203        0.0000000000000000     
  -6.0823537796303763E-003  0.19668415738393558        0.0000000000000000     
  -1.1597453113383430E-002  0.16448918001836219        0.0000000000000000     
  -1.1771085571159759E-002  0.17241283143508815        0.0000000000000000     
  -1.1929622411761747E-002  0.18042357295644584        0.0000000000000000     
  -1.2073063635189389E-002  0.18852140458243524        0.0000000000000000     
  -1.2201409241442692E-002  0.19670632631305640        0.0000000000000000     
  -1.7443333083754925E-002  0.16454960381779013        0.0000000000000000     
  -1.7705891242487892E-002  0.17246687779992015        0.0000000000000000     
  -1.7945716178604482E-002  0.18047158091235013        0.0000000000000000     
  -1.8162807892104695E-002  0.18856371315508014        0.0000000000000000     
  -1.8357166382988514E-002  0.19674327452811011        0.0000000000000000     
  -2.3320648662173690E-002  0.16463419713682512        0.0000000000000000     
  -2.3673538836658108E-002  0.17254254271054079        0.0000000000000000     
  -2.3995998318501934E-002  0.18053879205049128        0.0000000000000000     
  -2.4288027107705182E-002  0.18862294515667657        0.0000000000000000     
  -2.4549625204267844E-002  0.19679500202909678        0.0000000000000000     
   2.4484329494423029E-012  0.19667676774074766        0.0000000000000000     
   2.3394253114566999E-012  0.20493465647471926        0.0000000000000000     
   2.2500950755399707E-012  0.21324308375904480        0.0000000000000000     
   2.1804439764155914E-012  0.22160204959372418        0.0000000000000000     
   2.1304724477644310E-012  0.23001155397875744        0.0000000000000000     
  -6.0823537796303763E-003  0.19668415738393558        0.0000000000000000     
  -6.1387017289877520E-003  0.20494122314638125        0.0000000000000000     
  -6.1881445680321313E-003  0.21324925785410112        0.0000000000000000     
  -6.2306822967635204E-003  0.22160826150709517        0.0000000000000000     
  -6.2663149151819158E-003  0.23001823410536346        0.0000000000000000     
  -1.2201409241442692E-002  0.19670632631305640        0.0000000000000000     
  -1.2315177869208781E-002  0.20496092316100495        0.0000000000000000     
  -1.2414888157174788E-002  0.21326778013897651        0.0000000000000000     
  -1.2500540105340708E-002  0.22162689724697116        0.0000000000000000     
  -1.2572133713706546E-002  0.23003827448498887        0.0000000000000000     
  -1.8357166382988514E-002  0.19674327452811011        0.0000000000000000     
  -1.8529428418323668E-002  0.20499375651859036        0.0000000000000000     
  -1.8680230765177872E-002  0.21329865061367098        0.0000000000000000     
  -1.8809573423551121E-002  0.22165795681335212        0.0000000000000000     
  -1.8917456393443416E-002  0.23007167511763368        0.0000000000000000     
  -2.4549625204267844E-002  0.19679500202909678        0.0000000000000000     
  -2.4781453376332408E-002  0.20503972321913749        0.0000000000000000     
  -2.4984172392041377E-002  0.21334186927818460        0.0000000000000000     
  -2.5157782251394759E-002  0.22170144020623808        0.0000000000000000     
  -2.5302282954392536E-002  0.23011843600329790        0.0000000000000000     
   2.1304724477644310E-012  0.23001155397875744        0.0000000000000000     
   2.0939740826703135E-012  0.23844026522864031        0.0000000000000000     
   2.0647400889722833E-012  0.24685685165786844        0.0000000000000000     
   2.0427724724443597E-012  0.25526131326644186        0.0000000000000000     
   2.0280691188923061E-012  0.26365365005436059        0.0000000000000000     
  -6.2663149151819158E-003  0.23001823410536346        0.0000000000000000     
  -6.2962628861706069E-003  0.23844808384814251        0.0000000000000000     
  -6.3217466726128929E-003  0.24686671893466880        0.0000000000000000     
  -6.3427662745087670E-003  0.25527413936494253        0.0000000000000000     
  -6.3593216918582333E-003  0.26367034513896348        0.0000000000000000     
  -1.2572133713706546E-002  0.23003827448498887        0.0000000000000000     
  -1.2632340498956333E-002  0.23847153970649337        0.0000000000000000     
  -1.2683831977774108E-002  0.24689632076494858        0.0000000000000000     
  -1.2726608150159874E-002  0.25531261766035446        0.0000000000000000     
  -1.2760669016113625E-002  0.26372043039271098        0.0000000000000000     
  -1.8917456393443416E-002  0.23007167511763368        0.0000000000000000     
  -1.9008232836263208E-002  0.23851063280369311        0.0000000000000000     
  -1.9086255913418917E-002  0.24694565714870781        0.0000000000000000     
  -1.9151525624910546E-002  0.25537674815267780        0.0000000000000000     
  -1.9204041970738110E-002  0.26380390581560309        0.0000000000000000     
  -2.5302282954392536E-002  0.23011843600329790        0.0000000000000000     
  -2.5423939898091216E-002  0.23856536313974155        0.0000000000000000     
  -2.5529018479547302E-002  0.24701472808594638        0.0000000000000000     
  -2.5617518698760791E-002  0.25546653084191245        0.0000000000000000     
  -2.5689440555731684E-002  0.26392077140763970        0.0000000000000000     
   2.0280691188923061E-012  0.26365365005436059        0.0000000000000000     
   2.0190760955524079E-012  0.27197373699622390        0.0000000000000000     
   2.0142374096768223E-012  0.28016144906663126        0.0000000000000000     
   2.0135541725727762E-012  0.28821678626558261        0.0000000000000000     
   2.0170245682016308E-012  0.29613974859307796        0.0000000000000000     
  -6.3593216918582333E-003  0.26367034513896348        0.0000000000000000     
  -6.3752910247629746E-003  0.27199552262595228        0.0000000000000000     
  -6.3945523733246711E-003  0.28018985819512948        0.0000000000000000     
  -6.4171057375433278E-003  0.28825335184649498        0.0000000000000000     
  -6.4429511174189423E-003  0.29618600358004887        0.0000000000000000     
  -1.2760669016113625E-002  0.26372043039271098        0.0000000000000000     
  -1.2793217914679605E-002  0.27206087951510233        0.0000000000000000     
  -1.2831458184902051E-002  0.28027508558061270        0.0000000000000000     
  -1.2875389826780961E-002  0.28836304858924211        0.0000000000000000     
  -1.2925012840316335E-002  0.29632476854099044        0.0000000000000000     
  -1.9204041970738110E-002  0.26380390581560309        0.0000000000000000     
  -1.9253780667730824E-002  0.27216980766367405        0.0000000000000000     
  -1.9310717432717891E-002  0.28041713122308098        0.0000000000000000     
  -1.9374852265699346E-002  0.28854587649382391        0.0000000000000000     
  -1.9446185166675158E-002  0.29655604347590298        0.0000000000000000     
  -2.5689440555731684E-002  0.26392077140763970        0.0000000000000000     
  -2.5756979283916615E-002  0.27232230707166732        0.0000000000000000     
  -2.5832330116772207E-002  0.28061599512253427        0.0000000000000000     
  -2.5915493054298473E-002  0.28880183556024047        0.0000000000000000     
  -2.6006468096495400E-002  0.29687982838478610        0.0000000000000000     
  -1.4022315287252412E-002   5.5780794579649143E-002   0.0000000000000000     
  -1.4798834562095933E-002   6.1375382048460936E-002   0.0000000000000000     
  -1.5547952492986496E-002   6.7153304733593530E-002   0.0000000000000000     
  -1.6269669079924103E-002   7.3114562635046912E-002   0.0000000000000000     
  -1.6963984322908750E-002   7.9259155752821081E-002   0.0000000000000000     
  -1.7546813211055313E-002   5.6040275394602573E-002   0.0000000000000000     
  -1.8534729555577448E-002   6.1628227476867067E-002   0.0000000000000000     
  -1.9485477650744716E-002   6.7399058670071038E-002   0.0000000000000000     
  -2.0399057496557110E-002   7.3352768974214541E-002   0.0000000000000000     
  -2.1275469093014636E-002   7.9489358389297549E-002   0.0000000000000000     
  -2.1210746941534978E-002   5.6358496090258371E-002   0.0000000000000000     
  -2.2398305518083295E-002   6.1938513962442869E-002   0.0000000000000000     
  -2.3541071666673571E-002   6.7700705779758563E-002   0.0000000000000000     
  -2.4639045387305786E-002   7.3645071542205495E-002   0.0000000000000000     
  -2.5692226679979963E-002   7.9771611249783617E-002   0.0000000000000000     
  -2.5014116478691402E-002   5.6735456666616522E-002   0.0000000000000000     
  -2.6389562449613491E-002   6.2306241505188369E-002   0.0000000000000000     
  -2.7714734540773067E-002   6.8058246062656091E-002   0.0000000000000000     
  -2.8989632752170147E-002   7.3991470339019746E-002   0.0000000000000000     
  -3.0214257083804718E-002   8.0105914334279299E-002   0.0000000000000000     
  -2.8956921822524590E-002   5.7171157123677013E-002   0.0000000000000000     
  -3.0508500350168014E-002   6.2731410105103524E-002   0.0000000000000000     
  -3.2006466273043210E-002   6.8471679518763637E-002   0.0000000000000000     
  -3.3450819591150184E-002   7.4391965364657309E-002   0.0000000000000000     
  -3.4841560304488921E-002   8.0492267642784596E-002   0.0000000000000000     
  -1.6963984322908750E-002   7.9259155752821081E-002   0.0000000000000000     
  -1.7633208749015465E-002   8.5575576914709794E-002   0.0000000000000000     
  -1.8279652885319270E-002   9.2052318948506767E-002   0.0000000000000000     
  -1.8903316731820163E-002   9.8689381854211986E-002   0.0000000000000000     
  -1.9504200288518146E-002  0.10548676563182546        0.0000000000000000     
  -2.1275469093014636E-002   7.9489358389297549E-002   0.0000000000000000     
  -2.2118493890692485E-002   8.5797388485171405E-002   0.0000000000000000     
  -2.2931913340165838E-002   9.2265420831687484E-002   0.0000000000000000     
  -2.3715727441434711E-002   9.8893455428845797E-002   0.0000000000000000     
  -2.4469936194499078E-002  0.10568149227664633        0.0000000000000000     
  -2.5692226679979963E-002   7.9771611249783617E-002   0.0000000000000000     
  -2.6705163747322326E-002   8.6069120505653351E-002   0.0000000000000000     
  -2.7682404791959155E-002   9.2526394912975193E-002   0.0000000000000000     
  -2.8623949813890433E-002   9.9143434471749059E-002   0.0000000000000000     
  -2.9529798813116168E-002  0.10592023918197500        0.0000000000000000     
  -3.0214257083804718E-002   8.0105914334279299E-002   0.0000000000000000     
  -3.1393218318905007E-002   8.6390772976155689E-002   0.0000000000000000     
  -3.2531127240699211E-002   9.2835241192369841E-002   0.0000000000000000     
  -3.3627983849187346E-002   9.9439318982921784E-002   0.0000000000000000     
  -3.4683788144369412E-002  0.10620300634781149        0.0000000000000000     
  -3.4841560304488921E-002   8.0492267642784596E-002   0.0000000000000000     
  -3.6182657605440517E-002   8.6762345896678333E-002   0.0000000000000000     
  -3.7478080686386021E-002   9.3191959669871469E-002   0.0000000000000000     
  -3.8727829547325461E-002   9.9781108962363918E-002   0.0000000000000000     
  -3.9931904188258802E-002  0.10652979377415581        0.0000000000000000     
  -1.9504200288518146E-002  0.10548676563182546        0.0000000000000000     
  -2.0079421102229270E-002  0.11243160293421799        0.0000000000000000     
  -2.0626096719769581E-002  0.11951102641426037        0.0000000000000000     
  -2.1144227141139071E-002  0.12672503607195257        0.0000000000000000     
  -2.1633812366337744E-002  0.13407363190729465        0.0000000000000000     
  -2.4469936194499078E-002  0.10568149227664633        0.0000000000000000     
  -2.5191460871687114E-002  0.11261669885310209        0.0000000000000000     
  -2.5877222745326955E-002  0.11968624263622615        0.0000000000000000     
  -2.6527221815418604E-002  0.12689012362601848        0.0000000000000000     
  -2.7141458081962059E-002  0.13422834182247909        0.0000000000000000     
  -2.9529798813116168E-002  0.10592023918197500        0.0000000000000000     
  -3.0396521125248422E-002  0.11284394562113303        0.0000000000000000     
  -3.1220686085899275E-002  0.11990169036670324        0.0000000000000000     
  -3.2002293695068705E-002  0.12709347341868560        0.0000000000000000     
  -3.2741343952756734E-002  0.13441929477708009        0.0000000000000000     
  -3.4683788144369412E-002  0.10620300634781149        0.0000000000000000     
  -3.5694601862913192E-002  0.11311334323831082        0.0000000000000000     
  -3.6656486741486513E-002  0.12015736960569164        0.0000000000000000     
  -3.7569442780089363E-002  0.12733508544995389        0.0000000000000000     
  -3.8433469978721761E-002  0.13464649077109764        0.0000000000000000     
  -3.9931904188258802E-002  0.10652979377415581        0.0000000000000000     
  -4.1085703084681430E-002  0.11342489170463545        0.0000000000000000     
  -4.2184624712088704E-002  0.12045328035319133        0.0000000000000000     
  -4.3228669070480598E-002  0.12761495971982345        0.0000000000000000     
  -4.4217836159857138E-002  0.13490992980453181        0.0000000000000000     
  -2.1633812366337744E-002  0.13407363190729465        0.0000000000000000     
  -2.2095724105162445E-002  0.14154558392726557        0.0000000000000000     
  -2.2530834067410001E-002  0.14912966213884427        0.0000000000000000     
  -2.2939142253080413E-002  0.15682586654203076        0.0000000000000000     
  -2.3320648662173690E-002  0.16463419713682512        0.0000000000000000     
  -2.7141458081962059E-002  0.13422834182247909        0.0000000000000000     
  -2.7721222567604988E-002  0.14168967041405761        0.0000000000000000     
  -2.8267806294995035E-002  0.14926288258920364        0.0000000000000000     
  -2.8781209264132211E-002  0.15694797834791718        0.0000000000000000     
  -2.9261431475016520E-002  0.16474495769019831        0.0000000000000000     
  -3.2741343952756734E-002  0.13441929477708009        0.0000000000000000     
  -3.3439445713961187E-002  0.14186796193675311        0.0000000000000000     
  -3.4098207833679915E-002  0.14942828239257083        0.0000000000000000     
  -3.4717630311912911E-002  0.15710025614453349        0.0000000000000000     
  -3.5297713148660176E-002  0.16488388319264091        0.0000000000000000     
  -3.8433469978721761E-002  0.13464649077109764        0.0000000000000000     
  -3.9250393544231051E-002  0.14208045849535195        0.0000000000000000     
  -4.0022038683464635E-002  0.14962586154894594        0.0000000000000000     
  -4.0748405396422507E-002  0.15728269993187963        0.0000000000000000     
  -4.1429493683104661E-002  0.16505097364415289        0.0000000000000000     
  -4.4217836159857138E-002  0.13490992980453181        0.0000000000000000     
  -4.5154066058414585E-002  0.14232716008985427        0.0000000000000000     
  -4.6039298844349208E-002  0.14985562005832889        0.0000000000000000     
  -4.6873534517661006E-002  0.15749530970995557        0.0000000000000000     
  -4.7656773078349986E-002  0.16524622904473432        0.0000000000000000     
  -2.3320648662173690E-002  0.16463419713682512        0.0000000000000000     
  -2.3673538836658108E-002  0.17254254271054079        0.0000000000000000     
  -2.3995998318501934E-002  0.18053879205049128        0.0000000000000000     
  -2.4288027107705182E-002  0.18862294515667657        0.0000000000000000     
  -2.4549625204267844E-002  0.19679500202909678        0.0000000000000000     
  -2.9261431475016520E-002  0.16474495769019831        0.0000000000000000     
  -2.9706142991324715E-002  0.17264205057337356        0.0000000000000000     
  -3.0113013876733555E-002  0.18062748695476963        0.0000000000000000     
  -3.0482044131243051E-002  0.18870126683438643        0.0000000000000000     
  -3.0813233754853196E-002  0.19686339021222404        0.0000000000000000     
  -3.5297713148660176E-002  0.16488388319264091        0.0000000000000000     
  -3.5835818344142040E-002  0.17276762579484198        0.0000000000000000     
  -3.6329307898578807E-002  0.18073994620908543        0.0000000000000000     
  -3.6778181811970498E-002  0.18880084443537140        0.0000000000000000     
  -3.7182440084317099E-002  0.19695032047369979        0.0000000000000000     
  -4.1429493683104661E-002  0.16505097364415289        0.0000000000000000     
  -4.2062564895110073E-002  0.17291926837494598        0.0000000000000000     
  -4.2644880384037694E-002  0.18087616981343882        0.0000000000000000     
  -4.3176440149887522E-002  0.18892167795963147        0.0000000000000000     
  -4.3657244192659560E-002  0.19705579281352395        0.0000000000000000     
  -4.7656773078349986E-002  0.16524622904473432        0.0000000000000000     
  -4.8386382644228829E-002  0.17309697831368559        0.0000000000000000     
  -4.9059731333110208E-002  0.18103615776782969        0.0000000000000000     
  -4.9676819144994118E-002  0.18906376740716671        0.0000000000000000     
  -5.0237646079880578E-002  0.19717980723169662        0.0000000000000000     
  -2.4549625204267844E-002  0.19679500202909678        0.0000000000000000     
  -2.4781453376332408E-002  0.20503972321913749        0.0000000000000000     
  -2.4984172392041377E-002  0.21334186927818460        0.0000000000000000     
  -2.5157782251394759E-002  0.22170144020623808        0.0000000000000000     
  -2.5302282954392536E-002  0.23011843600329790        0.0000000000000000     
  -3.0813233754853196E-002  0.19686339021222404        0.0000000000000000     
  -3.1107049806324401E-002  0.20510013533889576        0.0000000000000000     
  -3.1363959344417061E-002  0.21339778046501504        0.0000000000000000     
  -3.1583962369131191E-002  0.22175632559058181        0.0000000000000000     
  -3.1767058880466791E-002  0.23017577071559600        0.0000000000000000     
  -3.7182440084317099E-002  0.19695032047369979        0.0000000000000000     
  -3.7542014771389028E-002  0.20517630495411465        0.0000000000000000     
  -3.7856837928956652E-002  0.21346672850666004        0.0000000000000000     
  -3.8126909557020014E-002  0.22182159113133598        0.0000000000000000     
  -3.8352229655579079E-002  0.23024089282814236        0.0000000000000000     
  -4.3657244192659560E-002  0.19705579281352395        0.0000000000000000     
  -4.4086348271526292E-002  0.20526823206479408        0.0000000000000000     
  -4.4462808145660178E-002  0.21354871340311965        0.0000000000000000     
  -4.4786623815061211E-002  0.22189723682850063        0.0000000000000000     
  -4.5057795279729404E-002  0.23031380234093710        0.0000000000000000     
  -5.0237646079880578E-002  0.19717980723169662        0.0000000000000000     
  -5.0740050306736194E-002  0.20537591667093408        0.0000000000000000     
  -5.1181869994527590E-002  0.21364373515439380        0.0000000000000000     
  -5.1563105143254788E-002  0.22198326268207583        0.0000000000000000     
  -5.1883755752917766E-002  0.23039449925398003        0.0000000000000000     
  -2.5302282954392536E-002  0.23011843600329790        0.0000000000000000     
  -2.5423939898091216E-002  0.23856536313974155        0.0000000000000000     
  -2.5529018479547302E-002  0.24701472808594638        0.0000000000000000     
  -2.5617518698760791E-002  0.25546653084191245        0.0000000000000000     
  -2.5689440555731684E-002  0.26392077140763970        0.0000000000000000     
  -3.1767058880466791E-002  0.23017577071559600        0.0000000000000000     
  -3.1921147862528219E-002  0.23863125417328812        0.0000000000000000     
  -3.2054128299419837E-002  0.24709791429688852        0.0000000000000000     
  -3.2166000191141658E-002  0.25557575108639724        0.0000000000000000     
  -3.2256763537693668E-002  0.26406476454181421        0.0000000000000000     
  -3.8352229655579079E-002  0.23024089282814236        0.0000000000000000     
  -3.8541542907662041E-002  0.23870382936298226        0.0000000000000000     
  -3.8703593996297074E-002  0.24718959650175840        0.0000000000000000     
  -3.8838382921484185E-002  0.25569819424447088        0.0000000000000000     
  -3.8945909683223374E-002  0.26422962259111971        0.0000000000000000     
  -4.5057795279729404E-002  0.23031380234093710        0.0000000000000000     
  -4.5285125033492697E-002  0.23878308870882389        0.0000000000000000     
  -4.5477415570179022E-002  0.24728977470055602        0.0000000000000000     
  -4.5634666889788400E-002  0.25583386031613348        0.0000000000000000     
  -4.5756878992320810E-002  0.26441534555555624        0.0000000000000000     
  -5.1883755752917766E-002  0.23039449925398003        0.0000000000000000     
  -5.2151894240020175E-002  0.23886903221081307        0.0000000000000000     
  -5.2375593021065675E-002  0.24739844889328136        0.0000000000000000     
  -5.2554852096054275E-002  0.25598274930138493        0.0000000000000000     
  -5.2689671464985967E-002  0.26462193343512375        0.0000000000000000     
  -2.5689440555731684E-002  0.26392077140763970        0.0000000000000000     
  -2.5756979283916615E-002  0.27232230707166732        0.0000000000000000     
  -2.5832330116772207E-002  0.28061599512253427        0.0000000000000000     
  -2.5915493054298473E-002  0.28880183556024047        0.0000000000000000     
  -2.6006468096495400E-002  0.29687982838478610        0.0000000000000000     
  -3.2256763537693668E-002  0.26406476454181421        0.0000000000000000     
  -3.2341235986872018E-002  0.27251205096637438        0.0000000000000000     
  -3.2434235186472857E-002  0.28086470666331276        0.0000000000000000     
  -3.2535761136496158E-002  0.28912273163262919        0.0000000000000000     
  -3.2645813836941942E-002  0.29728612587432385        0.0000000000000000     
  -3.8945909683223374E-002  0.26422962259111971        0.0000000000000000     
  -3.9044973000232061E-002  0.27273271257508747        0.0000000000000000     
  -3.9154371591227657E-002  0.28115629522975677        0.0000000000000000     
  -3.9274105456210198E-002  0.28950037055512773        0.0000000000000000     
  -3.9404174595179642E-002  0.29776493855120012        0.0000000000000000     
  -4.5756878992320810E-002  0.26441534555555624        0.0000000000000000     
  -4.5868190323996735E-002  0.27298429189780649        0.0000000000000000     
  -4.5992739331036654E-002  0.28149076082186636        0.0000000000000000     
  -4.6130526013440587E-002  0.28993475232773575        0.0000000000000000     
  -4.6281550371208506E-002  0.29831626641541487        0.0000000000000000     
  -5.2689671464985967E-002  0.26462193343512375        0.0000000000000000     
  -5.2810887958166040E-002  0.27326678893453138        0.0000000000000000     
  -5.2949338405899833E-002  0.28186810343964136        0.0000000000000000     
  -5.3105022808187324E-002  0.29042587695045358        0.0000000000000000     
  -5.3277941165028528E-002  0.29894010946696814        0.0000000000000000     
  -2.8956921822524590E-002   5.7171157123677013E-002   0.0000000000000000     
  -3.0508500350168014E-002   6.2731410105103524E-002   0.0000000000000000     
  -3.2006466273043210E-002   6.8471679518763637E-002   0.0000000000000000     
  -3.3450819591150184E-002   7.4391965364657309E-002   0.0000000000000000     
  -3.4841560304488921E-002   8.0492267642784596E-002   0.0000000000000000     
  -3.3017818727102938E-002   5.7666550697682700E-002   0.0000000000000000     
  -3.4745401051668970E-002   6.3213923480237161E-002   0.0000000000000000     
  -3.6415825908682378E-002   6.8940272726909640E-002   0.0000000000000000     
  -3.8029093298143149E-002   7.4845598437700139E-002   0.0000000000000000     
  -3.9585203220051289E-002   8.0929900612608630E-002   0.0000000000000000     
  -3.7175462946494840E-002   5.8222590624876405E-002   0.0000000000000000     
  -3.9090546386038476E-002   6.3753685348638039E-002   0.0000000000000000     
  -4.0942372492888977E-002   6.9463292265922613E-002   0.0000000000000000     
  -4.2730941267046345E-002   7.5351411376730126E-002   0.0000000000000000     
  -4.4456252708510557E-002   8.1418042681060579E-002   0.0000000000000000     
  -4.1429854480700301E-002   5.8839276905258135E-002   0.0000000000000000     
  -4.3543936353276524E-002   6.4350695710306174E-002   0.0000000000000000     
  -4.5586106025663001E-002   7.0040738135802541E-002   0.0000000000000000     
  -4.7556363497859737E-002   7.5909404181747298E-002   0.0000000000000000     
  -4.9454708769866733E-002   8.1956693848140416E-002   0.0000000000000000     
  -4.5780993329719306E-002   5.9516609538827897E-002   0.0000000000000000     
  -4.8105570953383095E-002   6.5004954565241538E-002   0.0000000000000000     
  -5.0347026507004441E-002   7.0672610336549466E-002   0.0000000000000000     
  -5.2505359990583346E-002   7.6519576852751653E-002   0.0000000000000000     
  -5.4580571404119801E-002   8.2545854113848155E-002   0.0000000000000000     
  -3.4841560304488921E-002   8.0492267642784596E-002   0.0000000000000000     
  -3.6182657605440517E-002   8.6762345896678333E-002   0.0000000000000000     
  -3.7478080686386021E-002   9.3191959669871469E-002   0.0000000000000000     
  -3.8727829547325461E-002   9.9781108962363918E-002   0.0000000000000000     
  -3.9931904188258802E-002  0.10652979377415581        0.0000000000000000     
  -3.9585203220051289E-002   8.0929900612608630E-002   0.0000000000000000     
  -4.1087686296980397E-002   8.7183425122576874E-002   0.0000000000000000     
  -4.2540073151504064E-002   9.3596417838546567E-002   0.0000000000000000     
  -4.3942363783622311E-002  0.10016887876051765        0.0000000000000000     
  -4.5294558193335117E-002  0.10690080788849018        0.0000000000000000     
  -4.4456252708510557E-002   8.1418042681060579E-002   0.0000000000000000     
  -4.6122509083576214E-002   8.7653596509206816E-002   0.0000000000000000     
  -4.7733912658537853E-002   9.4048483191461585E-002   0.0000000000000000     
  -4.9290463433395479E-002  0.10060270272782497        0.0000000000000000     
  -5.0792161408149093E-002  0.10731625511829693        0.0000000000000000     
  -4.9454708769866733E-002   8.1956693848140416E-002   0.0000000000000000     
  -5.1287125965227956E-002   8.8172860056568117E-002   0.0000000000000000     
  -5.3059599207487353E-002   9.4548155728616620E-002   0.0000000000000000     
  -5.4772128496644951E-002  0.10108258086428591        0.0000000000000000     
  -5.6424713832700736E-002  0.10777613546357601        0.0000000000000000     
  -5.4580571404119801E-002   8.2545854113848155E-002   0.0000000000000000     
  -5.6581536941935615E-002   8.8741215764660847E-002   0.0000000000000000     
  -5.8517132798352599E-002   9.5095435450011603E-002   0.0000000000000000     
  -6.0387358973370740E-002  0.10160851316990048        0.0000000000000000     
  -6.2192215466990046E-002  0.10828044892432745        0.0000000000000000     
  -3.9931904188258802E-002  0.10652979377415581        0.0000000000000000     
  -4.1085703084681430E-002  0.11342489170463545        0.0000000000000000     
  -4.2184624712088704E-002  0.12045328035319133        0.0000000000000000     
  -4.3228669070480598E-002  0.12761495971982345        0.0000000000000000     
  -4.4217836159857138E-002  0.13490992980453181        0.0000000000000000     
  -4.5294558193335117E-002  0.10690080788849018        0.0000000000000000     
  -4.6591365362673068E-002  0.11377893622074831        0.0000000000000000     
  -4.7827494273666733E-002  0.12078999475557609        0.0000000000000000     
  -4.9002944926316107E-002  0.12793398349297355        0.0000000000000000     
  -5.0117717320621216E-002  0.13521090243294073        0.0000000000000000     
  -5.0792161408149093E-002  0.10731625511829693        0.0000000000000000     
  -5.2233129269008000E-002  0.11417582198729070        0.0000000000000000     
  -5.3607489702181502E-002  0.12116808495921962        0.0000000000000000     
  -5.4915242707669606E-002  0.12829304403408362        0.0000000000000000     
  -5.6156388285472314E-002  0.13555069921188267        0.0000000000000000     
  -5.6424713832700736E-002  0.10777613546357601        0.0000000000000000     
  -5.8010994803686253E-002  0.11461554900426274        0.0000000000000000     
  -5.9524610997633037E-002  0.12158755096412194        0.0000000000000000     
  -6.0965562414541090E-002  0.12869214134315360        0.0000000000000000     
  -6.2333849054410424E-002  0.13592932014135770        0.0000000000000000     
  -6.2192215466990046E-002  0.10828044892432745        0.0000000000000000     
  -6.3924961966707813E-002  0.11509811727166436        0.0000000000000000     
  -6.5578858160021333E-002  0.12204839277028305        0.0000000000000000     
  -6.7153904046930571E-002  0.12913127542018349        0.0000000000000000     
  -6.8650099627435568E-002  0.13634676522136574        0.0000000000000000     
  -4.4217836159857138E-002  0.13490992980453181        0.0000000000000000     
  -4.5154066058414585E-002  0.14232716008985427        0.0000000000000000     
  -4.6039298844349208E-002  0.14985562005832889        0.0000000000000000     
  -4.6873534517661006E-002  0.15749530970995557        0.0000000000000000     
  -4.7656773078349986E-002  0.16524622904473432        0.0000000000000000     
  -5.0117717320621216E-002  0.13521090243294073        0.0000000000000000     
  -5.1173948332967137E-002  0.14260977442723852        0.0000000000000000     
  -5.2173774839739007E-002  0.15011962232762796        0.0000000000000000     
  -5.3117196840936826E-002  0.15774044613410898        0.0000000000000000     
  -5.4004214336560594E-002  0.16547224584668158        0.0000000000000000     
  -5.6156388285472314E-002  0.13555069921188267        0.0000000000000000     
  -5.7333525444344086E-002  0.14293000921448323        0.0000000000000000     
  -5.8449253193039459E-002  0.15041993276375143        0.0000000000000000     
  -5.9503571531558400E-002  0.15802046985968740        0.0000000000000000     
  -6.0496480459900921E-002  0.16573162050229112        0.0000000000000000     
  -6.2333849054410424E-002  0.13592932014135770        0.0000000000000000     
  -6.3632797392545445E-002  0.14328786445158831        0.0000000000000000     
  -6.4865733904250517E-002  0.15075655136669935        0.0000000000000000     
  -6.6032658589525728E-002  0.15833538088669091        0.0000000000000000     
  -6.7133571448370996E-002  0.16602435301156299        0.0000000000000000     
  -6.8650099627435568E-002  0.13634676522136574        0.0000000000000000     
  -7.0071764177571175E-002  0.14368334013855383        0.0000000000000000     
  -7.1423216973372242E-002  0.15112947813647173        0.0000000000000000     
  -7.2704458014838769E-002  0.15868517921511949        0.0000000000000000     
  -7.3915487301970784E-002  0.16635044337449714        0.0000000000000000     
  -4.7656773078349986E-002  0.16524622904473432        0.0000000000000000     
  -4.8386382644228829E-002  0.17309697831368559        0.0000000000000000     
  -4.9059731333110208E-002  0.18103615776782969        0.0000000000000000     
  -4.9676819144994118E-002  0.18906376740716671        0.0000000000000000     
  -5.0237646079880578E-002  0.19717980723169662        0.0000000000000000     
  -5.4004214336560594E-002  0.16547224584668158        0.0000000000000000     
  -5.4832371643517674E-002  0.17330368141548946        0.0000000000000000     
  -5.5599213078715466E-002  0.18122341279067630        0.0000000000000000     
  -5.6304738642153976E-002  0.18923143997224212        0.0000000000000000     
  -5.6948948333833189E-002  0.19732776296018689        0.0000000000000000     
  -6.0496480459900921E-002  0.16573162050229112        0.0000000000000000     
  -6.1425631944996006E-002  0.17354230348478639        0.0000000000000000     
  -6.2288677953772617E-002  0.18144143760039694        0.0000000000000000     
  -6.3085618486230760E-002  0.18942902284912286        0.0000000000000000     
  -6.3816453542370449E-002  0.19750505923096404        0.0000000000000000     
  -6.7133571448370996E-002  0.16602435301156299        0.0000000000000000     
  -6.8166163548663825E-002  0.17381284452157625        0.0000000000000000     
  -6.9128125958281647E-002  0.18169023219699157        0.0000000000000000     
  -7.0019458677224505E-002  0.18965651603780881        0.0000000000000000     
  -7.0840161705492372E-002  0.19771169604402805        0.0000000000000000     
  -7.3915487301970784E-002  0.16635044337449714        0.0000000000000000     
  -7.5053966454521087E-002  0.17411530452585916        0.0000000000000000     
  -7.6117557092242563E-002  0.18196979658046014        0.0000000000000000     
  -7.7106259215135170E-002  0.18991391953830006        0.0000000000000000     
  -7.8020072823198922E-002  0.19794767339937891        0.0000000000000000     
  -5.0237646079880578E-002  0.19717980723169662        0.0000000000000000     
  -5.0740050306736194E-002  0.20537591667093408        0.0000000000000000     
  -5.1181869994527590E-002  0.21364373515439380        0.0000000000000000     
  -5.1563105143254788E-002  0.22198326268207583        0.0000000000000000     
  -5.1883755752917766E-002  0.23039449925398003        0.0000000000000000     
  -5.6948948333833189E-002  0.19732776296018689        0.0000000000000000     
  -5.7528827929548831E-002  0.20550558803728675        0.0000000000000000     
  -5.8041363205096619E-002  0.21375812148631781        0.0000000000000000     
  -5.8486554160476552E-002  0.22208536330728015        0.0000000000000000     
  -5.8864400795688630E-002  0.23048731350017371        0.0000000000000000     
  -6.3816453542370449E-002  0.19750505923096404        0.0000000000000000     
  -6.4478388192494296E-002  0.20566347542860422        0.0000000000000000     
  -6.5068627506904897E-002  0.21389820012472702        0.0000000000000000     
  -6.5587171485602294E-002  0.22220923331933246        0.0000000000000000     
  -6.6034020128586474E-002  0.23059657501242048        0.0000000000000000     
  -7.0840161705492372E-002  0.19771169604402805        0.0000000000000000     
  -7.1588731095572553E-002  0.20584957884488647        0.0000000000000000     
  -7.2263662899952452E-002  0.21406397106962136        0.0000000000000000     
  -7.2864957118632029E-002  0.22235487271823262        0.0000000000000000     
  -7.3392613751611310E-002  0.23072228379072021        0.0000000000000000     
  -7.8020072823198922E-002  0.19794767339937891        0.0000000000000000     
  -7.8859856638783671E-002  0.20606389828613356        0.0000000000000000     
  -7.9626469384239285E-002  0.21425543432100078        0.0000000000000000     
  -8.0319911059565763E-002  0.22252228150398068        0.0000000000000000     
  -8.0940181664763119E-002  0.23086443983507313        0.0000000000000000     
  -5.1883755752917766E-002  0.23039449925398003        0.0000000000000000     
  -5.2151894240020175E-002  0.23886903221081307        0.0000000000000000     
  -5.2375593021065675E-002  0.24739844889328136        0.0000000000000000     
  -5.2554852096054275E-002  0.25598274930138493        0.0000000000000000     
  -5.2689671464985967E-002  0.26462193343512375        0.0000000000000000     
  -5.8864400795688630E-002  0.23048731350017371        0.0000000000000000     
  -5.9180962004047814E-002  0.23896308954063730        0.0000000000000000     
  -5.9442296678869050E-002  0.24751180890430988        0.0000000000000000     
  -5.9648404820152337E-002  0.25613347159119126        0.0000000000000000     
  -5.9799286427897690E-002  0.26482807760128163        0.0000000000000000     
  -6.6034020128586474E-002  0.23059657501242048        0.0000000000000000     
  -6.6411439802378930E-002  0.23906669036998424        0.0000000000000000     
  -6.6721696873501143E-002  0.24762604455801696        0.0000000000000000     
  -6.6964791341953114E-002  0.25627463757651858        0.0000000000000000     
  -6.7140723207734843E-002  0.26501246942548917        0.0000000000000000     
  -7.3392613751611310E-002  0.23072228379072021        0.0000000000000000     
  -7.3843327635013500E-002  0.23917983469885379        0.0000000000000000     
  -7.4213793604961956E-002  0.24774115585440262        0.0000000000000000     
  -7.4504011661456579E-002  0.25640624725736683        0.0000000000000000     
  -7.4713981804497412E-002  0.26517510890774632        0.0000000000000000     
  -8.0940181664763119E-002  0.23086443983507313        0.0000000000000000     
  -8.1476625501951588E-002  0.23930252252724596        0.0000000000000000     
  -8.1918586873251459E-002  0.24785714279346691        0.0000000000000000     
  -8.2266065778662731E-002  0.25652830063373588        0.0000000000000000     
  -8.2519062218185418E-002  0.26531599604805312        0.0000000000000000     
  -5.2689671464985967E-002  0.26462193343512375        0.0000000000000000     
  -5.2810887958166040E-002  0.27326678893453138        0.0000000000000000     
  -5.2949338405899833E-002  0.28186810343964136        0.0000000000000000     
  -5.3105022808187324E-002  0.29042587695045358        0.0000000000000000     
  -5.3277941165028528E-002  0.29894010946696814        0.0000000000000000     
  -5.9799286427897690E-002  0.26482807760128163        0.0000000000000000     
  -5.9931821260261767E-002  0.27355149552817354        0.0000000000000000     
  -6.0082889075401241E-002  0.28225959396545963        0.0000000000000000     
  -6.0252489873316113E-002  0.29095237291313986        0.0000000000000000     
  -6.0440623654006383E-002  0.29962983237121427        0.0000000000000000     
  -6.7140723207734843E-002  0.26501246942548917        0.0000000000000000     
  -6.7289745587805677E-002  0.27380970352164408        0.0000000000000000     
  -6.7452111599124925E-002  0.28263650328169881        0.0000000000000000     
  -6.7627821241692615E-002  0.29149286870565339        0.0000000000000000     
  -6.7816874515508718E-002  0.30037879979350779        0.0000000000000000     
  -7.4713981804497412E-002  0.26517510890774632        0.0000000000000000     
  -7.4884660940797751E-002  0.27404141291494311        0.0000000000000000     
  -7.5057005977070906E-002  0.28299883138835907        0.0000000000000000     
  -7.5231016913316823E-002  0.29204736432799427        0.0000000000000000     
  -7.5406693749535542E-002  0.30118701173384865        0.0000000000000000     
  -8.2519062218185418E-002  0.26531599604805312        0.0000000000000000     
  -8.2716567319238044E-002  0.27424662370807051        0.0000000000000000     
  -8.2897572209239156E-002  0.28334657828544030        0.0000000000000000     
  -8.3062076888188743E-002  0.29261585978016241        0.0000000000000000     
  -8.3210081356086846E-002  0.30205446819223691        0.0000000000000000     
  -4.5780993329719306E-002   5.9516609538827897E-002   0.0000000000000000     
  -4.8105570953383095E-002   6.5004954565241538E-002   0.0000000000000000     
  -5.0347026507004441E-002   7.0672610336549466E-002   0.0000000000000000     
  -5.2505359990583346E-002   7.6519576852751653E-002   0.0000000000000000     
  -5.4580571404119801E-002   8.2545854113848155E-002   0.0000000000000000     
  -5.0306657981640336E-002   6.0251792509823474E-002   0.0000000000000000     
  -5.2836974250143082E-002   6.5715519718296186E-002   0.0000000000000000     
  -5.5274594039848163E-002   7.1359131675285972E-002   0.0000000000000000     
  -5.7619517350755614E-002   7.7182628380792803E-002   0.0000000000000000     
  -5.9871744182865408E-002   8.3186009834816693E-002   0.0000000000000000     
  -5.5084626924551870E-002   6.1042029802482689E-002   0.0000000000000000     
  -5.7799670307341303E-002   6.6481448974322191E-002   0.0000000000000000     
  -6.0418268727129000E-002   7.2100524959134743E-002   0.0000000000000000     
  -6.2940422183914976E-002   7.7899257756920359E-002   0.0000000000000000     
  -6.5366130677699211E-002   8.3877647367678998E-002   0.0000000000000000     
  -6.0114900158453895E-002   6.1887321416805516E-002   0.0000000000000000     
  -6.2993659124977786E-002   6.7302742333319523E-002   0.0000000000000000     
  -6.5778050568846974E-002   7.2896790188095792E-002   0.0000000000000000     
  -6.8468074490061454E-002   7.8669464981134279E-002   0.0000000000000000     
  -7.1063730888621210E-002   8.4620766712435055E-002   0.0000000000000000     
  -6.5397477683346417E-002   6.2787667352791982E-002   0.0000000000000000     
  -6.8418940703052530E-002   6.8179399795288198E-002   0.0000000000000000     
  -7.1353939565002064E-002   7.3747927362169091E-002   0.0000000000000000     
  -7.4202474269195018E-002   7.9493250053434647E-002   0.0000000000000000     
  -7.6964544815631392E-002   8.5415367869084879E-002   0.0000000000000000     
  -5.4580571404119801E-002   8.2545854113848155E-002   0.0000000000000000     
  -5.6581536941935615E-002   8.8741215764660847E-002   0.0000000000000000     
  -5.8517132798352599E-002   9.5095435450011603E-002   0.0000000000000000     
  -6.0387358973370740E-002  0.10160851316990048        0.0000000000000000     
  -6.2192215466990046E-002  0.10828044892432745        0.0000000000000000     
  -5.9871744182865408E-002   8.3186009834816693E-002   0.0000000000000000     
  -6.2042081315516300E-002   8.9358695162524843E-002   0.0000000000000000     
  -6.4141335528046961E-002   9.5690103489084480E-002   0.0000000000000000     
  -6.6169506820457413E-002  0.10218023481449559        0.0000000000000000     
  -6.8126595192747677E-002  0.10882908913875816        0.0000000000000000     
  -6.5366130677699211E-002   8.3877647367678998E-002   0.0000000000000000     
  -6.7705098387787058E-002   9.0025329779200150E-002   0.0000000000000000     
  -6.9967029493483837E-002   9.6331940979273195E-002   0.0000000000000000     
  -7.2151923994789577E-002  0.10279748096789817        0.0000000000000000     
  -7.4259781891704221E-002  0.10942194974507508        0.0000000000000000     
  -7.1063730888621210E-002   8.4620766712435055E-002   0.0000000000000000     
  -7.3570588158747924E-002   9.0741119614686672E-002   0.0000000000000000     
  -7.5994214694663276E-002   9.7020947920577721E-002   0.0000000000000000     
  -7.8334610496367196E-002  0.10346025163010823        0.0000000000000000     
  -8.0591775563859727E-002  0.11005903074327821        0.0000000000000000     
  -7.6964544815631392E-002   8.5415367869084879E-002   0.0000000000000000     
  -7.9638550628398877E-002   9.1506064668984449E-002   0.0000000000000000     
  -8.2222891131585180E-002   9.7757124312998087E-002   0.0000000000000000     
  -8.4717566325190286E-002  0.10416854680112578        0.0000000000000000     
  -8.7122576209214181E-002  0.11074033213336751        0.0000000000000000     
  -6.2192215466990046E-002  0.10828044892432745        0.0000000000000000     
  -6.3924961966707813E-002  0.11509811727166436        0.0000000000000000     
  -6.5578858160021333E-002  0.12204839277028305        0.0000000000000000     
  -6.7153904046930571E-002  0.12913127542018349        0.0000000000000000     
  -6.8650099627435568E-002  0.13634676522136574        0.0000000000000000     
  -6.8126595192747677E-002  0.10882908913875816        0.0000000000000000     
  -7.0005624489578630E-002  0.11562360260719995        0.0000000000000000     
  -7.1799618555611247E-002  0.12255071136514870        0.0000000000000000     
  -7.3508577390845500E-002  0.12961041541260437        0.0000000000000000     
  -7.5132500995281390E-002  0.13680271474956701        0.0000000000000000     
  -7.4259781891704221E-002  0.10942194974507508        0.0000000000000000     
  -7.6283576103804665E-002  0.11619208082857389        0.0000000000000000     
  -7.8216279550667678E-002  0.12309460773616458        0.0000000000000000     
  -8.0057892232293301E-002  0.13012953046784714        0.0000000000000000     
  -8.1808414148681480E-002  0.13729684902362160        0.0000000000000000     
  -8.0591775563859727E-002  0.11005903074327821        0.0000000000000000     
  -8.2758816809385877E-002  0.11680355193578616        0.0000000000000000     
  -8.4828841145190639E-002  0.12368008188333073        0.0000000000000000     
  -8.6801848571273960E-002  0.13068862058591188        0.0000000000000000     
  -8.8677839087635907E-002  0.13782916804352954        0.0000000000000000     
  -8.7122576209214181E-002  0.11074033213336751        0.0000000000000000     
  -8.9431346606322307E-002  0.11745801592883678        0.0000000000000000     
  -9.1637303339180076E-002  0.12430713380664712        0.0000000000000000     
  -9.3740446407787531E-002  0.13128768576679847        0.0000000000000000     
  -9.5740775812144602E-002  0.13839967180929089        0.0000000000000000     
  -6.8650099627435568E-002  0.13634676522136574        0.0000000000000000     
  -7.0071764177571175E-002  0.14368334013855383        0.0000000000000000     
  -7.1423216973372242E-002  0.15112947813647173        0.0000000000000000     
  -7.2704458014838769E-002  0.15868517921511949        0.0000000000000000     
  -7.3915487301970784E-002  0.16635044337449714        0.0000000000000000     
  -7.5132500995281390E-002  0.13680271474956701        0.0000000000000000     
  -7.6676696903394057E-002  0.14411589772471015        0.0000000000000000     
  -7.8146472649658696E-002  0.15153825268670743        0.0000000000000000     
  -7.9541828234075296E-002  0.15906977963555868        0.0000000000000000     
  -8.0862763656643855E-002  0.16671047857126409        0.0000000000000000     
  -8.1808414148681480E-002  0.13729684902362160        0.0000000000000000     
  -8.3473866673986874E-002  0.14458499865938773        0.0000000000000000     
  -8.5060271182364033E-002  0.15198241463104520        0.0000000000000000     
  -8.6567627673813000E-002  0.15948909693859412        0.0000000000000000     
  -8.7995936148333731E-002  0.16710504558203437        0.0000000000000000     
  -8.8677839087635907E-002  0.13782916804352954        0.0000000000000000     
  -9.0463273489349613E-002  0.14509064294258650        0.0000000000000000     
  -9.2164612571488266E-002  0.15246196396948516        0.0000000000000000     
  -9.3781856334051880E-002  0.15994313112422567        0.0000000000000000     
  -9.5315004777040385E-002  0.16753414440680800        0.0000000000000000     
  -9.5740775812144602E-002  0.13839967180929089        0.0000000000000000     
  -9.7644917349482246E-002  0.14563283057430645        0.0000000000000000     
  -9.9459496817031340E-002  0.15297690070202732        0.0000000000000000     
 -0.10118451421479190       0.16043188219245347        0.0000000000000000     
 -0.10281996954276387       0.16799777504558494        0.0000000000000000     
  -7.3915487301970784E-002  0.16635044337449714        0.0000000000000000     
  -7.5053966454521087E-002  0.17411530452585916        0.0000000000000000     
  -7.6117557092242563E-002  0.18196979658046014        0.0000000000000000     
  -7.7106259215135170E-002  0.18991391953830006        0.0000000000000000     
  -7.8020072823198922E-002  0.19794767339937891        0.0000000000000000     
  -8.0862763656643855E-002  0.16671047857126409        0.0000000000000000     
  -8.2107143625268927E-002  0.17445089760966412        0.0000000000000000     
  -8.3272832847855194E-002  0.18228158486659923        0.0000000000000000     
  -8.4359831324402529E-002  0.19020254034206954        0.0000000000000000     
  -8.5368139054911057E-002  0.19821376403607499        0.0000000000000000     
  -8.7995936148333731E-002  0.16710504558203437        0.0000000000000000     
  -8.9343798023608423E-002  0.17482083788502012        0.0000000000000000     
  -9.0609814717319298E-002  0.18262705117120540        0.0000000000000000     
  -9.1793986229466398E-002  0.19052368544059023        0.0000000000000000     
  -9.2896312560049654E-002  0.19851074069317456        0.0000000000000000     
  -9.5315004777040385E-002  0.16753414440680800        0.0000000000000000     
  -9.6763929649539560E-002  0.17522512535192730        0.0000000000000000     
  -9.8128502700635001E-002  0.18300619549427866        0.0000000000000000     
  -9.9408723930326723E-002  0.19087735483386217        0.0000000000000000     
 -0.10060459333861477       0.19883860337067774        0.0000000000000000     
 -0.10281996954276387       0.16799777504558494        0.0000000000000000     
 -0.10436753850306230       0.17566376001038550        0.0000000000000000     
 -0.10582889679780220       0.18341901783581893        0.0000000000000000     
 -0.10720404442698356       0.19126354852188523        0.0000000000000000     
 -0.10849298139060637       0.19919735206858441        0.0000000000000000     
  -7.8020072823198922E-002  0.19794767339937891        0.0000000000000000     
  -7.8859856638783671E-002  0.20606389828613356        0.0000000000000000     
  -7.9626469384239285E-002  0.21425543432100078        0.0000000000000000     
  -8.0319911059565763E-002  0.22252228150398068        0.0000000000000000     
  -8.0940181664763119E-002  0.23086443983507313        0.0000000000000000     
  -8.5368139054911057E-002  0.19821376403607499        0.0000000000000000     
  -8.6301073514494481E-002  0.20630726788455100        0.0000000000000000     
  -8.7161952178266680E-002  0.21447506382343320        0.0000000000000000     
  -8.7950775046227628E-002  0.22271715185272145        0.0000000000000000     
  -8.8667542118377324E-002  0.23103353197241583        0.0000000000000000     
  -9.2896312560049654E-002  0.19851074069317456        0.0000000000000000     
  -9.3921690415071896E-002  0.20658052177234457        0.0000000000000000     
  -9.4875016500535939E-002  0.21472533352148629        0.0000000000000000     
  -9.5756290816441783E-002  0.22294517594059973        0.0000000000000000     
  -9.6565513362789415E-002  0.23124004902968498        0.0000000000000000     
 -0.10060459333861477       0.19883860337067774        0.0000000000000000     
 -0.10172170734051596       0.20688365994951416        0.0000000000000000     
 -0.10276566235104709       0.21500624341516006        0.0000000000000000     
 -0.10373645837020823       0.22320635376761561        0.0000000000000000     
 -0.10463409539799934       0.23148399100688066        0.0000000000000000     
 -0.10849298139060637       0.19919735206858441        0.0000000000000000     
 -0.10970112429082657       0.20721668241605976        0.0000000000000000     
 -0.11083388972980010       0.21531779350445457        0.0000000000000000     
 -0.11189127770752695       0.22350068533376896        0.0000000000000000     
 -0.11287328822400711       0.23176535790400279        0.0000000000000000     
  -8.0940181664763119E-002  0.23086443983507313        0.0000000000000000     
  -8.1476625501951588E-002  0.23930252252724596        0.0000000000000000     
  -8.1918586873251459E-002  0.24785714279346691        0.0000000000000000     
  -8.2266065778662731E-002  0.25652830063373588        0.0000000000000000     
  -8.2519062218185418E-002  0.26531599604805312        0.0000000000000000     
  -8.8667542118377324E-002  0.23103353197241583        0.0000000000000000     
  -8.9297843906104651E-002  0.23944973133884379        0.0000000000000000     
  -8.9827270920798480E-002  0.24799127710833291        0.0000000000000000     
  -9.0255823162458768E-002  0.25665816928088320        0.0000000000000000     
  -9.0583500631085556E-002  0.26545040785649465        0.0000000000000000     
  -9.6565513362789415E-002  0.23124004902968498        0.0000000000000000     
  -9.7293493350384258E-002  0.23963643861733019        0.0000000000000000     
  -9.7931039990031707E-002  0.24816083053212379        0.0000000000000000     
  -9.8478153281731831E-002  0.25681322477406571        0.0000000000000000     
  -9.8934833225484575E-002  0.26559362134315584        0.0000000000000000     
 -0.10463409539799934       0.23148399100688066        0.0000000000000000     
 -0.10546357383479037       0.23986264436270530        0.0000000000000000     
 -0.10622989408095122       0.24836580306483952        0.0000000000000000     
 -0.10693305613648192       0.25699346711328341        0.0000000000000000     
 -0.10757306000138245       0.26574563650803690        0.0000000000000000     
 -0.11287328822400711       0.23176535790400279        0.0000000000000000     
 -0.11380808535932296       0.24012834857496893        0.0000000000000000     
 -0.11472383319355696       0.24860619470648010        0.0000000000000000     
 -0.11562053172670902       0.25719889629853637        0.0000000000000000     
 -0.11649818095877917       0.26590645335113766        0.0000000000000000     
  -8.2519062218185418E-002  0.26531599604805312        0.0000000000000000     
  -8.2716567319238044E-002  0.27424662370807051        0.0000000000000000     
  -8.2897572209239156E-002  0.28334657828544030        0.0000000000000000     
  -8.3062076888188743E-002  0.29261585978016241        0.0000000000000000     
  -8.3210081356086846E-002  0.30205446819223691        0.0000000000000000     
  -9.0583500631085556E-002  0.26545040785649465        0.0000000000000000     
  -9.0840654695467080E-002  0.27443102237852129        0.0000000000000000     
  -9.1057636724391613E-002  0.28366304239031737        0.0000000000000000     
  -9.1234446717859130E-002  0.29314646789188287        0.0000000000000000     
  -9.1371084675869657E-002  0.30288129888321769        0.0000000000000000     
  -9.8934833225484575E-002  0.26559362134315584        0.0000000000000000     
  -9.9312113041825509E-002  0.27460029540379044        0.0000000000000000     
  -9.9621025951290201E-002  0.28393152212036532        0.0000000000000000     
  -9.9861571953878681E-002  0.29358730149288059        0.0000000000000000     
 -0.10003375104959092       0.30356763352133620        0.0000000000000000     
 -0.10757306000138245       0.26574563650803690        0.0000000000000000     
 -0.10813094235831329       0.27475444278387778        0.0000000000000000     
 -0.10858773988993495       0.28415201747558416        0.0000000000000000     
 -0.10894345259624742       0.29393836058315559        0.0000000000000000     
 -0.10919808047725070       0.30411347210659245        0.0000000000000000     
 -0.11649818095877917       0.26590645335113766        0.0000000000000000     
 -0.11729714264493046       0.27489346451878360        0.0000000000000000     
 -0.11795777854032584       0.28432452845597367        0.0000000000000000     
 -0.11848008864496533       0.29419964516270797        0.0000000000000000     
 -0.11886407295884895       0.30451881463898639        0.0000000000000000     
 </DataArray>
 <DataArray  type="Float64" Name="stress" NumberOfComponents="3" format="ascii">
   5878856704.1742916       -17859252.659696579       -77830021.142906323     
   5711322824.6597004       -22934970.396852732       -44896967.580960050     
   5545202226.5623837       -23299750.076404810       -19951358.967426825     
   5380494909.8823433       -18953591.698376656       -2993195.3023245926     
   5217200874.6195784       -9896495.2627673149        5977523.4143620245     
   5620952093.8578253        10473693.717530251        125303669.42697507     
   5436939050.7476044        1048989.8381099701        144073237.18178245     
   5253831689.7348080       -5356773.7165522575        159157582.38274026     
   5071630010.8194342       -8743596.9464552402        170556705.02985236     
   4890334014.0014915       -9111479.8515968323        178270605.12311617     
   5312569410.0518169        23663218.047895193        328962214.57565230     
   5124369267.3304558        13577147.221547127        332976097.31682295     
   4936567207.3866701        4818018.9871282578        337606979.89872169     
   4749163230.2204762       -2614166.6553449631        342854862.32134140     
   4562157335.8318491       -8719409.7059068680        348719744.58469868     
   4953708652.7562370        21709320.331388474        533145614.30312467     
   4773613474.4082499        14649501.753475904        521811612.82416391     
   4593408779.5179863        7224628.0346601009        515396833.58050913     
   4413094568.0854568       -565300.82505846024        513901276.57216233     
   4232670840.1106567       -8720284.8256716728        517324941.79910916     
   4544369821.9711027        4612000.5680150986        737853868.60938251     
   4384671671.9809837        4266053.4338753223        710579783.70381093     
   4224356406.1287456        1863053.4260137081        692527143.42810762     
   4063424024.4143887       -2596999.4555802345        683695947.78229177     
   3901874526.8379140       -9114105.2109084129        684086196.76635015     
   5217200874.6195784       -9896495.2627673149        5977523.4143620245     
   5047524595.7728634       -1626133.9830527306        1240161.1655315631     
   4877178730.8402872        4412273.6771137714        1343262.4421887246     
   4706163279.8218279        8218727.7176687717        6286827.2443597708     
   4534478242.7175007        9793228.1386766434        16070855.572029969     
   4890334014.0014915       -9111479.8515968323        178270605.12311617     
   4732761318.8033476       -1677101.0352931023        172330686.62050918     
   4574734768.6960087        4244428.0837161541        171053672.58285636     
   4416254363.6794996        8653107.5054819584        174439563.01015702     
   4257320103.7537975        11548937.229932070        182488357.90240800     
   4562157335.8318491       -8719409.7059068680        348719744.58469868     
   4416180912.6806841       -2273206.8335163593        341828956.20113260     
   4269966365.7970328        3379250.2639214993        339423513.22196633     
   4123513695.1808834        8237961.5863552094        341503415.64720649     
   3976822900.8322449        12302927.133842945        348068663.47683662     
   4232670840.1106567       -8720284.8256716728        517324941.79910916     
   4097783377.4049091       -3414451.3776469231        509734969.90738833     
   3962873522.1433549        1816740.2176971436        506452784.35951614     
   3827941274.3260059        6973289.9603898525        507478385.15549314     
   3692986633.9528513        12055197.850396395        512811772.29532450     
   3901874526.8379140       -9114105.2109084129        684086196.76635015     
   3777568712.9760017       -5100834.6677291393        676048727.73928142     
   3653456237.7349825       -443102.05491566658        672141485.99550557     
   3529537101.1148477        4859092.6275155544        672364471.53503191     
   3405811303.1156068        10805749.379594564        676717684.35785556     
   4534478242.7175007        9793228.1386766434        16070855.572029969     
   4334928384.3425837        2634478.7660591602        9028793.2948381808     
   4135801648.2651243       -3113862.9483449459        6219636.0922297863     
   3937098034.4851227       -7451797.0045654774        7643383.9642272061     
   3738817543.0025716       -10379323.402616978        13300036.910804179     
   4257320103.7537975        11548937.229932070        182488357.90240800     
   4069223788.6035924        5469439.7210817337        174749771.66397515     
   3881431848.8025832        404526.70955252647        171339640.09370971     
   3693944284.3507738       -3645801.8046405315        172257963.19161430     
   3506761095.2481656       -6681545.8215057850        177504740.95767483     
   3976822900.8322449        12302927.133842945        348068663.47683662     
   3800453127.7455430        7384581.1403820515        339495015.17086363     
   3624268983.0597849        3084996.4833931923        335345371.12663162     
   3448270466.7749610       -595826.83714127541        335619731.34414452     
   3272457578.8910832       -3657888.8211910725        340318095.82339424     
   3692986633.9528513        12055197.850396395        512811772.29532450     
   3528616401.7684431        8379903.0239629745        503264523.81549627     
   3364313051.0367203        4927546.3731405735        498236829.19100082     
   3200076581.7576756        1698127.8979228735        497728688.42181945     
   3035906993.9313107       -1308352.4016999006        501740101.50796366     
   3405811303.1156068        10805749.379594564        676717684.35785556     
   3253713610.6722894        8455405.3718343973        666058297.59788370     
   3101564052.7333894        5932176.3788112402        660014014.28681600     
   2949362629.2989159        3236062.4005384445        658584834.42464423     
   2797109340.3688622        367063.43699514866        661770758.01137161     
   3738817543.0025716       -10379323.402616978        13300036.910804179     
   3568294072.0159187       -5593646.1691660881        8013831.9249271145     
   3396942707.8412671       -3567612.8957216740        6919484.6930934554     
   3224763450.4786301       -4301223.5822219849        10016995.215316651     
   3051756299.9279966       -7794478.2287118435        17306363.491605029     
   3506761095.2481656       -6681545.8215057850        177504740.95767483     
   3346732916.1960878       -1898763.7168781757        170490554.06506696     
   3186184113.2934895        1148605.5527086258        167358479.01318929     
   3025114686.5403743        2460561.9872409105        168108515.80203605     
   2863524635.9367456        2037105.5867071152        172740664.43160659     
   3272457578.8910832       -3657888.8211910725        340318095.82339424     
   3122039703.4497924        856501.65750002861        331934407.91778284     
   2971408473.4954586        4659710.4260492325        327123085.93956411     
   2820563889.0280957        7751737.4845033884        325884129.88875371     
   2669505950.0476856        10132582.832796693        328217539.76535577     
   3035906993.9313107       -1308352.4016999006        501740101.50796366     
   2894214433.7770381        2672149.9539452791        492345393.48305988     
   2752615788.4471836        6965701.7243366241        486213305.47223216     
   2611111057.9417815        11572302.909552097        483343837.47548640     
   2469700242.2608013        16491953.509525418        483736989.49281514     
   2797109340.3688622        367063.43699514866        661770758.01137161     
   2663257107.1778102        3548181.1724320650        651723510.76090300     
   2529806058.1486573        8066579.4475355148        644629137.61117887     
   2396756193.2814336        13922258.262400508        640487638.56221449     
   2264107512.5761075        21115217.616924882        639299013.61400998     
   3051756299.9279966       -7794478.2287118435        17306363.491605029     
   2885741330.5821977       -9429449.1034890413        11279208.334619578     
   2720396427.6619349       -8830865.2264810801        6385552.0259294463     
   2555721591.1672091       -5998726.5976816416        2625394.5654897992     
   2391716821.0980182       -933033.21710216999       -1264.0466673374817     
   2863524635.9367456        2037105.5867071152        172740664.43160659     
   2701314763.6276932        1189188.6506921053        165530070.87108341     
   2539468253.1754045        1552477.9038894176        159931348.35082075     
   2377985104.5798826        3126973.3463016748        155944496.87084356     
   2216865317.8411131        5912674.9778801203        153569516.43115380     
   2669505950.0476856        10132582.832796693        328217539.76535577     
   2512467952.4668264        10481753.142967701        319465685.80435473     
   2355486612.1739502        11019781.079744339        312804075.07565045     
   2198561929.1690764        11746666.643201947        308232707.57922506     
   2041693903.4521856        12662409.833262444        305751583.31508493     
   2469700242.2608013        16491953.509525418        483736989.49281514     
   2319200897.0995851        18448244.373309374        473086053.13446617     
   2168451504.6575828        19571044.301137924        465003732.20039731     
   2017452064.9348052        19860353.293055415        459490026.69063330     
   1866202577.9312446        19316171.349017262        456544936.60516679     
   2264107512.5761075        21115217.616924882        639299013.61400998     
   2121513597.5259807        25088662.341752052        626391172.86139667     
   1978362930.6263006        27206267.568068385        616530319.72508287     
   1834655511.8770773        27468033.295898318        609716454.20506942     
   1690391341.2782876        25873959.525193870        605949576.30136442     
   2391716821.0980182       -933033.21710216999       -1264.0466673374817     
   2249279548.8190098        6691811.0806993246       -6569534.6357073588     
   2103593463.9036179        3487279.9238635302       -11089243.580561727     
   1954658566.3518224       -10546626.687649488       -13560390.881270153     
   1802474856.1636262       -35409908.753809929       -13982976.537790366     
   2216865317.8411131        5912674.9778801203        153569516.43115380     
   2078474710.4706585        12828195.183628917        143337662.32167935     
   1937947816.9117694        12622761.427939177        134333755.90355957     
   1795284637.1644840        5296373.7109121084        126557797.17677139     
   1650485171.2287693       -9150967.9675450325        120009786.14132765     
   2041693903.4521856        12662409.833262444        305751583.31508493     
   1905005349.6964707        18165222.558774352        293154093.20783395     
   1767293036.2003324        20255502.816193104        280963936.83909315     
   1628556962.9637518        18933250.605469465        269181114.20886457     
   1488797129.9867148        14198465.926586986        257805625.31715003     
   1866202577.9312446        19316171.349017262        456544936.60516679     
   1728871466.4964867        22702893.206210732        442879758.02276218     
   1591629121.7692759        26385504.088527083        428801299.22604209     
   1454475543.7495952        30364003.995965838        414309560.21500236     
   1317410732.4374559        34638392.928544402        399404540.98965693     
   1690391341.2782876        25873959.525193870        605949576.30136442     
   1550073060.8706868        26441207.125885963        592514656.76645184     
   1410956073.6186111        31012765.244993627        577845843.06439853     
   1273040379.5220423        39588633.882463813        561943135.19519734     
   1136325978.5809977        52168813.038348794        544806533.15885913     
   1802474856.1636262       -35409908.753809929       -13982976.537790366     
   1771540643.9428260       -16608422.565633774       -8350998.1822792711     
   1748661784.2688813        29044238.778727770       -41507270.164027505     
   1733838277.1417646        101548075.27918166       -113451792.48305556     
   1727070122.5614760        200903086.93572956       -224184565.13934293     
   1650485171.2287693       -9150967.9675450325        120009786.14132765     
   1527798536.0567319       -13893998.501573682        135588941.17629176     
   1409272667.4568181       -4767807.1285127997        124810909.67575949     
   1294907565.4290650        18227606.151750505        87675691.639748126     
   1184703229.9734170        55092241.339041114        24183287.068259604     
   1488797129.9867148        14198465.926586986        257805625.31715003     
   1309875397.0113842       -3433883.7853231430        278788273.39439422     
   1131219844.6334932       -20178964.839095235        285844798.73795104     
   952830472.85304236       -36036777.234745085        278975201.34781450     
   774707281.67004895       -51007320.972186655        258179481.22398227     
   1317410732.4374559        34638392.928544402        399404540.98965693     
   1117771226.8067958        14771921.583131969        421246998.47206068     
   914503315.79889214       -17189234.353065610        441594397.02255327     
   707606999.41372848       -61245074.880154401        460446736.64114350     
   497082277.65132046       -117395599.99803603        477804017.32783473     
   1136325978.5809977        52168813.038348794        544806533.15885913     
   951486025.44298470        40723417.603886902        562965116.40927267     
   759123080.95302069        4201384.3295712769        592059704.52955806     
   559237145.11110997       -57397286.784557939        632090297.51973522     
   351828217.91725117       -144072595.73851413        683056895.37978804     
   1727070122.5614760        200903086.93572956       -224184565.13934293     
   1456586093.1374776        184574716.30314022       -96626377.310638800     
   1153935533.2527883        61024577.468202651        60102879.280805767     
   819118442.90739655       -169747329.56906480        246003204.63494721     
   452134822.10129929       -507741004.80866146        461074598.75180858     
   1184703229.9734170        55092241.339041114        24183287.068259604     
   977648338.32005239        11852151.106049120        155575888.39924061     
   732773630.49383068       -157453993.03644437        312799462.23729241     
   450079106.49478292       -452826191.08834183        495854008.58242649     
   129564766.32291275       -874264443.04968047        704739527.43465447     
   774707281.67004895       -51007320.972186655        258179481.22398227     
   621538395.62833023       -124022070.45333764        386810996.05971700     
   424896407.70165837       -341947159.55103254        537933387.14692080     
   184781317.89001760       -704782588.26526535        711546654.48556411     
  -98806873.806576550       -1212528356.5960038        907650798.07567906     
   497082277.65132046       -117395599.99803603        477804017.32783473     
   388256265.06232345       -223047948.37503314        597078945.67085254     
   230303864.87624821       -492454922.07560366        735504654.00971007     
   23225077.093069553       -925616521.09984314        893081142.34438360     
  -232980098.28717500       -1522532745.4476998        1069808410.6748811     
   351828217.91725117       -144072595.73851413        683056895.37978804     
   277801946.62203264       -285225482.65898716        786379737.23261452     
   148996002.01760834       -608977280.61015713        905513262.82563865     
  -34589615.896036923       -1115327989.5920718        1040457472.1588643     
  -272954907.11890727       -1804277609.6047094        1191212365.2322748     
   4544369821.9711027        4612000.5680150986        737853868.60938251     
   4384671671.9809837        4266053.4338753223        710579783.70381093     
   4224356406.1287456        1863053.4260137081        692527143.42810762     
   4063424024.4143887       -2596999.4555802345        683695947.78229177     
   3901874526.8379140       -9114105.2109084129        684086196.76635015     
   4126808240.0461855       -4215508.9416687489        826590804.74094665     
   3988610958.9038110       -4635069.1828923225        807299644.46896744     
   3850160957.7080221       -5897029.6021630764        795343157.09007776     
   3711458236.4588146       -8001390.1994898319        790721342.60429251     
   3572502795.1561933       -10948150.974862814        793434201.01160300     
   3736200128.9385362       -4956977.2061710358        912605994.43484497     
   3614112940.2531071       -7067383.4717237949        901722887.23994029     
   3492137427.3229647       -8805537.2196447849        896287681.20135510     
   3370273590.1481080       -10171438.449939013        896300376.31908441     
   3248521428.7285442       -11165087.162602663        901760972.59313703     
   3372545488.6481528        2387595.7745077610        995899437.69106936     
   3261177616.0288658       -3030889.4326167107        993849512.01672888     
   3150285814.9735689       -6862469.4264240265        995360715.76193058     
   3039870085.4822650       -9107144.2069276571        1000433048.9266709     
   2929930427.5549564       -9764913.7741227150        1009066511.5109490     
   3035844319.1750369        17818210.000363231        1076471134.5096202     
   2929804986.2310939        7474412.9344328642        1083679518.7993362     
   2824606120.6598425       -67826.222508430481        1092562260.7718146     
   2720247722.4612899       -4808507.4704581499        1103119360.4270473     
   2616729791.6354351       -6747630.8094224930        1115350817.7650394     
   3901874526.8379140       -9114105.2109084129        684086196.76635015     
   3777568712.9760017       -5100834.6677291393        676048727.73928142     
   3653456237.7349825       -443102.05491566658        672141485.99550557     
   3529537101.1148477        4859092.6275155544        672364471.53503191     
   3405811303.1156068        10805749.379594564        676717684.35785556     
   3572502795.1561933       -10948150.974862814        793434201.01160300     
   3458747797.0023031       -6490157.5960576534        787360264.22846198     
   3345143071.3476958       -1531255.8863153458        785169483.89843011     
   3231688618.1923752        3928554.1543797255        786861860.02150464     
   3118384437.5363297        9889272.5260037184        792437392.59769893     
   3248521428.7285442       -11165087.162602663        901760972.59313703     
   3144611329.6249962       -6474145.9454663992        897600324.24538052     
   3040808436.8991213       -1425850.1360880136        897075761.52054620     
   2937112750.5509238        3979800.2655402422        900187284.41863537     
   2833524270.5803990        9742805.2594168186        906934892.93964529     
   2929930427.5549564       -9764913.7741227150        1009066511.5109490     
   2835159310.8440700       -5052799.7159655094        1006768907.7900363     
   2740452334.3892512       -126884.80425596237        1007860318.8618598     
   2645809498.1905017        5012830.9610118866        1012340744.7264211     
   2551230802.2478175        10366347.579834461        1020210185.3837123     
   2616729791.6354351       -6747630.8094224930        1115350817.7650394     
   2530391740.6595354       -2226118.9075452089        1114866014.8624320     
   2444074763.8180885        2365640.1091856956        1117523155.9223685     
   2357778861.1111078        7027646.2407965660        1123322240.9448528     
   2271504032.5385823        11759899.487256169        1132263269.9298913     
   3405811303.1156068        10805749.379594564        676717684.35785556     
   3253713610.6722894        8455405.3718343973        666058297.59788370     
   3101564052.7333894        5932176.3788112402        660014014.28681600     
   2949362629.2989159        3236062.4005384445        658584834.42464423     
   2797109340.3688622        367063.43699514866        661770758.01137161     
   3118384437.5363297        9889272.5260037184        792437392.59769893     
   2978329933.9410143        8095503.9207322598        782615189.28133547     
   2838303581.9595337        6395574.0282421112        777313433.46012545     
   2698305381.5918822        4789482.8485161066        776532125.13405681     
   2558335332.8380666        3277230.3815635443        780271264.30313015     
   2833524270.5803990        9742805.2594168186        906934892.93964529     
   2705242510.2509398        8424478.3820002079        898043226.36120725     
   2577068918.6447201        7466713.9153854847        893577351.32416046     
   2449003495.7617412        6869511.8595646620        893537267.82850444     
   2321046241.6020002        6632872.2145409584        897922975.87424219     
   2551230802.2478175        10366347.579834461        1020210185.3837123     
   2434451339.6020622        9442328.7556257248        1012342408.8375018     
   2317860062.7889557        9145596.0402437449        1008805767.8789297     
   2201456971.8084960        9476149.4336870909        1009600262.5080031     
   2085242066.6606820        10433988.935944319        1014725892.7247099     
   2271504032.5385823        11759899.487256169        1132263269.9298913     
   2165956421.9943781        11149055.041602612        1125512736.7102196     
   2060677014.3922312        11432220.402812123        1122998683.1244349     
   1955665809.7321386        12609395.570865512        1124721109.1725349     
   1850922808.0141037        14680580.545776367        1130680014.8545272     
   2797109340.3688622        367063.43699514866        661770758.01137161     
   2663257107.1778102        3548181.1724320650        651723510.76090300     
   2529806058.1486573        8066579.4475355148        644629137.61117887     
   2396756193.2814336        13922258.262400508        640487638.56221449     
   2264107512.5761075        21115217.616924882        639299013.61400998     
   2558335332.8380666        3277230.3815635443        780271264.30313015     
   2432582583.0559235        6577087.8041204214        771320305.09046245     
   2307162288.3839188        10985128.927120805        765619442.16379642     
   2182074448.8220568        16501353.750588536        763168675.52312553     
   2057319064.3703179        23125762.274490476        763968005.16845322     
   2321046241.6020002        6632872.2145409584        897922975.87424219     
   2204242181.4723277        10306231.197304368        889988120.80564618     
   2087701847.4010148        14858677.041243434        885600584.20828962     
   1971425239.3880658        20290209.746409297        884760366.08216751     
   1855412357.4334719        26600829.312752724        887467466.42728496     
   2085242066.6606820        10433988.935944319        1014725892.7247099     
   1978235902.4270229        14735611.351967931        1007726957.9064445     
   1871424735.1999512        19687223.789931178        1004572563.7446564     
   1764808564.9794624        25288826.249841094        1005262710.2393483     
   1658387391.7655492        31540418.731681883        1009797397.3905224     
   1850922808.0141037        14680580.545776367        1130680014.8545272     
   1754563745.9200118        19865228.268126369        1124536816.3928480     
   1658330951.7807169        25470769.173136353        1122535380.7728980     
   1562224425.5962431        31497203.260890126        1124675707.9946671     
   1466244167.3665719        37944530.531307995        1130957798.0581589     
   2264107512.5761075        21115217.616924882        639299013.61400998     
   2121513597.5259807        25088662.341752052        626391172.86139667     
   1978362930.6263006        27206267.568068385        616530319.72508287     
   1834655511.8770773        27468033.295898318        609716454.20506942     
   1690391341.2782876        25873959.525193870        605949576.30136442     
   2057319064.3703179        23125762.274490476        763968005.16845322     
   1922800032.7950046        26759010.599246144        752324188.46566951     
   1787907623.4312627        29147666.295906425        743923339.83491659     
   1652641836.2790842        30291729.364450276        738765459.27619958     
   1517002671.3384852        30191199.804908633        736850546.78950429     
   1855412357.4334719        26600829.312752724        887467466.42728496     
   1729528153.4921913        30061864.485190749        877301610.17898023     
   1603453945.8236020        32889553.899938285        870574702.45843828     
   1477189734.4277101        35083897.557001293        867286743.26565504     
   1350735519.3045092        36644895.456377923        867437732.60062993     
   1658387391.7655492        31540418.731681883        1009797397.3905224     
   1541697959.6175303        34997223.999573290        1001323438.0013446     
   1425001897.8033223        38431930.380194008        996484407.59564948     
   1308299206.3229291        41844537.873520434        995280306.17344677     
   1191589885.1763632        45235046.479599476        997711133.73472667     
   1466244167.3665719        37944530.531307995        1130957798.0581589     
   1359309451.1710265        41565089.142409861        1124389671.9327431     
   1252551479.3704245        45774795.736659348        1121652455.2465456     
   1145970251.9647608        50573650.314032018        1122746147.9995656     
   1039565768.9540406        55961652.874561548        1127670750.1917987     
   1690391341.2782876        25873959.525193870        605949576.30136442     
   1550073060.8706868        26441207.125885963        592514656.76645184     
   1410956073.6186111        31012765.244993627        577845843.06439853     
   1273040379.5220423        39588633.882463813        561943135.19519734     
   1136325978.5809977        52168813.038348794        544806533.15885913     
   1517002671.3384852        30191199.804908633        736850546.78950429     
   1374988311.9443989        28090550.438926041        727682429.44447315     
   1233289597.5011270        27042050.908992529        719059198.65389872     
   1091906528.0086648        27045701.215080440        710980854.41779292     
   950839103.46700895        28101501.357210636        703447396.73615742     
   1350735519.3045092        36644895.456377923        867437732.60062993     
   1212107311.5571177        33401018.313683271        861503161.20663714     
   1072909100.5558225        28257130.324657917        857892257.08872080     
   933140886.30063200        21213231.489306808        856605020.24688447     
   792802668.79154766        12269321.807640761        857641450.68112421     
   1191589885.1763632        45235046.479599476        997711133.73472667     
   1061430059.7088323        42372610.750125110        993976852.05295515     
   929814582.78269601        34658003.491967022        994345018.36887228     
   796743454.39796281        22091224.705142379        998815632.68247330     
   662216674.55461490        4672274.3896211088        1007388694.9937706     
   1039565768.9540406        55961652.874561548        1127670750.1917987     
   922956556.39956117        55005327.748297840        1125103501.9834292     
   804006044.18175054        46244670.410943687        1128417482.4943500     
   682714232.30063486        29679680.862572014        1137612691.7245791     
   559081120.75621104        5310359.1031734347        1152689129.6740961     
   1136325978.5809977        52168813.038348794        544806533.15885913     
   951486025.44298470        40723417.603886902        562965116.40927267     
   759123080.95302069        4201384.3295712769        592059704.52955806     
   559237145.11110997       -57397286.784557939        632090297.51973522     
   351828217.91725117       -144072595.73851413        683056895.37978804     
   950839103.46700895        28101501.357210636        703447396.73615742     
   791662635.11275136        11099919.613061160        721361119.09387565     
   623846564.39504886       -34700336.675902575        749362175.56376052     
   447390891.31390375       -109299267.50967023        787450566.14581597     
   262295615.86931515       -212696872.88826084        835626290.84002769     
   792802668.79154766        12269321.807640761        857641450.68112421     
   656864911.62756693       -11015878.324229956        874007599.29941809     
   511170941.08864677       -66821789.705893040        899612411.27215576     
   355720757.17479104       -155148412.33734804        934455886.59934282     
   190514359.88599086       -275995746.21861064        978538025.28097785     
   662216674.55461490        4672274.3896211088        1007388694.9937706     
   547092854.98743868       -25623976.207990885        1020904557.0258943     
   421096211.03381753       -92162974.760417908        1042810411.6547420     
   284226742.69376165       -194944721.26761737        1073106258.8803105     
   136484449.96728110       -333969215.72957611        1111792098.7026198     
   559081120.75621104        5310359.1031734347        1152689129.6740961     
   462346465.19234097       -32724374.038285911        1162051992.2732949     
   353622374.23055470       -110723891.83947119        1178956176.7115090     
   232908847.87082985       -228688194.30044368        1203401682.9887397     
   100205886.11317793       -386617281.42117286        1235388511.1049640     
   351828217.91725117       -144072595.73851413        683056895.37978804     
   277801946.62203264       -285225482.65898716        786379737.23261452     
   148996002.01760834       -608977280.61015713        905513262.82563865     
  -34589615.896036923       -1115327989.5920718        1040457472.1588643     
  -272954907.11890727       -1804277609.6047094        1191212365.2322748     
   262295615.86931515       -212696872.88826084        835626290.84002769     
   223593617.57350451       -352365293.69803441        885009507.37884438     
   140659486.31641814       -639474157.71207690        945411988.76684642     
   13493222.098055899       -1074023464.9303722        1016833735.0040455     
  -157905175.08158666       -1656013215.3529298        1099274746.0904224     
   190514359.88599086       -275995746.21861064        978538025.28097785     
   173446866.32957095       -418286631.39571661        986287080.24503684     
   122694780.15981743       -672859491.95059311        1000263981.1672890     
   38258101.376720369       -1039714327.8832914        1020468728.0477135     
  -79863170.019726694       -1518851139.1937888        1046901320.8863279     
   136484449.96728110       -333969215.72957611        1111792098.7026198     
   127361692.89022455       -482989495.75200927        1090212455.8312035     
   95101883.547774106       -709133283.32576215        1070069240.0269511     
   39705021.939930022       -1012400578.4508455        1051362451.2898747     
  -38828891.933338821       -1392791381.1272891        1034092089.6199846     
   100205886.11317793       -386617281.42117286        1235388511.1049640     
   85338097.255476296       -546473886.76692915        1196785634.1373053     
   57880796.480314225       -748295531.83754277        1154827765.3458338     
   17833983.787695587       -992082216.63303924        1109514904.7305305     
  -34802340.822399735       -1277833941.1534243        1060847052.2913812     
   3035844319.1750369        17818210.000363231        1076471134.5096202     
   2929804986.2310939        7474412.9344328642        1083679518.7993362     
   2824606120.6598425       -67826.222508430481        1092562260.7718146     
   2720247722.4612899       -4808507.4704581499        1103119360.4270473     
   2616729791.6354351       -6747630.8094224930        1115350817.7650394     
   2697882208.8191552        29210102.391047597        1186772185.2851474     
   2598065109.2320814        18239256.659832954        1186188656.9650836     
   2498930827.7721491        9544471.3524291515        1188861807.8518465     
   2400479364.4393668        3125746.4688545465        1194791637.9454296     
   2302710719.2337270       -1016917.9909107685        1203978147.2458358     
   2332858222.5202637        32483431.998827577        1296206075.5542903     
   2243784274.9302478        22241813.194386125        1287646710.5046375     
   2155235496.2218237        13750757.328586936        1283926346.1858726     
   2067211886.3949945        7010264.4014323950        1285044982.5979996     
   1979713445.4497571        2020334.4129241705        1291002619.7410131     
   1940772360.2783577        27638198.823704004        1404772805.3170528     
   1866962483.3255897        19482082.538092971        1388053679.4180000     
   1793520126.0088594        12551031.705949545        1377755875.7738988     
   1720445288.3281720        6845046.3272768259        1373879394.3847554     
   1647737970.2835257        2364126.4020779133        1376424235.2505643     
   1521624622.0934455        14674402.865678489        1512472374.5734344     
   1467599734.4181089        9960064.6909498572        1487409563.7051678     
   1413784717.1332583        5945294.4845163822        1470350396.6159258     
   1360179570.2388978        2630092.2463821173        1461294873.3056986     
   1306784293.7350307        14457.976555943489        1460242993.7744949     
   2616729791.6354351       -6747630.8094224930        1115350817.7650394     
   2530391740.6595354       -2226118.9075452089        1114866014.8624320     
   2444074763.8180885        2365640.1091856956        1117523155.9223685     
   2357778861.1111078        7027646.2407965660        1123322240.9448528     
   2271504032.5385823        11759899.487256169        1132263269.9298913     
   2302710719.2337270       -1016917.9909107685        1203978147.2458358     
   2224776308.5592518        1936519.0883502960        1200676817.9247065     
   2146914572.8431387        5132206.0288187265        1201059746.7550294     
   2069125512.0853796        8570142.8304678202        1205126933.7368200     
   1991409126.2859817        12250329.493322968        1212878378.8700628     
   1979713445.4497571        2020334.4129241705        1291002619.7410131     
   1911732144.1878893        3870537.4029295444        1284944964.9625702     
   1843875118.7082801        6134993.0004653931        1283113882.5245001     
   1776142369.0109298        8813701.2055324316        1285509372.4268024     
   1708533895.0958350        11906662.018119574        1292131434.6694825     
   1647737970.2835257        2364126.4020779133        1376424235.2505643     
   1591259247.5454426        3575936.0361798406        1367670455.9760294     
   1534956401.4135194        5374001.0241448283        1363685563.2307785     
   1478829431.8877566        7758321.3659751415        1364469557.0148160     
   1422878338.9681449        10728897.061651230        1370022437.3281360     
   1306784293.7350307        14457.976555943489        1460242993.7744949     
   1263357618.6319137        1052714.9881037474        1448853290.9650810     
   1220158420.9588590        2849230.0998635292        1442774788.8738680     
   1177186700.7158575        5404003.3118007183        1442007487.5008554     
   1134442457.9029140        8717034.6239273548        1446551386.8460391     
   2271504032.5385823        11759899.487256169        1132263269.9298913     
   2165956421.9943781        11149055.041602612        1125512736.7102196     
   2060677014.3922312        11432220.402812123        1122998683.1244349     
   1955665809.7321386        12609395.570865512        1124721109.1725349     
   1850922808.0141037        14680580.545776367        1130680014.8545272     
   1991409126.2859817        12250329.493322968        1212878378.8700628     
   1897228771.8132012        11460391.638369322        1205605406.5013299     
   1803285016.7233064        11459118.393022776        1202881326.8788760     
   1709577861.0162888        12246509.757277966        1204706140.0027022     
   1616107304.6921520        13822565.731128335        1211079845.8728073     
   1708533895.0958350        11906662.018119574        1292131434.6694825     
   1626613405.5870349        11205413.421639323        1284299152.3326428     
   1544897911.9019415        11187484.237508953        1281328175.8544784     
   1463387414.0405512        11852874.465724647        1283218505.2349887     
   1382081912.0028651        13201584.106286466        1289970140.4741654     
   1422878338.9681449        10728897.061651230        1370022437.3281360     
   1354110323.3158770        10384120.391413510        1361593974.2041616     
   1285515699.9281359        10617317.936264098        1358339230.0512474     
   1217094468.8049200        11428489.696202874        1360258204.8694000     
   1148846629.9462359        12817635.671241820        1367350898.6586189     
   1134442457.9029140        8717034.6239273548        1446551386.8460391     
   1079719524.9997251        8996512.5476878285        1437489872.1158793     
   1025138380.8018849        9748619.4892765284        1433914489.4691772     
   970699025.30940008        10973355.448714912        1435825238.9059372     
   916401458.52226615        12670720.425988376        1443222120.4261489     
   1850922808.0141037        14680580.545776367        1130680014.8545272     
   1754563745.9200118        19865228.268126369        1124536816.3928480     
   1658330951.7807169        25470769.173136353        1122535380.7728980     
   1562224425.5962431        31497203.260890126        1124675707.9946671     
   1466244167.3665719        37944530.531307995        1130957798.0581589     
   1616107304.6921520        13822565.731128335        1211079845.8728073     
   1530524053.4002993        18326989.818681240        1205446315.0206225     
   1445074868.6183131        23278302.272451699        1204117081.2441654     
   1359759750.3461995        28676503.092463017        1207092144.5434258     
   1274578698.5839503        34521592.278694510        1214371504.9184186     
   1382081912.0028651        13201584.106286466        1289970140.4741654     
   1307738855.0389721        17165099.616758287        1284855375.5457177     
   1233537663.1400042        21601498.676981330        1284207441.9269907     
   1159478336.3059721        26510781.286990523        1288026339.6179941     
   1085560874.5368683        31892947.446753085        1296312068.6187172     
   1148846629.9462359        12817635.671241820        1367350898.6586189     
   1086208150.8360186        16379557.662340760        1362763997.9681332     
   1023719335.3457947        20440358.386747897        1362806462.8213818     
   961380183.47555900        25000037.844447434        1367478293.2183533     
   899190695.22532058        30058596.035476834        1376779489.1590509     
   916401458.52226615        12670720.425988376        1443222120.4261489     
   865931940.79145038        15970363.955452263        1439172182.2878776     
   815619885.23568237        19794881.401741982        1439914143.9273322     
   765465291.85496747        24144272.764873743        1445448005.3445179     
   715468160.64930594        29018538.044847190        1455773766.5394297     
   1466244167.3665719        37944530.531307995        1130957798.0581589     
   1359309451.1710265        41565089.142409861        1124389671.9327431     
   1252551479.3704245        45774795.736659348        1121652455.2465456     
   1145970251.9647608        50573650.314032018        1122746147.9995656     
   1039565768.9540406        55961652.874561548        1127670750.1917987     
   1274578698.5839503        34521592.278694510        1214371504.9184186     
   1177931546.6040614        37201046.501179814        1209094844.5340967     
   1081331116.0933344        40036238.954203963        1208117963.5815141     
   984777407.05177522        43027169.637790382        1211440862.0606763     
   888270419.47937620        46173838.551905215        1219063539.9715688     
   1085560874.5368683        31892947.446753085        1296312068.6187172     
   1000540915.3226908        34033185.845618188        1292175180.5620837     
   915437654.65190101        35895752.722438008        1292806941.9297130     
   830251092.52450049        37480648.077221841        1298207352.7215965     
   744981228.94048643        38787871.909964740        1308376412.9377477     
   899190695.22532058        30058596.035476834        1376779489.1590509     
   827137557.32692051        32061507.175738156        1373630680.0167031     
   754871095.04613161        33353337.041381747        1375719390.2911348     
   682391308.38295412        33934085.632388562        1383045619.9823461     
   609698197.33739018        33803752.948777288        1395609369.0903440     
   715468160.64930594        29018538.044847190        1455773766.5394297     
   657721472.61674809        31286010.491547585        1453461342.8979566     
   599631437.27602005        32408991.911011130        1456855308.6657798     
   541198054.62713361        32387482.303280085        1465955663.8429103     
   482421324.67007262        31221481.668303445        1480762408.4293463     
   1039565768.9540406        55961652.874561548        1127670750.1917987     
   922956556.39956117        55005327.748297840        1125103501.9834292     
   804006044.18175054        46244670.410943687        1128417482.4943500     
   682714232.30063486        29679680.862572014        1137612691.7245791     
   559081120.75621104        5310359.1031734347        1152689129.6740961     
   888270419.47937620        46173838.551905215        1219063539.9715688     
   786651890.64229846        44368319.378998011        1216572943.3532808     
   682732535.47388399        34893379.101634115        1219928381.0398519     
   576512353.97412300        17749017.719781160        1229129853.0312700     
   467991346.14302492       -7064764.7665260136        1244177359.3275435     
   744981228.94048643        38787871.909964740        1308376412.9377477     
   658252828.35097754        36102992.049487352        1306009686.7968524     
   569264074.76210237        25883602.191123366        1309453800.5463653     
   478014968.17385763        8129702.3348575830        1318708754.1862833     
   384505508.58624125       -17158707.519308090        1333774547.7166123     
   609698197.33739018        33803752.948777288        1395609369.0903440     
   537759369.52560151        30209345.759770215        1393413732.3141372     
   463600662.04642051        19215339.679455861        1396993741.0138912     
   387222074.89983761        821734.70780429244        1406349395.1896062     
   308623608.08586556       -24971469.155149430        1421480694.8412771     
   482421324.67007262        31221481.668303445        1480762408.4293463     
   425171514.16616303        26687380.509827644        1478785079.9051273     
   365742297.32683408        14888591.566623643        1482548202.4424241     
   304133674.15207016       -4174885.1613648981        1492051776.0412393     
   240345644.64188242       -30503049.674099669        1507295800.7015648     
   559081120.75621104        5310359.1031734347        1152689129.6740961     
   462346465.19234097       -32724374.038285911        1162051992.2732949     
   353622374.23055470       -110723891.83947119        1178956176.7115090     
   232908847.87082985       -228688194.30044368        1203401682.9887397     
   100205886.11317793       -386617281.42117286        1235388511.1049640     
   467991346.14302492       -7064764.7665260136        1244177359.3275435     
   390392372.16186315       -41477022.114317849        1242690840.9076564     
   302649113.51215702       -109703561.69058262        1247546799.7599933     
   204761570.19391376       -211744383.49530607        1258745235.8845499     
   96729742.207130715       -347599487.52849525        1276286149.2813308     
   384505508.58624125       -17158707.519308090        1333774547.7166123     
   322616945.99695474       -48976070.130720615        1323591324.1285901     
   252429249.46852848       -108457212.53926413        1318551733.2460001     
   173942419.00094324       -195602134.74500495        1318655775.0688479     
   87156454.594218627       -310410836.74787706        1323903449.5971413     
   308623608.08586556       -24971469.155149430        1421480694.8412771     
   259020186.69763887       -55221518.087424815        1404753441.9360766     
   202962782.09966016       -106984844.38553713        1391970977.1695242     
   140451394.29192644       -180261448.04950097        1383133300.5416243     
   71486023.274442777       -275051329.07929802        1378240412.0523794     
   240345644.64188242       -30503049.674099669        1507295800.7015648     
   199602094.26390499       -60213365.984457716        1486177194.3301363     
   154249711.40557268       -105286457.22933760        1467804531.5305798     
   104288496.06686118       -165722323.40881193        1452177812.3028843     
   49718448.247788876       -241520964.52282238        1439297036.6470573     
   100205886.11317793       -386617281.42117286        1235388511.1049640     
   85338097.255476296       -546473886.76692915        1196785634.1373053     
   57880796.480314225       -748295531.83754277        1154827765.3458338     
   17833983.787695587       -992082216.63303924        1109514904.7305305     
  -34802340.822399735       -1277833941.1534243        1060847052.2913812     
   96729742.207130715       -347599487.52849525        1276286149.2813308     
   79793333.688949764       -488775304.93625724        1221969344.6409159     
   51474172.994157374       -667893629.59939921        1165105334.8690488     
   11772260.122721970       -884954461.51799560        1105694119.9657052     
  -39312404.925315738       -1139957800.6919525        1043735699.9309170     
   87156454.594218627       -310410836.74787706        1323903449.5971413     
   70459388.393766522       -432213477.62417239        1255280603.6482687     
   43586329.757533729       -587936093.28640902        1184918339.2603133     
   6537278.6855107248       -777578683.73460329        1112816656.4332719     
  -40687764.822284102       -1001141248.9687228        1038975555.1671337     
   71486023.274442777       -275051329.07929802        1378240412.0523794     
   57336261.369914338       -376788404.83070648        1296719411.1593750     
   34217266.770456731       -508422922.89854819        1214266778.5196495     
   2129039.4760457575       -669954883.28289044        1130882514.1332042     
  -38928420.513300031       -861384285.98370087        1046566618.0000527     
   49718448.247788876       -241520964.52282238        1439297036.6470573     
   40423952.617404789       -322500086.55583119        1346285767.1742182     
   23366984.032927066       -429354118.43581319        1253150652.6470444     
  -1452457.5056689978       -562083060.16286337        1159891693.0655205     
  -34034371.998356909       -720686911.73687792        1066508888.4296565     
   1521624622.0934455        14674402.865678489        1512472374.5734344     
   1467599734.4181089        9960064.6909498572        1487409563.7051678     
   1413784717.1332583        5945294.4845163822        1470350396.6159258     
   1360179570.2388978        2630092.2463821173        1461294873.3056986     
   1306784293.7350307        14457.976555943489        1460242993.7744949     
   1101438642.9179223       -928166.89522081614        1497476648.6239815     
   1067230552.5728790       -2570736.2478687167        1481173803.7036521     
   1033179863.8358788       -3688633.5737048388        1471402135.5302038     
   999286576.70692015       -4281858.8727365732        1468161644.1036370     
   965550691.18600798       -4350412.1449480057        1471452329.4239509     
   707772542.21343470       -8574773.1148076952        1481406425.4731319     
   689174200.53543091       -8407688.2443503439        1473802332.9212186     
   670680791.68302226       -7890827.2885716558        1471256950.0840478     
   652292315.65621138       -7024190.2474677861        1473770276.9616172     
   634008772.45499694       -5807777.1210418940        1481342313.5539260     
   340626319.97998589       -8265415.7930846214        1464261705.1208825     
   333430678.30576295       -7550791.2984990776        1465295151.3578689     
   326287500.67469013       -6661286.6600782424        1469914840.2774518     
   319196787.08676553       -5596901.8778318763        1478120771.8796360     
   312158537.54199493       -4357636.9517380148        1489912946.1644254     
  -23.782428407567327       -94.930049535487825        1446042487.5672424     
  -14.116126674161917       -45.410316029426376        1455652259.0136003     
  -9.1891191542406112       -11.688231289424051        1467375806.1104209     
  -9.0014089588679234        6.2361970898616477        1481213128.8577025     
  -13.552993205734088        8.3629766344617984        1497164227.2554405     
   1306784293.7350307        14457.976555943489        1460242993.7744949     
   1263357618.6319137        1052714.9881037474        1448853290.9650810     
   1220158420.9588590        2849230.0998635292        1442774788.8738680     
   1177186700.7158575        5404003.3118007183        1442007487.5008554     
   1134442457.9029140        8717034.6239273548        1446551386.8460391     
   965550691.18600798       -4350412.1449480057        1471452329.4239509     
   935349847.29659081       -2860971.4864104390        1463410530.3189106     
   905319611.54064298       -802837.04964596033        1460127127.5107474     
   875459983.91817498        1823991.1653863788        1461602120.9994678     
   845770964.42917287        5019513.1586388946        1467835510.7850716     
   634008772.45499694       -5807777.1210418940        1481342313.5539260     
   615454318.57551146       -4340985.1766624749        1476582070.6405745     
   597013603.53291547       -2495063.7759852409        1476027419.6027861     
   578686627.32720888       -270012.91900950670        1479678360.4405601     
   560473389.95838857        2334167.3942524195        1487534893.1538994     
   312158537.54199493       -4357636.9517380148        1489912946.1644254     
   303671032.46867752       -3387326.0826404691        1488367911.9300787     
   295240396.93566430       -2227450.0791951716        1490475665.1499815     
   286866630.94295925       -878008.94138889015        1496236205.8241265     
   278549734.49055314        660997.33074654639        1505649533.9525228     
  -13.552993205734088        8.3629766344617984        1497164227.2554405     
  -11.023908205701236        5.7956626906088733        1498768054.1874242     
  -8.2511042641199488        4.0407455655287547        1503471864.1523342     
  -5.2345751817366644        3.0982452295106042        1511275657.1501722     
  -1.9743330596773427        2.9681220393572705        1522179433.1809359     
   1134442457.9029140        8717034.6239273548        1446551386.8460391     
   1079719524.9997251        8996512.5476878285        1437489872.1158793     
   1025138380.8018849        9748619.4892765284        1433914489.4691772     
   970699025.30940008        10973355.448714912        1435825238.9059372     
   916401458.52226615        12670720.425988376        1443222120.4261489     
   845770964.42917287        5019513.1586388946        1467835510.7850716     
   805192157.03997910        5368139.1177842915        1460045547.9199235     
   764719691.18934953        6071236.8721437156        1457633592.2816005     
   724353566.87729025        7128806.4217383265        1460599643.8701167     
   684093784.10379481        8540847.7665464878        1468943702.6854661     
   560473389.95838857        2334167.3942524195        1487534893.1538994     
   533729779.92139965        2659262.9402298629        1480975127.1258438     
   507057064.25619280        3220673.0588140786        1479685243.4679909     
   480455242.96277523        4018397.7500268221        1483665242.1803508     
   453924316.04113930        5052437.0138493180        1492915123.2629199     
   278549734.49055314        660997.33074654639        1505649533.9525228     
   265332393.64398733        869884.01502603292        1500278609.7336447     
   252150500.00242290        1196928.0493106544        1500069443.0283494     
   239004053.56585953        1642129.4335984588        1505022033.8366385     
   225893054.33429927        2205488.1678967923        1515136382.1585193     
  -1.9743330596773427        2.9681220393572705        1522179433.1809359     
  -1.7922581459232907        2.3421739136076787        1517955995.7433245     
  -1.5719684253923485        1.8436091710037794        1518786190.9626734     
  -1.3134555714118306        1.4724548732317970        1524670018.8389816     
  -1.0167271786392413        1.2286850108773300        1535607479.3722477     
   916401458.52226615        12670720.425988376        1443222120.4261489     
   865931940.79145038        15970363.955452263        1439172182.2878776     
   815619885.23568237        19794881.401741982        1439914143.9273322     
   765465291.85496747        24144272.764873743        1445448005.3445179     
   715468160.64930594        29018538.044847190        1455773766.5394297     
   684093784.10379481        8540847.7665464878        1468943702.6854661     
   645907101.89164484        10915217.176241785        1465841909.5387745     
   607838516.31442797        13683242.035714805        1467610076.4255807     
   569888027.37214172        16844922.344955117        1474248203.3458858     
   532055635.06479132        20400258.103983045        1485756290.2996838     
   453924316.04113930        5052437.0138493180        1492915123.2629199     
   428243498.64986283        6568441.0944550633        1490715548.6443319     
   402641412.35339665        8346882.1577620357        1493463994.3150144     
   377118057.15174079        10387760.203770772        1501160460.2749641     
   351673433.04490048        12691075.232496038        1513804946.5241907     
   225893054.33429927        2205488.1678967923        1515136382.1585193     
   212941131.06609350        2930035.7100571766        1513793099.6045601     
   200028573.35258588        3785801.7678783387        1517475897.5956419     
   187155381.19376284        4772786.3413132429        1526184776.1317630     
   174321554.58963171        5890989.4303906336        1539919735.2129288     
  -1.0167271786392413        1.2286850108773300        1535607479.3722477     
 -0.85965502116081738        1.0230754887951865        1535074562.4194477     
 -0.68800446109471203       0.86605994811592368        1539645786.2674587     
 -0.50179473671490316       0.75757495514900641        1549321150.9162781     
 -0.30100583198128311       0.69768792391751688        1564100656.3659146     
   715468160.64930594        29018538.044847190        1455773766.5394297     
   657721472.61674809        31286010.491547585        1453461342.8979566     
   599631437.27602005        32408991.911011130        1456855308.6657798     
   541198054.62713361        32387482.303280085        1465955663.8429103     
   482421324.67007262        31221481.668303445        1480762408.4293463     
   532055635.06479132        20400258.103983045        1485756290.2996838     
   488935080.59433162        22157700.881134331        1484131875.6822951     
   445557015.64305365        23056775.388887167        1488169642.7809474     
   401921440.21095580        23097481.627239779        1497869591.5956562     
   358028354.29803270        22279819.596177667        1513231722.1264107     
   351673433.04490048        12691075.232496038        1513804946.5241907     
   323052704.44153380        13900596.031611711        1512968683.8961148     
   294260302.18469560        14537871.319151565        1517750395.2908316     
   265296226.27437425        14602901.095084801        1528150080.7083535     
   236160476.71058011        14095685.359438099        1544167740.1486647     
   174321554.58963171        5890989.4303906336        1539919735.2129288     
   160074344.15835252        6514695.9429781809        1539971767.5394058     
   145741296.90093836        6852279.7017832622        1545597566.1954253     
   131322412.81739101        6903740.7068094239        1556797131.1809926     
   116817691.90771392        6669078.9580694586        1573570462.4961030     
 -0.30100583198128311       0.69768792391751688        1564100656.3659146     
 -0.25521489683504639       0.61522215893156884        1565141126.6121778     
 -0.20821174454895511       0.53679711774513561        1571711155.4947362     
 -0.16000108747073757       0.46239639864306648        1583810743.0135822     
 -0.11056878855720931       0.39206920677081392        1601439889.1687183     
   482421324.67007262        31221481.668303445        1480762408.4293463     
   425171514.16616303        26687380.509827644        1478785079.9051273     
   365742297.32683408        14888591.566623643        1482548202.4424241     
   304133674.15207016       -4174885.1613648981        1492051776.0412393     
   240345644.64188242       -30503049.674099669        1507295800.7015648     
   358028354.29803270        22279819.596177667        1513231722.1264107     
   315876252.77963901        19114820.615801230        1509821752.2017965     
   272089596.51064122        10501305.800069436        1511969006.8557391     
   226668385.49102363       -3560724.8510611951        1519673486.0882301     
   179612619.72079805       -23071271.337547518        1532935189.8992765     
   236160476.71058011        14095685.359438099        1544167740.1486647     
   208582579.94067162        12142737.286045112        1539960789.0059383     
   179914980.00497276        6557445.3266858235        1541127835.9587989     
   150157676.90346867       -2660190.5186900422        1547668881.0072489     
   119310670.63617001       -15510170.250048466        1559583924.1512988     
   116817691.90771392        6669078.9580694586        1573570462.4961030     
   103290495.64925930        5771130.5205671899        1569202190.3175392     
   89218447.809819818        3057010.1464435682        1570024689.7516103     
   74601548.389398530       -1473282.1642834321        1576037960.7983050     
   59439797.387994841       -7819746.4116185531        1587242003.4576406     
 -0.11056878855720931       0.39206920677081392        1601439889.1687183     
  -9.4606648522558748E-002  0.31932986474860975        1597545956.1366136     
  -7.4810075716609054E-002  0.25936988362923158        1598659568.2341681     
  -5.1188586336714151E-002  0.21216101220178485        1604780725.4613998     
  -2.3730651143772180E-002  0.17773959959510466        1615909427.8182893     
   240345644.64188242       -30503049.674099669        1507295800.7015648     
   199602094.26390499       -60213365.984457716        1486177194.3301363     
   154249711.40557268       -105286457.22933760        1467804531.5305798     
   104288496.06686118       -165722323.40881193        1452177812.3028843     
   49718448.247788876       -241520964.52282238        1439297036.6470573     
   179612619.72079805       -23071271.337547518        1532935189.8992765     
   148380648.76142153       -45556301.031959474        1507341279.5343196     
   113692053.44199412       -79563411.926542521        1484650651.3158200     
   75546833.762506962       -125092604.02132466        1464863305.2437758     
   33944989.722968265       -182143877.31627721        1447979241.3181741     
   119310670.63617001       -15510170.250048466        1559583924.1512988     
   98039817.879925549       -30635051.693163335        1530858952.5998471     
   74464548.883935973       -53441320.602090493        1505194601.7694376     
   48584863.648206383       -83928976.976821080        1482590871.6600704     
   20400762.172734901       -122098020.81735590        1463047762.2717373     
   59439797.387994841       -7819746.4116185531        1587242003.4576406     
   48579601.619416364       -15449617.968068663        1556730213.5267174     
   36567197.731399313       -26920183.255979098        1529436382.8914304     
   23402585.723958887       -42231442.275301687        1505360511.5517638     
   9085765.5970902927       -61383395.026051290        1484502599.5077348     
  -2.3730651143772180E-002  0.17773959959510466        1615909427.8182893     
  -2.0110653069578197E-002  0.14330734401355485        1584955062.3149369     
  -1.5617315133417041E-002  0.11178830297340005        1557375994.6818004     
  -1.0240160368009656E-002   8.3213930251951951E-002   1533172224.9188759     
  -3.9727378895728360E-003   5.7607810463325693E-002   1512343753.0261703     
   49718448.247788876       -241520964.52282238        1439297036.6470573     
   40423952.617404789       -322500086.55583119        1346285767.1742182     
   23366984.032927066       -429354118.43581319        1253150652.6470444     
  -1452457.5056689978       -562083060.16286337        1159891693.0655205     
  -34034371.998356909       -720686911.73687792        1066508888.4296565     
   33944989.722968265       -182143877.31627721        1447979241.3181741     
   29799238.688433304       -242030682.64081457        1347494414.1323011     
   19831632.938506469       -321323670.34999293        1246226547.0648451     
   4042172.4731909633       -420022840.44380629        1144175640.1158245     
  -17569142.707515955       -538128192.92224407        1041341693.2852197     
   20400762.172734901       -122098020.81735590        1463047762.2717373     
   19520341.941964313       -161457533.57105720        1357353431.9846451     
   14758685.234515831       -213754501.24701530        1250216866.9887433     
   6115792.0503906459       -278988923.84523362        1141638067.2840388     
  -6408337.6104156822       -357160801.36571902        1031617032.8705397     
   9085765.5970902927       -61383395.026051290        1484502599.5077348     
   9587262.3779968619       -80780639.346551016        1375862820.7312479     
   8148140.9209372550       -106646611.12693489        1265121612.4187412     
   4768401.2259177715       -138981310.36718959        1152278974.5702071     
  -551956.70706946403       -177784737.06733352        1037334907.1856272     
  -3.9727378895728360E-003   5.7607810463325693E-002   1512343753.0261703     
  -3.4591377381535237E-003   3.2728581749503452E-002   1403022580.3721323     
  -2.2137511604067624E-003   1.0292110570391328E-002   1290940783.3548372     
  -2.0622240179249537E-004  -9.6063152853621409E-003   1176098361.9742689     
   2.5351515758459831E-003  -2.7057202632254126E-002   1058495316.2304652     
  -23.782428407567327       -94.930049535487825        1446042487.5672424     
  -14.116126674161917       -45.410316029426376        1455652259.0136003     
  -9.1891191542406112       -11.688231289424051        1467375806.1104209     
  -9.0014089588679234        6.2361970898616477        1481213128.8577025     
  -13.552993205734088        8.3629766344617984        1497164227.2554405     
  -340626362.10365200        8265245.3314996511        1464261741.9252510     
  -333430703.80860704        7550709.8900262713        1465295177.4644461     
  -326287518.10557348        6661265.8085160106        1469914855.9048061     
  -319196804.99455076        5596913.0869694948        1478120777.2463202     
  -312158564.47554243        4357651.7253743857        1489912941.4889951     
  -707772579.72748184        8574621.8022702634        1481406495.0115087     
  -689174223.51598787        8407616.1858975887        1473802382.1487138     
  -670680807.74922085        7890809.0871087611        1471256979.4377739     
  -652292332.42718184        7024200.5058867633        1473770286.8786881     
  -634008797.54986739        5807790.4422510266        1481342304.4714615     
  -1101438676.6539199        928034.48225682974        1497476746.8260169     
  -1067230573.2382734        2570673.4772929549        1481173873.0663946     
  -1033179878.1200631        3688618.1475380063        1471402176.7093220     
  -999286591.29929793        4281868.4929677844        1468161657.7548068     
  -965550712.77597499        4350424.5135903955        1471452316.2028396     
  -1521624652.8829632       -14674516.628538251        1512472497.3687763     
  -1467599752.9754510       -9960118.2357694507        1487409650.2174907     
  -1413784729.2180972       -5945307.0101827979        1470350447.7194543     
  -1360179581.6109047       -2630082.9518066049        1461294889.8746681     
  -1306784310.1538644       -14446.060608029366        1460242976.6831331     
  -13.552993205734088        8.3629766344617984        1497164227.2554405     
  -11.023908205701236        5.7956626906088733        1498768054.1874242     
  -8.2511042641199488        4.0407455655287547        1503471864.1523342     
  -5.2345751817366644        3.0982452295106042        1511275657.1501722     
  -1.9743330596773427        2.9681220393572705        1522179433.1809359     
  -312158564.47554243        4357651.7253743857        1489912941.4889951     
  -303671054.30371028        3387336.3527051359        1488367908.3188763     
  -295240413.23675221        2227457.2971204668        1490475662.4884093     
  -286866641.27466846        878014.55862280726        1496236203.9975948     
  -278549738.41745681       -660991.86278140545        1505649532.8464317     
  -634008797.54986739        5807790.4422510266        1481342304.4714615     
  -615454338.85894132        4340994.5271105766        1476582063.6258848     
  -597013618.62147808        2495070.4337591231        1476027414.4266849     
  -578686636.83748066        270018.16218811274        1479678356.8738604     
  -560473393.50694656       -2334162.2875930369        1487534890.9674084     
  -965550712.77597499        4350424.5135903955        1471452316.2028396     
  -935349864.68959999        2860980.3188902140        1463410520.1084490     
  -905319624.40527654        802843.45067906380        1460127119.9671571     
  -875459991.92301214       -1823986.0910607576        1461602115.7789664     
  -845770967.24280214       -5019508.3063117862        1467835507.5438745     
  -1306784310.1538644       -14446.060608029366        1460242976.6831331     
  -1263357631.7956810       -1052706.2719485164        1448853277.7665689     
  -1220158430.5881472       -2849223.6521176696        1442774779.1098285     
  -1177186706.5312665       -5403998.2011318207        1442007480.7129130     
  -1134442459.6250267       -8717029.9189513326        1446551382.5758204     
  -1.9743330596773427        2.9681220393572705        1522179433.1809359     
  -1.7922581459232907        2.3421739136076787        1517955995.7433245     
  -1.5719684253923485        1.8436091710037794        1518786190.9626734     
  -1.3134555714118306        1.4724548732317970        1524670018.8389816     
  -1.0167271786392413        1.2286850108773300        1535607479.3722477     
  -278549738.41745681       -660991.86278140545        1505649532.8464317     
  -265332397.21055153       -869879.73414345086        1500278608.8322697     
  -252150503.13276631       -1196924.7025717795        1500069442.3138061     
  -239004056.18408468       -1642126.7680131793        1505022033.2910392     
  -225893056.36452624       -2205485.9305317998        1515136381.7639701     
  -560473393.50694656       -2334162.2875930369        1487534890.9674084     
  -533729783.16453946       -2659258.9711799920        1480975125.3481474     
  -507057067.11857516       -3220669.9762452245        1479685242.0633171     
  -480455245.36905843       -4018395.3028010726        1483665241.1129210     
  -453924317.91598827       -5052434.9508458078        1492915122.4969573     
  -845770967.24280214       -5019508.3063117862        1467835507.5438745     
  -805192159.65421355       -5368135.3689103425        1460045545.2909508     
  -764719693.52940285       -6071233.9774346948        1457633590.2112002     
  -724353568.86836660       -7128804.1318743825        1460599642.3046167     
  -684093785.67111158       -8540845.8322524130        1468943701.5712042     
  -1134442459.6250267       -8717029.9189513326        1446551382.5758204     
  -1079719526.6795814       -8996508.9273604751        1437489868.6606843     
  -1025138382.3652422       -9748616.7061185837        1433914486.7574573     
  -970699026.68201780       -10973353.255260825        1435825236.8661361     
  -916401459.62990367       -12670718.574772954        1443222118.9867260     
  -1.0167271786392413        1.2286850108773300        1535607479.3722477     
 -0.85965502116081738        1.0230754887951865        1535074562.4194477     
 -0.68800446109471203       0.86605994811592368        1539645786.2674587     
 -0.50179473671490316       0.75757495514900641        1549321150.9162781     
 -0.30100583198128311       0.69768792391751688        1564100656.3659146     
  -225893056.36452624       -2205485.9305317998        1515136381.7639701     
  -212941132.77825761       -2930033.8293783292        1513793099.2898638     
  -200028574.72201270       -3785800.1616411135        1517475897.3512347     
  -187155382.19579613       -4772784.9273275807        1526184775.9480784     
  -174321555.19959900       -5890988.1264152676        1539919735.0803862     
  -453924317.91598827       -5052434.9508458078        1492915122.4969573     
  -428243500.23007321       -6568439.3418110311        1490715548.0328567     
  -402641413.61877793       -8346880.6481755376        1493463993.8388925     
  -377118058.08210099       -10387758.869934380        1501160459.9150569     
  -351673433.62003660       -12691074.007068470        1513804946.2613478     
  -684093785.67111158       -8540845.8322524130        1468943701.5712042     
  -645907103.21509838       -10915215.514205784        1465841908.6484234     
  -607838517.37829387       -13683240.593525350        1467610075.7304299     
  -569888028.16069949       -16844921.070209354        1474248202.8172276     
  -532055635.56232142       -20400256.944284141        1485756289.9088099     
  -916401459.62990367       -12670718.574772954        1443222118.9867260     
  -865931941.73332644       -15970362.346544772        1439172181.1365614     
  -815619886.00056946       -19794879.997716427        1439914143.0258482     
  -765465292.43160808       -24144271.528207302        1445448004.6545820     
  -715468161.02644908       -29018536.938039392        1455773766.0227661     
 -0.30100583198128311       0.69768792391751688        1564100656.3659146     
 -0.25521489683504639       0.61522215893156884        1565141126.6121778     
 -0.20821174454895511       0.53679711774513561        1571711155.4947362     
 -0.16000108747073757       0.46239639864306648        1583810743.0135822     
 -0.11056878855720931       0.39206920677081392        1601439889.1687183     
  -174321555.19959900       -5890988.1264152676        1539919735.0803862     
  -160074344.67703953       -6514694.7970845476        1539971767.4241724     
  -145741297.32520619       -6852278.7035085484        1545597566.0956869     
  -131322413.14411572       -6903739.8457418382        1556797131.0949335     
  -116817692.13374880       -6669078.2237199210        1573570462.4219151     
  -351673433.62003660       -12691074.007068470        1513804946.2613478     
  -323052704.93087560       -13900594.958984688        1512968683.6687181     
  -294260302.58439225       -14537870.386491686        1517750395.0952652     
  -265296226.58058634       -14602900.289590195        1528150080.5409813     
  -236160476.91945538       -14095684.668270342        1544167740.0058687     
  -532055635.56232142       -20400256.944284141        1485756289.9088099     
  -488935081.01672953       -22157699.870498508        1484131875.3458321     
  -445557015.98575675       -23056774.512111694        1488169642.4934647     
  -401921440.46941286       -23097480.869150355        1497869591.3517094     
  -358028354.46768183       -22279818.941571742        1513231721.9205697     
  -715468161.02644908       -29018536.938039392        1455773766.0227661     
  -657721472.93460143       -31286009.531624436        1453461342.4555001     
  -599631437.52930915       -32408991.080394775        1456855308.2902877     
  -541198054.81059182       -32387481.584414542        1465955663.5271270     
  -482421324.77843606       -31221481.043638155        1480762408.1660235     
 -0.11056878855720931       0.39206920677081392        1601439889.1687183     
  -9.4606648522558748E-002  0.31932986474860975        1597545956.1366136     
  -7.4810075716609054E-002  0.25936988362923158        1598659568.2341681     
  -5.1188586336714151E-002  0.21216101220178485        1604780725.4613998     
  -2.3730651143772180E-002  0.17773959959510466        1615909427.8182893     
  -116817692.13374880       -6669078.2237199210        1573570462.4219151     
  -103290495.84111863       -5771129.9181112833        1569202190.2587049     
  -89218447.960882545       -3057009.6538126990        1570024689.7067273     
  -74601548.493038848        1473282.5691759102        1576037960.7659721     
  -59439797.437586837        7819746.7508593611        1587242003.4364467     
  -236160476.91945538       -14095684.668270342        1544167740.0058687     
  -208582580.11712864       -12142736.714390181        1539960788.8926294     
  -179914980.14342958       -6557444.8559301645        1541127835.8721788     
  -150157676.99833682        2660190.9071700349        1547668880.9445121     
  -119310670.68187056        15510170.574854180        1559583924.1096275     
  -358028354.46768183       -22279818.941571742        1513231721.9205697     
  -315876252.92264289       -19114820.069536179        1509821752.0383761     
  -272089596.62244463       -10501305.346965149        1511969006.7305281     
  -226668385.56709185        3560725.2261202782        1519673485.9970214     
  -179612619.75658444        23071271.649718300        1532935189.8378587     
  -482421324.77843606       -31221481.043638155        1480762408.1660235     
  -425171514.25765437       -26687379.983518019        1478785079.6959510     
  -365742297.39794874       -14888591.126983464        1482548202.2817719     
  -304133674.19930160        4174885.5260215998        1492051775.9234943     
  -240345644.66172671        30503049.975453898        1507295800.6211190     
  -2.3730651143772180E-002  0.17773959959510466        1615909427.8182893     
  -2.0110653069578197E-002  0.14330734401355485        1584955062.3149369     
  -1.5617315133417041E-002  0.11178830297340005        1557375994.6818004     
  -1.0240160368009656E-002   8.3213930251951951E-002   1533172224.9188759     
  -3.9727378895728360E-003   5.7607810463325693E-002   1512343753.0261703     
  -59439797.437586837        7819746.7508593611        1587242003.4364467     
  -48579601.661590010        15449618.240494363        1556730213.5095606     
  -36567197.764331475        26920183.467670124        1529436382.8779719     
  -23402585.745823719        42231442.432344176        1505360511.5416734     
  -9085765.6060456783        61383395.134582371        1484502599.5006683     
  -119310670.68187056        15510170.574854180        1559583924.1096275     
  -98039817.918994546        30635051.952893831        1530858952.5663314     
  -74464548.914477766        53441320.803069010        1505194601.7434025     
  -48584863.668320119        83928977.125380576        1482590871.6408391     
  -20400762.180517986        122098020.91984046        1463047762.2586510     
  -179612619.75658444        23071271.649718300        1532935189.8378587     
  -148380648.79232305        45556301.280507796        1507341279.4852500     
  -113692053.46603467        79563412.118058041        1484650651.2780936     
  -75546833.777726337        125092604.16234073        1464863305.2163866     
  -33944989.727391228        182143877.41337660        1447979241.3001161     
  -240345644.66172671        30503049.975453898        1507295800.6211190     
  -199602094.28156963        60213366.223359659        1486177194.2663257     
  -154249711.41900283        105286457.41263038        1467804531.4820507     
  -104288496.07403690        165722323.54323122        1452177812.2682998     
  -49718448.246663049        241520964.61519313        1439297036.6250696     
  -3.9727378895728360E-003   5.7607810463325693E-002   1512343753.0261703     
  -3.4591377381535237E-003   3.2728581749503452E-002   1403022580.3721323     
  -2.2137511604067624E-003   1.0292110570391328E-002   1290940783.3548372     
  -2.0622240179249537E-004  -9.6063152853621409E-003   1176098361.9742689     
   2.5351515758459831E-003  -2.7057202632254126E-002   1058495316.2304652     
  -9085765.6060456783        61383395.134582371        1484502599.5006683     
  -9587262.3854894079        80780639.407637581        1375862820.7263966     
  -8148140.9258046523        106646611.14445199        1265121612.4159007     
  -4768401.2269916609        138981310.34502801        1152278974.5691774     
   551956.71093834937        177784737.00932819        1037334907.1862185     
  -20400762.180517986        122098020.91984046        1463047762.2586510     
  -19520341.948390946        161457533.62831518        1357353431.9755888     
  -14758685.238763392        213754501.26178902        1250216866.9833338     
  -6115792.0516272932        278988923.82029420        1141638067.2818828     
   6408337.6130101830        357160801.30380082        1031617032.8712212     
  -33944989.727391228        182143877.41337660        1447979241.3001161     
  -29799238.692181468        242030682.69470441        1347494414.1197135     
  -19831632.941093534        321323670.36229420        1246226547.0571465     
  -4042172.4741113186        420022840.41619903        1144175640.1124084     
   17569142.708755195        538128192.85638213        1041341693.2855041     
  -49718448.246663049        241520964.61519313        1439297036.6250696     
  -40423952.616849199        322500086.60684383        1346285767.1587691     
  -23366984.032771140        429354118.44604182        1253150652.6373188     
   1452457.5055735409        562083060.13278627        1159891693.0607395     
   34034371.998173177        720686911.66706514        1066508888.4290211     
  -1521624652.8829632       -14674516.628538251        1512472497.3687763     
  -1467599752.9754510       -9960118.2357694507        1487409650.2174907     
  -1413784729.2180972       -5945307.0101827979        1470350447.7194543     
  -1360179581.6109047       -2630082.9518066049        1461294889.8746681     
  -1306784310.1538644       -14446.060608029366        1460242976.6831331     
  -1940772380.0084753       -27638263.817676783        1404772947.4363971     
  -1866962495.4670649       -19482111.217463493        1388053779.5007179     
  -1793520134.1153193       -12551035.916149974        1377755934.8899972     
  -1720445295.9532514       -6845037.9137523174        1373879413.6042354     
  -1647737980.9808471       -2364117.2102349997        1376424215.6434290     
  -2332858232.3873549       -32483448.582827091        1296206227.0529335     
  -2243784281.2928772       -22241817.199418902        1287646816.7867677     
  -2155235500.4275799       -13750753.246625781        1283926408.5172679     
  -2067211889.7914674       -7010256.7244522572        1285045002.2444296     
  -1979713449.3845398       -2020327.6328831911        1291002597.9682596     
  -2697882210.0195999       -29210070.923986077        1186772336.2184012     
  -2598065110.4528928       -18239236.181636930        1186188762.0756452     
  -2498930828.1548767       -9544459.0016138554        1188861868.6012635     
  -2400479363.1255636       -3125739.3839194775        1194791655.7952514     
  -2302710715.3649435        1016922.6714593172        1203978123.6576116     
  -3035844312.9052119       -17818130.841155291        1076471274.9327884     
  -2929804982.9471011       -7474368.1641077995        1083679615.3673475     
  -2824606117.2972102        67846.818893671036        1092562315.1419826     
  -2720247715.9555311        4808514.1078494787        1103119374.2566991     
  -2616729778.9220572        6747633.7027856112        1115350792.7114956     
  -1306784310.1538644       -14446.060608029366        1460242976.6831331     
  -1263357631.7956810       -1052706.2719485164        1448853277.7665689     
  -1220158430.5881472       -2849223.6521176696        1442774779.1098285     
  -1177186706.5312665       -5403998.2011318207        1442007480.7129130     
  -1134442459.6250267       -8717029.9189513326        1446551382.5758204     
  -1647737980.9808471       -2364117.2102349997        1376424215.6434290     
  -1591259256.1246226       -3575929.5315604210        1367670440.8922119     
  -1534956407.6325560       -5373996.4000739455        1363685552.1358149     
  -1478829435.5046566       -7758317.8158088326        1364469549.3742383     
  -1422878339.7409074       -10728893.778716505        1370022432.6074789     
  -1979713449.3845398       -2020327.6328831911        1291002597.9682596     
  -1911732147.3588557       -3870532.8627588749        1284944948.2999563     
  -1843875120.9108381       -6134990.0181956291        1283113870.3614709     
  -1776142370.0404940       -8813699.0992065668        1285509364.1528008     
  -1708533894.7478197       -11906660.105782747        1292131429.6739454     
  -2302710715.3649435        1016922.6714593172        1203978123.6576116     
  -2224776305.4983764       -1936516.2655338049        1200676799.9897952     
  -2146914570.4229932       -5132204.5064774752        1201059733.7867920     
  -2069125510.1387880       -8570142.0513447523        1205126925.0486014     
  -1991409124.6457701       -12250328.900164723        1212878373.7752242     
  -2616729778.9220572        6747633.7027856112        1115350792.7114956     
  -2530391730.5431910        2226120.2600910664        1114865995.9617331     
  -2444074756.1690202       -2365639.8649200201        1117523142.4117830     
  -2357778855.7995415       -7027646.6722339392        1123322232.0616386     
  -2271504029.4347539       -11759900.161856651        1132263264.9113057     
  -1134442459.6250267       -8717029.9189513326        1446551382.5758204     
  -1079719526.6795814       -8996508.9273604751        1437489868.6606843     
  -1025138382.3652422       -9748616.7061185837        1433914486.7574573     
  -970699026.68201780       -10973353.255260825        1435825236.8661361     
  -916401459.62990367       -12670718.574772954        1443222118.9867260     
  -1422878339.7409074       -10728893.778716505        1370022432.6074789     
  -1354110324.1354153       -10384117.802179456        1361593970.4224060     
  -1285515700.7458043       -10617315.878579795        1358339227.1212428     
  -1217094469.5720820       -11428488.007943153        1360258202.7039897     
  -1148846630.6142452       -12817634.190256238        1367350897.1706519     
  -1708533894.7478197       -11906660.105782747        1292131429.6739454     
  -1626613405.4194112       -11205411.825441241        1284299148.3700283     
  -1544897911.8916624       -11187482.880639315        1281328172.8220236     
  -1463387414.1645713       -11852873.271359444        1283218503.0299385     
  -1382081912.2381439       -13201582.997619987        1289970138.9937682     
  -1991409124.6457701       -12250328.900164723        1212878373.7752242     
  -1897228770.5315750       -11460390.997168064        1205605402.5035565     
  -1803285015.8028092       -11459117.712274194        1202881323.8598106     
  -1709577860.4594784       -12246509.045497775        1204706137.8439865     
  -1616107304.5015872       -13822564.996847272        1211079844.4560819     
  -2271504029.4347539       -11759900.161856651        1132263264.9113057     
  -2165956419.4718938       -11149055.317321420        1125512732.8229854     
  -2060677012.4792528       -11432220.373512983        1122998680.2345941     
  -1955665808.4568093       -12609395.330363870        1124721107.1461272     
  -1850922807.4045815       -14680580.187932968        1130680013.5575876     
  -916401459.62990367       -12670718.574772954        1443222118.9867260     
  -865931941.73332644       -15970362.346544772        1439172181.1365614     
  -815619886.00056946       -19794879.997716427        1439914143.0258482     
  -765465292.43160808       -24144271.528207302        1445448004.6545820     
  -715468161.02644908       -29018536.938039392        1455773766.0227661     
  -1148846630.6142452       -12817634.190256238        1367350897.1706519     
  -1086208151.4057672       -16379556.313710928        1362763996.7726064     
  -1023719335.8163497       -20440357.167364001        1362806461.8792708     
  -961380183.84598899       -25000036.751211822        1367478292.4906480     
  -899190695.49468589       -30058595.065248817        1376779488.6067305     
  -1382081912.2381439       -13201582.997619987        1289970138.9937682     
  -1307738855.2455804       -17165098.531083882        1284855374.3500466     
  -1233537663.3273289       -21601497.645584583        1284207440.9762962     
  -1159478336.4833891       -26510780.341125488        1288026338.8725209     
  -1085560874.7137666       -31892946.617718160        1296312068.0387139     
  -1616107304.5015872       -13822564.996847272        1211079844.4560819     
  -1530524053.2527645       -18326988.998663843        1205446313.8688858     
  -1445074868.5335097       -23278301.432375669        1204117080.3169236     
  -1359759750.3438177       -28676502.297965884        1207092143.8001926     
  -1274578698.6836903       -34521591.595433652        1214371504.3186975     
  -1850922807.4045815       -14680580.187932968        1130680013.5575876     
  -1754563745.4273205       -19865227.716455460        1124536815.3291209     
  -1658330951.4348736       -25470768.527684987        1122535379.9011517     
  -1562224425.4272561       -31497202.621681869        1124675707.2736759     
  -1466244167.4044552       -37944529.998401642        1130957797.4466968     
  -715468161.02644908       -29018536.938039392        1455773766.0227661     
  -657721472.93460143       -31286009.531624436        1453461342.4555001     
  -599631437.52930915       -32408991.080394775        1456855308.2902877     
  -541198054.81059182       -32387481.584414542        1465955663.5271270     
  -482421324.77843606       -31221481.043638155        1480762408.1660235     
  -899190695.49468589       -30058595.065248817        1376779488.6067305     
  -827137557.54903352       -32061506.335579067        1373630679.5399520     
  -754871095.21591318       -33353336.314361423        1375719389.8840587     
  -682391308.49532676       -33934085.001581788        1383045619.6390607     
  -609698197.38727641       -33803752.397261292        1395609368.8049543     
  -1085560874.7137666       -31892946.617718160        1296312068.0387139     
  -1000540915.4604813       -34033185.128645182        1292175180.0587773     
  -915437654.74570572       -35895752.101271391        1292806941.4985728     
  -830251092.56943429       -37480647.535577476        1298207352.3581026     
  -744981228.93166888       -38787871.431570023        1308376412.6373596     
  -1274578698.6836903       -34521591.595433652        1214371504.3186975     
  -1177931546.6689501       -37201045.910810888        1209094844.0119820     
  -1081331116.1186922       -40036238.441139460        1208117963.1338370     
  -984777407.03290701       -43027169.186367750        1211440861.6842573     
  -888270419.41160035       -46173838.146530449        1219063539.6632495     
  -1466244167.4044552       -37944529.998401642        1130957797.4466968     
  -1359309451.1744373       -41565088.682095468        1124389671.3995659     
  -1252551479.3348763       -45774795.333978474        1121652454.7898428     
  -1145970251.8857543       -50573649.953993261        1122746147.6175289     
  -1039565768.8270772       -55961652.542154551        1127670749.8826230     
  -482421324.77843606       -31221481.043638155        1480762408.1660235     
  -425171514.25765437       -26687379.983518019        1478785079.6959510     
  -365742297.39794874       -14888591.126983464        1482548202.2817719     
  -304133674.19930160        4174885.5260215998        1492051775.9234943     
  -240345644.66172671        30503049.975453898        1507295800.6211190     
  -609698197.38727641       -33803752.397261292        1395609368.8049543     
  -537759369.56911218       -30209345.292664200        1393413732.0865417     
  -463600662.08088088       -19215339.287853822        1396993740.8384151     
  -387222074.92258078       -821734.38281224668        1406349395.0605674     
  -308623608.09421754        24971469.422446370        1421480694.7530112     
  -744981228.93166888       -38787871.431570023        1308376412.6373596     
  -658252828.34644771       -36102991.641576946        1306009686.5569334     
  -569264074.76002693       -25883601.847596705        1309453800.3611808     
  -478014968.17240512       -8129702.0496100783        1318708754.0500908     
  -384505508.58359390        17158707.752346516        1333774547.6236720     
  -888270419.41160035       -46173838.146530449        1219063539.6632495     
  -786651890.58965588       -44368319.030246526        1216572943.1071410     
  -682732535.43538415       -34893378.806205422        1219928380.8500745     
  -576512353.94878221       -17749017.474393517        1229129852.8920608     
  -467991346.12984258        7064764.9652049839        1244177359.2330992     
  -1039565768.8270772       -55961652.542154551        1127670749.8826230     
  -922956556.29874814       -55005327.458694696        1125103501.7371416     
  -804006044.10694623       -46244670.163655579        1128417482.3050911     
  -682714232.25168872       -29679680.657100767        1137612691.5864780     
  -559081120.73297477       -5310358.9390216172        1152689129.5812986     
  -240345644.66172671        30503049.975453898        1507295800.6211190     
  -199602094.28156963        60213366.223359659        1486177194.2663257     
  -154249711.41900283        105286457.41263038        1467804531.4820507     
  -104288496.07403690        165722323.54323122        1452177812.2682998     
  -49718448.246663049        241520964.61519313        1439297036.6250696     
  -308623608.09421754        24971469.422446370        1421480694.7530112     
  -259020186.70506027        55221518.299554422        1404753441.8664751     
  -202962782.10443372        106984844.54822588        1391970977.1172872     
  -140451394.29235038        180261448.16841990        1383133300.5054538     
  -71486023.268812314        275051329.16013056        1378240412.0309741     
  -384505508.58359390        17158707.752346516        1333774547.6236720     
  -322616945.99448407        48976070.315989211        1323591324.0559525     
  -252429249.46486133        108457212.68133567        1318551733.1924181     
  -173942418.99473464        195602134.84836736        1318655775.0330637     
  -87156454.584095865        310410836.81710094        1323903449.5778887     
  -467991346.12984258        7064764.9652049839        1244177359.2330992     
  -390392372.14984381        41477022.272646576        1242690840.8347640     
  -302649113.50028622        109703561.81195630        1247546799.7074356     
  -204761570.18117166        211744383.58312237        1258745235.8511155     
  -96729742.192492858        347599487.58616400        1276286149.2658048     
  -559081120.73297477       -5310358.9390216172        1152689129.5812986     
  -462346465.17116123        32724374.169469982        1162051992.2029026     
  -353622374.21072221        110723891.94004358        1178956176.6623430     
  -232908847.85167980        228688194.37263015        1203401682.9596241     
  -100205886.09402660        386617281.46725273        1235388511.0947387     
  -49718448.246663049        241520964.61519313        1439297036.6250696     
  -40423952.616849199        322500086.60684383        1346285767.1587691     
  -23366984.032771140        429354118.44604182        1253150652.6373188     
   1452457.5055735409        562083060.13278627        1159891693.0607395     
   34034371.998173177        720686911.66706514        1066508888.4290211     
  -71486023.268812314        275051329.16013056        1378240412.0309741     
  -57336261.365947202        376788404.87355167        1296719411.1445253     
  -34217266.768211931        508422922.90320015        1214266778.5105357     
  -2129039.4756213725        669954883.24902201        1130882514.1290054     
   38928420.511822641        861384285.91105533        1046566617.9999418     
  -87156454.584095865        310410836.81710094        1323903449.5778887     
  -70459388.386470616        432213477.65881854        1255280603.6353316     
  -43586329.753387898        587936093.28539789        1184918339.2528293     
  -6537278.6848508716        777578683.69682407        1112816656.4303794     
   40687764.819148064        1001141248.8931217        1038975555.1679895     
  -96729742.192492858        347599487.58616400        1276286149.2658048     
  -79793333.678424537        488775304.96264958        1221969344.6311719     
  -51474172.988289326        667893629.59269142        1165105334.8641763     
  -11772260.122099042        884954461.47623897        1105694119.9648421     
   39312404.920134962        1139957800.6132932        1043735699.9331434     
  -100205886.09402660        386617281.46725273        1235388511.0947387     
  -85338097.241791308        546473886.78509009        1196785634.1320531     
  -57880796.472905844        748295531.82509208        1154827765.3446078     
  -17833983.787377298        992082216.58723342        1109514904.7324028     
   34802340.814810872        1277833941.0715847        1060847052.2954499     
  -3035844312.9052119       -17818130.841155291        1076471274.9327884     
  -2929804982.9471011       -7474368.1641077995        1083679615.3673475     
  -2824606117.2972102        67846.818893671036        1092562315.1419826     
  -2720247715.9555311        4808514.1078494787        1103119374.2566991     
  -2616729778.9220572        6747633.7027856112        1115350792.7114956     
  -3372545476.5625215       -2387481.8173401356        995899560.74609065     
  -3261177608.9871707        3030951.0969815254        993849597.54700661     
  -3150285808.1685948        6862494.8220480680        995360764.65866077     
  -3039870074.1067977        9107149.3578554392        1000433062.0810491     
  -2929930406.8017745        9764914.7044216394        1009066489.8141776     
  -3736200104.9752374        4957127.7798531055        912606092.45648086     
  -3614112925.5807667        7067463.1920130253        901722956.10043001     
  -3492137415.3916340        8805567.9197041988        896287721.02577341     
  -3370273574.4078422        10171441.962931395        896300387.23251450     
  -3248521402.6293883        11165085.321690321        901760954.72064769     
  -4126808198.1433735        4215697.9504201412        826590870.06395423     
  -3988610932.7278996        4635168.1209819317        807299691.02761519     
  -3850160938.9663301        5897066.1118628979        795343184.24332523     
  -3711458216.8586631        8001391.9230642319        790721349.71108842     
  -3572502766.4049039        10948145.554590940        793434187.43090427     
  -4544369756.0669155       -4611771.3056347370        737853893.56851864     
  -4384671630.4285603       -4265934.1161007881        710579802.32856131     
  -4224356378.8926768       -1863010.6014709473        692527154.31131291     
  -4063424001.4592600        2596999.2382755280        683695949.51677716     
  -3901874498.1283135        9114095.4031167030        684086187.94494760     
  -2616729778.9220572        6747633.7027856112        1115350792.7114956     
  -2530391730.5431910        2226120.2600910664        1114865995.9617331     
  -2444074756.1690202       -2365639.8649200201        1117523142.4117830     
  -2357778855.7995415       -7027646.6722339392        1123322232.0616386     
  -2271504029.4347539       -11759900.161856651        1132263264.9113057     
  -2929930406.8017745        9764914.7044216394        1009066489.8141776     
  -2835159294.2708483        5052799.7460719347        1006768891.4961995     
  -2740452321.9321699        126884.14688467979        1007860307.3682272     
  -2645809489.7857432       -5012832.0931385756        1012340737.4302592     
  -2551230797.8315673       -10366348.973991036        1020210181.6822975     
  -3248521402.6293883        11165085.321690321        901760954.72064769     
  -3144611308.8315563        6474143.9821302891        897600310.94897044     
  -3040808421.4135323        1425848.0432120562        897075752.35749590     
  -2937112740.3753119       -3979802.4950569868        900187278.94622123     
  -2833524265.7168994       -9742807.6326780319        906934890.71514654     
  -3572502766.4049039        10948145.554590940        793434187.43090427     
  -3458747774.2253232        6490152.9682648182        787360254.32004714     
  -3345143054.6131010        1531251.8240742683        785169477.37958694     
  -3231688607.5682387       -3928557.8779759407        786861856.60952401     
  -3118384433.0907416       -9889276.1379195452        792437392.00985682     
  -3901874498.1283135        9114095.4031167030        684086187.94494760     
  -3777568690.4521327        5100826.7045063972        676048721.60942781     
  -3653456221.5308738        443095.48949050903        672141482.43450093     
  -3529537091.3645329       -4859098.2419183254        672364470.42016768     
  -3405811299.9531083       -10805754.489718437        676717685.56642604     
  -2271504029.4347539       -11759900.161856651        1132263264.9113057     
  -2165956419.4718938       -11149055.317321420        1125512732.8229854     
  -2060677012.4792528       -11432220.373512983        1122998680.2345941     
  -1955665808.4568093       -12609395.330363870        1124721107.1461272     
  -1850922807.4045815       -14680580.187932968        1130680013.5575876     
  -2551230797.8315673       -10366348.973991036        1020210181.6822975     
  -2434451335.9490466       -9442329.4356603622        1012342405.9419030     
  -2317860059.9573421       -9145596.2000597715        1008805765.7104459     
  -2201456969.8564577       -9476149.2671855688        1009600260.9879261     
  -2085242065.6463933       -10433988.637041688        1014725891.7743475     
  -2833524265.7168994       -9742807.6326780319        906934890.71514654     
  -2705242506.1746769       -8424479.6785244942        898043224.58196545     
  -2577068915.4438858       -7466714.4291453362        893577349.96673501     
  -2449003493.5245237       -6869511.8845257759        893537266.86945093     
  -2321046240.4165893       -6632872.0446691513        897922975.29011846     
  -3118384433.0907416       -9889276.1379195452        792437392.00985682     
  -2978329930.1487923       -8095506.0459430218        782615188.74317956     
  -2838303578.9388766       -6395575.0607570410        777313433.00345707     
  -2698305379.4610052       -4789483.1823806763        776532124.79069769     
  -2558335331.7151766       -3277230.4108121395        780271264.10489738     
  -3405811299.9531083       -10805754.489718437        676717685.56642604     
  -3253713607.8713918       -8455408.5379037857        666058298.42553318     
  -3101564050.4423265       -5932178.0949232578        660014014.82061648     
  -2949362627.6659126       -3236063.1607792377        658584834.75166821     
  -2797109339.5421457       -367063.73546290398        661770758.21869040     
  -1850922807.4045815       -14680580.187932968        1130680013.5575876     
  -1754563745.4273205       -19865227.716455460        1124536815.3291209     
  -1658330951.4348736       -25470768.527684987        1122535379.9011517     
  -1562224425.4272561       -31497202.621681869        1124675707.2736759     
  -1466244167.4044552       -37944529.998401642        1130957797.4466968     
  -2085242065.6463933       -10433988.637041688        1014725891.7743475     
  -1978235901.6043613       -14735610.837557673        1007726957.0797732     
  -1871424734.6035211       -19687223.175391436        1004572563.0203751     
  -1764808564.6438868       -25288825.650569081        1005262709.5961491     
  -1658387391.7254553       -31540418.263095677        1009797396.8071033     
  -2321046240.4165893       -6632872.0446691513        897922975.29011846     
  -2204242180.4964099       -10306230.773149014        889988120.23032200     
  -2087701846.6738083       -14858676.493569970        885600583.64038169     
  -1971425238.9487901       -20290209.205941439        884760365.52029514     
  -1855412357.3213606       -26600828.910251021        887467465.87006021     
  -2558335331.7151766       -3277230.4108121395        780271264.10489738     
  -2432582582.1034765       -6577087.5232491493        771320304.78077137     
  -2307162287.6457467       -10985128.482253790        765619441.76117587     
  -2182074448.3419752       -16501353.287783146        763168675.04611540     
  -2057319064.1921775       -23125761.939895034        763968004.63559043     
  -2797109339.5421457       -367063.73546290398        661770758.21869040     
  -2663257106.4255648       -3548181.0878657103        651723510.73112047     
  -2529806057.5193319       -8066579.1414283514        644629137.38275385     
  -2396756192.8234386       -13922257.896124244        640487638.17360806     
  -2264107512.3378973       -21115217.351989865        639299013.10367453     
  -1466244167.4044552       -37944529.998401642        1130957797.4466968     
  -1359309451.1744373       -41565088.682095468        1124389671.3995659     
  -1252551479.3348763       -45774795.333978474        1121652454.7898428     
  -1145970251.8857543       -50573649.953993261        1122746147.6175289     
  -1039565768.8270772       -55961652.542154551        1127670749.8826230     
  -1658387391.7254553       -31540418.263095677        1009797396.8071033     
  -1541697959.5512674       -34997223.608602166        1001323437.4994116     
  -1425001897.7049246       -38431930.046923101        996484407.17178309     
  -1308299206.1864209       -41844537.578048766        995280305.82421839     
  -1191589884.9957652       -45235046.201988876        997711133.45671690     
  -1855412357.3213606       -26600828.910251021        887467465.87006021     
  -1729528153.3668454       -30061864.166723251        877301609.70818567     
  -1603453945.6775699       -32889553.640661001        870574702.06902552     
  -1477189734.2535276       -35083897.332049787        867286742.95258439     
  -1350735519.0947313       -36644895.240913212        867437732.35886621     
  -2057319064.1921775       -23125761.939895034        763968004.63559043     
  -1922800032.6211758       -26759010.356474996        752324188.02589834     
  -1787907623.2528079       -29147666.115166187        743923339.48157644     
  -1652641836.0870738       -30291729.215982556        738765459.00262690     
  -1517002671.1239786       -30191199.658915341        736850546.58905566     
  -2264107512.3378973       -21115217.351989865        639299013.10367453     
  -2121513597.3142552       -25088662.177844763        626391172.45253265     
  -1978362930.4306386       -27206267.470457792        616530319.40942383     
  -1834655511.6870575       -27468033.229850411        609716453.97434366     
  -1690391341.0835042       -25873959.456007540        605949576.14729023     
  -1039565768.8270772       -55961652.542154551        1127670749.8826230     
  -922956556.29874814       -55005327.458694696        1125103501.7371416     
  -804006044.10694623       -46244670.163655579        1128417482.3050911     
  -682714232.25168872       -29679680.657100767        1137612691.5864780     
  -559081120.73297477       -5310358.9390216172        1152689129.5812986     
  -1191589884.9957652       -45235046.201988876        997711133.45671690     
  -1061430059.5647061       -42372610.506058693        993976851.82997727     
  -929814582.67544007       -34658003.282763004        994345018.19671285     
  -796743454.32793307       -22091224.531997144        998815632.55693233     
  -662216674.52221704       -4672274.2538775504        1007388694.9106193     
  -1350735519.0947313       -36644895.240913212        867437732.35886621     
  -1212107311.3893979       -33401018.121072829        861503161.01141191     
  -1072909100.4310819       -28257130.157961547        857892256.93748569     
  -933140886.21978641       -21213231.351596177        856605020.13708687     
  -792802668.75552154       -12269321.701975495        857641450.61020088     
  -1517002671.1239786       -30191199.658915341        736850546.58905566     
  -1374988311.7728066       -28090550.303683758        727682429.28144276     
  -1233289597.3738940       -27042050.789327800        719059198.52740145     
  -1091906527.9272501       -27045701.115868330        710980854.32693172     
  -950839103.43286908       -28101501.283284664        703447396.68002570     
  -1690391341.0835042       -25873959.456007540        605949576.14729023     
  -1550073060.7149358       -26441207.053924084        592514656.64007604     
  -1410956073.5038738       -31012765.176862717        577845842.96646535     
  -1273040379.4503150       -39588633.824817061        561943135.12647855     
  -1136325978.5542669       -52168812.997795463        544806533.12010813     
  -559081120.73297477       -5310358.9390216172        1152689129.5812986     
  -462346465.17116123        32724374.169469982        1162051992.2029026     
  -353622374.21072221        110723891.94004358        1178956176.6623430     
  -232908847.85167980        228688194.37263015        1203401682.9596241     
  -100205886.09402660        386617281.46725273        1235388511.0947387     
  -662216674.52221704       -4672274.2538775504        1007388694.9106193     
  -547092854.95813632        25623976.316888154        1020904556.9639633     
  -421096211.00713885        92162974.844034791        1042810411.6129898     
  -284226742.66923416        194944721.32754368        1073106258.8577106     
  -136484449.94440675        333969215.76746023        1111792098.6981192     
  -792802668.75552154       -12269321.701975495        857641450.61020088     
  -656864911.59531307        11015878.409195900        874007599.24829686     
  -511170941.05988657        66821789.771098375        899612411.23992741     
  -355720757.14924645        155148412.38371277        934455886.58510351     
  -190514359.86338356        275995746.24706548        978538025.28381860     
  -950839103.43286908       -28101501.283284664        703447396.68002570     
  -791662635.08266914       -11099919.553521901        721361119.05589092     
  -623846564.36895370        34700336.721270263        749362175.54315126     
  -447390891.29170728        109299267.54117078        787450566.14180243     
  -262295615.85095310        212696872.90609792        835626290.85185242     
  -1136325978.5542669       -52168812.997795463        544806533.12010813     
  -951486025.42020524       -40723417.571303606        562965116.38676000     
  -759123080.93433523       -4201384.3054338098        592059704.52266490     
  -559237145.09664047        57397286.799846739        632090297.52781343     
  -351828217.90711647        144072595.74455220        683056895.40221632     
  -100205886.09402660        386617281.46725273        1235388511.0947387     
  -85338097.241791308        546473886.78509009        1196785634.1320531     
  -57880796.472905844        748295531.82509208        1154827765.3446078     
  -17833983.787377298        992082216.58723342        1109514904.7324028     
   34802340.814810872        1277833941.0715847        1060847052.2954499     
  -136484449.94440675        333969215.76746023        1111792098.6981192     
  -127361692.87356931        482989495.76612854        1090212455.8295383     
  -95101883.538023412        709133283.31382263        1070069240.0275308     
  -39705021.937779725        1012400578.4105208        1051362451.2920724     
   38828891.927173674        1392791381.0562418        1034092089.6232039     
  -190514359.86338356        275995746.24706548        978538025.28381860     
  -173446866.31302387        418286631.40486735        986287080.24874544     
  -122694780.14990512        672859491.93850970        1000263981.1715616     
  -38258101.374029040        1039714327.8480338        1020468728.0522552     
   79863170.014612973        1518851139.1334083        1046901320.8908447     
  -262295615.85095310        212696872.90609792        835626290.85185242     
  -223593617.56015226        352365293.70129567        885009507.38968599     
  -140659486.30854017        639474157.69919121        945411988.77672124     
  -13493222.096125960        1074023464.8997824        1016833735.0129635     
   157905175.07711637        1656013215.3031075        1099274746.0984166     
  -351828217.90711647        144072595.74455220        683056895.40221632     
  -277801946.61496103        285225482.65541989        786379737.25234234     
  -148996002.01393577        608977280.59583116        905513262.84299660     
   34589615.895958781        1115327989.5658295        1040457472.1741790     
   272954907.11470407        1804277609.5653188        1191212365.2458947     
  -4544369756.0669155       -4611771.3056347370        737853893.56851864     
  -4384671630.4285603       -4265934.1161007881        710579802.32856131     
  -4224356378.8926768       -1863010.6014709473        692527154.31131291     
  -4063424001.4592600        2596999.2382755280        683695949.51677716     
  -3901874498.1283135        9114095.4031167030        684086187.94494760     
  -4953708592.5696774       -21709124.662302732        533145627.17383361     
  -4773613435.2354727       -14649397.853211164        521811622.70926964     
  -4593408753.0587578       -7224588.2357454300        515396840.26044714     
  -4413094546.0395393        565304.19008111954        513901279.82735878     
  -4232670814.1778049        8720279.4242761135        517324941.41000867     
  -5312569378.2709255       -23663062.778517246        328962222.97565091     
  -5124369249.8322296       -13577064.527266979        332976104.05563027     
  -4936567197.6060429       -4817986.9843876362        337606985.94437122     
  -4749163221.5923672        2614169.8501205444        342854868.64187956     
  -4562157321.7912006        8719405.9762709141        348719752.14814633     
  -5620952113.1706839       -10473585.654287815        125303680.97398330     
  -5436939074.2188368       -1048934.1382834911        144073246.36764327     
  -5253831712.5345297        5356793.1526145935        159157591.36309221     
  -5071630028.1177483        8743596.2184102535        170556715.96033254     
  -4890334020.9685001        9111475.0590944290        178270620.15936023     
  -5878856797.2689342        17859306.710400343       -77829998.831174374     
  -5711322908.3952999        22934993.313740253       -44896950.354693480     
  -5545202297.8442087        23299752.175265789       -19951343.483393539     
  -5380494965.6156855        18953583.294917822       -2993178.2172755119     
  -5217200911.7097054        9896486.6727395058        5977545.4436532371     
  -3901874498.1283135        9114095.4031167030        684086187.94494760     
  -3777568690.4521327        5100826.7045063972        676048721.60942781     
  -3653456221.5308738        443095.48949050903        672141482.43450093     
  -3529537091.3645329       -4859098.2419183254        672364470.42016768     
  -3405811299.9531083       -10805754.489718437        676717685.56642604     
  -4232670814.1778049        8720279.4242761135        517324941.41000867     
  -4097783357.3483124        3414446.7532458305        509734969.26142102     
  -3962873508.0397201       -1816744.3207902908        506452784.06380838     
  -3827941266.2520227       -6973293.7978069782        507478385.81717294     
  -3692986631.9852300       -12055201.677847862        512811774.52151507     
  -4562157321.7912006        8719405.9762709141        348719752.14814633     
  -4416180902.1215839        2273203.4388673306        341828960.62617832     
  -4269966358.7388487       -3379253.3881452084        339423515.84556913     
  -4123513691.6429915       -8237964.5047528744        341503417.80631846     
  -3976822900.8340278       -12302929.910983086        348068666.50842667     
  -4890334020.9685001        9111475.0590944290        178270620.15936023     
  -4732761324.7719488        1677096.7613573074        172330695.70369896     
  -4574734773.6282625       -4244431.7125775814        171053677.77977762     
  -4416254367.5374384       -8653110.3627388477        174439566.38760522     
  -4257320106.4994788       -11548939.189101458        182488361.52716827     
  -5217200911.7097054        9896486.6727395058        5977545.4436532371     
  -5047524625.2994184        1626126.7207067013        1240174.4939916935     
  -4877178752.7079706       -4412279.2941281796        1343269.8664460874     
  -4706163293.9353609       -8218731.3717615604        6286831.5610266663     
  -4534478248.9816103       -9793229.5122473240        16070859.577733431     
  -3405811299.9531083       -10805754.489718437        676717685.56642604     
  -3253713607.8713918       -8455408.5379037857        666058298.42553318     
  -3101564050.4423265       -5932178.0949232578        660014014.82061648     
  -2949362627.6659126       -3236063.1607792377        658584834.75166821     
  -2797109339.5421457       -367063.73546290398        661770758.21869040     
  -3692986631.9852300       -12055201.677847862        512811774.52151507     
  -3528616399.9550395       -8379905.3533692360        503264525.27766031     
  -3364313049.4970350       -4927547.6028480530        498236830.06451815     
  -3200076580.6112123       -1698128.4262725115        497728688.88207227     
  -3035906993.2975831        1308352.1763439178        501740101.73033065     
  -3976822900.8340278       -12302929.910983086        348068666.50842667     
  -3800453127.4418435       -7384582.7897899151        339495017.08882719     
  -3624268982.5413809       -3084997.3076541424        335345372.19466794     
  -3448270466.1326447        595826.53539109230        335619731.82593346     
  -3272457578.2156262        3657888.7393722534        340318095.98263222     
  -4257320106.4994788       -11548939.189101458        182488361.52716827     
  -4069223790.3317914       -5469440.8471281528        174749773.85902736     
  -3881431849.5753717       -404527.20937204361        171339641.21105823     
  -3693944284.2301974        3645801.7242236137        172257963.58324322     
  -3506761094.2962894        6681545.9536132812        177504740.97559717     
  -4534478248.9816103       -9793229.5122473240        16070859.577733431     
  -4334928388.6249123       -2634479.5254642963        9028795.5882626045     
  -4135801650.5989952        3113862.6920433044        6219637.1136979526     
  -3937098034.9038811        7451797.1401991844        7643384.1540024849     
  -3738817541.5395565        10379323.819079399        13300036.709214151     
  -2797109339.5421457       -367063.73546290398        661770758.21869040     
  -2663257106.4255648       -3548181.0878657103        651723510.73112047     
  -2529806057.5193319       -8066579.1414283514        644629137.38275385     
  -2396756192.8234386       -13922257.896124244        640487638.17360806     
  -2264107512.3378973       -21115217.351989865        639299013.10367453     
  -3035906993.2975831        1308352.1763439178        501740101.73033065     
  -2894214433.1890936       -2672149.9561890364        492345393.49834394     
  -2752615787.9305768       -6965701.5886348486        486213305.30095172     
  -2611111057.5220389       -11572302.721001744        483343837.13814843     
  -2469700241.9634671       -16491953.353272319        483736989.00994527     
  -3272457578.2156262        3657888.7393722534        340318095.98263222     
  -3122039702.8427200       -856501.69155704975        331934407.92666835     
  -2971408472.9594126       -4659710.4211390018        327123085.80068159     
  -2820563888.5657105       -7751737.4494104385        325884129.60466284     
  -2669505949.6616054       -10132582.776338458        328217539.33862150     
  -3506761094.2962894        6681545.9536132812        177504740.97559717     
  -3346732915.3864498        1898763.7060551643        170490554.01608652     
  -3186184112.6058331       -1148605.6389218569        167358478.88194099     
  -3025114685.9544415       -2460562.0813188553        168108515.57314438     
  -2863524635.4322824       -2037105.6211396456        172740664.08970734     
  -3738817541.5395565        10379323.819079399        13300036.709214151     
  -3568294070.8202696        5593646.2366399765        8013831.7666076031     
  -3396942706.8698320        3567612.7580368519        6919484.5447377693     
  -3224763449.6882639        4301223.3832093477        10016995.043594399     
  -3051756299.2755275        7794478.1122620106        17306363.263195433     
  -2264107512.3378973       -21115217.351989865        639299013.10367453     
  -2121513597.3142552       -25088662.177844763        626391172.45253265     
  -1978362930.4306386       -27206267.470457792        616530319.40942383     
  -1834655511.6870575       -27468033.229850411        609716453.97434366     
  -1690391341.0835042       -25873959.456007540        605949576.14729023     
  -2469700241.9634671       -16491953.353272319        483736989.00994527     
  -2319200896.8401213       -18448244.257502317        473086052.76842499     
  -2168451504.4325371       -19571044.214288712        465003731.93674237     
  -2017452064.7407260       -19860353.223642945        459490026.51489156     
  -1866202577.7646849       -19316171.285563469        456544936.50287074     
  -2669505949.6616054       -10132582.776338458        328217539.33862150     
  -2512467952.1476784       -10481753.071663737        319465685.50170130     
  -2355486611.9252529       -11019781.005344152        312804074.87640953     
  -2198561928.9943509       -11746666.577422142        308232707.46275944     
  -2041693903.3549569       -12662409.787860155        305751583.26073998     
  -2863524635.4322824       -2037105.6211396456        172740664.08970734     
  -2701314763.2369251       -1189188.6203404665        165530070.65234253     
  -2539468252.9088001       -1552477.8436659575        159931348.22842145     
  -2377985104.4479294       -3126973.2911674976        155944496.81793705     
  -2216865317.8543258       -5912674.9628858566        153569516.42089117     
  -3051756299.2755275        7794478.1122620106        17306363.263195433     
  -2885741330.1078587        9429449.0964902639        11279208.220364818     
  -2720396427.3831720        8830865.2707647085        6385551.9927790407     
  -2555721591.1014767        5998726.6350697279        2625394.5804374577     
  -2391716821.2627797        933033.18938970566       -1264.0166708193917     
  -1690391341.0835042       -25873959.456007540        605949576.14729023     
  -1550073060.7149358       -26441207.053924084        592514656.64007604     
  -1410956073.5038738       -31012765.176862717        577845842.96646535     
  -1273040379.4503150       -39588633.824817061        561943135.12647855     
  -1136325978.5542669       -52168812.997795463        544806533.12010813     
  -1866202577.7646849       -19316171.285563469        456544936.50287074     
  -1728871466.3655441       -22702893.147093892        442879757.93353158     
  -1591629121.6747296       -26385504.036361396        428801299.15338629     
  -1454475543.6922278       -30364003.953334153        414309560.16243374     
  -1317410732.4180462       -34638392.898054600        399404540.96068716     
  -2041693903.3549569       -12662409.787860155        305751583.26073998     
  -1905005349.6235919       -18165222.522505403        293154093.15332884     
  -1767293036.1513598       -20255502.787593246        280963936.79069215     
  -1628556962.9382491       -18933250.583090723        269181114.17283648     
  -1488797129.9842772       -14198465.909052491        257805625.29975176     
  -2216865317.8543258       -5912674.9628858566        153569516.42089117     
  -2078474710.4890730       -12828195.180142164        143337662.29945785     
  -1937947816.9337573       -12622761.430554867        134333755.87839532     
  -1795284637.1883848       -5296373.7140979767        126557797.15767886     
  -1650485171.2529528        9150967.9692280293        120009786.13733134     
  -2391716821.2627797        933033.18938970566       -1264.0166708193917     
  -2249279548.9619746       -6691811.1199983358       -6569534.6280673165     
  -2103593464.0219367       -3487279.9652743340       -11089243.583511291     
  -1954658566.4426289        10546626.653686404       -13560390.883027242     
  -1802474856.2240863        35409908.736751080       -13982976.526599318     
  -1136325978.5542669       -52168812.997795463        544806533.12010813     
  -951486025.42020524       -40723417.571303606        562965116.38676000     
  -759123080.93433523       -4201384.3054338098        592059704.52266490     
  -559237145.09664047        57397286.799846739        632090297.52781343     
  -351828217.90711647        144072595.74455220        683056895.40221632     
  -1317410732.4180462       -34638392.898054600        399404540.96068716     
  -1117771226.7912371       -14771921.556505263        421246998.45579612     
  -914503315.78765810        17189234.374294877        441594397.01875979     
  -707606999.40730178        61245074.894349277        460446736.64957714     
  -497082277.65018773        117395600.00358498        477804017.34824210     
  -1488797129.9842772       -14198465.909052491        257805625.29975176     
  -1309875397.0115478        3433883.8035710454        278788273.38576454     
  -1131219844.6371169        20178964.855196953        285844798.73822296     
  -952830472.86095572        36036777.245920897        278975201.35714692     
  -774707281.68309283        51007320.975647628        258179481.24252516     
  -1650485171.2529528        9150967.9692280293        120009786.13733134     
  -1527798536.0811658        13893998.508807778        135588941.17666215     
  -1409272667.4827163        4767807.1372530460        124810909.68106222     
  -1294907565.4576075       -18227606.145436883        87675691.650520638     
  -1184703230.0058327       -55092241.339230180        24183287.085047778     
  -1802474856.2240863        35409908.736751080       -13982976.526599318     
  -1771540644.0000820        16608422.559255004       -8350998.1714917468     
  -1748661784.3244553       -29044238.779532790       -41507270.152723081     
  -1733838277.1972201       -101548075.27960795       -113451792.47028419     
  -1727070122.6183918       -200903086.94104034       -224184565.12419352     
  -351828217.90711647        144072595.74455220        683056895.40221632     
  -277801946.61496103        285225482.65541989        786379737.25234234     
  -148996002.01393577        608977280.59583116        905513262.84299660     
   34589615.895958781        1115327989.5658295        1040457472.1741790     
   272954907.11470407        1804277609.5653188        1191212365.2458947     
  -497082277.65018773        117395600.00358498        477804017.34824210     
  -388256265.06206375        223047948.37249315        597078945.68687880     
  -230303864.87687343        492454922.06496954        735504654.02232957     
  -23225077.094584584        925616521.08107293        893081142.35460830     
   232980098.28476614        1522532745.4207714        1069808410.6837113     
  -774707281.68309283        51007320.975647628        258179481.24252516     
  -621538395.63817418        124022070.45082408        386810996.07257980     
  -424896407.70795178        341947159.54365230        537933387.15575469     
  -184781317.89244002        704782588.25413609        711546654.49205089     
   98806873.808370352        1212528356.5822601        907650798.08144629     
  -1184703230.0058327       -55092241.339230180        24183287.085047778     
  -977648338.34327316       -11852151.109541476        155575888.40945038     
  -732773630.50720274        157453993.03185660        312799462.24325782     
  -450079106.49761164        452826191.08499771        495854008.58648109     
  -129564766.31450421        874264443.04983830        704739527.43911052     
  -1727070122.6183918       -200903086.94104034       -224184565.12419352     
  -1456586093.1773448       -184574716.30853224       -96626377.302518368     
  -1153935533.2745881       -61024577.470336139        60102879.284850612     
  -819118442.91008031        169747329.57369107        246003204.63793442     
  -452134822.08386564        507741004.82343054        461074598.75671238     
 </DataArray>
 <DataArray  type="Float64" Name="VM" NumberOfComponents="1" format="ascii">
   5889349677.5895290     
   5723353095.2886610     
   5556996185.7105865     
   5389999192.5063896     
   5222166418.5325289     
   5619914860.3682938     
   5442138857.2072840     
   5263735661.5509176     
   5084596392.5074682     
   4904625285.7230663     
   5331312184.8206949     
   5149989286.8898726     
   4968688956.9025126     
   4787444171.4922256     
   4606294745.7510309     
   5028408475.9655485     
   4851240174.4115219     
   4675807142.0188456     
   4502241916.9363031     
   4330746340.4835806     
   4718436680.4542589     
   4552079691.0497303     
   4390455767.7361908     
   4233709331.4982281     
   4082179780.3228245     
   5222166418.5325289     
   5048338316.1708136     
   4874974646.7493725     
   4702071911.5967693     
   4529675096.3254986     
   4904625285.7230663     
   4743001521.0823975     
   4582202217.6100349     
   4422267590.3473749     
   4263290551.1401825     
   4606294745.7510309     
   4456819383.7664013     
   4308575154.6637249     
   4161650809.4300532     
   4016192297.1529098     
   4330746340.4835806     
   4193485563.0312991     
   4057912469.4479418     
   3924167760.9659271     
   3792453514.9731855     
   4082179780.3228245     
   3957328113.7724800     
   3834668703.1527648     
   3714394615.4075422     
   3596763201.3022490     
   4529675096.3254986     
   4333639961.7874947     
   4137373483.3911934     
   3940851453.9018779     
   3744088863.7405190     
   4263290551.1401825     
   4077740579.0921412     
   3892558931.4086275     
   3707792264.1573987     
   3523545431.2852287     
   4016192297.1529098     
   3842031279.1172118     
   3668994940.7859745     
   3497219745.9311018     
   3326922224.9434314     
   3792453514.9731855     
   3630628046.6528230     
   3470845515.3468628     
   3313345803.7560143     
   3158470264.5707407     
   3596763201.3022490     
   3448204352.1243043     
   3302755097.8052478     
   3160760671.4360790     
   3022683524.3907037     
   3744088863.7405190     
   3571121156.1964917     
   3398749049.6701150     
   3226962854.0234017     
   3055808018.6314240     
   3523545431.2852287     
   3360681561.7909441     
   3198771238.4331079     
   3037871435.4195938     
   2878100449.9195509     
   3326922224.9434314     
   3174114044.0775533     
   3022659866.1248240     
   2872695227.3148222     
   2724425803.1082854     
   3158470264.5707407     
   3015951344.6928749     
   2875235370.2818666     
   2736545651.4891334     
   2600185669.2525845     
   3022683524.3907037     
   2890974211.7897329     
   2761560619.4988217     
   2634755978.4629331     
   2510962214.8702197     
   3055808018.6314240     
   2890533610.6271510     
   2724845039.2372365     
   2558730268.9916577     
   2392183474.1756272     
   2878100449.9195509     
   2715896004.3770990     
   2553760572.0346284     
   2391723875.7513547     
   2229836312.8733773     
   2724425803.1082854     
   2567575701.6461587     
   2411642767.2968345     
   2256769587.8306570     
   2103158020.4911060     
   2600185669.2525845     
   2451056750.6564441     
   2304085828.7496896     
   2159590982.3542285     
   2018003251.9807684     
   2510962214.8702197     
   2371775948.8366499     
   2236328486.7064681     
   2105132638.3419528     
   1978858230.9916887     
   2392183474.1756272     
   2245969944.5047345     
   2101939751.0904574     
   1960093887.8407681     
   1820599217.2431576     
   2229836312.8733773     
   2086910554.3139925     
   1945629845.6160560     
   1805994770.1297827     
   1668081420.0460021     
   2103158020.4911060     
   1962801181.6338944     
   1823392375.0902047     
   1684962251.5745897     
   1547569409.3335946     
   2018003251.9807684     
   1881140352.2739635     
   1744590261.9365971     
   1608482083.8102443     
   1472993492.0756073     
   1978858230.9916887     
   1848150611.8435678     
   1717474494.3805346     
   1587180329.9886367     
   1457779137.1954827     
   1820599217.2431576     
   1779961742.8361206     
   1735811514.4198492     
   1696777289.6401477     
   1681349368.0219755     
   1668081420.0460021     
   1552656344.2855144     
   1428119257.2813592     
   1294826576.8972356     
   1158897508.8525505     
   1547569409.3335946     
   1397659476.1553531     
   1244192155.5295899     
   1084897685.3623855     
   917746585.72845936     
   1472993492.0756073     
   1328708469.6799812     
   1198894586.9599516     
   1088039365.2490828     
   1002056798.1961120     
   1457779137.1954827     
   1348712518.4698811     
   1274637288.4206088     
   1243685555.2978556     
   1262904976.3749766     
   1681349368.0219755     
   1383788957.2057114     
   1129473263.9198692     
   1010131218.0915699     
   1153067027.9935186     
   1158897508.8525505     
   1008444883.0873665     
   985219568.57906222     
   1161483517.9213598     
   1544141385.3361688     
   917746585.72845936     
   963142860.59232867     
   1144934026.0215387     
   1476478652.8011327     
   1957465604.1131370     
   1002056798.1961120     
   1164732965.1429172     
   1425435821.2471719     
   1808752233.9539943     
   2334766790.3091969     
   1262904976.3749766     
   1446700717.2197108     
   1715707179.1265676     
   2110504549.4504106     
   2663530803.9783602     
   4718436680.4542589     
   4552079691.0497303     
   4390455767.7361908     
   4233709331.4982281     
   4082179780.3228245     
   4370093556.5628405     
   4228797051.2867169     
   4091966629.9895477     
   3959848963.4999871     
   3832834705.1983385     
   4059099079.5021787     
   3940395552.6050916     
   3825682464.2549586     
   3715264614.3660889     
   3609543560.0720468     
   3787012485.8833938     
   3688954249.6431761     
   3594189117.5961199     
   3503023903.4409285     
   3415822573.8175082     
   3555129423.4619331     
   3476348436.2624421     
   3399951206.2412214     
   3326179203.6572251     
   3255303273.0581908     
   4082179780.3228245     
   3957328113.7724800     
   3834668703.1527648     
   3714394615.4075422     
   3596763201.3022490     
   3832834705.1983385     
   3720918545.3002338     
   3611728137.3166275     
   3505507902.5748510     
   3402565474.4614892     
   3609543560.0720468     
   3510846055.8557115     
   3415419225.4849267     
   3323547723.0275173     
   3235574282.7434430     
   3415822573.8175082     
   3330650123.0074544     
   3249272842.0257754     
   3171998011.3044810     
   3099181438.5946674     
   3255303273.0581908     
   3183912524.3929811     
   3116777062.6341734     
   3054203575.5607810     
   2996534088.4535971     
   3596763201.3022490     
   3448204352.1243043     
   3302755097.8052478     
   3160760671.4360790     
   3022683524.3907037     
   3402565474.4614892     
   3268617942.5587420     
   3138551268.9091334     
   3012798998.9748936     
   2891915610.6116314     
   3235574282.7434430     
   3116899527.3025527     
   3002921773.0910201     
   2894143811.3686495     
   2791182806.5056152     
   3099181438.5946674     
   2996358965.6059661     
   2899039139.5605998     
   2807760554.4391279     
   2723158435.3727937     
   2996534088.4535971     
   2909927819.9864793     
   2829547749.4465299     
   2755924656.5658298     
   2689659834.8637347     
   3022683524.3907037     
   2890974211.7897329     
   2761560619.4988217     
   2634755978.4629331     
   2510962214.8702197     
   2891915610.6116314     
   2772418981.9300423     
   2656368463.4218926     
   2544207793.0834808     
   2436485337.6657386     
   2791182806.5056152     
   2685574230.7692351     
   2584678796.4206071     
   2489042235.8149829     
   2399312948.4735193     
   2723158435.3727937     
   2632683948.6627769     
   2548190156.9970016     
   2470266829.3905511     
   2399585309.5389423     
   2689659834.8637347     
   2614915469.1378102     
   2547298251.8919139     
   2487371679.8923626     
   2435748842.1683421     
   2510962214.8702197     
   2371775948.8366499     
   2236328486.7064681     
   2105132638.3419528     
   1978858230.9916887     
   2436485337.6657386     
   2311795587.4078732     
   2192171464.1541734     
   2078317699.5121753     
   1971104935.7025044     
   2399312948.4735193     
   2291102977.6316743     
   2189317320.9559131     
   2094768174.0909951     
   2008401451.2536249     
   2399585309.5389423     
   2309122807.0452662     
   2226271630.3343472     
   2151836719.2926855     
   2086699201.8924906     
   2435748842.1683421     
   2363409914.7662292     
   2299556031.7943444     
   2244888939.8464017     
   2200131095.7271109     
   1978858230.9916887     
   1848150611.8435678     
   1717474494.3805346     
   1587180329.9886367     
   1457779137.1954827     
   1971104935.7025044     
   1855080298.2201858     
   1743422558.4312775     
   1637052621.0836349     
   1537100975.4172099     
   2008401451.2536249     
   1912170817.3043101     
   1824706125.7931676     
   1747204470.9705307     
   1680953904.9618611     
   2086699201.8924906     
   2011820964.7699914     
   1949281114.9676239     
   1900153972.6885777     
   1865463654.0552056     
   2200131095.7271109     
   2145152799.6218743     
   2105079888.8634303     
   2080674115.5273349     
   2072608903.5289028     
   1457779137.1954827     
   1348712518.4698811     
   1274637288.4206088     
   1243685555.2978556     
   1262904976.3749766     
   1537100975.4172099     
   1476194816.7026505     
   1447987343.0346334     
   1456447602.4182973     
   1504872852.0833910     
   1680953904.9618611     
   1652421452.4582062     
   1651613063.4221950     
   1680898929.0398772     
   1742888558.3817511     
   1865463654.0552056     
   1854918924.9407873     
   1867347363.5881305     
   1904958770.4955561     
   1970784122.8976560     
   2072608903.5289028     
   2069072167.7682693     
   2084772411.8271306     
   2122341903.9696422     
   2185591404.9261637     
   1262904976.3749766     
   1446700717.2197108     
   1715707179.1265676     
   2110504549.4504106     
   2663530803.9783602     
   1504872852.0833910     
   1613278500.8177097     
   1788874473.3829217     
   2066410666.1893930     
   2476092821.2023587     
   1742888558.3817511     
   1787703734.0851259     
   1884657621.0260859     
   2060659199.5901937     
   2340938651.3132706     
   1970784122.8976560     
   1968934689.1652672     
   2003621428.3294580     
   2093518048.4392791     
   2257284722.3183064     
   2185591404.9261637     
   2156255760.2682781     
   2146506425.2863538     
   2166865922.2855377     
   2228404940.0461078     
   3555129423.4619331     
   3476348436.2624421     
   3399951206.2412214     
   3326179203.6572251     
   3255303273.0581908     
   3380222017.3363581     
   3305150343.8851695     
   3234358143.3929520     
   3168183838.3853655     
   3107009735.3711185     
   3226136077.2931213     
   3155829351.0909576     
   3092085638.2865195     
   3035283223.5333819     
   2985855491.6771498     
   3103849493.0915627     
   3038031467.7973866     
   2981441799.2839355     
   2934422615.7853856     
   2897374945.2088122     
   3025879367.6366148     
   2962514544.3798785     
   2911392806.3610449     
   2872745394.7726865     
   2846857056.4233484     
   3255303273.0581908     
   3183912524.3929811     
   3116777062.6341734     
   3054203575.5607810     
   2996534088.4535971     
   3107009735.3711185     
   3044700233.9720197     
   2987621739.8687906     
   2936088198.6397672     
   2890447516.6773386     
   2985855491.6771498     
   2932675575.3680859     
   2885783193.0283456     
   2845471498.3596663     
   2812062914.8437266     
   2897374945.2088122     
   2852717295.3835192     
   2815454869.6340828     
   2785831107.9910173     
   2764112225.9876575     
   2846857056.4233484     
   2809318636.5175300     
   2780308517.4993591     
   2759998730.5776777     
   2748577713.5019565     
   2996534088.4535971     
   2909927819.9864793     
   2829547749.4465299     
   2755924656.5658298     
   2689659834.8637347     
   2890447516.6773386     
   2817502184.0231962     
   2751740279.5488858     
   2693663068.9830408     
   2643822670.5649090     
   2812062914.8437266     
   2752461224.9558854     
   2700917784.6947274     
   2657865132.6627927     
   2623765979.0175920     
   2764112225.9876575     
   2716887153.4926901     
   2678482967.0902028     
   2649235202.1894531     
   2629492881.4442220     
   2748577713.5019565     
   2712064320.2100115     
   2685021851.0667133     
   2667678304.6060591     
   2660265208.6438665     
   2689659834.8637347     
   2614915469.1378102     
   2547298251.8919139     
   2487371679.8923626     
   2435748842.1683421     
   2643822670.5649090     
   2583426467.5115442     
   2530778181.0547533     
   2486360814.9383111     
   2450680837.8349195     
   2623765979.0175920     
   2576933855.2066541     
   2538306874.7954144     
   2508264282.7173705     
   2487189734.2663364     
   2629492881.4442220     
   2594937758.4609160     
   2568894365.4874330     
   2551633391.6478038     
   2543419804.3217235     
   2660265208.6438665     
   2636268886.3555593     
   2620980877.7002511     
   2614574203.3085809     
   2617213537.8005891     
   2435748842.1683421     
   2363409914.7662292     
   2299556031.7943444     
   2244888939.8464017     
   2200131095.7271109     
   2450680837.8349195     
   2393912569.2769547     
   2346536702.0129385     
   2309119438.4502769     
   2282211482.3156176     
   2487189734.2663364     
   2444859684.6932154     
   2412571998.5606356     
   2390738446.2933249     
   2379737760.2990317     
   2543419804.3217235     
   2513811635.2469640     
   2494709776.2347240     
   2486382644.6643119     
   2489064288.3605919     
   2617213537.8005891     
   2598201011.2762661     
   2590068903.3477702     
   2592970162.9568853     
   2607031863.5417252     
   2200131095.7271109     
   2145152799.6218743     
   2105079888.8634303     
   2080674115.5273349     
   2072608903.5289028     
   2282211482.3156176     
   2241882356.8575816     
   2215444466.0866499     
   2203345088.8969836     
   2205970073.2623315     
   2379737760.2990317     
   2351131476.8553705     
   2335381063.1501365     
   2332735865.3645434     
   2343416343.1512237     
   2489064288.3605919     
   2469546086.5428476     
   2461942545.2735476     
   2466389928.7763901     
   2483022550.8579035     
   2607031863.5417252     
   2594330791.6313167     
   2592757456.4978113     
   2602391198.8296623     
   2623327968.9190450     
   2072608903.5289028     
   2069072167.7682693     
   2084772411.8271306     
   2122341903.9696422     
   2185591404.9261637     
   2205970073.2623315     
   2191611379.5302286     
   2192248182.9907575     
   2209850402.9912248     
   2247337148.7428393     
   2343416343.1512237     
   2319043518.2177544     
   2306208421.9423575     
   2306317156.8739781     
   2321457833.9293933     
   2483022550.8579035     
   2450396102.4689975     
   2426335342.3118701     
   2411786047.0465837     
   2408124936.7728100     
   2623327968.9190450     
   2584889420.8982863     
   2552345792.7036967     
   2526278707.1887550     
   2507496804.9986801     
   2185591404.9261637     
   2156255760.2682781     
   2146506425.2863538     
   2166865922.2855377     
   2228404940.0461078     
   2247337148.7428393     
   2182635224.5734677     
   2134366905.4774866     
   2112197755.8853149     
   2127060742.8589609     
   2321457833.9293933     
   2224728004.6397653     
   2141328794.5841508     
   2079624323.3989439     
   2049784307.5810492     
   2408124936.7728100     
   2282828132.2026463     
   2168038966.6489944     
   2070496612.2054079     
   1998967493.0051248     
   2507496804.9986801     
   2357145144.1689787     
   2214968026.9655566     
   2085945659.2448690     
   1976953075.8407357     
   3025879367.6366148     
   2962514544.3798785     
   2911392806.3610449     
   2872745394.7726865     
   2846857056.4233484     
   2818066571.9628534     
   2779093150.5852833     
   2750701363.7099032     
   2733014204.2163272     
   2726173780.2441397     
   2662851756.9535961     
   2645204354.9226012     
   2636087679.7429633     
   2635547934.9466348     
   2643635410.8015871     
   2559511095.5759864     
   2560277394.9179254     
   2567222295.2864361     
   2580354137.7261262     
   2599681514.4519582     
   2504619058.3697519     
   2521263670.7639675     
   2541569449.9805870     
   2565536396.0196071     
   2593164508.8810201     
   2846857056.4233484     
   2809318636.5175300     
   2780308517.4993591     
   2759998730.5776777     
   2748577713.5019565     
   2726173780.2441397     
   2702272131.3708138     
   2686306898.5489545     
   2678372445.9902687     
   2678568950.2911201     
   2643635410.8015871     
   2631037509.1379862     
   2625622190.1523318     
   2627428151.1561728     
   2636495364.2151232     
   2599681514.4519582     
   2595953259.6980081     
   2598534704.7855568     
   2607434267.0855870     
   2622660448.5036941     
   2593164508.8810201     
   2595942418.6137629     
   2604089656.4621358     
   2617606222.4261417     
   2636492116.5057759     
   2748577713.5019565     
   2712064320.2100115     
   2685021851.0667133     
   2667678304.6060591     
   2660265208.6438665     
   2678568950.2911201     
   2653156582.1042514     
   2637096384.2201858     
   2630518787.6900296     
   2633552983.2604108     
   2636495364.2151232     
   2619793351.2639341     
   2612257535.7976694     
   2613945366.7408247     
   2624912585.8966732     
   2622660448.5036941     
   2612025832.1617155     
   2610345667.3406825     
   2617633879.2161508     
   2633903776.0209107     
   2636492116.5057759     
   2629176908.2812448     
   2630614848.5813575     
   2640805937.4061136     
   2659750174.7555099     
   2660265208.6438665     
   2636268886.3555593     
   2620980877.7002511     
   2614574203.3085809     
   2617213537.8005891     
   2633552983.2604108     
   2618461842.6144929     
   2612082636.6652856     
   2614513279.9032083     
   2625844732.5668635     
   2624912585.8966732     
   2616738673.8589768     
   2617275889.9109235     
   2626567475.8369670     
   2644652794.0861015     
   2633903776.0209107     
   2630482318.9905596     
   2635804961.1602464     
   2649882370.2650003     
   2672724107.4248962     
   2659750174.7555099     
   2658827135.5170455     
   2666744727.4745708     
   2683502950.6280818     
   2709101804.9775934     
   2617213537.8005891     
   2598201011.2762661     
   2590068903.3477702     
   2592970162.9568853     
   2607031863.5417252     
   2625844732.5668635     
   2614700187.9234190     
   2613948396.2258649     
   2623667453.1957583     
   2643920312.7642684     
   2644652794.0861015     
   2639562154.3405046     
   2644469955.1995769     
   2659407686.9388556     
   2684400052.9875154     
   2672724107.4248962     
   2671921132.0126605     
   2680840228.1965032     
   2699488570.9735742     
   2727871658.3934741     
   2709101804.9775934     
   2710903952.3078852     
   2722283576.1396713     
   2743240676.4729385     
   2773775253.3076921     
   2607031863.5417252     
   2594330791.6313167     
   2592757456.4978113     
   2602391198.8296623     
   2623327968.9190450     
   2643920312.7642684     
   2633019262.3286514     
   2632382298.0281272     
   2642048609.0256557     
   2662068323.2223620     
   2684400052.9875154     
   2674987676.6595049     
   2675155628.7019491     
   2684919132.5419354     
   2704298833.2905340     
   2727871658.3934741     
   2719796439.4048162     
   2720777299.6570930     
   2730817539.1894898     
   2749921921.5662241     
   2773775253.3076921     
   2767030763.4548159     
   2768959596.1877036     
   2779561751.5063863     
   2798837229.4108305     
   2623327968.9190450     
   2584889420.8982863     
   2552345792.7036967     
   2526278707.1887550     
   2507496804.9986801     
   2662068323.2223620     
   2616693536.8814874     
   2576987508.0355930     
   2543281215.8671036     
   2516037196.9189501     
   2704298833.2905340     
   2654080097.7808137     
   2609446837.0147238     
   2570546501.8637466     
   2537585717.6722555     
   2749921921.5662241     
   2696956817.9330831     
   2649636427.8550773     
   2607997375.3632264     
   2572090995.9206023     
   2798837229.4108305     
   2745222695.6429667     
   2697454349.2769961     
   2655532190.3129115     
   2619456218.7507248     
   2507496804.9986801     
   2357145144.1689787     
   2214968026.9655566     
   2085945659.2448690     
   1976953075.8407357     
   2516037196.9189501     
   2348170088.4734025     
   2183862721.8084321     
   2026214948.3013666     
   1879790877.2784364     
   2537585717.6722555     
   2357292154.8086224     
   2176738428.1314154     
   1997396027.5317039     
   1821542534.5988002     
   2572090995.9206023     
   2384614727.1392202     
   2194061746.1932368     
   2000810277.5231016     
   1805464127.8379667     
   2619456218.7507248     
   2430106393.3709216     
   2235975026.3333449     
   2037062117.6379664     
   1833367667.2848513     
   2504619058.3697519     
   2521263670.7639675     
   2541569449.9805870     
   2565536396.0196071     
   2593164508.8810201     
   2559511152.5225735     
   2560277437.5595937     
   2567222322.9885468     
   2580354149.9010987     
   2599681510.5816784     
   2662851862.4461961     
   2645204433.6132135     
   2636087730.6335273     
   2635547957.0531311     
   2643635403.2062788     
   2818066715.7828355     
   2779093257.3249340     
   2750701432.2494044     
   2733014233.3370891     
   2726173768.7098598     
   3025879539.1289430     
   2962514670.7665105     
   2911392886.6284304     
   2872745427.6284237     
   2846857040.3947062     
   2593164508.8810201     
   2595942418.6137629     
   2604089656.4621358     
   2617606222.4261417     
   2636492116.5057759     
   2599681510.5816784     
   2595953256.6692185     
   2598534702.4809723     
   2607434265.3905187     
   2622660447.3042707     
   2643635403.2062788     
   2631037503.1982126     
   2625622185.6241479     
   2627428147.8032894     
   2636495361.8052721     
   2726173768.7098598     
   2702272122.3499374     
   2686306891.6661210     
   2678372440.8833075     
   2678568946.6054258     
   2846857040.3947062     
   2809318623.9707613     
   2780308507.9280734     
   2759998723.4928217     
   2748577708.4239154     
   2636492116.5057759     
   2629176908.2812448     
   2630614848.5813575     
   2640805937.4061136     
   2659750174.7555099     
   2622660447.3042707     
   2612025831.1862416     
   2610345666.5705876     
   2617633878.6333213     
   2633903775.6073637     
   2636495361.8052721     
   2619793349.3084831     
   2612257534.2598987     
   2613945365.5847974     
   2624912585.0865707     
   2678568946.6054258     
   2653156579.1160526     
   2637096381.8759308     
   2630518785.9369349     
   2633552982.0454111     
   2748577708.4239154     
   2712064316.0905266     
   2685021847.8374448     
   2667678302.1990957     
   2660265206.9901123     
   2659750174.7555099     
   2658827135.5170455     
   2666744727.4745708     
   2683502950.6280818     
   2709101804.9775934     
   2633903775.6073637     
   2630482318.6589293     
   2635804960.8997006     
   2649882370.0648794     
   2672724107.2745600     
   2624912585.0865707     
   2616738673.2095747     
   2617275889.3998241     
   2626567475.4420943     
   2644652793.7854400     
   2633552982.0454111     
   2618461841.6409760     
   2612082635.8985887     
   2614513279.3089814     
   2625844732.1107292     
   2660265206.9901123     
   2636268885.0310211     
   2620980876.6574702     
   2614574202.5000715     
   2617213537.1784582     
   2709101804.9775934     
   2710903952.3078852     
   2722283576.1396713     
   2743240676.4729385     
   2773775253.3076921     
   2672724107.2745600     
   2671921131.8753886     
   2680840228.0711017     
   2699488570.8589020     
   2727871658.2884197     
   2644652793.7854400     
   2639562154.0680723     
   2644469954.9529905     
   2659407686.7157893     
   2684400052.7856913     
   2625844732.1107292     
   2614700187.5136027     
   2613948395.8587513     
   2623667452.8677936     
   2643920312.4718971     
   2617213537.1784582     
   2598201010.7222114     
   2590068902.8569627     
   2592970162.5244799     
   2607031863.1627512     
   2773775253.3076921     
   2767030763.4548159     
   2768959596.1877036     
   2779561751.5063863     
   2798837229.4108305     
   2727871658.2884197     
   2719796439.3202262     
   2720777299.5917859     
   2730817539.1421170     
   2749921921.5352983     
   2684400052.7856913     
   2674987676.4968638     
   2675155628.5760646     
   2684919132.4500461     
   2704298833.2296133     
   2643920312.4718971     
   2633019262.0929646     
   2632382297.8453164     
   2642048608.8914409     
   2662068323.1320672     
   2607031863.1627512     
   2594330791.3258576     
   2592757456.2605381     
   2602391198.6545901     
   2623327968.7996216     
   2798837229.4108305     
   2745222695.6429667     
   2697454349.2769961     
   2655532190.3129115     
   2619456218.7507248     
   2749921921.5352983     
   2696956817.9082675     
   2649636427.8360052     
   2607997375.3493743     
   2572090995.9112873     
   2704298833.2296133     
   2654080097.7322826     
   2609446836.9778385     
   2570546501.8374338     
   2537585717.6552134     
   2662068323.1320672     
   2616693536.8100834     
   2576987507.9819579     
   2543281215.8296337     
   2516037196.8956771     
   2623327968.7996216     
   2584889420.8045821     
   2552345792.6341605     
   2526278707.1412382     
   2507496804.9705539     
   2619456218.7507248     
   2430106393.3709216     
   2235975026.3333449     
   2037062117.6379664     
   1833367667.2848513     
   2572090995.9112873     
   2384614727.1331720     
   2194061746.1893435     
   2000810277.5197966     
   1805464127.8330936     
   2537585717.6552134     
   2357292154.7974100     
   2176738428.1238327     
   1997396027.5245757     
   1821542534.5876813     
   2516037196.8956771     
   2348170088.4578700     
   2183862721.7973323     
   2026214948.2899265     
   1879790877.2601969     
   2507496804.9705539     
   2357145144.1498766     
   2214968026.9510694     
   2085945659.2288122     
   1976953075.8148887     
   3025879539.1289430     
   2962514670.7665105     
   2911392886.6284304     
   2872745427.6284237     
   2846857040.3947062     
   3103849678.5652027     
   3038031603.7726240     
   2981441884.8493109     
   2934422649.6891904     
   2897374925.9505773     
   3226136261.1580606     
   3155829484.2930226     
   3092085720.2586694     
   3035283253.3922486     
   2985855468.2859621     
   3380222189.5497103     
   3305150465.9467359     
   3234358215.4123750     
   3168183860.2623229     
   3107009706.8176060     
   3555129579.0830379     
   3476348542.5770674     
   3399951264.4184952     
   3326179214.8153563     
   3255303238.2424660     
   2846857040.3947062     
   2809318623.9707613     
   2780308507.9280734     
   2759998723.4928217     
   2748577708.4239154     
   2897374925.9505773     
   2852717280.2748694     
   2815454858.1485991     
   2785831099.6115584     
   2764112220.1968541     
   2985855468.2859621     
   2932675557.0048203     
   2885783179.1555090     
   2845471488.4376545     
   2812062908.3195772     
   3107009706.8176060     
   3044700211.5480404     
   2987621723.0359492     
   2936088186.8447380     
   2890447509.3389592     
   3255303238.2424660     
   3183912497.0333819     
   3116777042.2018170     
   3054203561.4993229     
   2996534080.1648765     
   2748577708.4239154     
   2712064316.0905266     
   2685021847.8374448     
   2667678302.1990957     
   2660265206.9901123     
   2764112220.1968541     
   2716887148.8491445     
   2678482963.5089626     
   2649235199.5852542     
   2629492879.7295074     
   2812062908.3195772     
   2752461219.7754469     
   2700917780.7554746     
   2657865129.8604770     
   2623765977.2438493     
   2890447509.3389592     
   2817502178.2441411     
   2751740275.2085834     
   2693663065.9571795     
   2643822668.7225881     
   2996534080.1648765     
   2909927813.5016289     
   2829547744.6269951     
   2755924653.2669840     
   2689659832.9314981     
   2660265206.9901123     
   2636268885.0310211     
   2620980876.6574702     
   2614574202.5000715     
   2617213537.1784582     
   2629492879.7295074     
   2594937757.0878172     
   2568894364.4069648     
   2551633390.8108130     
   2543419803.6784706     
   2623765977.2438493     
   2576933853.7905822     
   2538306873.6845303     
   2508264281.8586378     
   2487189733.6058164     
   2643822668.7225881     
   2583426466.0495229     
   2530778179.9153204     
   2486360814.0626221     
   2450680837.1626163     
   2689659832.9314981     
   2614915467.6176257     
   2547298250.7196636     
   2487371679.0019374     
   2435748841.4912105     
   2617213537.1784582     
   2598201010.7222114     
   2590068902.8569627     
   2592970162.5244799     
   2607031863.1627512     
   2543419803.6784706     
   2513811634.6645989     
   2494709775.7117853     
   2486382644.1994839     
   2489064287.9524794     
   2487189733.6058164     
   2444859684.0873404     
   2412571998.0110426     
   2390738445.8019881     
   2379737759.8679681     
   2450680837.1626163     
   2393912568.6533365     
   2346536701.4424076     
   2309119437.9378080     
   2282211481.8665366     
   2435748841.4912105     
   2363409914.1314645     
   2299556031.2086916     
   2244888939.3175368     
   2200131095.2634106     
   2607031863.1627512     
   2594330791.3258576     
   2592757456.2605381     
   2602391198.6545901     
   2623327968.7996216     
   2489064287.9524794     
   2469546086.2119451     
   2461942545.0150027     
   2466389928.5846243     
   2483022550.7266922     
   2379737759.8679681     
   2351131476.5051637     
   2335381062.8762031     
   2332735865.1615090     
   2343416343.0129108     
   2282211481.8665366     
   2241882356.4932070     
   2215444465.8024554     
   2203345088.6876092     
   2205970073.1214232     
   2200131095.2634106     
   2145152799.2471433     
   2105079888.5731194     
   2080674115.3158815     
   2072608903.3895547     
   2623327968.7996216     
   2584889420.8045821     
   2552345792.6341605     
   2526278707.1412382     
   2507496804.9705539     
   2483022550.7266922     
   2450396102.3661551     
   2426335342.2364488     
   2411786046.9967446     
   2408124936.7460008     
   2343416343.0129108     
   2319043518.1098108     
   2306208421.8644218     
   2306317156.8245306     
   2321457833.9059539     
   2205970073.1214232     
   2191611379.4210773     
   2192248182.9135461     
   2209850402.9447832     
   2247337148.7247858     
   2072608903.3895547     
   2069072167.6614974     
   2084772411.7536995     
   2122341903.9287207     
   2185591404.9154596     
   2507496804.9705539     
   2357145144.1498766     
   2214968026.9510694     
   2085945659.2288122     
   1976953075.8148887     
   2408124936.7460008     
   2282828132.1845236     
   2168038966.6345105     
   2070496612.1874826     
   1998967492.9746432     
   2321457833.9059539     
   2224728004.6242065     
   2141328794.5707853     
   2079624323.3799901     
   2049784307.5468798     
   2247337148.7247858     
   2182635224.5619316     
   2134366905.4662676     
   2112197755.8662145     
   2127060742.8221018     
   2185591404.9154596     
   2156255760.2622194     
   2146506425.2783754     
   2166865922.2671781     
   2228404940.0076857     
   3555129579.0830379     
   3476348542.5770674     
   3399951264.4184952     
   3326179214.8153563     
   3255303238.2424660     
   3787012622.8771772     
   3688954339.8513737     
   3594189163.4269600     
   3503023907.0733519     
   3415822537.1600943     
   4059099193.0267391     
   3940395623.1113076     
   3825682495.4229341     
   3715264609.5674229     
   3609543522.3137598     
   4370093643.4651508     
   4228797100.0158267     
   4091966645.4036684     
   3959848950.1780663     
   3832834667.3832636     
   4718436738.9008932     
   4552079717.1199322     
   4390455767.2703018     
   4233709310.1952276     
   4082179743.7052155     
   3255303238.2424660     
   3183912497.0333819     
   3116777042.2018170     
   3054203561.4993229     
   2996534080.1648765     
   3415822537.1600943     
   3330650094.1244597     
   3249272820.5466356     
   3171997996.8445253     
   3099181430.7420774     
   3609543522.3137598     
   3510846026.1310077     
   3415419203.5419106     
   3323547708.6120296     
   3235574275.5889783     
   3832834667.3832636     
   3720918515.6593170     
   3611728115.6792769     
   3505507888.7767282     
   3402565468.3383136     
   4082179743.7052155     
   3957328085.3046417     
   3834668682.7126040     
   3714394602.8832850     
   3596763196.5904999     
   2996534080.1648765     
   2909927813.5016289     
   2829547744.6269951     
   2755924653.2669840     
   2689659832.9314981     
   3099181430.7420774     
   2996358959.4347467     
   2899039134.9739676     
   2807760551.3368711     
   2723158433.6489525     
   3235574275.5889783     
   3116899521.6731119     
   3002921768.9171267     
   2894143808.5793920     
   2791182805.0277677     
   3402565468.3383136     
   3268617937.7584777     
   3138551265.3764529     
   3012798996.6536708     
   2891915609.4455419     
   3596763196.5904999     
   3448204348.4784474     
   3302755095.1731215     
   3160760669.7636304     
   3022683523.6238403     
   2689659832.9314981     
   2614915467.6176257     
   2547298250.7196636     
   2487371679.0019374     
   2435748841.4912105     
   2723158433.6489525     
   2632683947.2880192     
   2548190155.9255948     
   2470266828.5752182     
   2399585308.9307141     
   2791182805.0277677     
   2685574229.5705624     
   2584678795.4695973     
   2489042235.0793066     
   2399312947.9202852     
   2891915609.4455419     
   2772418980.9595494     
   2656368462.6255093     
   2544207792.4394965     
   2436485337.1530104     
   3022683523.6238403     
   2890974211.1159091     
   2761560618.9025807     
   2634755977.9287777     
   2510962214.3838472     
   2435748841.4912105     
   2363409914.1314645     
   2299556031.2086916     
   2244888939.3175368     
   2200131095.2634106     
   2399585308.9307141     
   2309122806.4731474     
   2226271629.8039508     
   2151836718.8105116     
   2086699201.4657912     
   2399312947.9202852     
   2291102977.1130743     
   2189317320.4765625     
   2094768173.6563144     
   2008401450.8697209     
   2436485337.1530104     
   2311795586.9331079     
   2192171463.7213931     
   2078317699.1260216     
   1971104935.3682032     
   2510962214.3838472     
   2371775948.3960114     
   2236328486.3154836     
   2105132638.0050285     
   1978858230.7136812     
   2200131095.2634106     
   2145152799.2471433     
   2105079888.5731194     
   2080674115.3158815     
   2072608903.3895547     
   2086699201.4657912     
   2011820964.4242136     
   1949281114.7001317     
   1900153972.4959362     
   1865463653.9327886     
   2008401450.8697209     
   1912170816.9932730     
   1824706125.5539024     
   1747204470.8014536     
   1680953904.8605902     
   1971104935.3682032     
   1855080297.9505203     
   1743422558.2262111     
   1637052620.9430676     
   1537100975.3408515     
   1978858230.7136812     
   1848150611.6216519     
   1717474494.2152169     
   1587180329.8806913     
   1457779137.1460323     
   2072608903.3895547     
   2069072167.6614974     
   2084772411.7536995     
   2122341903.9287207     
   2185591404.9154596     
   1865463653.9327886     
   1854918924.8472497     
   1867347363.5250618     
   1904958770.4630516     
   1970784122.8942482     
   1680953904.8605902     
   1652421452.3816133     
   1651613063.3727775     
   1680898929.0187297     
   1742888558.3883357     
   1537100975.3408515     
   1476194816.6464632     
   1447987343.0019412     
   1456447602.4113381     
   1504872852.1026666     
   1457779137.1460323     
   1348712518.4364731     
   1274637288.4070139     
   1243685555.3074753     
   1262904976.4094968     
   2185591404.9154596     
   2156255760.2622194     
   2146506425.2783754     
   2166865922.2671781     
   2228404940.0076857     
   1970784122.8942482     
   1968934689.1633012     
   2003621428.3236895     
   2093518048.4221466     
   2257284722.2813001     
   1742888558.3883357     
   1787703734.0903080     
   1884657621.0257664     
   2060659199.5780954     
   2340938651.2826691     
   1504872852.1026666     
   1613278500.8331819     
   1788874473.3914375     
   2066410666.1860449     
   2476092821.1824837     
   1262904976.4094968     
   1446700717.2487805     
   1715707179.1473734     
   2110504549.4594269     
   2663530803.9729619     
   4718436738.9008932     
   4552079717.1199322     
   4390455767.2703018     
   4233709310.1952276     
   4082179743.7052155     
   5028408516.4333239     
   4851240189.9196157     
   4675807137.7425346     
   4502241898.0898218     
   4330746312.3220520     
   5331312231.4495878     
   5149989311.7323055     
   4968688964.2890978     
   4787444165.8750553     
   4606294731.6953945     
   5619914934.2792883     
   5442138909.1959448     
   5263735694.8534737     
   5084596410.5121469     
   4904625291.9176607     
   5889349796.9159937     
   5723353190.1368237     
   5556996257.8797894     
   5389999243.9871140     
   5222166451.3909721     
   4082179743.7052155     
   3957328085.3046417     
   3834668682.7126040     
   3714394602.8832850     
   3596763196.5904999     
   4330746312.3220520     
   4193485540.9255042     
   4057912453.5654006     
   3924167751.4889722     
   3792453512.1120000     
   4606294731.6953945     
   4456819372.6354856     
   4308575146.7459431     
   4161650805.0195622     
   4016192296.5764322     
   4904625291.9176607     
   4743001525.8953781     
   4582202221.3058577     
   4422267593.1748753     
   4263290553.3708630     
   5222166451.3909721     
   5048338342.0742607     
   4874974665.8184910     
   4702071923.9053144     
   4529675101.9475718     
   3596763196.5904999     
   3448204348.4784474     
   3302755095.1731215     
   3160760669.7636304     
   3022683523.6238403     
   3792453512.1120000     
   3630628044.3739033     
   3470845513.6374702     
   3313345802.6015816     
   3158470263.9590478     
   4016192296.5764322     
   3842031278.5129156     
   3668994940.1605492     
   3497219745.2876148     
   3326922224.2871971     
   4263290553.3708630     
   4077740580.5374389     
   3892558932.0775709     
   3707792264.0516591     
   3523545430.4056821     
   4529675101.9475718     
   4333639965.7047749     
   4137373485.6013675     
   3940851454.3897467     
   3744088862.4844799     
   3022683523.6238403     
   2890974211.1159091     
   2761560618.9025807     
   2634755977.9287777     
   2510962214.3838472     
   3158470263.9590478     
   3015951344.1353335     
   2875235369.7656527     
   2736545650.9999270     
   2600185668.7748303     
   3326922224.2871971     
   3174114043.4665699     
   3022659865.5555949     
   2872695226.7819018     
   2724425802.6039276     
   3523545430.4056821     
   3360681560.9715881     
   3198771237.6847739     
   3037871434.7515950     
   2878100449.3391552     
   3744088862.4844799     
   3571121155.0336022     
   3398749048.6288295     
   3226962853.1317453     
   3055808017.9166622     
   2510962214.3838472     
   2371775948.3960114     
   2236328486.3154836     
   2105132638.0050285     
   1978858230.7136812     
   2600185668.7748303     
   2451056750.2538795     
   2304085828.4193482     
   2159590982.0934229     
   2018003251.7868390     
   2724425802.6039276     
   2567575701.2561359     
   2411642767.0129619     
   2256769587.6448712     
   2103158020.3950741     
   2878100449.3391552     
   2715896003.9635997     
   2553760571.7765079     
   2391723875.6372337     
   2229836312.8917890     
   3055808017.9166622     
   2890533610.1479707     
   2724845038.9804931     
   2558730268.9447312     
   2392183474.3265243     
   1978858230.7136812     
   1848150611.6216519     
   1717474494.2152169     
   1587180329.8806913     
   1457779137.1460323     
   2018003251.7868390     
   1881140352.1178393     
   1744590261.8204885     
   1608482083.7367601     
   1472993492.0478280     
   2103158020.3950741     
   1962801181.5563421     
   1823392375.0341790     
   1684962251.5433803     
   1547569409.3308392     
   2229836312.8917890     
   2086910554.3294117     
   1945629845.6313877     
   1805994770.1479189     
   1668081420.0699763     
   2392183474.3265243     
   2245969944.6280684     
   2101939751.1881649     
   1960093887.9144864     
   1820599217.2945695     
   1457779137.1460323     
   1348712518.4364731     
   1274637288.4070139     
   1243685555.3074753     
   1262904976.4094968     
   1472993492.0478280     
   1328708469.6624134     
   1198894586.9555111     
   1088039365.2608442     
   1002056798.2267025     
   1547569409.3308392     
   1397659476.1589384     
   1244192155.5406823     
   1084897685.3819451     
   917746585.75713539     
   1668081420.0699763     
   1552656344.3133872     
   1428119257.3126907     
   1294826576.9308355     
   1158897508.8858807     
   1820599217.2945695     
   1779961742.8899875     
   1735811514.4741666     
   1696777289.6924007     
   1681349368.0688858     
   1262904976.4094968     
   1446700717.2487805     
   1715707179.1473734     
   2110504549.4594269     
   2663530803.9729619     
   1002056798.2267025     
   1164732965.1665425     
   1425435821.2623823     
   1808752233.9598210     
   2334766790.3056636     
   917746585.75713539     
   963142860.61367798     
   1144934026.0336919     
   1476478652.8053834     
   1957465604.1125281     
   1158897508.8858807     
   1008444883.1128150     
   985219568.59331906     
   1161483517.9262486     
   1544141385.3392799     
   1681349368.0688858     
   1383788957.2411971     
   1129473263.9412234     
   1010131218.0988073     
   1153067027.9981258     
 </DataArray>
 <DataArray  type="Float64" Name="strain" NumberOfComponents="3" format="ascii">
   9.8070241332870012E-002  -2.9691937731866402E-002  -3.3726342495259409E-003
   9.5303388596312599E-002  -2.8938863629912714E-002  -1.9455352618416022E-003
   9.2536535859755076E-002  -2.8114340300751994E-002  -8.6455888858849583E-004
   8.9769683123197608E-002  -2.7218367744384658E-002  -1.2970512976739901E-004
   8.7002830386640140E-002  -2.6250945960810679E-002   2.5902601462235442E-004
   9.3630166429042760E-002  -2.7930198907330284E-002   5.4298256751689200E-003
   9.0610405896602852E-002  -2.7167212089769521E-002   6.2431736112105729E-003
   8.7590645364162889E-002  -2.6358438010616575E-002   6.8968285699187448E-003
   8.4570884831722842E-002  -2.5503876669871424E-002   7.3907905512936023E-003
   8.1551124299282851E-002  -2.4603528067534075E-002   7.7250595553350343E-003
   8.8424507410624131E-002  -2.6168460082794165E-002   1.4255029298278266E-002
   8.5338268719399868E-002  -2.5395560549626495E-002   1.4428964217062329E-002
   8.2252030028175521E-002  -2.4602535720481211E-002   1.4629635795611273E-002
   7.9165791336951341E-002  -2.3789385595358134E-002   1.4857044033924793E-002
   7.6079552645727022E-002  -2.2956110174257693E-002   1.5111188932003611E-002
   8.2453264277613680E-002  -2.4406721258258046E-002   2.3102976619802068E-002
   7.9486977064703451E-002  -2.3623909009483315E-002   2.2611836555713770E-002
   7.6520689851793139E-002  -2.2846633430345598E-002   2.2333862788488729E-002
   7.3554402638882910E-002  -2.2074894520844927E-002   2.2269055318127035E-002
   7.0588115425972639E-002  -2.1308692280981145E-002   2.2417414144628063E-002
   7.5716437030011630E-002  -2.2644982433721927E-002   3.1973667639739911E-002
   7.3056530932513686E-002  -2.1852257469340330E-002   3.0791790627165139E-002
   7.0396624835015686E-002  -2.1090731140210164E-002   3.0009509548551333E-002
   6.7736718737517715E-002  -2.0360403446331613E-002   2.9626824403899313E-002
   6.5076812640019771E-002  -1.9661274387704708E-002   2.9643735193208509E-002
   8.7002830386640140E-002  -2.6250945960810679E-002   2.5902601462235442E-004
   8.4133540599462986E-002  -2.5264725211915195E-002   5.3740317173034402E-005
   8.1264250812285888E-002  -2.4312355759582877E-002   5.8208039161511405E-005
   7.8394961025108789E-002  -2.3393837603814659E-002   2.7242918058892340E-004
   7.5525671237931635E-002  -2.2509170744609563E-002   6.9640374145463202E-004
   8.1551124299282851E-002  -2.4603528067534075E-002   7.7250595553350343E-003
   7.8887740818565588E-002  -2.3691758277938291E-002   7.4676630868887317E-003
   7.6224357337848242E-002  -2.2802933375418111E-002   7.4123258119237756E-003
   7.3560973857130910E-002  -2.1937053359972800E-002   7.5590477304401382E-003
   7.0897590376413633E-002  -2.1094118231603454E-002   7.9078288424376808E-003
   7.6079552645727022E-002  -2.2956110174257693E-002   1.5111188932003611E-002
   7.3614381245512311E-002  -2.2118791343962024E-002   1.4812588102049079E-002
   7.1149209845297601E-002  -2.1293510991253137E-002   1.4708352239618541E-002
   6.8684038445082946E-002  -2.0480269116131832E-002   1.4798481344712282E-002
   6.6218867044868207E-002  -1.9679065718597177E-002   1.5082975417329586E-002
   7.0588115425972639E-002  -2.1308692280981145E-002   2.2417414144628063E-002
   6.8313461880303392E-002  -2.0545824409985328E-002   2.2088515362653494E-002
   6.6038808334634089E-002  -1.9784088607088489E-002   2.1946287322245701E-002
   6.3764154788964814E-002  -1.9023484872290199E-002   2.1990730023404702E-002
   6.1489501243295538E-002  -1.8264013205590984E-002   2.2221843466130729E-002
   6.5076812640019771E-002  -1.9661274387704708E-002   2.9643735193208509E-002
   6.2984982722938676E-002  -1.8972857476008825E-002   2.9295444868702197E-002
   6.0893152805857623E-002  -1.8274666222923508E-002   2.9126131059805244E-002
   5.8801322888776549E-002  -1.7566700628448978E-002   2.9135793766518051E-002
   5.6709492971695474E-002  -1.6848960692584791E-002   2.9324432988840410E-002
   7.5525671237931635E-002  -2.2509170744609563E-002   6.9640374145463202E-004
   7.2235634011879435E-002  -2.1630733942278602E-002   3.9124770944298781E-004
   6.8945596785827123E-002  -2.0730905957131368E-002   2.6951756399662408E-004
   6.5655559559774868E-002  -1.9809686789168370E-002   3.3121330511651226E-004
   6.2365522333722612E-002  -1.8867076438389807E-002   5.7633493280151438E-004
   7.0897590376413633E-002  -2.1094118231603454E-002   7.9078288424376808E-003
   6.7793049278121131E-002  -2.0254961614333267E-002   7.5724901054389226E-003
   6.4688508179828630E-002  -1.9400417132187042E-002   7.4247177373940876E-003
   6.1583967081536101E-002  -1.8530484785164544E-002   7.4645117383032866E-003
   5.8479425983243627E-002  -1.7645164573265926E-002   7.6918721081659092E-003
   6.6218867044868207E-002  -1.9679065718597177E-002   1.5082975417329586E-002
   6.3303962556723811E-002  -1.8879189286388015E-002   1.4711450657404090E-002
   6.0389058068579443E-002  -1.8069928307242369E-002   1.4531632748820703E-002
   5.7474153580435061E-002  -1.7251282781160494E-002   1.4543521691579596E-002
   5.4559249092290679E-002  -1.6423252708141933E-002   1.4747117485680417E-002
   6.1489501243295538E-002  -1.8264013205590984E-002   2.2221843466130729E-002
   5.8768373847687572E-002  -1.7503416958442833E-002   2.1808129365338172E-002
   5.6047246452079640E-002  -1.6739439482297926E-002   2.1590262598276701E-002
   5.3326119056471652E-002  -1.5972080777156332E-002   2.1568243164945509E-002
   5.0604991660863678E-002  -1.5201340843018218E-002   2.1742071065345092E-002
   5.6709492971695474E-002  -1.6848960692584791E-002   2.9324432988840410E-002
   5.4186283151012316E-002  -1.6127644630497540E-002   2.8862526229241625E-002
   5.1663073330329101E-002  -1.5408950657353426E-002   2.8600607285762025E-002
   4.9139863509645901E-002  -1.4692878773152271E-002   2.8538676158401249E-002
   4.6616653688962728E-002  -1.3979428977894393E-002   2.8676732847159436E-002
   6.2365522333722612E-002  -1.8867076438389807E-002   5.7633493280151438E-004
   5.9499536097777805E-002  -1.7934697796232357E-002   3.4726605008017497E-004
   5.6633549861833055E-002  -1.7044173754135028E-002   2.9984433670071642E-004
   5.3767563625888276E-002  -1.6195504312096848E-002   4.3406979266372159E-004
   5.0901577389943498E-002  -1.5388689470118511E-002   7.4994241796955130E-004
   5.8479425983243627E-002  -1.7645164573265926E-002   7.6918721081659092E-003
   5.5788375755185859E-002  -1.6765310642928410E-002   7.3879240094862353E-003
   5.3097325527127953E-002  -1.5911777140588973E-002   7.2522007572382030E-003
   5.0406275299070033E-002  -1.5084564066247856E-002   7.2847023514215625E-003
   4.7715225071012224E-002  -1.4283671419905275E-002   7.4854287920362861E-003
   5.4559249092290679E-002  -1.6423252708141933E-002   1.4747117485680417E-002
   5.2029712549209045E-002  -1.5595923489623964E-002   1.4383824343103924E-002
   4.9500176006127397E-002  -1.4779380527043140E-002   1.4175333724047778E-002
   4.6970639463045742E-002  -1.3973623820398753E-002   1.4121645628512661E-002
   4.4441102919964115E-002  -1.3178653369691817E-002   1.4222760056498751E-002
   5.0604991660863678E-002  -1.5201340843018218E-002   2.1742071065345092E-002
   4.8223546479847570E-002  -1.4426536336319434E-002   2.1334967050932595E-002
   4.5842101298831373E-002  -1.3646983913496974E-002   2.1069243237130060E-002
   4.3460656117815265E-002  -1.2862683574549706E-002   2.0944899623937745E-002
   4.1079210936799060E-002  -1.2073635319478582E-002   2.0961936211355323E-002
   4.6616653688962728E-002  -1.3979428977894393E-002   2.8676732847159436E-002
   4.4369877547101338E-002  -1.3257149183015182E-002   2.8241352132972464E-002
   4.2123101405239949E-002  -1.2514587299951030E-002   2.7933929296484417E-002
   3.9876325263378559E-002  -1.1751743328700492E-002   2.7754464337695961E-002
   3.7629549121517170E-002  -1.0968617269265124E-002   2.7702957256607097E-002
   5.0901577389943498E-002  -1.5388689470118511E-002   7.4994241796955130E-004
   4.8142836088554075E-002  -1.4585864137969140E-002   4.8876569450018170E-004
   4.5384094787164653E-002  -1.3749163225417693E-002   2.7670725445694266E-004
   4.2625353485775230E-002  -1.2878586732464073E-002   1.1376709783789130E-004
   3.9866612184385808E-002  -1.1974134659108460E-002  -5.4775355584624208E-008
   4.7715225071012224E-002  -1.4283671419905275E-002   7.4854287920362861E-003
   4.5015966783874761E-002  -1.3486754007293600E-002   7.1729697377469481E-003
   4.2316708496737299E-002  -1.2671466634145534E-002   6.9303584285355657E-003
   3.9617450209599864E-002  -1.1837809300461050E-002   6.7575948644032213E-003
   3.6918191922462484E-002  -1.0985782006240896E-002   6.6546790453499982E-003
   4.4441102919964115E-002  -1.3178653369691817E-002   1.4222760056498751E-002
   4.1822057108732269E-002  -1.2387643876618004E-002   1.3843513051522038E-002
   3.9203011297500451E-002  -1.1593770042874013E-002   1.3554843253278187E-002
   3.6583965486268605E-002  -1.0797031868458686E-002   1.3356750661766420E-002
   3.3964919675036787E-002  -9.9974293533732217E-003   1.3249235276987015E-002
   4.1079210936799060E-002  -1.2073635319478582E-002   2.0961936211355323E-002
   3.8561107063126536E-002  -1.1288533745942769E-002   2.0500395635826868E-002
   3.6043003189454026E-002  -1.0516073451602284E-002   2.0150161728683884E-002
   3.3524899315781474E-002  -9.7562544364564359E-003   1.9911234489927442E-002
   3.1006795442108992E-002  -9.0090767005059358E-003   1.9783613919557227E-002
   3.7629549121517170E-002  -1.0968617269265124E-002   2.7702957256607097E-002
   3.5233116647057583E-002  -1.0189423615267368E-002   2.7143617490660521E-002
   3.2836684172597996E-002  -9.4383768603303608E-003   2.6716313854753593E-002
   3.0440251698138465E-002  -8.7154770044537491E-003   2.6421046348886340E-002
   2.8043819223678823E-002  -8.0207240476382058E-003   2.6257814973059124E-002
   3.9866612184385808E-002  -1.1974134659108460E-002  -5.4775355584624208E-008
   3.7454533424913339E-002  -1.1134867559416728E-002  -2.8467983421398557E-004
   3.5042454665440981E-002  -1.0459845987453698E-002  -4.8053388849100820E-004
   3.2630375905968623E-002  -9.9490699432199375E-003  -5.8761693818837335E-004
   3.0218297146496154E-002  -9.6025394267149622E-003  -6.0592898330424916E-004
   3.6918191922462484E-002  -1.0985782006240896E-002   6.6546790453499982E-003
   3.4577104198592834E-002  -1.0178570299292811E-002   6.2112987006061049E-003
   3.2236016474723128E-002  -9.4793597274265284E-003   5.8211294224875809E-003
   2.9894928750853506E-002  -8.8881502906405507E-003   5.4841712109934271E-003
   2.7553841026983883E-002  -8.4049419889362653E-003   5.2004240661241985E-003
   3.3964919675036787E-002  -9.9974293533732217E-003   1.3249235276987015E-002
   3.1659263048813974E-002  -9.2222730391694485E-003   1.2703344039006137E-002
   2.9353606422591244E-002  -8.4988734673984434E-003   1.2175103929694037E-002
   2.7047949796368514E-002  -7.8272306380609349E-003   1.1664514949050797E-002
   2.4742293170145646E-002  -7.2073445511571244E-003   1.1171577097076502E-002
   3.1006795442108992E-002  -9.0090767005059358E-003   1.9783613919557227E-002
   2.8701009975577056E-002  -8.2659757790455868E-003   1.9191456180986360E-002
   2.6395224509045294E-002  -7.5183872073709274E-003   1.8581389633128491E-002
   2.4089439042513421E-002  -6.7663109854818777E-003   1.7953414275983435E-002
   2.1783653575981540E-002  -6.0097471133782054E-003   1.7307530109551800E-002
   2.8043819223678823E-002  -8.0207240476382058E-003   2.6257814973059124E-002
   2.5702344978882019E-002  -7.3096785189220026E-003   2.5675635126546248E-002
   2.3360870734085215E-002  -6.5379009473431615E-003   2.5039986532790603E-002
   2.1019396489288383E-002  -5.7053913329024805E-003   2.4350869191791885E-002
   1.8677922244491552E-002  -4.8121496755991755E-003   2.3608283103550565E-002
   3.0218297146496154E-002  -9.6025394267149622E-003  -6.0592898330424916E-004
   2.9608719511875270E-002  -9.1345102624746932E-003  -3.6187658789876842E-004
   2.8999141877254386E-002  -8.2592382750322768E-003  -1.7986483737745251E-003
   2.8389564242633503E-002  -6.9767234643891285E-003  -4.9162443409324075E-003
   2.7779986608012619E-002  -5.2869658305452205E-003  -9.7146644893715273E-003
   2.7553841026983883E-002  -8.4049419889362653E-003   5.2004240661241985E-003
   2.5532778926786737E-002  -7.8705593219765557E-003   5.8755207843059765E-003
   2.3511716826589535E-002  -7.1258267894259708E-003   5.4084727526162446E-003
   2.1490654726392333E-002  -6.1707443912828175E-003   3.7992799710557523E-003
   1.9469592626195076E-002  -5.0053121275497325E-003   1.0479424396245829E-003
   2.4742293170145646E-002  -7.2073445511571244E-003   1.1171577097076502E-002
   2.1848426035783020E-002  -6.6066083814789733E-003   1.2080825180423749E-002
   1.8954558901420365E-002  -5.9924153038190542E-003   1.2386607945311212E-002
   1.6060691767057766E-002  -5.3647653181776306E-003   1.2088925391738628E-002
   1.3166824632695084E-002  -4.7236584245533564E-003   1.1187777519705899E-002
   2.1783653575981540E-002  -6.0097471133782054E-003   1.7307530109551800E-002
   1.8555660838864271E-002  -5.3426574409817795E-003   1.8254036600455964E-002
   1.5327668101746864E-002  -4.8590038182122208E-003   1.9135757204310641E-002
   1.2099675364629581E-002  -4.5587862450712155E-003   1.9952691921116220E-002
   8.8716826275121868E-003  -4.4420047215572023E-003   2.0704840750872838E-002
   1.8677922244491552E-002  -4.8121496755991755E-003   2.3608283103550565E-002
   1.5654483336030312E-002  -4.0787065004834755E-003   2.4395155044401817E-002
   1.2631044427569155E-002  -3.7255923326055818E-003   2.5655920529614185E-002
   9.6076055191079562E-003  -3.7528071719648490E-003   2.7390579559188527E-002
   6.5841666106467578E-003  -4.1603510185614923E-003   2.9599132133124151E-002
   2.7779986608012619E-002  -5.2869658305452205E-003  -9.7146644893715273E-003
   2.3353561304108927E-002  -4.2066851939683847E-003  -4.1871430167943480E-003
   1.8927136000205458E-002  -4.7526013751272300E-003   2.6044581021682500E-003
   1.4500710696301933E-002  -6.9247143740213957E-003   1.0660138867514379E-002
   1.0074285392398297E-002  -1.0723024190650854E-002   1.9979899279245039E-002
   1.9469592626195076E-002  -5.0053121275497325E-003   1.0479424396245829E-003
   1.6234878216470627E-002  -4.6907058398327761E-003   6.7416218306337594E-003
   1.3000163806746068E-002  -6.2881013697432264E-003   1.3554643363616004E-002
   9.7654493970214251E-003  -9.7974987172796124E-003   2.1487007038571815E-002
   6.5307349872969489E-003  -1.5218897882442572E-002   3.0538712855501693E-002
   1.3166824632695084E-002  -4.7236584245533564E-003   1.1187777519705899E-002
   1.0979083612738860E-002  -5.1747264856972786E-003   1.6761809829254404E-002
   8.7913425927828026E-003  -7.8236013643588342E-003   2.3310446776366567E-002
   6.6036015728266201E-003  -1.2670283060537843E-002   3.0833688361041112E-002
   4.4158605528704098E-003  -1.9714771574233847E-002   3.9331534583279426E-002
   8.8716826275121868E-003  -4.4420047215572023E-003   2.0704840750872838E-002
   7.5861774929138898E-003  -5.6587471315621696E-003   2.5873420979070277E-002
   6.3006723583154886E-003  -9.3591013589746364E-003   3.1871868340420773E-002
   5.0151672237170423E-003  -1.5543067403796067E-002   3.8700182834923290E-002
   3.7296620891189153E-003  -2.4210645266025788E-002   4.6358364462578183E-002
   6.5841666106467578E-003  -4.1603510185614923E-003   2.9599132133124151E-002
   6.0561598569954800E-003  -6.1427677774266165E-003   3.4076455280079965E-002
   5.5281531033442577E-003  -1.0894601353590661E-002   3.9238908055777677E-002
   5.0001463496930770E-003  -1.8415851747054346E-002   4.5086490460217454E-002
   4.4721395960417576E-003  -2.8706518957817284E-002   5.1619202493398575E-002
   7.5716437030011630E-002  -2.2644982433721927E-002   3.1973667639739911E-002
   7.3056530932513686E-002  -2.1852257469340330E-002   3.0791790627165139E-002
   7.0396624835015686E-002  -2.1090731140210164E-002   3.0009509548551333E-002
   6.7736718737517715E-002  -2.0360403446331613E-002   2.9626824403899313E-002
   6.5076812640019771E-002  -1.9661274387704708E-002   2.9643735193208509E-002
   6.8801214878811440E-002  -2.0704299682592076E-002   3.5818934872107688E-002
   6.6500024660977985E-002  -2.0020305947567263E-002   3.4982984593655259E-002
   6.4198834443144517E-002  -1.9349088615242829E-002   3.4464870140570036E-002
   6.1897644225311028E-002  -1.8690647685618903E-002   3.4264591512852674E-002
   5.9596454007477540E-002  -1.8044983158695349E-002   3.4382148710502797E-002
   6.2294787035006460E-002  -1.8763616931462196E-002   3.9546259758843280E-002
   6.0270552588243737E-002  -1.8188354425794265E-002   3.9074658447064078E-002
   5.8246318141480971E-002  -1.7607446090275571E-002   3.8839132852058721E-002
   5.6222083694718164E-002  -1.7020891924906190E-002   3.8839682973826992E-002
   5.4197849247955419E-002  -1.6428691929686101E-002   3.9076308812369273E-002
   5.6197153498596678E-002  -1.6822934180332302E-002   4.3155642299946340E-002
   5.4368114714310849E-002  -1.6356402904021274E-002   4.3066812187391584E-002
   5.2539075930024937E-002  -1.5865803565308246E-002   4.3132297683016990E-002
   5.0710037145739052E-002  -1.5351136164193452E-002   4.3352098786822404E-002
   4.8880998361453216E-002  -1.4812400700676825E-002   4.3726215498807793E-002
   5.0508314269582133E-002  -1.4882251429202464E-002   4.6647082495416881E-002
   4.8792711039179398E-002  -1.4524451382248255E-002   4.6959445814637901E-002
   4.7077107808776580E-002  -1.4124161040341018E-002   4.7344364633445296E-002
   4.5361504578373790E-002  -1.3681380403480752E-002   4.7801838951838718E-002
   4.3645901347971028E-002  -1.3196109471667550E-002   4.8331868769818376E-002
   6.5076812640019771E-002  -1.9661274387704708E-002   2.9643735193208509E-002
   6.2984982722938676E-002  -1.8972857476008825E-002   2.9295444868702197E-002
   6.0893152805857623E-002  -1.8274666222923508E-002   2.9126131059805244E-002
   5.8801322888776549E-002  -1.7566700628448978E-002   2.9135793766518051E-002
   5.6709492971695474E-002  -1.6848960692584791E-002   2.9324432988840410E-002
   5.9596454007477540E-002  -1.8044983158695349E-002   3.4382148710502797E-002
   5.7678247404685343E-002  -1.7401908278279143E-002   3.4118944783233351E-002
   5.5760040801893174E-002  -1.6751236288177068E-002   3.4024010968931970E-002
   5.3841834199101025E-002  -1.6092967188388881E-002   3.4097347267598534E-002
   5.1923627596308808E-002  -1.5427100978914920E-002   3.4338953679233619E-002
   5.4197849247955419E-002  -1.6428691929686101E-002   3.9076308812369273E-002
   5.2442559556810597E-002  -1.5830959080549420E-002   3.8896014050633157E-002
   5.0687269865665796E-002  -1.5227806353430406E-002   3.8873282999223671E-002
   4.8931980174521029E-002  -1.4619233748328950E-002   3.9008115658140864E-002
   4.7176690483376235E-002  -1.4005241265245050E-002   3.9300512027384632E-002
   4.8880998361453216E-002  -1.4812400700676825E-002   4.3726215498807793E-002
   4.7277919179314322E-002  -1.4260009882819773E-002   4.3626652670901572E-002
   4.5674839997175469E-002  -1.3704376418683856E-002   4.3673947150680591E-002
   4.4071760815036637E-002  -1.3145500308268977E-002   4.3868098938144917E-002
   4.2468681632897784E-002  -1.2583381551575179E-002   4.4209108033294198E-002
   4.3645901347971028E-002  -1.3196109471667550E-002   4.8331868769818376E-002
   4.2184326272196648E-002  -1.2689060685090098E-002   4.8310860644038722E-002
   4.0722751196422213E-002  -1.2180946483937347E-002   4.8426003423302638E-002
   3.9261176120647820E-002  -1.1671766868208932E-002   4.8677297107610290E-002
   3.7799601044873427E-002  -1.1161521837905308E-002   4.9064741696961955E-002
   5.6709492971695474E-002  -1.6848960692584791E-002   2.9324432988840410E-002
   5.4186283151012316E-002  -1.6127644630497540E-002   2.8862526229241625E-002
   5.1663073330329101E-002  -1.5408950657353426E-002   2.8600607285762025E-002
   4.9139863509645901E-002  -1.4692878773152271E-002   2.8538676158401249E-002
   4.6616653688962728E-002  -1.3979428977894393E-002   2.8676732847159436E-002
   5.1923627596308808E-002  -1.5427100978914920E-002   3.4338953679233619E-002
   4.9598354712746581E-002  -1.4756724604359533E-002   3.3913324868857869E-002
   4.7273081829184355E-002  -1.4084925009326968E-002   3.3683582116605437E-002
   4.4947808945622128E-002  -1.3411702193817477E-002   3.3649725422475796E-002
   4.2622536062059957E-002  -1.2737056157830939E-002   3.3811754786468973E-002
   4.7176690483376235E-002  -1.4005241265245050E-002   3.9300512027384632E-002
   4.5045252778938991E-002  -1.3385804578221361E-002   3.8915206475652317E-002
   4.2913815074501739E-002  -1.2760899361300510E-002   3.8721685224046953E-002
   4.0782377370064529E-002  -1.2130525614482628E-002   3.8719948272568527E-002
   3.8650939665627299E-002  -1.1494683337767653E-002   3.8909995621217164E-002
   4.2468681632897784E-002  -1.2583381551575179E-002   4.4209108033294198E-002
   4.0526977349589571E-002  -1.2014884552083216E-002   4.3868171049625079E-002
   3.8585273066281379E-002  -1.1436873713274051E-002   4.3714916608086955E-002
   3.6643568782973167E-002  -1.0849349035147695E-002   4.3749344708680138E-002
   3.4701864499664982E-002  -1.0252310517704338E-002   4.3971455351404093E-002
   3.7799601044873427E-002  -1.1161521837905308E-002   4.9064741696961955E-002
   3.6043528424698296E-002  -1.0643964525945182E-002   4.8772218590776184E-002
   3.4287455804523123E-002  -1.0112848065247620E-002   4.8663276268725519E-002
   3.2531383184347985E-002  -9.5681724558129358E-003   4.8737914730809850E-002
   3.0775310564172847E-002  -9.0099376976409129E-003   4.8996133977029510E-002
   4.6616653688962728E-002  -1.3979428977894393E-002   2.8676732847159436E-002
   4.4369877547101338E-002  -1.3257149183015182E-002   2.8241352132972464E-002
   4.2123101405239949E-002  -1.2514587299951030E-002   2.7933929296484417E-002
   3.9876325263378559E-002  -1.1751743328700492E-002   2.7754464337695961E-002
   3.7629549121517170E-002  -1.0968617269265124E-002   2.7702957256607097E-002
   4.2622536062059957E-002  -1.2737056157830939E-002   3.3811754786468973E-002
   4.0510157611911457E-002  -1.2053294785210944E-002   3.3423879887253372E-002
   3.8397779161763040E-002  -1.1352725959800913E-002   3.3176842493764513E-002
   3.6285400711614665E-002  -1.0635349681600473E-002   3.3070642606002107E-002
   3.4173022261466179E-002  -9.9011659506100802E-003   3.3105280223966305E-002
   3.8650939665627299E-002  -1.1494683337767653E-002   3.8909995621217164E-002
   3.6685838535218944E-002  -1.0849440387406567E-002   3.8566151901578000E-002
   3.4720737404810700E-002  -1.0190864619651019E-002   3.8376025315692550E-002
   3.2755636274402387E-002  -9.5189560345001756E-003   3.8339615863560592E-002
   3.0790535143994102E-002  -8.8337146319548143E-003   3.8456923545182348E-002
   3.4701864499664982E-002  -1.0252310517704338E-002   4.3971455351404093E-002
   3.2896920317023876E-002  -9.6455859896023149E-003   4.3668168175945932E-002
   3.1091976134382863E-002  -9.0290032795009023E-003   4.3531477762268449E-002
   2.9287031951741836E-002  -8.4025623873999616E-003   4.3561384110371762E-002
   2.7482087769100744E-002  -7.7662633132997150E-003   4.3757887220255968E-002
   3.0775310564172847E-002  -9.0099376976409129E-003   4.8996133977029510E-002
   2.9143402957326231E-002  -8.4417315917979519E-003   4.8729928710356751E-002
   2.7511495350479601E-002  -7.8671419393513131E-003   4.8643199833492246E-002
   2.5879587743632936E-002  -7.2861687402997130E-003   4.8735947346435576E-002
   2.4247680136786326E-002  -6.6988119946443936E-003   4.9008171249186883E-002
   3.7629549121517170E-002  -1.0968617269265124E-002   2.7702957256607097E-002
   3.5233116647057583E-002  -1.0189423615267368E-002   2.7143617490660521E-002
   3.2836684172597996E-002  -9.4383768603303608E-003   2.6716313854753593E-002
   3.0440251698138465E-002  -8.7154770044537491E-003   2.6421046348886340E-002
   2.8043819223678823E-002  -8.0207240476382058E-003   2.6257814973059124E-002
   3.4173022261466179E-002  -9.9011659506100802E-003   3.3105280223966305E-002
   3.1912872160253847E-002  -9.1680166539875874E-003   3.2600714833512345E-002
   2.9652722059041514E-002  -8.4537436788912068E-003   3.2236678059513052E-002
   2.7392571957829154E-002  -7.7583470253212508E-003   3.2013169901968647E-002
   2.5132421856616877E-002  -7.0818266932772822E-003   3.1930190360878519E-002
   3.0790535143994102E-002  -8.8337146319548143E-003   3.8456923545182348E-002
   2.8675159902443903E-002  -8.1466096927077791E-003   3.8016403107755808E-002
   2.6559784660893676E-002  -7.4691104974523720E-003   3.7724903773198995E-002
   2.4444409419343491E-002  -6.8012170461885270E-003   3.7582425541511720E-002
   2.2329034177793264E-002  -6.1429293389162476E-003   3.7588968412693963E-002
   2.7482087769100744E-002  -7.7662633132997150E-003   4.3757887220255968E-002
   2.5519979873627637E-002  -7.1252027314280958E-003   4.3390682313391597E-002
   2.3557871978154399E-002  -6.4844773160133776E-003   4.3180990995811477E-002
   2.1595764082681216E-002  -5.8440870670559714E-003   4.3128813267516025E-002
   1.9633656187208054E-002  -5.2040319845551575E-003   4.3234149128504824E-002
   2.4247680136786326E-002  -6.6988119946443936E-003   4.9008171249186883E-002
   2.2447332073805060E-002  -6.1037957701483014E-003   4.8723552450418872E-002
   2.0646984010823780E-002  -5.4998441345744664E-003   4.8604939727350305E-002
   1.8846635947842520E-002  -4.8869570879232702E-003   4.8652333079981180E-002
   1.7046287884861205E-002  -4.2651346301941784E-003   4.8865732508311277E-002
   2.8043819223678823E-002  -8.0207240476382058E-003   2.6257814973059124E-002
   2.5702344978882019E-002  -7.3096785189220026E-003   2.5675635126546248E-002
   2.3360870734085215E-002  -6.5379009473431615E-003   2.5039986532790603E-002
   2.1019396489288383E-002  -5.7053913329024805E-003   2.4350869191791885E-002
   1.8677922244491552E-002  -4.8121496755991755E-003   2.3608283103550565E-002
   2.5132421856616877E-002  -7.0818266932772822E-003   3.1930190360878519E-002
   2.2776019113545348E-002  -6.4067657190732263E-003   3.1532905275927170E-002
   2.0419616370473820E-002  -5.7157471390224257E-003   3.1159231941668947E-002
   1.8063213627402347E-002  -5.0087709531253174E-003   3.0809170358104362E-002
   1.5706810884330763E-002  -4.2858371613815338E-003   3.0482720525233487E-002
   2.2329034177793264E-002  -6.1429293389162476E-003   3.7588968412693963E-002
   2.0034783434383543E-002  -5.5038529192242003E-003   3.7331803652287610E-002
   1.7740532690973754E-002  -4.8935933307014817E-003   3.7175331140511234E-002
   1.5446281947563999E-002  -4.3121505733480468E-003   3.7119550877364994E-002
   1.3152031204154258E-002  -3.7595246471637256E-003   3.7164462862848718E-002
   1.9633656187208054E-002  -5.2040319845551575E-003   4.3234149128504824E-002
   1.7478637941396580E-002  -4.6009401193754101E-003   4.3072330255628059E-002
   1.5323619695585100E-002  -4.0714395223806973E-003   4.3088284129317797E-002
   1.3168601449773668E-002  -3.6155301935707745E-003   4.3282010749573843E-002
   1.1013583203962143E-002  -3.2332121329460561E-003   4.3653510116396725E-002
   1.7046287884861205E-002  -4.2651346301941784E-003   4.8865732508311277E-002
   1.5107582634584532E-002  -3.6980273195261759E-003   4.8754485085948596E-002
   1.3168877384307789E-002  -3.2492857140596909E-003   4.8898090908088498E-002
   1.1230172134031054E-002  -2.9189098137936409E-003   4.9296549974731763E-002
   9.2914668837543180E-003  -2.7068996187281646E-003   4.9949862285877500E-002
   1.8677922244491552E-002  -4.8121496755991755E-003   2.3608283103550565E-002
   1.5654483336030312E-002  -4.0787065004834755E-003   2.4395155044401817E-002
   1.2631044427569155E-002  -3.7255923326055818E-003   2.5655920529614185E-002
   9.6076055191079562E-003  -3.7528071719648490E-003   2.7390579559188527E-002
   6.5841666106467578E-003  -4.1603510185614923E-003   2.9599132133124151E-002
   1.5706810884330763E-002  -4.2858371613815338E-003   3.0482720525233487E-002
   1.3138877653813885E-002  -3.7733145153460712E-003   3.1258981827401278E-002
   1.0570944423296993E-002  -3.6975717665736207E-003   3.2472360941096290E-002
   8.0030111927800809E-003  -4.0586089150640228E-003   3.4122857866318690E-002
   5.4350779622632239E-003  -4.8564259608175897E-003   3.6210472603067867E-002
   1.3152031204154258E-002  -3.7595246471637256E-003   3.7164462862848718E-002
   1.1002827918747266E-002  -3.4679225302083339E-003   3.7873662636308120E-002
   8.8536246333402457E-003  -3.6695512005414516E-003   3.8983204488460085E-002
   6.7044213479332572E-003  -4.3644106581630891E-003   4.0493088419304858E-002
   4.5552180625262340E-003  -5.5525009030734651E-003   4.2403314428842376E-002
   1.1013583203962143E-002  -3.2332121329460561E-003   4.3653510116396725E-002
   9.2463341308305982E-003  -3.1625305450703745E-003   4.4239197471122087E-002
   7.4790850576990486E-003  -3.6415306345093865E-003   4.5188451171705488E-002
   5.7118359845674477E-003  -4.6702124012624312E-003   4.6501271218146789E-002
   3.9445869114358989E-003  -6.2485758453293405E-003   4.8177657610446858E-002
   9.2914668837543180E-003  -2.7068996187281646E-003   4.9949862285877500E-002
   7.8693962900637793E-003  -2.8571385599331367E-003   5.0355586331842783E-002
   6.4473256963732684E-003  -3.6135100684772936E-003   5.1088100990832053E-002
   5.0252551026827158E-003  -4.9760141443615444E-003   5.2147406262845392E-002
   3.6031845089921632E-003  -6.9446507875854380E-003   5.3533502147881773E-002
   6.5841666106467578E-003  -4.1603510185614923E-003   2.9599132133124151E-002
   6.0561598569954800E-003  -6.1427677774266165E-003   3.4076455280079965E-002
   5.5281531033442577E-003  -1.0894601353590661E-002   3.9238908055777677E-002
   5.0001463496930770E-003  -1.8415851747054346E-002   4.5086490460217454E-002
   4.4721395960417576E-003  -2.8706518957817284E-002   5.1619202493398575E-002
   5.4350779622632239E-003  -4.8564259608175897E-003   3.6210472603067867E-002
   5.4883867613819137E-003  -6.9907229828347628E-003   3.8350411986416588E-002
   5.5416955605006868E-003  -1.1361200060116705E-002   4.0967852846563346E-002
   5.5950043596194599E-003  -1.7967857192663153E-002   4.4062795183508641E-002
   5.6483131587382052E-003  -2.6810694380474231E-002   4.7635238997251639E-002
   4.5552180625262340E-003  -5.5525009030734651E-003   4.2403314428842376E-002
   4.9822142624714322E-003  -7.8386781882431311E-003   4.2739106810618266E-002
   5.4092104624165888E-003  -1.1827798766642306E-002   4.3344772517249192E-002
   5.8362066623617974E-003  -1.7519862638271794E-002   4.4220311548734251E-002
   6.2632028623068325E-003  -2.4914869803131179E-002   4.5365723905074207E-002
   3.9445869114358989E-003  -6.2485758453293405E-003   4.8177657610446858E-002
   4.5376423602637890E-003  -8.6866333936512774E-003   4.7242539752685483E-002
   5.1306978090917121E-003  -1.2294397473168239E-002   4.6369667067834547E-002
   5.7237532579197279E-003  -1.7071868083880407E-002   4.5559039555894569E-002
   6.3168087067474663E-003  -2.3019045225788126E-002   4.4810657216866001E-002
   3.6031845089921632E-003  -6.9446507875854380E-003   5.3533502147881773E-002
   4.1546710547592514E-003  -9.5345885990595347E-003   5.1860710812616562E-002
   4.7061576005262840E-003  -1.2760996179693951E-002   5.0042536498319468E-002
   5.2576441462934553E-003  -1.6623873529489130E-002   4.8078979204989658E-002
   5.8091306920604602E-003  -2.1123220648445074E-002   4.5970038932626522E-002
   5.0508314269582133E-002  -1.4882251429202464E-002   4.6647082495416881E-002
   4.8792711039179398E-002  -1.4524451382248255E-002   4.6959445814637901E-002
   4.7077107808776580E-002  -1.4124161040341018E-002   4.7344364633445296E-002
   4.5361504578373790E-002  -1.3681380403480752E-002   4.7801838951838718E-002
   4.3645901347971028E-002  -1.3196109471667550E-002   4.8331868769818376E-002
   4.4818652968364014E-002  -1.3002576004244981E-002   5.1426794695689726E-002
   4.3209888870568855E-002  -1.2686337935163189E-002   5.1401508468486956E-002
   4.1601124772773668E-002  -1.2335579616320258E-002   5.1517345006913351E-002
   3.9992360674978508E-002  -1.1950301047715925E-002   5.1774304310968619E-002
   3.8383596577183335E-002  -1.1530502229350481E-002   5.2172386380652885E-002
   3.8718553215343593E-002  -1.1122900579287526E-002   5.6168929940685910E-002
   3.7285195516198862E-002  -1.0848224488078137E-002   5.5798024121867629E-002
   3.5851837817054130E-002  -1.0546998192299338E-002   5.5636808334721143E-002
   3.4418480117909413E-002  -1.0219221691951099E-002   5.5685282579246653E-002
   3.2985122418764667E-002  -9.8648949870333846E-003   5.5943446855443904E-002
   3.2208015010520778E-002  -9.2432251543300564E-003   6.0873488230405629E-002
   3.1018630976069363E-002  -9.0101110409930643E-003   6.0148992774780002E-002
   2.9829246941617909E-002  -8.7584167682784701E-003   5.9702754616868949E-002
   2.8639862907166483E-002  -8.4881423361862461E-003   5.9534773756672731E-002
   2.7450478872715040E-002  -8.1992877447163298E-003   5.9645050194191127E-002
   2.5287038353895702E-002  -7.3635497293725871E-003   6.5540469564848824E-002
   2.4410195250180400E-002  -7.1719975939080471E-003   6.4454414427223938E-002
   2.3533352146465056E-002  -6.9698353442576855E-003   6.3715183853356783E-002
   2.2656509042749719E-002  -6.7570629804214535E-003   6.3322777843246941E-002
   2.1779665939034396E-002  -6.5336805023992195E-003   6.3277196396894775E-002
   4.3645901347971028E-002  -1.3196109471667550E-002   4.8331868769818376E-002
   4.2184326272196648E-002  -1.2689060685090098E-002   4.8310860644038722E-002
   4.0722751196422213E-002  -1.2180946483937347E-002   4.8426003423302638E-002
   3.9261176120647820E-002  -1.1671766868208932E-002   4.8677297107610290E-002
   3.7799601044873427E-002  -1.1161521837905308E-002   4.9064741696961955E-002
   3.8383596577183335E-002  -1.1530502229350481E-002   5.2172386380652885E-002
   3.7069922547212447E-002  -1.1091606224657088E-002   5.2029328776737285E-002
   3.5756248517241553E-002  -1.0649036097068715E-002   5.2045922359384614E-002
   3.4442574487270658E-002  -1.0202791846585769E-002   5.2222167128595530E-002
   3.3128900457299743E-002  -9.7528734732078570E-003   5.2558063084369389E-002
   3.2985122418764667E-002  -9.8648949870333846E-003   5.5943446855443904E-002
   3.1842849716116839E-002  -9.4941517642239542E-003   5.5680948481711373E-002
   3.0700577013469010E-002  -9.1171257102003120E-003   5.5601601576061678E-002
   2.9558304310821168E-002  -8.7338168249624423E-003   5.5705406138494770E-002
   2.8416031608173319E-002  -8.3442251085105168E-003   5.5992362169010906E-002
   2.7450478872715040E-002  -8.1992877447163298E-003   5.9645050194191127E-002
   2.6503107778909813E-002  -7.8966973037908825E-003   5.9265719758961270E-002
   2.5555736685104601E-002  -7.5852153233318502E-003   5.9093041073333734E-002
   2.4608365591299402E-002  -7.2648418033391974E-003   5.9127014137308698E-002
   2.3660994497494162E-002  -6.9355767438132043E-003   5.9367638950885891E-002
   2.1779665939034396E-002  -6.5336805023992195E-003   6.3277196396894775E-002
   2.1050696735591373E-002  -6.2992428433578385E-003   6.2783642608486845E-002
   2.0321727532148330E-002  -6.0533049364632358E-003   6.2520240851200948E-002
   1.9592758328705290E-002  -5.7958667817159422E-003   6.2486991125037070E-002
   1.8863789125262265E-002  -5.5269283791157808E-003   6.2683893429995030E-002
   3.7799601044873427E-002  -1.1161521837905308E-002   4.9064741696961955E-002
   3.6043528424698296E-002  -1.0643964525945182E-002   4.8772218590776184E-002
   3.4287455804523123E-002  -1.0112848065247620E-002   4.8663276268725519E-002
   3.2531383184347985E-002  -9.5681724558129358E-003   4.8737914730809850E-002
   3.0775310564172847E-002  -9.0099376976409129E-003   4.8996133977029510E-002
   3.3128900457299743E-002  -9.7528734732078570E-003   5.2558063084369389E-002
   3.1563177572028173E-002  -9.2951373317598507E-003   5.2242900948390958E-002
   2.9997454686756658E-002  -8.8254397770661519E-003   5.2124857498084626E-002
   2.8431731801485088E-002  -8.3437808091268093E-003   5.2203932733450434E-002
   2.6866008916213560E-002  -7.8501604279419546E-003   5.2480126654488313E-002
   2.8416031608173319E-002  -8.3442251085105168E-003   5.5992362169010906E-002
   2.7054196359342385E-002  -7.9463101375745193E-003   5.5652963267747851E-002
   2.5692361110511482E-002  -7.5380314888845584E-003   5.5524220953694067E-002
   2.4330525861680566E-002  -7.1193891624406792E-003   5.5606135226849505E-002
   2.2968690612849653E-002  -6.6903831582428852E-003   5.5898706087213840E-002
   2.3660994497494162E-002  -6.9355767438132043E-003   5.9367638950885891E-002
   2.2516584786640884E-002  -6.5974829433891602E-003   5.9002405548847010E-002
   2.1372175075787609E-002  -6.2506232007029441E-003   5.8861366635554052E-002
   2.0227765364934317E-002  -5.8949975157545510E-003   5.8944522211007336E-002
   1.9083355654081056E-002  -5.5306058885438159E-003   5.9251872275206820E-002
   1.8863789125262265E-002  -5.5269283791157808E-003   6.2683893429995030E-002
   1.7950342853923648E-002  -5.2486557492038288E-003   6.2291227791688109E-002
   1.7036896582585032E-002  -4.9632149125214825E-003   6.2136294543664344E-002
   1.6123450311246429E-002  -4.6706058690684192E-003   6.2219093685923946E-002
   1.5210004039907826E-002  -4.3708286188448575E-003   6.2539625218466455E-002
   3.0775310564172847E-002  -9.0099376976409129E-003   4.8996133977029510E-002
   2.9143402957326231E-002  -8.4417315917979519E-003   4.8729928710356751E-002
   2.7511495350479601E-002  -7.8671419393513131E-003   4.8643199833492246E-002
   2.5879587743632936E-002  -7.2861687402997130E-003   4.8735947346435576E-002
   2.4247680136786326E-002  -6.6988119946443936E-003   4.9008171249186883E-002
   2.6866008916213560E-002  -7.8501604279419546E-003   5.2480126654488313E-002
   2.5417099274244917E-002  -7.3471704366901425E-003   5.2236006984226979E-002
   2.3968189632276295E-002  -6.8374026385507047E-003   5.2178406853913839E-002
   2.2519279990307676E-002  -6.3208570335232805E-003   5.2307326263548448E-002
   2.1070370348339029E-002  -5.7975336216081752E-003   5.2622765213131473E-002
   2.2968690612849653E-002  -6.6903831582428852E-003   5.5898706087213840E-002
   2.1709822085899076E-002  -6.2526092815822221E-003   5.5677066273647768E-002
   2.0450953558948496E-002  -5.8076633377503323E-003   5.5648989150169595E-002
   1.9192085031997916E-002  -5.3555453267466850E-003   5.5814474716779743E-002
   1.7933216505047374E-002  -4.8962552485717903E-003   5.6173522973477746E-002
   1.9083355654081056E-002  -5.5306058885438159E-003   5.9251872275206820E-002
   1.8021571392288604E-002  -5.1580481264744127E-003   5.9053106578619105E-002
   1.6959787130496173E-002  -4.7779240369498419E-003   5.9054946722259874E-002
   1.5898002868703746E-002  -4.3902336199703376E-003   5.9257392706128641E-002
   1.4836218606911292E-002  -3.9949768755353221E-003   5.9660444530225544E-002
   1.5210004039907826E-002  -4.3708286188448575E-003   6.2539625218466455E-002
   1.4352347193413578E-002  -4.0634869713663813E-003   6.2364127899141364E-002
   1.3494690346919330E-002  -3.7481847361493792E-003   6.2396279570184399E-002
   1.2637033500425089E-002  -3.4249219131936084E-003   6.2636080231595781E-002
   1.1779376653930862E-002  -3.0936985024990760E-003   6.3083529883375289E-002
   2.4247680136786326E-002  -6.6988119946443936E-003   4.9008171249186883E-002
   2.2447332073805060E-002  -6.1037957701483014E-003   4.8723552450418872E-002
   2.0646984010823780E-002  -5.4998441345744664E-003   4.8604939727350305E-002
   1.8846635947842520E-002  -4.8869570879232702E-003   4.8652333079981180E-002
   1.7046287884861205E-002  -4.2651346301941784E-003   4.8865732508311277E-002
   2.1070370348339029E-002  -5.7975336216081752E-003   5.2622765213131473E-002
   1.9446187210895124E-002  -5.2696402913339768E-003   5.2394109929810861E-002
   1.7822004073451220E-002  -4.7393849312299396E-003   5.2351778421865613E-002
   1.6197820936007301E-002  -4.2067675412957029E-003   5.2495770689295979E-002
   1.4573637798563410E-002  -3.6717881215317938E-003   5.2826086732101318E-002
   1.7933216505047374E-002  -4.8962552485717903E-003   5.6173522973477746E-002
   1.6505515992816758E-002  -4.4354848125198187E-003   5.5994257824356963E-002
   1.5077815480586159E-002  -3.9789257278855378E-003   5.6021634150287561E-002
   1.3650114968355566E-002  -3.5265779946688051E-003   5.6255651951269185E-002
   1.2222414456124951E-002  -3.0784416128696868E-003   5.6696311227302398E-002
   1.4836218606911292E-002  -3.9949768755353221E-003   5.9660444530225544E-002
   1.3625318419569984E-002  -3.6013293337056329E-003   5.9523996134057136E-002
   1.2414418232228618E-002  -3.2184665245409624E-003   5.9614506912615842E-002
   1.1203518044887293E-002  -2.8463884480416281E-003   5.9931976865901661E-002
   9.9926178575459514E-003  -2.4850951042073299E-003   6.0476405993914906E-002
   1.1779376653930862E-002  -3.0936985024990760E-003   6.3083529883375289E-002
   1.0805594491154730E-002  -2.7671738548912805E-003   6.2983324858911449E-002
   9.8318123283786113E-003  -2.4580073211965814E-003   6.3130396708850456E-002
   8.8580301656024929E-003  -2.1661989014143332E-003   6.3524745433192781E-002
   7.8842480028263606E-003  -1.8917485955453062E-003   6.4166371031938341E-002
   1.7046287884861205E-002  -4.2651346301941784E-003   4.8865732508311277E-002
   1.5107582634584532E-002  -3.6980273195261759E-003   4.8754485085948596E-002
   1.3168877384307789E-002  -3.2492857140596909E-003   4.8898090908088498E-002
   1.1230172134031054E-002  -2.9189098137936409E-003   4.9296549974731763E-002
   9.2914668837543180E-003  -2.7068996187281646E-003   4.9949862285877500E-002
   1.4573637798563410E-002  -3.6717881215317938E-003   5.2826086732101318E-002
   1.2889023247143319E-002  -3.1937874635615260E-003   5.2718160878642173E-002
   1.1204408695723228E-002  -2.8321063590088513E-003   5.2863563178393580E-002
   9.5197941443031439E-003  -2.5867448078742625E-003   5.3262293631355040E-002
   7.8351795928830459E-003  -2.4577028101572251E-003   5.3914352237526886E-002
   1.2222414456124951E-002  -3.0784416128696868E-003   5.6696311227302398E-002
   1.0790365512268855E-002  -2.6895476075967650E-003   5.6593753094530269E-002
   9.3583165684127563E-003  -2.4149270039584558E-003   5.6742998023675828E-002
   7.9262676245566727E-003  -2.2545798019549951E-003   5.7144046014738950E-002
   6.4942186807005614E-003  -2.2085060015863411E-003   5.7796897067719871E-002
   9.9926178575459514E-003  -2.4850951042073299E-003   6.0476405993914906E-002
   8.8116094299611741E-003  -2.1853077516318375E-003   6.0381261733612614E-002
   7.6306010023763958E-003  -1.9977476489078383E-003   6.0536395443935284E-002
   6.4495925747916055E-003  -1.9224147960357832E-003   6.0941807124882931E-002
   5.2685841472068402E-003  -1.9593091930151518E-003   6.1597496776455339E-002
   7.8842480028263606E-003  -1.8917485955453062E-003   6.4166371031938341E-002
   6.9527550002202454E-003  -1.6810678956670211E-003   6.4080686795888853E-002
   6.0212619976141163E-003  -1.5805682938571097E-003   6.4243755439171712E-002
   5.0897689950079941E-003  -1.5902497901164325E-003   6.4655576961787031E-002
   4.1582759924018720E-003  -1.7101123844444066E-003   6.5316151363734476E-002
   9.2914668837543180E-003  -2.7068996187281646E-003   4.9949862285877500E-002
   7.8693962900637793E-003  -2.8571385599331367E-003   5.0355586331842783E-002
   6.4473256963732684E-003  -3.6135100684772936E-003   5.1088100990832053E-002
   5.0252551026827158E-003  -4.9760141443615444E-003   5.2147406262845392E-002
   3.6031845089921632E-003  -6.9446507875854380E-003   5.3533502147881773E-002
   7.8351795928830459E-003  -2.4577028101572251E-003   5.3914352237526886E-002
   6.7139246466026425E-003  -2.6432455627146134E-003   5.3849936439331780E-002
   5.5926697003221976E-003  -3.3416382624038288E-003   5.4060361322933043E-002
   4.4714147540417595E-003  -4.5528809092246700E-003   5.4545626888330492E-002
   3.3501598077613215E-003  -6.2769735031772411E-003   5.5305733135524338E-002
   6.4942186807005614E-003  -2.2085060015863411E-003   5.7796897067719871E-002
   5.6218294506028485E-003  -2.4293525654967840E-003   5.7355624045572234E-002
   4.7494402205051287E-003  -3.0697664563303778E-003   5.7137241773993333E-002
   3.8770509904074123E-003  -4.1297476740881321E-003   5.7141750252983410E-002
   3.0046617603096959E-003  -5.6092962187690443E-003   5.7369149482542792E-002
   5.2685841472068402E-003  -1.9593091930151518E-003   6.1597496776455339E-002
   4.5931107020644388E-003  -2.2154595682786077E-003   6.0872649150563320E-002
   3.9176372569220217E-003  -2.7978946502572530E-003   6.0318742344012716E-002
   3.2421638117796124E-003  -3.7066144389513150E-003   5.9935776356803722E-002
   2.5666903666372032E-003  -4.9416189343605144E-003   5.9723751188936441E-002
   4.1582759924018720E-003  -1.7101123844444066E-003   6.5316151363734476E-002
   3.6277684009873717E-003  -2.0015665710604869E-003   6.4401011754305904E-002
   3.0972608095728993E-003  -2.5260228441834898E-003   6.3604863032991787E-002
   2.5667532181584130E-003  -3.2834812038145048E-003   6.2927705199791656E-002
   2.0362456267439266E-003  -4.2739416499526506E-003   6.2369538254705814E-002
   3.6031845089921632E-003  -6.9446507875854380E-003   5.3533502147881773E-002
   4.1546710547592514E-003  -9.5345885990595347E-003   5.1860710812616562E-002
   4.7061576005262840E-003  -1.2760996179693951E-002   5.0042536498319468E-002
   5.2576441462934553E-003  -1.6623873529489130E-002   4.8078979204989658E-002
   5.8091306920604602E-003  -2.1123220648445074E-002   4.5970038932626522E-002
   3.3501598077613215E-003  -6.2769735031772411E-003   5.5305733135524338E-002
   3.7737654194971160E-003  -8.5452217507157036E-003   5.2952004934439689E-002
   4.1973710312329521E-003  -1.1388931358294108E-002   5.0487897844325447E-002
   4.6209766429686772E-003  -1.4808102325913536E-002   4.7913411865180555E-002
   5.0445822547044994E-003  -1.8802734653572628E-002   4.5228546997006402E-002
   3.0046617603096959E-003  -5.6092962187690443E-003   5.7369149482542792E-002
   3.3353905280169710E-003  -7.5558549023717059E-003   5.4395492824758307E-002
   3.6661192957242739E-003  -1.0016866536894486E-002   5.1346461367946905E-002
   3.9968480634315282E-003  -1.2992331122337608E-002   4.8222055112108447E-002
   4.3275768311388796E-003  -1.6482248658700627E-002   4.5022274057242462E-002
   2.5666903666372032E-003  -4.9416189343605144E-003   5.9723751188936441E-002
   2.8395463803187714E-003  -6.5664880540280135E-003   5.6191174483572914E-002
   3.1124023940003534E-003  -8.6448017154947543E-003   5.2618227069184814E-002
   3.3852584076818817E-003  -1.1176559918761736E-002   4.9004908945772183E-002
   3.6581144213635036E-003  -1.4161762663828514E-002   4.5351220113335616E-002
   2.0362456267439266E-003  -4.2739416499526506E-003   6.2369538254705814E-002
   2.2862329764025691E-003  -5.5771212056842101E-003   5.8339049910882790E-002
   2.5362203260611837E-003  -7.2727368940948556E-003   5.4303194948038591E-002
   2.7862076757198331E-003  -9.3607887151860442E-003   5.0261973366172552E-002
   3.0361950253784409E-003  -1.1841276668956180E-002   4.6215385165285117E-002
   2.5287038353895702E-002  -7.3635497293725871E-003   6.5540469564848824E-002
   2.4410195250180400E-002  -7.1719975939080471E-003   6.4454414427223938E-002
   2.3533352146465056E-002  -6.9698353442576855E-003   6.3715183853356783E-002
   2.2656509042749719E-002  -6.7570629804214535E-003   6.3322777843246941E-002
   2.1779665939034396E-002  -6.5336805023992195E-003   6.3277196396894775E-002
   1.8361951549774810E-002  -5.5226626628432918E-003   6.4890654773705869E-002
   1.7800029557453995E-002  -5.3789983669955410E-003   6.4184198160491590E-002
   1.7238107565133172E-002  -5.2273765454078081E-003   6.3760759206308831E-002
   1.6676185572812353E-002  -5.0677971980802108E-003   6.3620337911157607E-002
   1.6114263580491540E-002  -4.9002603250125065E-003   6.3762934275037875E-002
   1.1839082902464618E-002  -3.6817755963139687E-003   6.4194278437169044E-002
   1.1528275116812266E-002  -3.5859991400829933E-003   6.3864767759919477E-002
   1.1217467331159896E-002  -3.4849177465579723E-003   6.3754467836975401E-002
   1.0906659545507529E-002  -3.3785314157388537E-003   6.3863378668336745E-002
   1.0595851759855158E-002  -3.2668401476256825E-003   6.4191500254003456E-002
   5.7184324119651884E-003  -1.8408885297846733E-003   6.3451340555238239E-002
   5.5949319282552114E-003  -1.7929999131704663E-003   6.3496123225507656E-002
   5.4714314445452267E-003  -1.7424589477080879E-003   6.3696309745356242E-002
   5.3479309608352524E-003  -1.6892656333976925E-003   6.4051900114784233E-002
   5.2244304771252728E-003  -1.6334199702389418E-003   6.4562894333791768E-002
   7.8276440884650356E-011  -1.4632553502202938E-009   6.2661841127913842E-002
  -8.2171977555667297E-012  -6.8625796711963005E-010   6.3078264557256014E-002
  -9.4710829456889911E-011  -1.4885825905253114E-010   6.3586284931451575E-002
  -1.8120446809710700E-010   1.4894366295870043E-010   6.4185902250500443E-002
  -2.6769810326787713E-010   2.0714790993636711E-010   6.4877116514402422E-002
   2.1779665939034396E-002  -6.5336805023992195E-003   6.3277196396894775E-002
   2.1050696735591373E-002  -6.2992428433578385E-003   6.2783642608486845E-002
   2.0321727532148330E-002  -6.0533049364632358E-003   6.2520240851200948E-002
   1.9592758328705290E-002  -5.7958667817159422E-003   6.2486991125037070E-002
   1.8863789125262265E-002  -5.5269283791157808E-003   6.2683893429995030E-002
   1.6114263580491540E-002  -4.9002603250125065E-003   6.3762934275037875E-002
   1.5603468979041898E-002  -4.7244320945897950E-003   6.3414456313819464E-002
   1.5092674377592281E-002  -4.5399786751973148E-003   6.3272175525465726E-002
   1.4581879776142651E-002  -4.3469000668344346E-003   6.3336091909976938E-002
   1.4071085174693021E-002  -4.1451962695018829E-003   6.3606205467353100E-002
   1.0595851759855158E-002  -3.2668401476256825E-003   6.4191500254003456E-002
   1.0279276902141837E-002  -3.1496213458219319E-003   6.3985223061091556E-002
   9.9627020444285185E-003  -3.0266524139309983E-003   6.3961188182787398E-002
   9.6461271867151963E-003  -2.8979333519528697E-003   6.4119395619090941E-002
   9.3295523290018792E-003  -2.7634641598877352E-003   6.4459845370002308E-002
   5.2244304771252728E-003  -1.6334199702389418E-003   6.4562894333791768E-002
   5.0781205048911603E-003  -1.5748105970540618E-003   6.4495942850303412E-002
   4.9318105326570470E-003  -1.5133261526649074E-003   6.4587278823165867E-002
   4.7855005604229327E-003  -1.4489666370712780E-003   6.4836902252378814E-002
   4.6391905881888202E-003  -1.3817320502736569E-003   6.5244813137942656E-002
  -2.6769810326787713E-010   2.0714790993636711E-010   6.4877116514402422E-002
  -2.1271011688139829E-010   1.5171391920532074E-010   6.4946615681455044E-002
  -1.5772213222964293E-010   1.0860128074607900E-010   6.5150447446601145E-002
  -1.0273414584316409E-010   7.7810296400526724E-011   6.5488611809840794E-002
  -4.7746161191408731E-011   5.9340365954341223E-011   6.5961108771173893E-002
   1.8863789125262265E-002  -5.5269283791157808E-003   6.2683893429995030E-002
   1.7950342853923648E-002  -5.2486557492038288E-003   6.2291227791688109E-002
   1.7036896582585032E-002  -4.9632149125214825E-003   6.2136294543664344E-002
   1.6123450311246429E-002  -4.6706058690684192E-003   6.2219093685923946E-002
   1.5210004039907826E-002  -4.3708286188448575E-003   6.2539625218466455E-002
   1.4071085174693021E-002  -4.1451962695018829E-003   6.3606205467353100E-002
   1.3393028588410731E-002  -3.9364917999034910E-003   6.3268640409863353E-002
   1.2714972002128441E-002  -3.7224111747443528E-003   6.3164122332202685E-002
   1.2036915415846144E-002  -3.5029543940241457E-003   6.3292651234371722E-002
   1.1358858829563848E-002  -3.2781214577431994E-003   6.3654227116370199E-002
   9.3295523290018792E-003  -2.7634641598877352E-003   6.4459845370002308E-002
   8.8822000173221782E-003  -2.6243278506031670E-003   6.4175588842119893E-002
   8.4348477056424773E-003  -2.4816074369673966E-003   6.4119693883612938E-002
   7.9874953939627867E-003  -2.3353029189800961E-003   6.4292160494481873E-002
   7.5401430822830753E-003  -2.1854142966415413E-003   6.4692988674726531E-002
   4.6391905881888202E-003  -1.3817320502736569E-003   6.5244813137942656E-002
   4.4178571406579921E-003  -1.3121639013028361E-003   6.5012073088457939E-002
   4.1965236931271622E-003  -1.2408036991902703E-003   6.5003009197895145E-002
   3.9751902455963332E-003  -1.1676514439359900E-003   6.5217621466254330E-002
   3.7538567980655042E-003  -1.0927071355398832E-003   6.5655909893535841E-002
  -4.7746161191408731E-011   5.9340365954341223E-011   6.5961108771173893E-002
  -4.1581838666759907E-011   4.7997522623077771E-011   6.5778093148877392E-002
  -3.5417519611558035E-011   3.8586661643691400E-011   6.5814068275049181E-002
  -2.9253200556356163E-011   3.1108192410922442E-011   6.6069034149689204E-002
  -2.3088878031707338E-011   2.5561719407818373E-011   6.6542990772797406E-002
   1.5210004039907826E-002  -4.3708286188448575E-003   6.2539625218466455E-002
   1.4352347193413578E-002  -4.0634869713663813E-003   6.2364127899141364E-002
   1.3494690346919330E-002  -3.7481847361493792E-003   6.2396279570184399E-002
   1.2637033500425089E-002  -3.4249219131936084E-003   6.2636080231595781E-002
   1.1779376653930862E-002  -3.0936985024990760E-003   6.3083529883375289E-002
   1.1358858829563848E-002  -3.2781214577431994E-003   6.3654227116370199E-002
   1.0710542278979537E-002  -3.0476152231875275E-003   6.3519816080013558E-002
   1.0062225728395227E-002  -2.8111385476435602E-003   6.3596436645108501E-002
   9.4139091778109203E-003  -2.5686914311114570E-003   6.3884088811655054E-002
   8.7655926272266066E-003  -2.3202738735909056E-003   6.4382772579652969E-002
   7.5401430822830753E-003  -2.1854142966415413E-003   6.4692988674726531E-002
   7.1045494386921051E-003  -2.0317434750083962E-003   6.4597673774587722E-002
   6.6689557951011350E-003  -1.8740923591376163E-003   6.4716773086983953E-002
   6.2333621515101596E-003  -1.7124609490291910E-003   6.5050286611915115E-002
   5.7977685079191946E-003  -1.5468492446829019E-003   6.5598214349381595E-002
   3.7538567980655042E-003  -1.0927071355398832E-003   6.5655909893535841E-002
   3.5343686725512729E-003  -1.0158717268295148E-003   6.5597700982864271E-002
   3.3148805470370399E-003  -9.3704617063162382E-004   6.5757288895811145E-002
   3.0953924215228142E-003  -8.5623046694692680E-004   6.6134673632376392E-002
   2.8759042960085756E-003  -7.7342461577498134E-004   6.6729855192560250E-002
  -2.3088878031707338E-011   2.5561719407818373E-011   6.6542990772797406E-002
  -1.9442961129989556E-011   2.1349533252390529E-011   6.6519897704842734E-002
  -1.5797040758824821E-011   1.7874354774072287E-011   6.6717984071589881E-002
  -1.2151120387660086E-011   1.5135222936057957E-011   6.7137249873038721E-002
  -8.5052034859423031E-012   1.3133161225198364E-011   6.7777695109189628E-002
   1.1779376653930862E-002  -3.0936985024990760E-003   6.3083529883375289E-002
   1.0805594491154730E-002  -2.7671738548912805E-003   6.2983324858911449E-002
   9.8318123283786113E-003  -2.4580073211965814E-003   6.3130396708850456E-002
   8.8580301656024929E-003  -2.1661989014143332E-003   6.3524745433192781E-002
   7.8842480028263606E-003  -1.8917485955453062E-003   6.4166371031938341E-002
   8.7655926272266066E-003  -2.3202738735909056E-003   6.4382772579652969E-002
   8.0381295054998553E-003  -2.0753803882860855E-003   6.4312381279566122E-002
   7.3106663837731248E-003  -1.8435054884004820E-003   6.4487351187174385E-002
   6.5832032620463977E-003  -1.6246491739341160E-003   6.4907682302478439E-002
   5.8557401403196568E-003  -1.4188114448872025E-003   6.5573374625477798E-002
   5.7977685079191946E-003  -1.5468492446829019E-003   6.5598214349381595E-002
   5.3147087605341717E-003  -1.3835869216808072E-003   6.5561976302164982E-002
   4.8316490131491696E-003  -1.2290036556042855E-003   6.5769183795936034E-002
   4.3485892657641467E-003  -1.0830994464537912E-003   6.6219836830695322E-002
   3.8655295183791447E-003  -9.4587429422893221E-004   6.6913935406442138E-002
   2.8759042960085756E-003  -7.7342461577498134E-004   6.6729855192560250E-002
   2.6353322562576512E-003  -6.9179345507545953E-004   6.6732109926707583E-002
   2.3947602165067233E-003  -6.1450182280830407E-004   6.6975894535135097E-002
   2.1541881767558032E-003  -5.4154971897346464E-004   6.7461209017843013E-002
   1.9136161370048848E-003  -4.7293714357074523E-004   6.8188053374831137E-002
  -8.5052034859423031E-012   1.3133161225198364E-011   6.7777695109189628E-002
  -7.3296924085752835E-012   1.1529777133034713E-011   6.7822782153194372E-002
  -6.1541813312082638E-012   9.9876773518303708E-012   6.8107483404771907E-002
  -4.9786667843942922E-012   8.5066120814047963E-012   6.8631798863921900E-002
  -3.8031591764742245E-012   7.0873307222996118E-012   6.9395728530644463E-002
   7.8842480028263606E-003  -1.8917485955453062E-003   6.4166371031938341E-002
   6.9527550002202454E-003  -1.6810678956670211E-003   6.4080686795888853E-002
   6.0212619976141163E-003  -1.5805682938571097E-003   6.4243755439171712E-002
   5.0897689950079941E-003  -1.5902497901164325E-003   6.4655576961787031E-002
   4.1582759924018720E-003  -1.7101123844444066E-003   6.5316151363734476E-002
   5.8557401403196568E-003  -1.4188114448872025E-003   6.5573374625477798E-002
   5.1690301099149780E-003  -1.2608009203015080E-003   6.5425609262077855E-002
   4.4823200795103407E-003  -1.1854262192187159E-003   6.5518656963748700E-002
   3.7956100491057000E-003  -1.1926873416394715E-003   6.5852517730489973E-002
   3.1089000187010385E-003  -1.2825842875631155E-003   6.6427191562301979E-002
   3.8655295183791447E-003  -9.4587429422893221E-004   6.6913935406442138E-002
   3.4156626459143011E-003  -8.4053394493593947E-004   6.6731634190257322E-002
   2.9657957734494506E-003  -7.9028414458010010E-004   6.6782206224881291E-002
   2.5159289009845948E-003  -7.9512489316217738E-004   6.7065651510314114E-002
   2.0660620285197426E-003  -8.5505619068165784E-004   6.7581970046556278E-002
   1.9136161370048848E-003  -4.7293714357074523E-004   6.8188053374831137E-002
   1.6926526082181523E-003  -4.2026696957017662E-004   6.7998761580426698E-002
   1.4716890794314458E-003  -3.9514206994170631E-004   6.8034403222569775E-002
   1.2507255506447258E-003  -3.9756244468504981E-004   6.8294978301259884E-002
   1.0297620218580068E-003  -4.2752809380028345E-004   6.8780486816497760E-002
  -3.8031591764742245E-012   7.0873307222996118E-012   6.9395728530644463E-002
  -3.1734267991190279E-012   5.7951976550896234E-012   6.9226991432586593E-002
  -2.5436840134229755E-012   4.6968817724035716E-012   6.9275247956813946E-002
  -1.9139481666208269E-012   3.7919598017133183E-012   6.9540498103327325E-002
  -1.2842088503717264E-012   3.0809799156372719E-012   7.0022741872125871E-002
   4.1582759924018720E-003  -1.7101123844444066E-003   6.5316151363734476E-002
   3.6277684009873717E-003  -2.0015665710604869E-003   6.4401011754305904E-002
   3.0972608095728993E-003  -2.5260228441834898E-003   6.3604863032991787E-002
   2.5667532181584130E-003  -3.2834812038145048E-003   6.2927705199791656E-002
   2.0362456267439266E-003  -4.2739416499526506E-003   6.2369538254705814E-002
   3.1089000187010385E-003  -1.2825842875631155E-003   6.6427191562301979E-002
   2.7007923178501564E-003  -1.5011749276730990E-003   6.5318122113153854E-002
   2.2926846169992812E-003  -1.8945171326523458E-003   6.4334861557018869E-002
   1.8845769161484061E-003  -2.4626109025012791E-003   6.3477409893896955E-002
   1.4764692152975240E-003  -3.2054562372194617E-003   6.2745767123787544E-002
   2.0660620285197426E-003  -8.5505619068165784E-004   6.7581970046556278E-002
   1.7871722231312427E-003  -1.0007832842856834E-003   6.6337221279326702E-002
   1.5082824177427186E-003  -1.2630114211211879E-003   6.5225099410008966E-002
   1.2293926123542118E-003  -1.6417406011880499E-003   6.4245604438603054E-002
   9.5050280696569456E-004  -2.1369708244862728E-003   6.3398736365108621E-002
   1.0297620218580068E-003  -4.2752809380028345E-004   6.8780486816497760E-002
   8.8690811683061598E-004  -5.0039164089822619E-004   6.7458309252824422E-002
   7.4405421180321740E-004  -6.3150570958998148E-004   6.6275576591961982E-002
   6.0120030677582315E-004  -8.2087029987482248E-004   6.5232288833909760E-002
   4.5834640174842803E-004  -1.0684854117529730E-003   6.4328445978668505E-002
  -1.2842088503717264E-012   3.0809799156372719E-012   7.0022741872125871E-002
  -1.0517142712274108E-012   2.4890089989071384E-012   6.8681386033647263E-002
  -8.1923010042395106E-013   1.9412249585570862E-012   6.7486293102878014E-002
  -5.8673899072658742E-013   1.4380996393725809E-012   6.6437463079817960E-002
  -3.5425135047617573E-013   9.7999386383662568E-013   6.5534895964467377E-002
   2.0362456267439266E-003  -4.2739416499526506E-003   6.2369538254705814E-002
   2.2862329764025691E-003  -5.5771212056842101E-003   5.8339049910882790E-002
   2.5362203260611837E-003  -7.2727368940948556E-003   5.4303194948038591E-002
   2.7862076757198331E-003  -9.3607887151860442E-003   5.0261973366172552E-002
   3.0361950253784409E-003  -1.1841276668956180E-002   4.6215385165285117E-002
   1.4764692152975240E-003  -3.2054562372194617E-003   6.2745767123787544E-002
   1.7068073913446280E-003  -4.1828409041224091E-003   5.8391424612399712E-002
   1.9371455673917390E-003  -5.4545526705257474E-003   5.4003150372809949E-002
   2.1674837434388812E-003  -7.0205915364293936E-003   4.9580944405019062E-002
   2.3978219194859540E-003  -8.8809575018331532E-003   4.5124806709026188E-002
   9.5050280696569456E-004  -2.1369708244862728E-003   6.3398736365108621E-002
   1.1326267002213578E-003  -2.7885606025607745E-003   5.8818648719334621E-002
   1.3147505934770071E-003  -3.6363684469561675E-003   5.4176064236178878E-002
   1.4968744867326789E-003  -4.6803943576725140E-003   4.9470982915641684E-002
   1.6789983799883335E-003  -5.9206383347099045E-003   4.4703404757723386E-002
   4.5834640174842803E-004  -1.0684854117529730E-003   6.4328445978668505E-002
   5.6369090303270281E-004  -1.3942803009991678E-003   5.9620722231687406E-002
   6.6903540431696197E-004  -1.8181842233869344E-003   5.4821936538145453E-002
   7.7437990560124412E-004  -2.3401971789160821E-003   4.9932088898042307E-002
   8.7972440688550979E-004  -2.9603191675868779E-003   4.4951179311377182E-002
  -3.5425135047617573E-013   9.7999386383662568E-013   6.5534895964467377E-002
  -2.2129520438340933E-013   5.6277205118249185E-013   6.0797645149459068E-002
  -8.8356405525402693E-014   1.8260393197522262E-013   5.5940767278709613E-002
   4.4594536396935780E-014  -1.5907414274707321E-013   5.0964262352218320E-002
   1.7753853942537035E-013  -4.6362913508346537E-013   4.5868130369986826E-002
   7.8276440884650356E-011  -1.4632553502202938E-009   6.2661841127913842E-002
  -8.2171977555667297E-012  -6.8625796711963005E-010   6.3078264557256014E-002
  -9.4710829456889911E-011  -1.4885825905253114E-010   6.3586284931451575E-002
  -1.8120446809710700E-010   1.4894366295870043E-010   6.4185902250500443E-002
  -2.6769810326787713E-010   2.0714790993636711E-010   6.4877116514402422E-002
  -5.7184322617183647E-003   1.8408858993765875E-003   6.3451342150094209E-002
  -5.5949319462602481E-003   1.7929986838768064E-003   6.3496124356792666E-002
  -5.4714316308021385E-003   1.7424586873364678E-003   6.3696310422541605E-002
  -5.3479313153440271E-003   1.6892659097555787E-003   6.4051900347340540E-002
  -5.2244309998859123E-003   1.6334203511339518E-003   6.4562894131189791E-002
  -1.1839082771136050E-002   3.6817732620085808E-003   6.4194281450498714E-002
  -1.1528275139529287E-002   3.5859980540115660E-003   6.3864769893110934E-002
  -1.1217467507922558E-002   3.4849175235312502E-003   6.3754469108970202E-002
  -1.0906659876315799E-002   3.3785316705673557E-003   6.3863379098076489E-002
  -1.0595852244709046E-002   3.2668404951201879E-003   6.4191499860430004E-002
  -1.8361951449976616E-002   5.5226606246405463E-003   6.4890659029127398E-002
  -1.7800029588024353E-002   5.3789974241462493E-003   6.4184201166210431E-002
  -1.7238107726072077E-002   5.2273763597259493E-003   6.3760760990737284E-002
  -1.6676185864119803E-002   5.0677974313792853E-003   6.3620338502708290E-002
  -1.6114264002167537E-002   4.9002606391063824E-003   6.3762933702123048E-002
  -2.5287038298240028E-002   7.3635479872725118E-003   6.5540474885980304E-002
  -2.4410195291745339E-002   7.1719967942810992E-003   6.4454418176091266E-002
  -2.3533352285250705E-002   6.9698351959207733E-003   6.3715186067843016E-002
  -2.2656509278756044E-002   6.7570631921910797E-003   6.3322778561235624E-002
  -2.1779666272261366E-002   6.5336807830925214E-003   6.3277195656269103E-002
  -2.6769810326787713E-010   2.0714790993636711E-010   6.4877116514402422E-002
  -2.1271011688139829E-010   1.5171391920532074E-010   6.4946615681455044E-002
  -1.5772213222964293E-010   1.0860128074607900E-010   6.5150447446601145E-002
  -1.0273414584316409E-010   7.7810296400526724E-011   6.5488611809840794E-002
  -4.7746161191408731E-011   5.9340365954341223E-011   6.5961108771173893E-002
  -5.2244309998859123E-003   1.6334203511339518E-003   6.4562894131189791E-002
  -5.0781209201586977E-003   1.5748108773969705E-003   6.4495942693817976E-002
  -4.9318108404314727E-003   1.5133263544691022E-003   6.4587278707831070E-002
  -4.7855007607042546E-003   1.4489667823503888E-003   6.4836902173229113E-002
  -4.6391906809770400E-003   1.3817321610409272E-003   6.5244813090012038E-002
  -1.0595852244709046E-002   3.2668404951201879E-003   6.4191499860430004E-002
  -1.0279277286951242E-002   3.1496216030798829E-003   6.3985222757121679E-002
  -9.9627023291934298E-003   3.0266526003367086E-003   6.3961187958489679E-002
  -9.6461273714356175E-003   2.8979334868905384E-003   6.4119395464533949E-002
  -9.3295524136778121E-003   2.7634642627415162E-003   6.4459845275254363E-002
  -1.6114264002167537E-002   4.9002606391063824E-003   6.3762933702123048E-002
  -1.5603469313087783E-002   4.7244323287628370E-003   6.3414455871366127E-002
  -1.5092674624008004E-002   4.5399788462043671E-003   6.3272175198576808E-002
  -1.4581879934928233E-002   4.3469001914307149E-003   6.3336091683755216E-002
  -1.4071085245848476E-002   4.1451963644421469E-003   6.3606205326901227E-002
  -2.1779666272261366E-002   6.5336807830925214E-003   6.3277195656269103E-002
  -2.1050696998568274E-002   6.2992430544459299E-003   6.2783642036551318E-002
  -2.0321727724875199E-002   6.0533050920721088E-003   6.2520240428092566E-002
  -1.9592758451182114E-002   5.7958668959708012E-003   6.2486990830892902E-002
  -1.8863789177489022E-002   5.5269284661426110E-003   6.2683893244952216E-002
  -4.7746161191408731E-011   5.9340365954341223E-011   6.5961108771173893E-002
  -4.1581838666759907E-011   4.7997522623077771E-011   6.5778093148877392E-002
  -3.5417519611558035E-011   3.8586661643691400E-011   6.5814068275049181E-002
  -2.9253200556356163E-011   3.1108192410922442E-011   6.6069034149689204E-002
  -2.3088878031707338E-011   2.5561719407818373E-011   6.6542990772797406E-002
  -4.6391906809770400E-003   1.3817321610409272E-003   6.5244813090012038E-002
  -4.4178572215051413E-003   1.3121639904837001E-003   6.5012073049398350E-002
  -4.1965237620332461E-003   1.2408037706209685E-003   6.5003009166931594E-002
  -3.9751903025613457E-003   1.1676515014535371E-003   6.5217621442611701E-002
  -3.7538568430894453E-003   1.0927071829804347E-003   6.5655909876438712E-002
  -9.3295524136778121E-003   2.7634642627415162E-003   6.4459845275254363E-002
  -8.8822000912197573E-003   2.6243279329696972E-003   6.4175588765086389E-002
  -8.4348477687616937E-003   2.4816075026554557E-003   6.4119693822743740E-002
  -7.9874954463036354E-003   2.3353029717986078E-003   6.4292160448226582E-002
  -7.5401431238455753E-003   2.1854143403991777E-003   6.4692988641534818E-002
  -1.4071085245848476E-002   4.1451963644421469E-003   6.3606205326901227E-002
  -1.3393028650725674E-002   3.9364918754558956E-003   6.3268640295941203E-002
  -1.2714972055602874E-002   3.7224112346897695E-003   6.3164122242485340E-002
  -1.2036915460480071E-002   3.5029544421439265E-003   6.3292651166533390E-002
  -1.1358858865357264E-002   3.2781214978180179E-003   6.3654227068085517E-002
  -1.8863789177489022E-002   5.5269284661426110E-003   6.2683893244952216E-002
  -1.7950342900022891E-002   5.2486558179418996E-003   6.2291227641962987E-002
  -1.7036896622556780E-002   4.9632149667242359E-003   6.2136294426156480E-002
  -1.6123450345090658E-002   4.6706059124890752E-003   6.2219093597532568E-002
  -1.5210004067624530E-002   4.3708286552366360E-003   6.2539625156091461E-002
  -2.3088878031707338E-011   2.5561719407818373E-011   6.6542990772797406E-002
  -1.9442961129989556E-011   2.1349533252390529E-011   6.6519897704842734E-002
  -1.5797040758824821E-011   1.7874354774072287E-011   6.6717984071589881E-002
  -1.2151120387660086E-011   1.5135222936057957E-011   6.7137249873038721E-002
  -8.5052034859423031E-012   1.3133161225198364E-011   6.7777695109189628E-002
  -3.7538568430894453E-003   1.0927071829804347E-003   6.5655909876438712E-002
  -3.5343687104907352E-003   1.0158717667349826E-003   6.5597700969227429E-002
  -3.3148805778920060E-003   9.3704620424937823E-004   6.5757288885220172E-002
  -3.0953924452932977E-003   8.5623049552352101E-004   6.6134673624416732E-002
  -2.8759043126945737E-003   7.7342464055774052E-004   6.6729855186816733E-002
  -7.5401431238455753E-003   2.1854143403991777E-003   6.4692988641534818E-002
  -7.1045494737921652E-003   2.0317435121201821E-003   6.4597673748090459E-002
  -6.6689558237387550E-003   1.8740923906242976E-003   6.4716773066352012E-002
  -6.2333621736853449E-003   1.7124609759115988E-003   6.5050286596319132E-002
  -5.7977685236319347E-003   1.5468492679823753E-003   6.5598214337991734E-002
  -1.1358858865357264E-002   3.2781214978180179E-003   6.3654227068085517E-002
  -1.0710542309347279E-002   3.0476152575053955E-003   6.3519816041431684E-002
  -1.0062225753337270E-002   2.8111385769993801E-003   6.3596436614985291E-002
  -9.4139091973272793E-003   2.5686914563000087E-003   6.3884088788746532E-002
  -8.7655926413172693E-003   2.3202738954068713E-003   6.4382772562715102E-002
  -1.5210004067624530E-002   4.3708286552366360E-003   6.2539625156091461E-002
  -1.4352347217156051E-002   4.0634870028908865E-003   6.2364127849250994E-002
  -1.3494690366687576E-002   3.7481847633742404E-003   6.2396279531120091E-002
  -1.2637033516219099E-002   3.4249219366879191E-003   6.2636080201698557E-002
  -1.1779376665750622E-002   3.0936985228315894E-003   6.3083529860986531E-002
  -8.5052034859423031E-012   1.3133161225198364E-011   6.7777695109189628E-002
  -7.3296924085752835E-012   1.1529777133034713E-011   6.7822782153194372E-002
  -6.1541813312082638E-012   9.9876773518303708E-012   6.8107483404771907E-002
  -4.9786667843942922E-012   8.5066120814047963E-012   6.8631798863921900E-002
  -3.8031591764742245E-012   7.0873307222996118E-012   6.9395728530644463E-002
  -2.8759043126945737E-003   7.7342464055774052E-004   6.6729855186816733E-002
  -2.6353322706319030E-003   6.9179347676712188E-004   6.6732109921714133E-002
  -2.3947602285692270E-003   6.1450184156755516E-004   6.6975894530813096E-002
  -2.1541881865065528E-003   5.4154973495821462E-004   6.7461209014113788E-002
  -1.9136161444438804E-003   4.7293715694007865E-004   6.8188053371616320E-002
  -5.7977685236319347E-003   1.5468492679823753E-003   6.5598214337991734E-002
  -5.3147087740530027E-003   1.3835869420046332E-003   6.5561976292311114E-002
  -4.8316490244740794E-003   1.2290036731470999E-003   6.5769183787461494E-002
  -4.3485892748951543E-003   1.0830994614097617E-003   6.6219836823442527E-002
  -3.8655295253162379E-003   9.4587430679277107E-004   6.6913935400254310E-002
  -8.7655926413172693E-003   2.3202738954068713E-003   6.4382772562715102E-002
  -8.0381295175929995E-003   2.0753804072420057E-003   6.4312381264986063E-002
  -7.3106663938687210E-003   1.8435055047269222E-003   6.4487351174716809E-002
  -6.5832032701444634E-003   1.6246491878612254E-003   6.4907682291907409E-002
  -5.8557401464201719E-003   1.4188114566455468E-003   6.5573374616558017E-002
  -1.1779376665750622E-002   3.0936985228315894E-003   6.3083529860986531E-002
  -1.0805594501251903E-002   2.7671738724792672E-003   6.2983324839738342E-002
  -9.8318123367531797E-003   2.4580073363066335E-003   6.3130396692579138E-002
  -8.8580301722544583E-003   2.1661989143127169E-003   6.3524745419508838E-002
  -7.8842480077557439E-003   1.8917486064982114E-003   6.4166371020527690E-002
  -3.8031591764742245E-012   7.0873307222996118E-012   6.9395728530644463E-002
  -3.1734267991190279E-012   5.7951976550896234E-012   6.9226991432586593E-002
  -2.5436840134229755E-012   4.6968817724035716E-012   6.9275247956813946E-002
  -1.9139481666208269E-012   3.7919598017133183E-012   6.9540498103327325E-002
  -1.2842088503717264E-012   3.0809799156372719E-012   7.0022741872125871E-002
  -1.9136161444438804E-003   4.7293715694007865E-004   6.8188053371616320E-002
  -1.6926526144280876E-003   4.2026698057040512E-004   6.7998761577877209E-002
  -1.4716890844123122E-003   3.9514207890753439E-004   6.8034403220624845E-002
  -1.2507255543965272E-003   3.9756245195145951E-004   6.8294978299858797E-002
  -1.0297620243807440E-003   4.2752809970225680E-004   6.8780486815579356E-002
  -3.8655295253162379E-003   9.4587430679277107E-004   6.6913935400254310E-002
  -3.4156626517135268E-003   8.4053395534580688E-004   6.6731634185347277E-002
  -2.9657957781108425E-003   7.9028415311831191E-004   6.6782206221127752E-002
  -2.5159289045081305E-003   7.9512490011118472E-004   6.7065651507595525E-002
  -2.0660620309054471E-003   8.5505619632358920E-004   6.7581970044750528E-002
  -5.8557401464201719E-003   1.4188114566455468E-003   6.5573374616558017E-002
  -5.1690301150297008E-003   1.2608009301209450E-003   6.5425609254996298E-002
  -4.4823200836392523E-003   1.1854262273294711E-003   6.5518656958322888E-002
  -3.7956100522487991E-003   1.1926873482707972E-003   6.5852517726537593E-002
  -3.1089000208583324E-003   1.2825842929448938E-003   6.6427191559640539E-002
  -7.8842480077557439E-003   1.8917486064982114E-003   6.4166371020527690E-002
  -6.9527550043766498E-003   1.6810679048963051E-003   6.4080686786824548E-002
  -6.0212620009975626E-003   1.5805683015400196E-003   6.4243755432210115E-002
  -5.0897689976184685E-003   1.5902497964302015E-003   6.4655576956684752E-002
  -4.1582759942393813E-003   1.7101123895661985E-003   6.5316151360248487E-002
  -1.2842088503717264E-012   3.0809799156372719E-012   7.0022741872125871E-002
  -1.0517142712274108E-012   2.4890089989071384E-012   6.8681386033647263E-002
  -8.1923010042395106E-013   1.9412249585570862E-012   6.7486293102878014E-002
  -5.8673899072658742E-013   1.4380996393725809E-012   6.6437463079817960E-002
  -3.5425135047617573E-013   9.7999386383662568E-013   6.5534895964467377E-002
  -1.0297620243807440E-003   4.2752809970225680E-004   6.8780486815579356E-002
  -8.8690811889563861E-004   5.0039164564952276E-004   6.7458309252080961E-002
  -7.4405421341054191E-004   6.3150571328282612E-004   6.6275576591378782E-002
  -6.0120030792544955E-004   8.2087030260152155E-004   6.5232288833472513E-002
  -4.5834640244033983E-004   1.0684854136066013E-003   6.4328445978362292E-002
  -2.0660620309054471E-003   8.5505619632358920E-004   6.7581970044750528E-002
  -1.7871722250810450E-003   1.0007832888098700E-003   6.6337221277874364E-002
  -1.5082824192566412E-003   1.2630114246235391E-003   6.5225099408880771E-002
  -1.2293926134322383E-003   1.6417406037646104E-003   6.4245604437769693E-002
  -9.5050280760783541E-004   2.1369708262332643E-003   6.3398736364541547E-002
  -3.1089000208583324E-003   1.2825842929448938E-003   6.6427191559640539E-002
  -2.7007923196079231E-003   1.5011749319700785E-003   6.5318122111027499E-002
  -2.2926846183575346E-003   1.8945171359644741E-003   6.4334861555384051E-002
  -1.8845769171071426E-003   2.4626109049276437E-003   6.3477409892710085E-002
  -1.4764692158567368E-003   3.2054562388598995E-003   6.2745767123005031E-002
  -4.1582759942393813E-003   1.7101123895661985E-003   6.5316151360248487E-002
  -3.6277684024762918E-003   2.0015665751305090E-003   6.4401011751540782E-002
  -3.0972608107131989E-003   2.5260228473055202E-003   6.3604863030888859E-002
  -2.5667532189501043E-003   3.2834812060907048E-003   6.2927705198292994E-002
  -2.0362456271870166E-003   4.2739416514865347E-003   6.2369538253753021E-002
  -3.5425135047617573E-013   9.7999386383662568E-013   6.5534895964467377E-002
  -2.2129520438340933E-013   5.6277205118249185E-013   6.0797645149459068E-002
  -8.8356405525402693E-014   1.8260393197522262E-013   5.5940767278709613E-002
   4.4594536396935780E-014  -1.5907414274707321E-013   5.0964262352218320E-002
   1.7753853942537035E-013  -4.6362913508346537E-013   4.5868130369986826E-002
  -4.5834640244033983E-004   1.0684854136066013E-003   6.4328445978362292E-002
  -5.6369090346301137E-004   1.3942803020547401E-003   5.9620722231477186E-002
  -6.6903540448567077E-004   1.8181842237032231E-003   5.4821936538022364E-002
  -7.7437990550833450E-004   2.3401971785520920E-003   4.9932088897997690E-002
  -8.7972440653100170E-004   2.9603191666007778E-003   4.4951179311402800E-002
  -9.5050280760783541E-004   2.1369708262332643E-003   6.3398736364541547E-002
  -1.1326267006147583E-003   2.7885606035472077E-003   5.8818648718942185E-002
  -1.3147505936216683E-003   3.6363684472236341E-003   5.4176064235944468E-002
  -1.4968744866285925E-003   4.6803943572630395E-003   4.9470982915548252E-002
  -1.6789983796355011E-003   5.9206383336649626E-003   4.4703404757752918E-002
  -1.4764692158567368E-003   3.2054562388598995E-003   6.2745767123005031E-002
  -1.7068073916765467E-003   4.1828409050393145E-003   5.8391424611854259E-002
  -1.9371455674963634E-003   5.4545526707437050E-003   5.4003150372476355E-002
  -2.1674837433161838E-003   7.0205915359738743E-003   4.9580944404871034E-002
  -2.3978219191359900E-003   8.8809575007292585E-003   4.5124806709038512E-002
  -2.0362456271870166E-003   4.2739416514865347E-003   6.2369538253753021E-002
  -2.2862329766483724E-003   5.5771212065316433E-003   5.8339049910213325E-002
  -2.5362203261097283E-003   7.2727368942645532E-003   5.4303194947617150E-002
  -2.7862076755710390E-003   9.3607887146852364E-003   5.0261973365965384E-002
  -3.0361950250324399E-003   1.1841276667793554E-002   4.6215385165257583E-002
  -2.5287038298240028E-002   7.3635479872725118E-003   6.5540474885980304E-002
  -2.4410195291745339E-002   7.1719967942810992E-003   6.4454418176091266E-002
  -2.3533352285250705E-002   6.9698351959207733E-003   6.3715186067843016E-002
  -2.2656509278756044E-002   6.7570631921910797E-003   6.3322778561235624E-002
  -2.1779666272261366E-002   6.5336807830925214E-003   6.3277195656269103E-002
  -3.2208015014386207E-002   9.2432241697477657E-003   6.0873494388910543E-002
  -3.1018631035030431E-002   9.0101106237109319E-003   6.0148997111697772E-002
  -2.9829247055674572E-002   8.7584167386407646E-003   5.9702757178566546E-002
  -2.8639863076318762E-002   8.4881425145370525E-003   5.9534774589516865E-002
  -2.7450479096962944E-002   8.1992879514003192E-003   5.9645049344548590E-002
  -3.8718553296875118E-002   1.1122900352222992E-002   5.6168936505627112E-002
  -3.7285195602217526E-002   1.0848224453140737E-002   5.5798028727426605E-002
  -3.5851837907559872E-002   1.0546998281360805E-002   5.5636811035748281E-002
  -3.4418480212902197E-002   1.0219221836883135E-002   5.5685283430591953E-002
  -3.2985122518244578E-002   9.8648951197079782E-003   5.5943445911957920E-002
  -4.4818653145706738E-002   1.3002576534698232E-002   5.1426801236130720E-002
  -4.3209888993306696E-002   1.2686338282570514E-002   5.1401513023277959E-002
  -4.1601124840906549E-002   1.2335579824080820E-002   5.1517347639388089E-002
  -3.9992360688506465E-002   1.1950301159229161E-002   5.1774305084460889E-002
  -3.8383596536106353E-002   1.1530502288015707E-002   5.2172385358496505E-002
  -5.0508314560881090E-002   1.4882252717173472E-002   4.6647088580420826E-002
  -4.8792711208297812E-002   1.4524452112000374E-002   4.6959449999251723E-002
  -4.7077107855714645E-002   1.4124161366800947E-002   4.7344366989485909E-002
  -4.5361504503131436E-002   1.3681380481575148E-002   4.7801839551123632E-002
  -4.3645901150548214E-002   1.3196109456323379E-002   4.8331867684164809E-002
  -2.1779666272261366E-002   6.5336807830925214E-003   6.3277195656269103E-002
  -2.1050696998568274E-002   6.2992430544459299E-003   6.2783642036551318E-002
  -2.0321727724875199E-002   6.0533050920721088E-003   6.2520240428092566E-002
  -1.9592758451182114E-002   5.7958668959708012E-003   6.2486990830892902E-002
  -1.8863789177489022E-002   5.5269284661426110E-003   6.2683893244952216E-002
  -2.7450479096962944E-002   8.1992879514003192E-003   5.9645049344548590E-002
  -2.6503107954419243E-002   7.8966974550971070E-003   5.9265719105329184E-002
  -2.5555736811875562E-002   7.5852154314948808E-003   5.9093040592551979E-002
  -2.4608365669331899E-002   7.2648418805931359E-003   5.9127013806216995E-002
  -2.3660994526788208E-002   6.9355768023925957E-003   5.9367638746324086E-002
  -3.2985122518244578E-002   9.8648951197079782E-003   5.5943445911957920E-002
  -3.1842849791667134E-002   9.4941518557482979E-003   5.5680947759664777E-002
  -3.0700577065089659E-002   9.1171257709175973E-003   5.5601601048997071E-002
  -2.9558304338512198E-002   8.7338168652156926E-003   5.5705405779954704E-002
  -2.8416031611934747E-002   8.3442251386427191E-003   5.5992361952537636E-002
  -3.8383596536106353E-002   1.1530502288015707E-002   5.2172385358496505E-002
  -3.7069922510311930E-002   1.1091606256399648E-002   5.2029327999557798E-002
  -3.5756248484517500E-002   1.0649036110340342E-002   5.2045921797427661E-002
  -3.4442574458723077E-002   1.0202791849838194E-002   5.2222166752106058E-002
  -3.3128900432928682E-002   9.7528734748927731E-003   5.2558062863593047E-002
  -4.3645901150548214E-002   1.3196109456323379E-002   4.8331867684164809E-002
  -4.2184326110353637E-002   1.2689060657050805E-002   4.8310859825008434E-002
  -4.0722751070159068E-002   1.2180946449763100E-002   4.8426002837843929E-002
  -3.9261176029964526E-002   1.1671766834460476E-002   4.8677296722671001E-002
  -3.7799600989769949E-002   1.1161521811142827E-002   4.9064741479489915E-002
  -1.8863789177489022E-002   5.5269284661426110E-003   6.2683893244952216E-002
  -1.7950342900022891E-002   5.2486558179418996E-003   6.2291227641962987E-002
  -1.7036896622556780E-002   4.9632149667242359E-003   6.2136294426156480E-002
  -1.6123450345090658E-002   4.6706059124890752E-003   6.2219093597532568E-002
  -1.5210004067624530E-002   4.3708286552366360E-003   6.2539625156091461E-002
  -2.3660994526788208E-002   6.9355768023925957E-003   5.9367638746324086E-002
  -2.2516584813246025E-002   6.5974829906407517E-003   5.9002405384970924E-002
  -2.1372175099703839E-002   6.2506232390860256E-003   5.8861366508587185E-002
  -2.0227765386161653E-002   5.8949975477280252E-003   5.8944522117172889E-002
  -1.9083355672619470E-002   5.5306059165669552E-003   5.9251872210728251E-002
  -2.8416031611934747E-002   8.3442251386427191E-003   5.5992361952537636E-002
  -2.7054196364529645E-002   7.9463101633397010E-003   5.5652963096034555E-002
  -2.5692361117124508E-002   7.5380315114476557E-003   5.5524220822287688E-002
  -2.4330525869719392E-002   7.1193891829668659E-003   5.5606135131297335E-002
  -2.2968690622314297E-002   6.6903831778970524E-003   5.5898706023063294E-002
  -3.3128900432928682E-002   9.7528734748927731E-003   5.2558062863593047E-002
  -3.1563177553873743E-002   9.2951373360384074E-003   5.2242900775154116E-002
  -2.9997454674818784E-002   8.8254397838094766E-003   5.2124857367258456E-002
  -2.8431731795763818E-002   8.3437808182057621E-003   5.2203932639906081E-002
  -2.6866008916708886E-002   7.8501604392271496E-003   5.2480126593096879E-002
  -3.7799600989769949E-002   1.1161521811142827E-002   4.9064741479489915E-002
  -3.6043528381278292E-002   1.0643964508737447E-002   4.8772218422329372E-002
  -3.4287455772786649E-002   1.0112848056171048E-002   4.8663276143499079E-002
  -3.2531383164295005E-002   9.5681724534446497E-003   4.8737914642998842E-002
  -3.0775310555803362E-002   9.0099377005573578E-003   4.8996133920828799E-002
  -1.5210004067624530E-002   4.3708286552366360E-003   6.2539625156091461E-002
  -1.4352347217156051E-002   4.0634870028908865E-003   6.2364127849250994E-002
  -1.3494690366687576E-002   3.7481847633742404E-003   6.2396279531120091E-002
  -1.2637033516219099E-002   3.4249219366879191E-003   6.2636080201698557E-002
  -1.1779376665750622E-002   3.0936985228315894E-003   6.3083529860986531E-002
  -1.9083355672619470E-002   5.5306059165669552E-003   5.9251872210728251E-002
  -1.8021571408527566E-002   5.1580481518003207E-003   5.9053106526812948E-002
  -1.6959787144435676E-002   4.7779240596256822E-003   5.9054946681435072E-002
  -1.5898002880343758E-002   4.3902336400430814E-003   5.9257392674594747E-002
  -1.4836218616251853E-002   3.9949768930526153E-003   5.9660444506291654E-002
  -2.2968690622314297E-002   6.6903831778970524E-003   5.5898706023063294E-002
  -2.1709822094770924E-002   6.2526093007098382E-003   5.5677066221835353E-002
  -2.0450953567227561E-002   5.8076633558769020E-003   5.5648989108972841E-002
  -1.9192085039684191E-002   5.3555453433981881E-003   5.5814474684475909E-002
  -1.7933216512140852E-002   4.8962552632735301E-003   5.6173522948344268E-002
  -2.6866008916708886E-002   7.8501604392271496E-003   5.2480126593096879E-002
  -2.5417099275886090E-002   7.3471704496194251E-003   5.2236006934318388E-002
  -2.3968189635063288E-002   6.8374026521279552E-003   5.2178406813733355E-002
  -2.2519279994240464E-002   6.3208570467529895E-003   5.2307326231341676E-002
  -2.1070370353417668E-002   5.7975336334945560E-003   5.2622765187143553E-002
  -3.0775310555803362E-002   9.0099377005573578E-003   4.8996133920828799E-002
  -2.9143402951873065E-002   8.4417315985290120E-003   4.8729928664261901E-002
  -2.7511495347942803E-002   7.8671419483796190E-003   4.8643199795716574E-002
  -2.5879587744012524E-002   7.2861687501082489E-003   4.8735947315192624E-002
  -2.4247680140082245E-002   6.6988120037155818E-003   4.9008171222690189E-002
  -1.1779376665750622E-002   3.0936985228315894E-003   6.3083529860986531E-002
  -1.0805594501251903E-002   2.7671738724792672E-003   6.2983324839738342E-002
  -9.8318123367531797E-003   2.4580073363066335E-003   6.3130396692579138E-002
  -8.8580301722544583E-003   2.1661989143127169E-003   6.3524745419508838E-002
  -7.8842480077557439E-003   1.8917486064982114E-003   6.4166371020527690E-002
  -1.4836218616251853E-002   3.9949768930526153E-003   5.9660444506291654E-002
  -1.3625318427472662E-002   3.6013293488188491E-003   5.9523996113397926E-002
  -1.2414418238693412E-002   3.2184665375068755E-003   5.9614506894975883E-002
  -1.1203518049914204E-002   2.8463884591169372E-003   5.9931976851025970E-002
  -9.9926178611349677E-003   2.4850951136486943E-003   6.0476405981548020E-002
  -1.7933216512140852E-002   4.8962552632735301E-003   5.6173522948344268E-002
  -1.6505515998698130E-002   4.4354848251583201E-003   5.5994257802547021E-002
  -1.5077815485255407E-002   3.9789257387073396E-003   5.6021634131604825E-002
  -1.3650114971812686E-002   3.5265780039208799E-003   5.6255651935517778E-002
  -1.2222414458369964E-002   3.0784416207988441E-003   5.6696311214285589E-002
  -2.1070370353417668E-002   5.7975336334945560E-003   5.2622765187143553E-002
  -1.9446187214928447E-002   5.2696403014979021E-003   5.2394109907185883E-002
  -1.7822004076439173E-002   4.7393849399078036E-003   5.2351778402466270E-002
  -1.6197820937949945E-002   4.2067675487250725E-003   5.2495770672984478E-002
  -1.4573637799460686E-002   3.6717881279491604E-003   5.2826086718740811E-002
  -2.4247680140082245E-002   6.6988120037155818E-003   4.9008171222690189E-002
  -2.2447332076163479E-002   6.1037957778372620E-003   4.8723552427314520E-002
  -2.0646984012244712E-002   5.4998441411080734E-003   4.8604939707559858E-002
  -1.8846635948325939E-002   4.8869570935288834E-003   4.8652333063426256E-002
  -1.7046287884407180E-002   4.2651346350994768E-003   4.8865732494913661E-002
  -7.8842480077557439E-003   1.8917486064982114E-003   6.4166371020527690E-002
  -6.9527550043766498E-003   1.6810679048963051E-003   6.4080686786824548E-002
  -6.0212620009975626E-003   1.5805683015400196E-003   6.4243755432210115E-002
  -5.0897689976184685E-003   1.5902497964302015E-003   6.4655576956684752E-002
  -4.1582759942393813E-003   1.7101123895661985E-003   6.5316151360248487E-002
  -9.9926178611349677E-003   2.4850951136486943E-003   6.0476405981548020E-002
  -8.8116094330218837E-003   2.1853077596344916E-003   6.0381261723750135E-002
  -7.6306010049087460E-003   1.9977476556068408E-003   6.0536395436331325E-002
  -6.4495925767956179E-003   1.9224148015660331E-003   6.0941807119291258E-002
  -5.2685841486825244E-003   1.9593091975118604E-003   6.1597496772630489E-002
  -1.2222414458369964E-002   3.0784416207988441E-003   5.6696311214285589E-002
  -1.0790365514232909E-002   2.6895476143726227E-003   5.6593753084133780E-002
  -9.3583165700957989E-003   2.4149270096735231E-003   5.6742998015651164E-002
  -7.9262676259587023E-003   2.2545798067018577E-003   5.7144046008837268E-002
  -6.4942186818216317E-003   2.2085060054570782E-003   5.7796897063692454E-002
  -1.4573637799460686E-002   3.6717881279491604E-003   5.2826086718740811E-002
  -1.2889023248009699E-002   3.1937874691108370E-003   5.2718160867976108E-002
  -1.1204408696558709E-002   2.8321063637401639E-003   5.2863563170169901E-002
  -9.5197941451077364E-003   2.5867448118373527E-003   5.3262293625322629E-002
  -7.8351795936567343E-003   2.4577028134026291E-003   5.3914352233434298E-002
  -1.7046287884407180E-002   4.2651346350994768E-003   4.8865732494913661E-002
  -1.5107582634352329E-002   3.6980273238488293E-003   4.8754485075276133E-002
  -1.3168877384297492E-002   3.2492857178071377E-003   4.8898090899887281E-002
  -1.1230172134242641E-002   2.9189098169734307E-003   4.9296549968747383E-002
  -9.2914668841878045E-003   2.7068996213478469E-003   4.9949862281856272E-002
  -4.1582759942393813E-003   1.7101123895661985E-003   6.5316151360248487E-002
  -3.6277684024762918E-003   2.0015665751305090E-003   6.4401011751540782E-002
  -3.0972608107131989E-003   2.5260228473055202E-003   6.3604863030888859E-002
  -2.5667532189501043E-003   3.2834812060907048E-003   6.2927705198292994E-002
  -2.0362456271870166E-003   4.2739416514865347E-003   6.2369538253753021E-002
  -5.2685841486825244E-003   1.9593091975118604E-003   6.1597496772630489E-002
  -4.5931107032487761E-003   2.2154595718512082E-003   6.0872649147547253E-002
  -3.9176372578150244E-003   2.7978946529925997E-003   6.0318742341749110E-002
  -3.2421638123812727E-003   3.7066144409354171E-003   5.9935776355236337E-002
  -2.5666903669475244E-003   4.9416189356795703E-003   5.9723751188008878E-002
  -6.4942186818216317E-003   2.2085060054570782E-003   5.7796897063692454E-002
  -5.6218294514880137E-003   2.4293525685722406E-003   5.7355624042424613E-002
  -4.7494402211543671E-003   3.0697664586799012E-003   5.7137241771671454E-002
  -3.8770509908207479E-003   4.1297476757797963E-003   5.7141750251432755E-002
  -3.0046617604871026E-003   5.6092962198721619E-003   5.7369149481708515E-002
  -7.8351795936567343E-003   2.4577028134026291E-003   5.3914352233434298E-002
  -6.7139246471939629E-003   2.6432455652933284E-003   5.3849936436173106E-002
  -5.5926697007312185E-003   3.3416382643673692E-003   5.4060361320655545E-002
  -4.4714147542684731E-003   4.5528809106245641E-003   5.4545626886881672E-002
  -3.3501598078057009E-003   6.2769735040651975E-003   5.5305733134851542E-002
  -9.2914668841878045E-003   2.7068996213478469E-003   4.9949862281856272E-002
  -7.8693962903667036E-003   2.8571385620136391E-003   5.0355586328792445E-002
  -6.4473256965455888E-003   3.6135100700543377E-003   5.1088100988701535E-002
  -5.0252551027244810E-003   4.9760141454689016E-003   5.2147406261583706E-002
  -3.6031845089033732E-003   6.9446507882576780E-003   5.3533502147438683E-002
  -2.0362456271870166E-003   4.2739416514865347E-003   6.2369538253753021E-002
  -2.2862329766483724E-003   5.5771212065316433E-003   5.8339049910213325E-002
  -2.5362203261097283E-003   7.2727368942645532E-003   5.4303194947617150E-002
  -2.7862076755710390E-003   9.3607887146852364E-003   5.0261973365965384E-002
  -3.0361950250324399E-003   1.1841276667793554E-002   4.6215385165257583E-002
  -2.5666903669475244E-003   4.9416189356795703E-003   5.9723751188008878E-002
  -2.8395463804668786E-003   6.5664880547222637E-003   5.6191174482929429E-002
  -3.1124023939861998E-003   8.6448017155610624E-003   5.2618227068789880E-002
  -3.3852584075054664E-003   1.1176559918195141E-002   4.9004908945590231E-002
  -3.6581144210248995E-003   1.4161762662625144E-002   4.5351220113330815E-002
  -3.0046617604871026E-003   5.6092962198721619E-003   5.7369149481708515E-002
  -3.3353905280686033E-003   7.5558549029126620E-003   5.4395492824197700E-002
  -3.6661192956501214E-003   1.0016866536856905E-002   5.1346461367622609E-002
  -3.9968480632316351E-003   1.2992331121704656E-002   4.8222055111983103E-002
  -4.3275768308131402E-003   1.6482248657456289E-002   4.5022274057279543E-002
  -3.3501598078057009E-003   6.2769735040651975E-003   5.5305733134851542E-002
  -3.7737654194536568E-003   8.5452217511029493E-003   5.2952004934017451E-002
  -4.1973710311016127E-003   1.1388931358152971E-002   5.0487897844114310E-002
  -4.6209766427495113E-003   1.4808102325214477E-002   4.7913411865143161E-002
  -5.0445822543975505E-003   1.8802734652287545E-002   4.5228546997102881E-002
  -3.6031845089033732E-003   6.9446507882576780E-003   5.3533502147438683E-002
  -4.1546710546219723E-003   9.5345885992937918E-003   5.1860710812388966E-002
  -4.7061576003405575E-003   1.2760996179449396E-002   5.0042536498266343E-002
  -5.2576441460591219E-003   1.6623873528724110E-002   4.8078979205070788E-002
  -5.8091306917777419E-003   2.1123220647119023E-002   4.5970038932802826E-002
  -5.0508314560881090E-002   1.4882252717173472E-002   4.6647088580420826E-002
  -4.8792711208297812E-002   1.4524452112000374E-002   4.6959449999251723E-002
  -4.7077107855714645E-002   1.4124161366800947E-002   4.7344366989485909E-002
  -4.5361504503131436E-002   1.3681380481575148E-002   4.7801839551123632E-002
  -4.3645901150548214E-002   1.3196109456323379E-002   4.8331867684164809E-002
  -5.6197153866955327E-002   1.6822936019190271E-002   4.3155647632330596E-002
  -5.4368114905271089E-002   1.6356403896552213E-002   4.3066815893703619E-002
  -5.2539075943586817E-002   1.5865803954543775E-002   4.3132299801875301E-002
  -5.0710036981902573E-002   1.5351136193164912E-002   4.3352099356845461E-002
  -4.8880998020218350E-002   1.4812400612415899E-002   4.3726214558614362E-002
  -6.2294787388486553E-002   1.8763619321207070E-002   3.9546264006447507E-002
  -6.0270552742306180E-002   1.8188355681104051E-002   3.9074661431018634E-002
  -5.8246318096125758E-002   1.7607446542286576E-002   3.8839134577783513E-002
  -5.6222083449945365E-002   1.7020891904754733E-002   3.8839683446742296E-002
  -5.4197848803764923E-002   1.6428691768508447E-002   3.9076308037894733E-002
  -6.8801215125474990E-002   2.0704302623223869E-002   3.5818937702771350E-002
  -6.6500024719403236E-002   2.0020307465655862E-002   3.4982986611196656E-002
  -6.4198834313331482E-002   1.9349089130029362E-002   3.4464871317210759E-002
  -6.1897643907259707E-002   1.8690647616344386E-002   3.4264591820813831E-002
  -5.9596453501188022E-002   1.8044982924601036E-002   3.4382148122005851E-002
  -7.5716437077920418E-002   2.2644985925240668E-002   3.1973668721302473E-002
  -7.3056530836562161E-002   2.1852259250207784E-002   3.0791791434237659E-002
  -7.0396624595203933E-002   2.1090731717772204E-002   3.0009510020156893E-002
  -6.7736718353845704E-002   2.0360403327934221E-002   2.9626824479060343E-002
  -6.5076812112487475E-002   1.9661274080693514E-002   2.9643734810947731E-002
  -4.3645901150548214E-002   1.3196109456323379E-002   4.8331867684164809E-002
  -4.2184326110353637E-002   1.2689060657050805E-002   4.8310859825008434E-002
  -4.0722751070159068E-002   1.2180946449763100E-002   4.8426002837843929E-002
  -3.9261176029964526E-002   1.1671766834460476E-002   4.8677296722671001E-002
  -3.7799600989769949E-002   1.1161521811142827E-002   4.9064741479489915E-002
  -4.8880998020218350E-002   1.4812400612415899E-002   4.3726214558614362E-002
  -4.7277918903244502E-002   1.4260009800455442E-002   4.3626651964835311E-002
  -4.5674839786270592E-002   1.3704376345442262E-002   4.3673946652623183E-002
  -4.4071760669296689E-002   1.3145500247376405E-002   4.3868098621977901E-002
  -4.2468681552322828E-002   1.2583381506257985E-002   4.4209107872899556E-002
  -5.4197848803764923E-002   1.6428691768508447E-002   3.9076308037894733E-002
  -5.2442559200436598E-002   1.5830958943859955E-002   3.8896013474455385E-002
  -5.0687269597108266E-002   1.5227806241121196E-002   3.8873282602158159E-002
  -4.8931979993779913E-002   1.4619233660292276E-002   3.9008115421002923E-002
  -4.7176690390451602E-002   1.4005241201373198E-002   3.9300511930989684E-002
  -5.9596453501188022E-002   1.8044982924601036E-002   3.4382148122005851E-002
  -5.7678247001930041E-002   1.7401908087264363E-002   3.4118944353868710E-002
  -5.5760040502672061E-002   1.6751236136800077E-002   3.4024010686448766E-002
  -5.3841834003414094E-002   1.6092967073208259E-002   3.4097347119746040E-002
  -5.1923627504156099E-002   1.5427100896488383E-002   3.4338953653760461E-002
  -6.5076812112487475E-002   1.9661274080693514E-002   2.9643734810947731E-002
  -6.2984982307724743E-002   1.8972857230669105E-002   2.9295444603075205E-002
  -6.0893152502962011E-002   1.8274666032479209E-002   2.9126130905495040E-002
  -5.8801322698199293E-002   1.7566700486124028E-002   2.9135793718207265E-002
  -5.6709492893436547E-002   1.6848960591603568E-002   2.9324433041211795E-002
  -3.7799600989769949E-002   1.1161521811142827E-002   4.9064741479489915E-002
  -3.6043528381278292E-002   1.0643964508737447E-002   4.8772218422329372E-002
  -3.4287455772786649E-002   1.0112848056171048E-002   4.8663276143499079E-002
  -3.2531383164295005E-002   9.5681724534446497E-003   4.8737914642998842E-002
  -3.0775310555803362E-002   9.0099377005573578E-003   4.8996133920828799E-002
  -4.2468681552322828E-002   1.2583381506257985E-002   4.4209107872899556E-002
  -4.0526977285305806E-002   1.2014884522484226E-002   4.3868170924149130E-002
  -3.8585273018288735E-002   1.1436873696452382E-002   4.3714916514119323E-002
  -3.6643568751271699E-002   1.0849349028162529E-002   4.3749344642810134E-002
  -3.4701864484254677E-002   1.0252310517614605E-002   4.3971455310221730E-002
  -4.7176690390451602E-002   1.4005241201373198E-002   3.9300511930989684E-002
  -4.5045252704518660E-002   1.3385804536231311E-002   3.8915206398551838E-002
  -4.2913815018585710E-002   1.2760899336733675E-002   3.8721685165225186E-002
  -4.0782377332652768E-002   1.2130525602880523E-002   3.8719948231009542E-002
  -3.8650939646719812E-002   1.1494683334671796E-002   3.8909995595905134E-002
  -5.1923627504156099E-002   1.5427100896488383E-002   3.4338953653760461E-002
  -4.9598354638916820E-002   1.4756724549978242E-002   3.3913324845537780E-002
  -4.7273081773677492E-002   1.4084924977015099E-002   3.3683582096816475E-002
  -4.4947808908438185E-002   1.3411702177598682E-002   3.3649725407596899E-002
  -4.2622536043198885E-002   1.2737056151729015E-002   3.3811754777878886E-002
  -5.6709492893436547E-002   1.6848960591603568E-002   2.9324433041211795E-002
  -5.4186283088500348E-002   1.6127644563725230E-002   2.8862526265106436E-002
  -5.1663073283564162E-002   1.5408950617296246E-002   2.8600607308893383E-002
  -4.9139863478627983E-002   1.4692878752316577E-002   2.8538676172572289E-002
  -4.6616653673691777E-002   1.3979428968786345E-002   2.8676732856143250E-002
  -3.0775310555803362E-002   9.0099377005573578E-003   4.8996133920828799E-002
  -2.9143402951873065E-002   8.4417315985290120E-003   4.8729928664261901E-002
  -2.7511495347942803E-002   7.8671419483796190E-003   4.8643199795716574E-002
  -2.5879587744012524E-002   7.2861687501082489E-003   4.8735947315192624E-002
  -2.4247680140082245E-002   6.6988120037155818E-003   4.9008171222690189E-002
  -3.4701864484254677E-002   1.0252310517614605E-002   4.3971455310221730E-002
  -3.2896920305884897E-002   9.6455859940625110E-003   4.3668168140123503E-002
  -3.1091976127515061E-002   9.0290032867610809E-003   4.3531477730882923E-002
  -2.9287031949145267E-002   8.4025623957099498E-003   4.3561384082499793E-002
  -2.7482087770775446E-002   7.7662633209090171E-003   4.3757887194974476E-002
  -3.8650939646719812E-002   1.1494683334671796E-002   3.8909995595905134E-002
  -3.6685838521074418E-002   1.0849440389596232E-002   3.8566151876647289E-002
  -3.4720737395428955E-002   1.0190864625142876E-002   3.8376025291083207E-002
  -3.2755636269783464E-002   9.5189560413115951E-003   3.8339615839212790E-002
  -3.0790535144138091E-002   8.8337146381026188E-003   3.8456923521035941E-002
  -4.2622536043198885E-002   1.2737056151729015E-002   3.3811754777878886E-002
  -4.0510157597441698E-002   1.2053294785129898E-002   3.3423879873833426E-002
  -3.8397779151684512E-002   1.1352725963524504E-002   3.3176842476317622E-002
  -3.6285400705927340E-002   1.0635349686913490E-002   3.3070642585331669E-002
  -3.4173022260170147E-002   9.9011659552959708E-003   3.3105280200875588E-002
  -4.6616653673691777E-002   1.3979428968786345E-002   2.8676732856143250E-002
  -4.4369877534986751E-002   1.3257149180663397E-002   2.8241352131681885E-002
  -4.2123101396281726E-002   1.2514587301906188E-002   2.7933929286586001E-002
  -3.9876325257576686E-002   1.1751743332515122E-002   2.7754464320856348E-002
  -3.7629549118871675E-002   1.0968617272489656E-002   2.7702957234492565E-002
  -2.4247680140082245E-002   6.6988120037155818E-003   4.9008171222690189E-002
  -2.2447332076163479E-002   6.1037957778372620E-003   4.8723552427314520E-002
  -2.0646984012244712E-002   5.4998441411080734E-003   4.8604939707559858E-002
  -1.8846635948325939E-002   4.8869570935288834E-003   4.8652333063426256E-002
  -1.7046287884407180E-002   4.2651346350994768E-003   4.8865732494913661E-002
  -2.7482087770775446E-002   7.7662633209090171E-003   4.3757887194974476E-002
  -2.5519979874478113E-002   7.1252027376129679E-003   4.3390682291641169E-002
  -2.3557871978180794E-002   6.4844773210759044E-003   4.3180990977443934E-002
  -2.1595764081883437E-002   5.8440870712979584E-003   4.3128813252382797E-002
  -1.9633656185586143E-002   5.2040319882790120E-003   4.3234149116457732E-002
  -3.0790535144138091E-002   8.8337146381026188E-003   3.8456923521035941E-002
  -2.8675159901947141E-002   8.1466096973888402E-003   3.8016403087354711E-002
  -2.6559784659756194E-002   7.4691105010434994E-003   3.7724903756324438E-002
  -2.4444409417565212E-002   6.8012170490668079E-003   3.7582425527945322E-002
  -2.2329034175374289E-002   6.1429293414584363E-003   3.7588968402217537E-002
  -3.4173022260170147E-002   9.9011659552959708E-003   3.3105280200875588E-002
  -3.1912872158570554E-002   9.1680166571646293E-003   3.2600714814455596E-002
  -2.9652722056970966E-002   8.4537436810112679E-003   3.2236678044201647E-002
  -2.7392571955371318E-002   7.7583470268356592E-003   3.2013169890113831E-002
  -2.5132421853771736E-002   7.0818266946379715E-003   3.1930190352192411E-002
  -3.7629549118871675E-002   1.0968617272489656E-002   2.7702957234492565E-002
  -3.5233116644348361E-002   1.0189423616940529E-002   2.7143617472943082E-002
  -3.2836684169825020E-002   9.4383768609788976E-003   2.6716313841075034E-002
  -3.0440251695301707E-002   8.7154770046044480E-003   2.6421046338888227E-002
  -2.8043819220778365E-002   8.0207240478173958E-003   2.6257814966382576E-002
  -1.7046287884407180E-002   4.2651346350994768E-003   4.8865732494913661E-002
  -1.5107582634352329E-002   3.6980273238488293E-003   4.8754485075276133E-002
  -1.3168877384297492E-002   3.2492857178071377E-003   4.8898090899887281E-002
  -1.1230172134242641E-002   2.9189098169734307E-003   4.9296549968747383E-002
  -9.2914668841878045E-003   2.7068996213478469E-003   4.9949862281856272E-002
  -1.9633656185586143E-002   5.2040319882790120E-003   4.3234149116457732E-002
  -1.7478637940214807E-002   4.6009401227225522E-003   4.3072330245965684E-002
  -1.5323619694843520E-002   4.0714395253311497E-003   4.3088284121857556E-002
  -1.3168601449472232E-002   3.6155301961063799E-003   4.3282010744133737E-002
  -1.1013583204100896E-002   3.2332121350464593E-003   4.3653510112793503E-002
  -2.2329034175374289E-002   6.1429293414584363E-003   3.7588968402217537E-002
  -2.0034783432551266E-002   5.5038529215957754E-003   3.7331803643827849E-002
  -1.7740532689728222E-002   4.8935933328560499E-003   3.7175331133957712E-002
  -1.5446281946905126E-002   4.3121505752389960E-003   3.7119550872607099E-002
  -1.3152031204082149E-002   3.7595246487446832E-003   3.7164462859775371E-002
  -2.5132421853771736E-002   7.0818266946379715E-003   3.1930190352192411E-002
  -2.2776019111361692E-002   6.4067657204693040E-003   3.1532905268862522E-002
  -2.0419616368951593E-002   5.7157471403806726E-003   3.1159231936187394E-002
  -1.8063213626541494E-002   5.0087709543717787E-003   3.0809170354167040E-002
  -1.5706810884131395E-002   4.2858371624429348E-003   3.0482720522801113E-002
  -2.8043819220778365E-002   8.0207240478173958E-003   2.6257814966382576E-002
  -2.5702344976645974E-002   7.3096785193426106E-003   2.5675635121069962E-002
  -2.3360870732513583E-002   6.5379009479049899E-003   2.5039986528546831E-002
  -2.1019396488381165E-002   5.7053913335046239E-003   2.4350869188814073E-002
  -1.8677922244248801E-002   4.8121496761414084E-003   2.3608283101871352E-002
  -9.2914668841878045E-003   2.7068996213478469E-003   4.9949862281856272E-002
  -7.8693962903667036E-003   2.8571385620136391E-003   5.0355586328792445E-002
  -6.4473256965455888E-003   3.6135100700543377E-003   5.1088100988701535E-002
  -5.0252551027244810E-003   4.9760141454689016E-003   5.2147406261583706E-002
  -3.6031845089033732E-003   6.9446507882576780E-003   5.3533502147438683E-002
  -1.1013583204100896E-002   3.2332121350464593E-003   4.3653510112793503E-002
  -9.2463341308867131E-003   3.1625305467388176E-003   4.4239197468438407E-002
  -7.4790850576724882E-003   3.6415306357696076E-003   4.5188451169896227E-002
  -5.7118359844582876E-003   4.6702124021385655E-003   4.6501271217167461E-002
  -3.9445869112440801E-003   6.2485758458463714E-003   4.8177657610251834E-002
  -1.3152031204082149E-002   3.7595246487446832E-003   3.7164462859775371E-002
  -1.1002827918634529E-002   3.4679225314631634E-003   3.7873662634092864E-002
  -8.8536246331869344E-003   3.6695512014844056E-003   3.8983204487063522E-002
  -6.7044213477393377E-003   4.3644106588081114E-003   4.0493088418687817E-002
  -4.5552180622917202E-003   5.5525009034346762E-003   4.2403314428965472E-002
  -1.5706810884131395E-002   4.2858371624429348E-003   3.0482720522801113E-002
  -1.3138877653610211E-002   3.7733145161879811E-003   3.1258981825755275E-002
  -1.0570944423088913E-002   3.6975717671992731E-003   3.2472360940203220E-002
  -8.0030111925676415E-003   4.0586089154780493E-003   3.4122857866144773E-002
  -5.4350779620463748E-003   4.8564259610230642E-003   3.6210472603580270E-002
  -1.8677922244248801E-002   4.8121496761414084E-003   2.3608283101871352E-002
  -1.5654483335813568E-002   4.0787065009126322E-003   2.4395155043426264E-002
  -1.2631044427378418E-002   3.7255923329144458E-003   2.5655920529315479E-002
  -9.6076055189432408E-003   3.7528071721473141E-003   2.7390579559538580E-002
  -6.5841666105080354E-003   4.1603510186114523E-003   2.9599132134096040E-002
  -3.6031845089033732E-003   6.9446507882576780E-003   5.3533502147438683E-002
  -4.1546710546219723E-003   9.5345885992937918E-003   5.1860710812388966E-002
  -4.7061576003405575E-003   1.2760996179449396E-002   5.0042536498266343E-002
  -5.2576441460591219E-003   1.6623873528724110E-002   4.8078979205070788E-002
  -5.8091306917777419E-003   2.1123220647119023E-002   4.5970038932802826E-002
  -3.9445869112440801E-003   6.2485758458463714E-003   4.8177657610251834E-002
  -4.5376423600567983E-003   8.6866333938033224E-003   4.7242539752613333E-002
  -5.1306978088695027E-003   1.2294397472920493E-002   4.6369667067859666E-002
  -5.7237532576822660E-003   1.7071868083197578E-002   4.5559039555989805E-002
  -6.3168087064949807E-003   2.3019045224634826E-002   4.4810657217005501E-002
  -4.5552180622917202E-003   5.5525009034346762E-003   4.2403314428965472E-002
  -4.9822142622414009E-003   7.8386781883129086E-003   4.2739106810778971E-002
  -5.4092104621909672E-003   1.1827798766391354E-002   4.3344772517434335E-002
  -5.8362066621406531E-003   1.7519862637670709E-002   4.4220311548931059E-002
  -6.2632028620901586E-003   2.4914869802150408E-002   4.5365723905269939E-002
  -5.4350779620463748E-003   4.8564259610230642E-003   3.6210472603580270E-002
  -5.4883867611756829E-003   6.9907229828223560E-003   3.8350411986886393E-002
  -5.5416955603049588E-003   1.1361200059862554E-002   4.0967852846991254E-002
  -5.5950043594343458E-003   1.7967857192143673E-002   4.4062795183895088E-002
  -5.6483131585635983E-003   2.6810694379666211E-002   4.7635238997598056E-002
  -6.5841666105080354E-003   4.1603510186114523E-003   2.9599132134096040E-002
  -6.0561598568597830E-003   6.1427677773318035E-003   3.4076455280934836E-002
  -5.5281531032114195E-003   1.0894601353333533E-002   3.9238908056529853E-002
  -5.0001463495631671E-003   1.8415851746617362E-002   4.5086490460881090E-002
  -4.4721395959148591E-003   2.8706518957181792E-002   5.1619202493988769E-002
  -7.5716437077920418E-002   2.2644985925240668E-002   3.1973668721302473E-002
  -7.3056530836562161E-002   2.1852259250207784E-002   3.0791791434237659E-002
  -7.0396624595203933E-002   2.1090731717772204E-002   3.0009510020156893E-002
  -6.7736718353845704E-002   2.0360403327934221E-002   2.9626824479060343E-002
  -6.5076812112487475E-002   1.9661274080693514E-002   2.9643734810947731E-002
  -8.2453264252849767E-002   2.4406724218476672E-002   2.3102977177532791E-002
  -7.9486976931325143E-002   2.3623910545290505E-002   2.2611836984068351E-002
  -7.6520689609800574E-002   2.2846633961364701E-002   2.2333863077952709E-002
  -7.3554402288276061E-002   2.2074894466699049E-002   2.2269055459185547E-002
  -7.0588114966751464E-002   2.1308692061293627E-002   2.2417414127767044E-002
  -8.8424507657289514E-002   2.6168462511712676E-002   1.4255029662278207E-002
  -8.5338268841234161E-002   2.5395561840373365E-002   1.4428964509077311E-002
  -8.2252030025178779E-002   2.4602536204957087E-002   1.4629636057589421E-002
  -7.9165791209123398E-002   2.3789385605463849E-002   1.4857044307814780E-002
  -7.6079552393068031E-002   2.2956110041893851E-002   1.5111189259753008E-002
  -9.3630167291239963E-002   2.7930200804948624E-002   5.4298261755392763E-003
  -9.0610406566289201E-002   2.7167213135456128E-002   6.2431740092645412E-003
  -8.7590645841338563E-002   2.6358438448549557E-002   6.8968289590673297E-003
  -8.4570885116387856E-002   2.5503876744228913E-002   7.3907910249477442E-003
  -8.1551124391437149E-002   2.4603528022494076E-002   7.7250602069056096E-003
  -9.8070243154700920E-002   2.9691939098184683E-002  -3.3726332826842231E-003
  -9.5303390106490360E-002   2.8938864430538835E-002  -1.9455345153700510E-003
  -9.2536537058279800E-002   2.8114340692142137E-002  -8.6455821761372009E-004
  -8.9769684010069350E-002   2.7218367882993727E-002  -1.2970438941527218E-004
  -8.7002830961858790E-002   2.6250946003094189E-002   2.5902696922497359E-004
  -6.5076812112487475E-002   1.9661274080693514E-002   2.9643734810947731E-002
  -6.2984982307724743E-002   1.8972857230669105E-002   2.9295444603075205E-002
  -6.0893152502962011E-002   1.8274666032479209E-002   2.9126130905495040E-002
  -5.8801322698199293E-002   1.7566700486124028E-002   2.9135793718207265E-002
  -5.6709492893436547E-002   1.6848960591603568E-002   2.9324433041211795E-002
  -7.0588114966751464E-002   2.1308692061293627E-002   2.2417414127767044E-002
  -6.8313461522904767E-002   2.0545824232628990E-002   2.2088515334661579E-002
  -6.6038808079058056E-002   1.9784088468185433E-002   2.1946287309431697E-002
  -6.3764154635211345E-002   1.9023484767963332E-002   2.1990730052077495E-002
  -6.1489501191364593E-002   1.8264013131962020E-002   2.2221843562598986E-002
  -7.6079552393068031E-002   2.2956110041893851E-002   1.5111189259753008E-002
  -7.3614381052554065E-002   2.2118791234589041E-002   1.4812588293801061E-002
  -7.1149209712040085E-002   2.1293510903891824E-002   1.4708352353307995E-002
  -6.8684038371526104E-002   2.0480269049802411E-002   1.4798481438273801E-002
  -6.6218867031012207E-002   1.9679065672320417E-002   1.5082975548698488E-002
  -8.1551124391437149E-002   2.4603528022494076E-002   7.7250602069056096E-003
  -7.8887740896672609E-002   2.3691758236549038E-002   7.4676634804936217E-003
  -7.6224357401908152E-002   2.2802933339598354E-002   7.4123260371236968E-003
  -7.3560973907143612E-002   2.1937053331641546E-002   7.5590478767962269E-003
  -7.0897590412379141E-002   2.1094118212679036E-002   7.9078289995106257E-003
  -8.7002830961858790E-002   2.6250946003094189E-002   2.5902696922497359E-004
  -8.4133541055260497E-002   2.5264725238508867E-002   5.3740894739640055E-005
  -8.1264251148662203E-002   2.4312355775304384E-002   5.8208360879330456E-005
  -7.8394961242063882E-002   2.3393837613480781E-002   2.7242936764448888E-004
  -7.5525671335465616E-002   2.2509170753037266E-002   6.9640391503511534E-004
  -5.6709492893436547E-002   1.6848960591603568E-002   2.9324433041211795E-002
  -5.4186283088500348E-002   1.6127644563725230E-002   2.8862526265106436E-002
  -5.1663073283564162E-002   1.5408950617296246E-002   2.8600607308893383E-002
  -4.9139863478627983E-002   1.4692878752316577E-002   2.8538676172572289E-002
  -4.6616653673691777E-002   1.3979428968786345E-002   2.8676732856143250E-002
  -6.1489501191364593E-002   1.8264013131962020E-002   2.2221843562598986E-002
  -5.8768373805817148E-002   1.7503416910552377E-002   2.1808129428698614E-002
  -5.6047246420269675E-002   1.6739439454104374E-002   2.1590262636129121E-002
  -5.3326119034722175E-002   1.5972080762618187E-002   2.1568243184889799E-002
  -5.0604991649174771E-002   1.5201340836093646E-002   2.1742071074980995E-002
  -6.6218867031012207E-002   1.9679065672320417E-002   1.5082975548698488E-002
  -6.3303962543415110E-002   1.8879189257379386E-002   1.4711450740515844E-002
  -6.0389058055818082E-002   1.8069928290912668E-002   1.4531632795102278E-002
  -5.7474153568221033E-002   1.7251282772919742E-002   1.4543521712457118E-002
  -5.4559249080623970E-002   1.6423252703401003E-002   1.4747117492580730E-002
  -7.0897590412379141E-002   2.1094118212679036E-002   7.9078289995106257E-003
  -6.7793049301294220E-002   2.0254961604206825E-002   7.5724902005578527E-003
  -6.4688508190209340E-002   1.9400417127720657E-002   7.4247177858125235E-003
  -6.1583967079124412E-002   1.8530484783221380E-002   7.4645117552738730E-003
  -5.8479425968039553E-002   1.7645164570708333E-002   7.6918721089425449E-003
  -7.5525671335465616E-002   2.2509170753037266E-002   6.9640391503511534E-004
  -7.2235634079454547E-002   2.1630733951033487E-002   3.9124780882471288E-004
  -6.8945596823443478E-002   2.0730905964529034E-002   2.6951760826024462E-004
  -6.5655559567432353E-002   1.9809686793522727E-002   3.3121331334010767E-004
  -6.2365522311421340E-002   1.8867076438015773E-002   5.7633492406594655E-004
  -4.6616653673691777E-002   1.3979428968786345E-002   2.8676732856143250E-002
  -4.4369877534986751E-002   1.3257149180663397E-002   2.8241352131681885E-002
  -4.2123101396281726E-002   1.2514587301906188E-002   2.7933929286586001E-002
  -3.9876325257576686E-002   1.1751743332515122E-002   2.7754464320856348E-002
  -3.7629549118871675E-002   1.0968617272489656E-002   2.7702957234492565E-002
  -5.0604991649174771E-002   1.5201340836093646E-002   2.1742071074980995E-002
  -4.8223546470037279E-002   1.4426536333342316E-002   2.1334967051594905E-002
  -4.5842101290899766E-002   1.3646983913175634E-002   2.1069243229707907E-002
  -4.3460656111762308E-002   1.2862683575593500E-002   2.0944899609319764E-002
  -4.1079210932624760E-002   1.2073635320596132E-002   2.0961936190430963E-002
  -5.4559249080623970E-002   1.6423252703401003E-002   1.4747117492580730E-002
  -5.2029712538920886E-002   1.5595923486020985E-002   1.4383824343488963E-002
  -4.9500175997217850E-002   1.4779380524444746E-002   1.4175333718029537E-002
  -4.6970639455514787E-002   1.3973623818671711E-002   1.4121645616202057E-002
  -4.4441102913811731E-002   1.3178653368702387E-002   1.4222760038006932E-002
  -5.8479425968039553E-002   1.7645164570708333E-002   7.6918721089425449E-003
  -5.5788375741637780E-002   1.6765310638699835E-002   7.3879240073637491E-003
  -5.3097325515235945E-002   1.5911777135713803E-002   7.2522007515507768E-003
  -5.0406275288834103E-002   1.5084564061750228E-002   7.2847023415029237E-003
  -4.7715225062432344E-002   1.4283671416809085E-002   7.4854287772206513E-003
  -6.2365522311421340E-002   1.8867076438015773E-002   5.7633492406594655E-004
  -5.9499536078187698E-002   1.7934697791378684E-002   3.4726604321966281E-004
  -5.6633549844954056E-002   1.7044173746983110E-002   2.9984433027196999E-004
  -5.3767563611720443E-002   1.6195504304828141E-002   4.3406978522242401E-004
  -5.0901577378486773E-002   1.5388689464915339E-002   7.4994240807180201E-004
  -3.7629549118871675E-002   1.0968617272489656E-002   2.7702957234492565E-002
  -3.5233116644348361E-002   1.0189423616940529E-002   2.7143617472943082E-002
  -3.2836684169825020E-002   9.4383768609788976E-003   2.6716313841075034E-002
  -3.0440251695301707E-002   8.7154770046044480E-003   2.6421046338888227E-002
  -2.8043819220778365E-002   8.0207240478173958E-003   2.6257814966382576E-002
  -4.1079210932624760E-002   1.2073635320596132E-002   2.0961936190430963E-002
  -3.8561107059381178E-002   1.1288533746575569E-002   2.0500395619965084E-002
  -3.6043003186137512E-002   1.0516073451924540E-002   2.0150161717258835E-002
  -3.3524899312893888E-002   9.7562544366429152E-003   1.9911234482311968E-002
  -3.1006795439650264E-002   9.0090767007307004E-003   1.9783613915124398E-002
  -4.4441102913811731E-002   1.3178653368702387E-002   1.4222760038006932E-002
  -4.1822057103769655E-002   1.2387643876210663E-002   1.3843513038407057E-002
  -3.9203011293727497E-002   1.1593770042870530E-002   1.3554843244644413E-002
  -3.6583965483685407E-002   1.0797031868681386E-002   1.3356750656719575E-002
  -3.3964919673643318E-002   9.9974293536437830E-003   1.3249235274632065E-002
  -4.7715225062432344E-002   1.4283671416809085E-002   7.4854287772206513E-003
  -4.5015966777513725E-002   1.3486754005845619E-002   7.1729697282681762E-003
  -4.2316708492595008E-002   1.2671466633816235E-002   6.9303584232315966E-003
  -3.9617450207676319E-002   1.1837809300720188E-002   6.7575948621106056E-003
  -3.6918191922757672E-002   1.0985782006556866E-002   6.6546790449052845E-003
  -5.0901577378486773E-002   1.5388689464915339E-002   7.4994240807180201E-004
  -4.8142836080613427E-002   1.4585864135480797E-002   4.8876568954914212E-004
  -4.5384094782740025E-002   1.3749163224761940E-002   2.7670725302042509E-004
  -4.2625353484866624E-002   1.2878586732758546E-002   1.1376709848562316E-004
  -3.9866612186993278E-002   1.1974134659470392E-002  -5.4774055735506977E-008
  -2.8043819220778365E-002   8.0207240478173958E-003   2.6257814966382576E-002
  -2.5702344976645974E-002   7.3096785193426106E-003   2.5675635121069962E-002
  -2.3360870732513583E-002   6.5379009479049899E-003   2.5039986528546831E-002
  -2.1019396488381165E-002   5.7053913335046239E-003   2.4350869188814073E-002
  -1.8677922244248801E-002   4.8121496761414084E-003   2.3608283101871352E-002
  -3.1006795439650264E-002   9.0090767007307004E-003   1.9783613915124398E-002
  -2.8701009973690267E-002   8.2659757793761557E-003   1.9191456177119703E-002
  -2.6395224507730353E-002   7.5183872077676239E-003   1.8581389629980072E-002
  -2.4089439041770459E-002   6.7663109859055701E-003   1.7953414273705462E-002
  -2.1783653575810497E-002   6.0097471137893210E-003   1.7307530108296443E-002
  -3.3964919673643318E-002   9.9974293536437830E-003   1.3249235274632065E-002
  -3.1659263047780668E-002   9.2222730394095342E-003   1.2703344036644248E-002
  -2.9353606421918033E-002   8.4988734676302441E-003   1.2175103927596659E-002
  -2.7047949796055369E-002   7.8272306383064018E-003   1.1664514947489581E-002
  -2.4742293170192692E-002   7.2073445514371781E-003   1.1171577096322577E-002
  -3.6918191922757672E-002   1.0985782006556866E-002   6.6546790449052845E-003
  -3.4577104198917172E-002   1.0178570299442996E-002   6.2112986996431738E-003
  -3.2236016475076512E-002   9.4793597274928712E-003   5.8211294213971303E-003
  -2.9894928751235922E-002   8.8881502907069577E-003   5.4841712101660837E-003
  -2.7553841027395352E-002   8.4049419890852295E-003   5.2004240659510245E-003
  -3.9866612186993278E-002   1.1974134659470392E-002  -5.4774055735506977E-008
  -3.7454533427099590E-002   1.1134867559476569E-002  -2.8467983388291707E-004
  -3.5042454667205902E-002   1.0459845987355110E-002  -4.8053388861882262E-004
  -3.2630375907312242E-002   9.9490699431079160E-003  -5.8761693826451383E-004
  -3.0218297147418527E-002   9.6025394267329478E-003  -6.0592898281930374E-004
  -1.8677922244248801E-002   4.8121496761414084E-003   2.3608283101871352E-002
  -1.5654483335813568E-002   4.0787065009126322E-003   2.4395155043426264E-002
  -1.2631044427378418E-002   3.7255923329144458E-003   2.5655920529315479E-002
  -9.6076055189432408E-003   3.7528071721473141E-003   2.7390579559538580E-002
  -6.5841666105080354E-003   4.1603510186114523E-003   2.9599132134096040E-002
  -2.1783653575810497E-002   6.0097471137893210E-003   1.7307530108296443E-002
  -1.8555660838738094E-002   5.3426574413477645E-003   1.8254036599751167E-002
  -1.5327668101665776E-002   4.8590038185098716E-003   1.9135757204146259E-002
  -1.2099675364593443E-002   4.5587862452756631E-003   1.9952691921481677E-002
  -8.8716826275210547E-003   4.4420047216440217E-003   2.0704840751757159E-002
  -2.4742293170192692E-002   7.2073445514371781E-003   1.1171577096322577E-002
  -2.1848426035876986E-002   6.6066083817839238E-003   1.2080825180049798E-002
  -1.8954558901561266E-002   5.9924153041055334E-003   1.2386607945322994E-002
  -1.6060691767245533E-002   5.3647653184034604E-003   1.2088925392143034E-002
  -1.3166824632929786E-002   4.7236584246762581E-003   1.1187777520509423E-002
  -2.7553841027395352E-002   8.4049419890852295E-003   5.2004240659510245E-003
  -2.5532778927230135E-002   7.8705593222192921E-003   5.8755207843220261E-003
  -2.3511716827064870E-002   7.1258267897011326E-003   5.4084727528460295E-003
  -2.1490654726899608E-002   6.1707443915307563E-003   3.7992799715225612E-003
  -1.9469592626734394E-002   5.0053121277086610E-003   1.0479424403520704E-003
  -3.0218297147418527E-002   9.6025394267329478E-003  -6.0592898281930374E-004
  -2.9608719512797643E-002   9.1345102626546604E-003  -3.6187658743130902E-004
  -2.8999141878176593E-002   8.2592382752967319E-003  -1.7986483732846670E-003
  -2.8389564243555626E-002   6.9767234646593013E-003  -4.9162443403789821E-003
  -2.7779986608934659E-002   5.2869658307412859E-003  -9.7146644887150524E-003
  -6.5841666105080354E-003   4.1603510186114523E-003   2.9599132134096040E-002
  -6.0561598568597830E-003   6.1427677773318035E-003   3.4076455280934836E-002
  -5.5281531032114195E-003   1.0894601353333533E-002   3.9238908056529853E-002
  -5.0001463495631671E-003   1.8415851746617362E-002   4.5086490460881090E-002
  -4.4721395959148591E-003   2.8706518957181792E-002   5.1619202493988769E-002
  -8.8716826275210547E-003   4.4420047216440217E-003   2.0704840751757159E-002
  -7.5861774928968617E-003   5.6587471315185378E-003   2.5873420979764750E-002
  -6.3006723582727381E-003   9.3591013588005256E-003   3.1871868340967613E-002
  -5.0151672236484410E-003   1.5543067403490804E-002   3.8700182835366359E-002
  -3.7296620890244214E-003   2.4210645265589026E-002   4.6358364462960822E-002
  -1.3166824632929786E-002   4.7236584246762581E-003   1.1187777520509423E-002
  -1.0979083612890357E-002   5.1747264857046060E-003   1.6761809829811791E-002
  -8.7913425928507899E-003   7.8236013642672964E-003   2.3310446776749372E-002
  -6.6036015728113476E-003   1.2670283060364468E-002   3.0833688361322206E-002
  -4.4158605527717942E-003   1.9714771573995815E-002   3.9331534583529337E-002
  -1.9469592626734394E-002   5.0053121277086610E-003   1.0479424403520704E-003
  -1.6234878216840179E-002   4.6907058398906742E-003   6.7416218310761833E-003
  -1.3000163806945995E-002   6.2881013697336230E-003   1.3554643363874505E-002
  -9.7654493970518504E-003   9.7974987172380207E-003   2.1487007038747515E-002
  -6.5307349871575951E-003   1.5218897882403160E-002   3.0538712855694788E-002
  -2.7779986608934659E-002   5.2869658307412859E-003  -9.7146644887150524E-003
  -2.3353561304746417E-002   4.2066851940778527E-003  -4.1871430164424628E-003
  -1.8927136000558120E-002   4.7526013752006713E-003   2.6044581023435265E-003
  -1.4500710696369795E-002   6.9247143741119205E-003   1.0660138867643824E-002
  -1.0074285392181581E-002   1.0723024190809838E-002   1.9979899279457536E-002
 </DataArray>
 </PointData>
 </Piece>
 </UnstructuredGrid>
 </VTKFile>
