 <VTKFile type="UnstructuredGrid"  version="0.1"   >
 <UnstructuredGrid>
 <Piece  NumberOfPoints="          1600 "  NumberOfCells="         1024 ">
 <Points>
 <DataArray  type="Float64" NumberOfComponents="3"  format="ascii" >
   0.0000000000000000        0.0000000000000000        0.0000000000000000     
   3.1250000000000000E-002   0.0000000000000000        0.0000000000000000     
   6.2500000000000000E-002   0.0000000000000000        0.0000000000000000     
   9.3750000000000000E-002   0.0000000000000000        0.0000000000000000     
  0.12500000000000000        0.0000000000000000        0.0000000000000000     
   0.0000000000000000        3.1250000000000000E-002   0.0000000000000000     
   3.1250000000000000E-002   3.1250000000000000E-002   0.0000000000000000     
   6.2500000000000000E-002   3.1250000000000000E-002   0.0000000000000000     
   9.3750000000000000E-002   3.1250000000000000E-002   0.0000000000000000     
  0.12500000000000000        3.1250000000000000E-002   0.0000000000000000     
   0.0000000000000000        6.2500000000000000E-002   0.0000000000000000     
   3.1250000000000000E-002   6.2500000000000000E-002   0.0000000000000000     
   6.2500000000000000E-002   6.2500000000000000E-002   0.0000000000000000     
   9.3750000000000000E-002   6.2500000000000000E-002   0.0000000000000000     
  0.12500000000000000        6.2500000000000000E-002   0.0000000000000000     
   0.0000000000000000        9.3750000000000000E-002   0.0000000000000000     
   3.1250000000000000E-002   9.3750000000000000E-002   0.0000000000000000     
   6.2500000000000000E-002   9.3750000000000000E-002   0.0000000000000000     
   9.3750000000000000E-002   9.3750000000000000E-002   0.0000000000000000     
  0.12500000000000000        9.3750000000000000E-002   0.0000000000000000     
   0.0000000000000000       0.12500000000000000        0.0000000000000000     
   3.1250000000000000E-002  0.12500000000000000        0.0000000000000000     
   6.2500000000000000E-002  0.12500000000000000        0.0000000000000000     
   9.3750000000000000E-002  0.12500000000000000        0.0000000000000000     
  0.12500000000000000       0.12500000000000000        0.0000000000000000     
  0.12500000000000000        0.0000000000000000        0.0000000000000000     
  0.15625000000000000        0.0000000000000000        0.0000000000000000     
  0.18750000000000000        0.0000000000000000        0.0000000000000000     
  0.21875000000000000        0.0000000000000000        0.0000000000000000     
  0.25000000000000000        0.0000000000000000        0.0000000000000000     
  0.12500000000000000        3.1250000000000000E-002   0.0000000000000000     
  0.15625000000000000        3.1250000000000000E-002   0.0000000000000000     
  0.18750000000000000        3.1250000000000000E-002   0.0000000000000000     
  0.21875000000000000        3.1250000000000000E-002   0.0000000000000000     
  0.25000000000000000        3.1250000000000000E-002   0.0000000000000000     
  0.12500000000000000        6.2500000000000000E-002   0.0000000000000000     
  0.15625000000000000        6.2500000000000000E-002   0.0000000000000000     
  0.18750000000000000        6.2500000000000000E-002   0.0000000000000000     
  0.21875000000000000        6.2500000000000000E-002   0.0000000000000000     
  0.25000000000000000        6.2500000000000000E-002   0.0000000000000000     
  0.12500000000000000        9.3750000000000000E-002   0.0000000000000000     
  0.15625000000000000        9.3750000000000000E-002   0.0000000000000000     
  0.18750000000000000        9.3750000000000000E-002   0.0000000000000000     
  0.21875000000000000        9.3750000000000000E-002   0.0000000000000000     
  0.25000000000000000        9.3750000000000000E-002   0.0000000000000000     
  0.12500000000000000       0.12500000000000000        0.0000000000000000     
  0.15625000000000000       0.12500000000000000        0.0000000000000000     
  0.18750000000000000       0.12500000000000000        0.0000000000000000     
  0.21875000000000000       0.12500000000000000        0.0000000000000000     
  0.25000000000000000       0.12500000000000000        0.0000000000000000     
  0.25000000000000000        0.0000000000000000        0.0000000000000000     
  0.28125000000000000        0.0000000000000000        0.0000000000000000     
  0.31250000000000000        0.0000000000000000        0.0000000000000000     
  0.34375000000000000        0.0000000000000000        0.0000000000000000     
  0.37500000000000000        0.0000000000000000        0.0000000000000000     
  0.25000000000000000        3.1250000000000000E-002   0.0000000000000000     
  0.28125000000000000        3.1250000000000000E-002   0.0000000000000000     
  0.31250000000000000        3.1250000000000000E-002   0.0000000000000000     
  0.34375000000000000        3.1250000000000000E-002   0.0000000000000000     
  0.37500000000000000        3.1250000000000000E-002   0.0000000000000000     
  0.25000000000000000        6.2500000000000000E-002   0.0000000000000000     
  0.28125000000000000        6.2500000000000000E-002   0.0000000000000000     
  0.31250000000000000        6.2500000000000000E-002   0.0000000000000000     
  0.34375000000000000        6.2500000000000000E-002   0.0000000000000000     
  0.37500000000000000        6.2500000000000000E-002   0.0000000000000000     
  0.25000000000000000        9.3750000000000000E-002   0.0000000000000000     
  0.28125000000000000        9.3750000000000000E-002   0.0000000000000000     
  0.31250000000000000        9.3750000000000000E-002   0.0000000000000000     
  0.34375000000000000        9.3750000000000000E-002   0.0000000000000000     
  0.37500000000000000        9.3750000000000000E-002   0.0000000000000000     
  0.25000000000000000       0.12500000000000000        0.0000000000000000     
  0.28125000000000000       0.12500000000000000        0.0000000000000000     
  0.31250000000000000       0.12500000000000000        0.0000000000000000     
  0.34375000000000000       0.12500000000000000        0.0000000000000000     
  0.37500000000000000       0.12500000000000000        0.0000000000000000     
  0.37500000000000000        0.0000000000000000        0.0000000000000000     
  0.40625000000000000        0.0000000000000000        0.0000000000000000     
  0.43750000000000000        0.0000000000000000        0.0000000000000000     
  0.46875000000000000        0.0000000000000000        0.0000000000000000     
  0.50000000000000000        0.0000000000000000        0.0000000000000000     
  0.37500000000000000        3.1250000000000000E-002   0.0000000000000000     
  0.40625000000000000        3.1250000000000000E-002   0.0000000000000000     
  0.43750000000000000        3.1250000000000000E-002   0.0000000000000000     
  0.46875000000000000        3.1250000000000000E-002   0.0000000000000000     
  0.50000000000000000        3.1250000000000000E-002   0.0000000000000000     
  0.37500000000000000        6.2500000000000000E-002   0.0000000000000000     
  0.40625000000000000        6.2500000000000000E-002   0.0000000000000000     
  0.43750000000000000        6.2500000000000000E-002   0.0000000000000000     
  0.46875000000000000        6.2500000000000000E-002   0.0000000000000000     
  0.50000000000000000        6.2500000000000000E-002   0.0000000000000000     
  0.37500000000000000        9.3750000000000000E-002   0.0000000000000000     
  0.40625000000000000        9.3750000000000000E-002   0.0000000000000000     
  0.43750000000000000        9.3750000000000000E-002   0.0000000000000000     
  0.46875000000000000        9.3750000000000000E-002   0.0000000000000000     
  0.50000000000000000        9.3750000000000000E-002   0.0000000000000000     
  0.37500000000000000       0.12500000000000000        0.0000000000000000     
  0.40625000000000000       0.12500000000000000        0.0000000000000000     
  0.43750000000000000       0.12500000000000000        0.0000000000000000     
  0.46875000000000000       0.12500000000000000        0.0000000000000000     
  0.50000000000000000       0.12500000000000000        0.0000000000000000     
  0.50000000000000000        0.0000000000000000        0.0000000000000000     
  0.53125000000000000        0.0000000000000000        0.0000000000000000     
  0.56250000000000000        0.0000000000000000        0.0000000000000000     
  0.59375000000000000        0.0000000000000000        0.0000000000000000     
  0.62500000000000000        0.0000000000000000        0.0000000000000000     
  0.50000000000000000        3.1250000000000000E-002   0.0000000000000000     
  0.53125000000000000        3.1250000000000000E-002   0.0000000000000000     
  0.56250000000000000        3.1250000000000000E-002   0.0000000000000000     
  0.59375000000000000        3.1250000000000000E-002   0.0000000000000000     
  0.62500000000000000        3.1250000000000000E-002   0.0000000000000000     
  0.50000000000000000        6.2500000000000000E-002   0.0000000000000000     
  0.53125000000000000        6.2500000000000000E-002   0.0000000000000000     
  0.56250000000000000        6.2500000000000000E-002   0.0000000000000000     
  0.59375000000000000        6.2500000000000000E-002   0.0000000000000000     
  0.62500000000000000        6.2500000000000000E-002   0.0000000000000000     
  0.50000000000000000        9.3750000000000000E-002   0.0000000000000000     
  0.53125000000000000        9.3750000000000000E-002   0.0000000000000000     
  0.56250000000000000        9.3750000000000000E-002   0.0000000000000000     
  0.59375000000000000        9.3750000000000000E-002   0.0000000000000000     
  0.62500000000000000        9.3750000000000000E-002   0.0000000000000000     
  0.50000000000000000       0.12500000000000000        0.0000000000000000     
  0.53125000000000000       0.12500000000000000        0.0000000000000000     
  0.56250000000000000       0.12500000000000000        0.0000000000000000     
  0.59375000000000000       0.12500000000000000        0.0000000000000000     
  0.62500000000000000       0.12500000000000000        0.0000000000000000     
  0.62500000000000000        0.0000000000000000        0.0000000000000000     
  0.65625000000000000        0.0000000000000000        0.0000000000000000     
  0.68750000000000000        0.0000000000000000        0.0000000000000000     
  0.71875000000000000        0.0000000000000000        0.0000000000000000     
  0.75000000000000000        0.0000000000000000        0.0000000000000000     
  0.62500000000000000        3.1250000000000000E-002   0.0000000000000000     
  0.65625000000000000        3.1250000000000000E-002   0.0000000000000000     
  0.68750000000000000        3.1250000000000000E-002   0.0000000000000000     
  0.71875000000000000        3.1250000000000000E-002   0.0000000000000000     
  0.75000000000000000        3.1250000000000000E-002   0.0000000000000000     
  0.62500000000000000        6.2500000000000000E-002   0.0000000000000000     
  0.65625000000000000        6.2500000000000000E-002   0.0000000000000000     
  0.68750000000000000        6.2500000000000000E-002   0.0000000000000000     
  0.71875000000000000        6.2500000000000000E-002   0.0000000000000000     
  0.75000000000000000        6.2500000000000000E-002   0.0000000000000000     
  0.62500000000000000        9.3750000000000000E-002   0.0000000000000000     
  0.65625000000000000        9.3750000000000000E-002   0.0000000000000000     
  0.68750000000000000        9.3750000000000000E-002   0.0000000000000000     
  0.71875000000000000        9.3750000000000000E-002   0.0000000000000000     
  0.75000000000000000        9.3750000000000000E-002   0.0000000000000000     
  0.62500000000000000       0.12500000000000000        0.0000000000000000     
  0.65625000000000000       0.12500000000000000        0.0000000000000000     
  0.68750000000000000       0.12500000000000000        0.0000000000000000     
  0.71875000000000000       0.12500000000000000        0.0000000000000000     
  0.75000000000000000       0.12500000000000000        0.0000000000000000     
  0.75000000000000000        0.0000000000000000        0.0000000000000000     
  0.78125000000000000        0.0000000000000000        0.0000000000000000     
  0.81250000000000000        0.0000000000000000        0.0000000000000000     
  0.84375000000000000        0.0000000000000000        0.0000000000000000     
  0.87500000000000000        0.0000000000000000        0.0000000000000000     
  0.75000000000000000        3.1250000000000000E-002   0.0000000000000000     
  0.78125000000000000        3.1250000000000000E-002   0.0000000000000000     
  0.81250000000000000        3.1250000000000000E-002   0.0000000000000000     
  0.84375000000000000        3.1250000000000000E-002   0.0000000000000000     
  0.87500000000000000        3.1250000000000000E-002   0.0000000000000000     
  0.75000000000000000        6.2500000000000000E-002   0.0000000000000000     
  0.78125000000000000        6.2500000000000000E-002   0.0000000000000000     
  0.81250000000000000        6.2500000000000000E-002   0.0000000000000000     
  0.84375000000000000        6.2500000000000000E-002   0.0000000000000000     
  0.87500000000000000        6.2500000000000000E-002   0.0000000000000000     
  0.75000000000000000        9.3750000000000000E-002   0.0000000000000000     
  0.78125000000000000        9.3750000000000000E-002   0.0000000000000000     
  0.81250000000000000        9.3750000000000000E-002   0.0000000000000000     
  0.84375000000000000        9.3750000000000000E-002   0.0000000000000000     
  0.87500000000000000        9.3750000000000000E-002   0.0000000000000000     
  0.75000000000000000       0.12500000000000000        0.0000000000000000     
  0.78125000000000000       0.12500000000000000        0.0000000000000000     
  0.81250000000000000       0.12500000000000000        0.0000000000000000     
  0.84375000000000000       0.12500000000000000        0.0000000000000000     
  0.87500000000000000       0.12500000000000000        0.0000000000000000     
  0.87500000000000000        0.0000000000000000        0.0000000000000000     
  0.90625000000000000        0.0000000000000000        0.0000000000000000     
  0.93750000000000000        0.0000000000000000        0.0000000000000000     
  0.96875000000000000        0.0000000000000000        0.0000000000000000     
   1.0000000000000000        0.0000000000000000        0.0000000000000000     
  0.87500000000000000        3.1250000000000000E-002   0.0000000000000000     
  0.90625000000000000        3.1250000000000000E-002   0.0000000000000000     
  0.93750000000000000        3.1250000000000000E-002   0.0000000000000000     
  0.96875000000000000        3.1250000000000000E-002   0.0000000000000000     
   1.0000000000000000        3.1250000000000000E-002   0.0000000000000000     
  0.87500000000000000        6.2500000000000000E-002   0.0000000000000000     
  0.90625000000000000        6.2500000000000000E-002   0.0000000000000000     
  0.93750000000000000        6.2500000000000000E-002   0.0000000000000000     
  0.96875000000000000        6.2500000000000000E-002   0.0000000000000000     
   1.0000000000000000        6.2500000000000000E-002   0.0000000000000000     
  0.87500000000000000        9.3750000000000000E-002   0.0000000000000000     
  0.90625000000000000        9.3750000000000000E-002   0.0000000000000000     
  0.93750000000000000        9.3750000000000000E-002   0.0000000000000000     
  0.96875000000000000        9.3750000000000000E-002   0.0000000000000000     
   1.0000000000000000        9.3750000000000000E-002   0.0000000000000000     
  0.87500000000000000       0.12500000000000000        0.0000000000000000     
  0.90625000000000000       0.12500000000000000        0.0000000000000000     
  0.93750000000000000       0.12500000000000000        0.0000000000000000     
  0.96875000000000000       0.12500000000000000        0.0000000000000000     
   1.0000000000000000       0.12500000000000000        0.0000000000000000     
   0.0000000000000000       0.12500000000000000        0.0000000000000000     
   3.1250000000000000E-002  0.12500000000000000        0.0000000000000000     
   6.2500000000000000E-002  0.12500000000000000        0.0000000000000000     
   9.3750000000000000E-002  0.12500000000000000        0.0000000000000000     
  0.12500000000000000       0.12500000000000000        0.0000000000000000     
   0.0000000000000000       0.15625000000000000        0.0000000000000000     
   3.1250000000000000E-002  0.15625000000000000        0.0000000000000000     
   6.2500000000000000E-002  0.15625000000000000        0.0000000000000000     
   9.3750000000000000E-002  0.15625000000000000        0.0000000000000000     
  0.12500000000000000       0.15625000000000000        0.0000000000000000     
   0.0000000000000000       0.18750000000000000        0.0000000000000000     
   3.1250000000000000E-002  0.18750000000000000        0.0000000000000000     
   6.2500000000000000E-002  0.18750000000000000        0.0000000000000000     
   9.3750000000000000E-002  0.18750000000000000        0.0000000000000000     
  0.12500000000000000       0.18750000000000000        0.0000000000000000     
   0.0000000000000000       0.21875000000000000        0.0000000000000000     
   3.1250000000000000E-002  0.21875000000000000        0.0000000000000000     
   6.2500000000000000E-002  0.21875000000000000        0.0000000000000000     
   9.3750000000000000E-002  0.21875000000000000        0.0000000000000000     
  0.12500000000000000       0.21875000000000000        0.0000000000000000     
   0.0000000000000000       0.25000000000000000        0.0000000000000000     
   3.1250000000000000E-002  0.25000000000000000        0.0000000000000000     
   6.2500000000000000E-002  0.25000000000000000        0.0000000000000000     
   9.3750000000000000E-002  0.25000000000000000        0.0000000000000000     
  0.12500000000000000       0.25000000000000000        0.0000000000000000     
  0.12500000000000000       0.12500000000000000        0.0000000000000000     
  0.15625000000000000       0.12500000000000000        0.0000000000000000     
  0.18750000000000000       0.12500000000000000        0.0000000000000000     
  0.21875000000000000       0.12500000000000000        0.0000000000000000     
  0.25000000000000000       0.12500000000000000        0.0000000000000000     
  0.12500000000000000       0.15625000000000000        0.0000000000000000     
  0.15625000000000000       0.15625000000000000        0.0000000000000000     
  0.18750000000000000       0.15625000000000000        0.0000000000000000     
  0.21875000000000000       0.15625000000000000        0.0000000000000000     
  0.25000000000000000       0.15625000000000000        0.0000000000000000     
  0.12500000000000000       0.18750000000000000        0.0000000000000000     
  0.15625000000000000       0.18750000000000000        0.0000000000000000     
  0.18750000000000000       0.18750000000000000        0.0000000000000000     
  0.21875000000000000       0.18750000000000000        0.0000000000000000     
  0.25000000000000000       0.18750000000000000        0.0000000000000000     
  0.12500000000000000       0.21875000000000000        0.0000000000000000     
  0.15625000000000000       0.21875000000000000        0.0000000000000000     
  0.18750000000000000       0.21875000000000000        0.0000000000000000     
  0.21875000000000000       0.21875000000000000        0.0000000000000000     
  0.25000000000000000       0.21875000000000000        0.0000000000000000     
  0.12500000000000000       0.25000000000000000        0.0000000000000000     
  0.15625000000000000       0.25000000000000000        0.0000000000000000     
  0.18750000000000000       0.25000000000000000        0.0000000000000000     
  0.21875000000000000       0.25000000000000000        0.0000000000000000     
  0.25000000000000000       0.25000000000000000        0.0000000000000000     
  0.25000000000000000       0.12500000000000000        0.0000000000000000     
  0.28125000000000000       0.12500000000000000        0.0000000000000000     
  0.31250000000000000       0.12500000000000000        0.0000000000000000     
  0.34375000000000000       0.12500000000000000        0.0000000000000000     
  0.37500000000000000       0.12500000000000000        0.0000000000000000     
  0.25000000000000000       0.15625000000000000        0.0000000000000000     
  0.28125000000000000       0.15625000000000000        0.0000000000000000     
  0.31250000000000000       0.15625000000000000        0.0000000000000000     
  0.34375000000000000       0.15625000000000000        0.0000000000000000     
  0.37500000000000000       0.15625000000000000        0.0000000000000000     
  0.25000000000000000       0.18750000000000000        0.0000000000000000     
  0.28125000000000000       0.18750000000000000        0.0000000000000000     
  0.31250000000000000       0.18750000000000000        0.0000000000000000     
  0.34375000000000000       0.18750000000000000        0.0000000000000000     
  0.37500000000000000       0.18750000000000000        0.0000000000000000     
  0.25000000000000000       0.21875000000000000        0.0000000000000000     
  0.28125000000000000       0.21875000000000000        0.0000000000000000     
  0.31250000000000000       0.21875000000000000        0.0000000000000000     
  0.34375000000000000       0.21875000000000000        0.0000000000000000     
  0.37500000000000000       0.21875000000000000        0.0000000000000000     
  0.25000000000000000       0.25000000000000000        0.0000000000000000     
  0.28125000000000000       0.25000000000000000        0.0000000000000000     
  0.31250000000000000       0.25000000000000000        0.0000000000000000     
  0.34375000000000000       0.25000000000000000        0.0000000000000000     
  0.37500000000000000       0.25000000000000000        0.0000000000000000     
  0.37500000000000000       0.12500000000000000        0.0000000000000000     
  0.40625000000000000       0.12500000000000000        0.0000000000000000     
  0.43750000000000000       0.12500000000000000        0.0000000000000000     
  0.46875000000000000       0.12500000000000000        0.0000000000000000     
  0.50000000000000000       0.12500000000000000        0.0000000000000000     
  0.37500000000000000       0.15625000000000000        0.0000000000000000     
  0.40625000000000000       0.15625000000000000        0.0000000000000000     
  0.43750000000000000       0.15625000000000000        0.0000000000000000     
  0.46875000000000000       0.15625000000000000        0.0000000000000000     
  0.50000000000000000       0.15625000000000000        0.0000000000000000     
  0.37500000000000000       0.18750000000000000        0.0000000000000000     
  0.40625000000000000       0.18750000000000000        0.0000000000000000     
  0.43750000000000000       0.18750000000000000        0.0000000000000000     
  0.46875000000000000       0.18750000000000000        0.0000000000000000     
  0.50000000000000000       0.18750000000000000        0.0000000000000000     
  0.37500000000000000       0.21875000000000000        0.0000000000000000     
  0.40625000000000000       0.21875000000000000        0.0000000000000000     
  0.43750000000000000       0.21875000000000000        0.0000000000000000     
  0.46875000000000000       0.21875000000000000        0.0000000000000000     
  0.50000000000000000       0.21875000000000000        0.0000000000000000     
  0.37500000000000000       0.25000000000000000        0.0000000000000000     
  0.40625000000000000       0.25000000000000000        0.0000000000000000     
  0.43750000000000000       0.25000000000000000        0.0000000000000000     
  0.46875000000000000       0.25000000000000000        0.0000000000000000     
  0.50000000000000000       0.25000000000000000        0.0000000000000000     
  0.50000000000000000       0.12500000000000000        0.0000000000000000     
  0.53125000000000000       0.12500000000000000        0.0000000000000000     
  0.56250000000000000       0.12500000000000000        0.0000000000000000     
  0.59375000000000000       0.12500000000000000        0.0000000000000000     
  0.62500000000000000       0.12500000000000000        0.0000000000000000     
  0.50000000000000000       0.15625000000000000        0.0000000000000000     
  0.53125000000000000       0.15625000000000000        0.0000000000000000     
  0.56250000000000000       0.15625000000000000        0.0000000000000000     
  0.59375000000000000       0.15625000000000000        0.0000000000000000     
  0.62500000000000000       0.15625000000000000        0.0000000000000000     
  0.50000000000000000       0.18750000000000000        0.0000000000000000     
  0.53125000000000000       0.18750000000000000        0.0000000000000000     
  0.56250000000000000       0.18750000000000000        0.0000000000000000     
  0.59375000000000000       0.18750000000000000        0.0000000000000000     
  0.62500000000000000       0.18750000000000000        0.0000000000000000     
  0.50000000000000000       0.21875000000000000        0.0000000000000000     
  0.53125000000000000       0.21875000000000000        0.0000000000000000     
  0.56250000000000000       0.21875000000000000        0.0000000000000000     
  0.59375000000000000       0.21875000000000000        0.0000000000000000     
  0.62500000000000000       0.21875000000000000        0.0000000000000000     
  0.50000000000000000       0.25000000000000000        0.0000000000000000     
  0.53125000000000000       0.25000000000000000        0.0000000000000000     
  0.56250000000000000       0.25000000000000000        0.0000000000000000     
  0.59375000000000000       0.25000000000000000        0.0000000000000000     
  0.62500000000000000       0.25000000000000000        0.0000000000000000     
  0.62500000000000000       0.12500000000000000        0.0000000000000000     
  0.65625000000000000       0.12500000000000000        0.0000000000000000     
  0.68750000000000000       0.12500000000000000        0.0000000000000000     
  0.71875000000000000       0.12500000000000000        0.0000000000000000     
  0.75000000000000000       0.12500000000000000        0.0000000000000000     
  0.62500000000000000       0.15625000000000000        0.0000000000000000     
  0.65625000000000000       0.15625000000000000        0.0000000000000000     
  0.68750000000000000       0.15625000000000000        0.0000000000000000     
  0.71875000000000000       0.15625000000000000        0.0000000000000000     
  0.75000000000000000       0.15625000000000000        0.0000000000000000     
  0.62500000000000000       0.18750000000000000        0.0000000000000000     
  0.65625000000000000       0.18750000000000000        0.0000000000000000     
  0.68750000000000000       0.18750000000000000        0.0000000000000000     
  0.71875000000000000       0.18750000000000000        0.0000000000000000     
  0.75000000000000000       0.18750000000000000        0.0000000000000000     
  0.62500000000000000       0.21875000000000000        0.0000000000000000     
  0.65625000000000000       0.21875000000000000        0.0000000000000000     
  0.68750000000000000       0.21875000000000000        0.0000000000000000     
  0.71875000000000000       0.21875000000000000        0.0000000000000000     
  0.75000000000000000       0.21875000000000000        0.0000000000000000     
  0.62500000000000000       0.25000000000000000        0.0000000000000000     
  0.65625000000000000       0.25000000000000000        0.0000000000000000     
  0.68750000000000000       0.25000000000000000        0.0000000000000000     
  0.71875000000000000       0.25000000000000000        0.0000000000000000     
  0.75000000000000000       0.25000000000000000        0.0000000000000000     
  0.75000000000000000       0.12500000000000000        0.0000000000000000     
  0.78125000000000000       0.12500000000000000        0.0000000000000000     
  0.81250000000000000       0.12500000000000000        0.0000000000000000     
  0.84375000000000000       0.12500000000000000        0.0000000000000000     
  0.87500000000000000       0.12500000000000000        0.0000000000000000     
  0.75000000000000000       0.15625000000000000        0.0000000000000000     
  0.78125000000000000       0.15625000000000000        0.0000000000000000     
  0.81250000000000000       0.15625000000000000        0.0000000000000000     
  0.84375000000000000       0.15625000000000000        0.0000000000000000     
  0.87500000000000000       0.15625000000000000        0.0000000000000000     
  0.75000000000000000       0.18750000000000000        0.0000000000000000     
  0.78125000000000000       0.18750000000000000        0.0000000000000000     
  0.81250000000000000       0.18750000000000000        0.0000000000000000     
  0.84375000000000000       0.18750000000000000        0.0000000000000000     
  0.87500000000000000       0.18750000000000000        0.0000000000000000     
  0.75000000000000000       0.21875000000000000        0.0000000000000000     
  0.78125000000000000       0.21875000000000000        0.0000000000000000     
  0.81250000000000000       0.21875000000000000        0.0000000000000000     
  0.84375000000000000       0.21875000000000000        0.0000000000000000     
  0.87500000000000000       0.21875000000000000        0.0000000000000000     
  0.75000000000000000       0.25000000000000000        0.0000000000000000     
  0.78125000000000000       0.25000000000000000        0.0000000000000000     
  0.81250000000000000       0.25000000000000000        0.0000000000000000     
  0.84375000000000000       0.25000000000000000        0.0000000000000000     
  0.87500000000000000       0.25000000000000000        0.0000000000000000     
  0.87500000000000000       0.12500000000000000        0.0000000000000000     
  0.90625000000000000       0.12500000000000000        0.0000000000000000     
  0.93750000000000000       0.12500000000000000        0.0000000000000000     
  0.96875000000000000       0.12500000000000000        0.0000000000000000     
   1.0000000000000000       0.12500000000000000        0.0000000000000000     
  0.87500000000000000       0.15625000000000000        0.0000000000000000     
  0.90625000000000000       0.15625000000000000        0.0000000000000000     
  0.93750000000000000       0.15625000000000000        0.0000000000000000     
  0.96875000000000000       0.15625000000000000        0.0000000000000000     
   1.0000000000000000       0.15625000000000000        0.0000000000000000     
  0.87500000000000000       0.18750000000000000        0.0000000000000000     
  0.90625000000000000       0.18750000000000000        0.0000000000000000     
  0.93750000000000000       0.18750000000000000        0.0000000000000000     
  0.96875000000000000       0.18750000000000000        0.0000000000000000     
   1.0000000000000000       0.18750000000000000        0.0000000000000000     
  0.87500000000000000       0.21875000000000000        0.0000000000000000     
  0.90625000000000000       0.21875000000000000        0.0000000000000000     
  0.93750000000000000       0.21875000000000000        0.0000000000000000     
  0.96875000000000000       0.21875000000000000        0.0000000000000000     
   1.0000000000000000       0.21875000000000000        0.0000000000000000     
  0.87500000000000000       0.25000000000000000        0.0000000000000000     
  0.90625000000000000       0.25000000000000000        0.0000000000000000     
  0.93750000000000000       0.25000000000000000        0.0000000000000000     
  0.96875000000000000       0.25000000000000000        0.0000000000000000     
   1.0000000000000000       0.25000000000000000        0.0000000000000000     
   0.0000000000000000       0.25000000000000000        0.0000000000000000     
   3.1250000000000000E-002  0.25000000000000000        0.0000000000000000     
   6.2500000000000000E-002  0.25000000000000000        0.0000000000000000     
   9.3750000000000000E-002  0.25000000000000000        0.0000000000000000     
  0.12500000000000000       0.25000000000000000        0.0000000000000000     
   0.0000000000000000       0.28125000000000000        0.0000000000000000     
   3.1250000000000000E-002  0.28125000000000000        0.0000000000000000     
   6.2500000000000000E-002  0.28125000000000000        0.0000000000000000     
   9.3750000000000000E-002  0.28125000000000000        0.0000000000000000     
  0.12500000000000000       0.28125000000000000        0.0000000000000000     
   0.0000000000000000       0.31250000000000000        0.0000000000000000     
   3.1250000000000000E-002  0.31250000000000000        0.0000000000000000     
   6.2500000000000000E-002  0.31250000000000000        0.0000000000000000     
   9.3750000000000000E-002  0.31250000000000000        0.0000000000000000     
  0.12500000000000000       0.31250000000000000        0.0000000000000000     
   0.0000000000000000       0.34375000000000000        0.0000000000000000     
   3.1250000000000000E-002  0.34375000000000000        0.0000000000000000     
   6.2500000000000000E-002  0.34375000000000000        0.0000000000000000     
   9.3750000000000000E-002  0.34375000000000000        0.0000000000000000     
  0.12500000000000000       0.34375000000000000        0.0000000000000000     
   0.0000000000000000       0.37500000000000000        0.0000000000000000     
   3.1250000000000000E-002  0.37500000000000000        0.0000000000000000     
   6.2500000000000000E-002  0.37500000000000000        0.0000000000000000     
   9.3750000000000000E-002  0.37500000000000000        0.0000000000000000     
  0.12500000000000000       0.37500000000000000        0.0000000000000000     
  0.12500000000000000       0.25000000000000000        0.0000000000000000     
  0.15625000000000000       0.25000000000000000        0.0000000000000000     
  0.18750000000000000       0.25000000000000000        0.0000000000000000     
  0.21875000000000000       0.25000000000000000        0.0000000000000000     
  0.25000000000000000       0.25000000000000000        0.0000000000000000     
  0.12500000000000000       0.28125000000000000        0.0000000000000000     
  0.15625000000000000       0.28125000000000000        0.0000000000000000     
  0.18750000000000000       0.28125000000000000        0.0000000000000000     
  0.21875000000000000       0.28125000000000000        0.0000000000000000     
  0.25000000000000000       0.28125000000000000        0.0000000000000000     
  0.12500000000000000       0.31250000000000000        0.0000000000000000     
  0.15625000000000000       0.31250000000000000        0.0000000000000000     
  0.18750000000000000       0.31250000000000000        0.0000000000000000     
  0.21875000000000000       0.31250000000000000        0.0000000000000000     
  0.25000000000000000       0.31250000000000000        0.0000000000000000     
  0.12500000000000000       0.34375000000000000        0.0000000000000000     
  0.15625000000000000       0.34375000000000000        0.0000000000000000     
  0.18750000000000000       0.34375000000000000        0.0000000000000000     
  0.21875000000000000       0.34375000000000000        0.0000000000000000     
  0.25000000000000000       0.34375000000000000        0.0000000000000000     
  0.12500000000000000       0.37500000000000000        0.0000000000000000     
  0.15625000000000000       0.37500000000000000        0.0000000000000000     
  0.18750000000000000       0.37500000000000000        0.0000000000000000     
  0.21875000000000000       0.37500000000000000        0.0000000000000000     
  0.25000000000000000       0.37500000000000000        0.0000000000000000     
  0.25000000000000000       0.25000000000000000        0.0000000000000000     
  0.28125000000000000       0.25000000000000000        0.0000000000000000     
  0.31250000000000000       0.25000000000000000        0.0000000000000000     
  0.34375000000000000       0.25000000000000000        0.0000000000000000     
  0.37500000000000000       0.25000000000000000        0.0000000000000000     
  0.25000000000000000       0.28125000000000000        0.0000000000000000     
  0.28125000000000000       0.28125000000000000        0.0000000000000000     
  0.31250000000000000       0.28125000000000000        0.0000000000000000     
  0.34375000000000000       0.28125000000000000        0.0000000000000000     
  0.37500000000000000       0.28125000000000000        0.0000000000000000     
  0.25000000000000000       0.31250000000000000        0.0000000000000000     
  0.28125000000000000       0.31250000000000000        0.0000000000000000     
  0.31250000000000000       0.31250000000000000        0.0000000000000000     
  0.34375000000000000       0.31250000000000000        0.0000000000000000     
  0.37500000000000000       0.31250000000000000        0.0000000000000000     
  0.25000000000000000       0.34375000000000000        0.0000000000000000     
  0.28125000000000000       0.34375000000000000        0.0000000000000000     
  0.31250000000000000       0.34375000000000000        0.0000000000000000     
  0.34375000000000000       0.34375000000000000        0.0000000000000000     
  0.37500000000000000       0.34375000000000000        0.0000000000000000     
  0.25000000000000000       0.37500000000000000        0.0000000000000000     
  0.28125000000000000       0.37500000000000000        0.0000000000000000     
  0.31250000000000000       0.37500000000000000        0.0000000000000000     
  0.34375000000000000       0.37500000000000000        0.0000000000000000     
  0.37500000000000000       0.37500000000000000        0.0000000000000000     
  0.37500000000000000       0.25000000000000000        0.0000000000000000     
  0.40625000000000000       0.25000000000000000        0.0000000000000000     
  0.43750000000000000       0.25000000000000000        0.0000000000000000     
  0.46875000000000000       0.25000000000000000        0.0000000000000000     
  0.50000000000000000       0.25000000000000000        0.0000000000000000     
  0.37500000000000000       0.28125000000000000        0.0000000000000000     
  0.40625000000000000       0.28125000000000000        0.0000000000000000     
  0.43750000000000000       0.28125000000000000        0.0000000000000000     
  0.46875000000000000       0.28125000000000000        0.0000000000000000     
  0.50000000000000000       0.28125000000000000        0.0000000000000000     
  0.37500000000000000       0.31250000000000000        0.0000000000000000     
  0.40625000000000000       0.31250000000000000        0.0000000000000000     
  0.43750000000000000       0.31250000000000000        0.0000000000000000     
  0.46875000000000000       0.31250000000000000        0.0000000000000000     
  0.50000000000000000       0.31250000000000000        0.0000000000000000     
  0.37500000000000000       0.34375000000000000        0.0000000000000000     
  0.40625000000000000       0.34375000000000000        0.0000000000000000     
  0.43750000000000000       0.34375000000000000        0.0000000000000000     
  0.46875000000000000       0.34375000000000000        0.0000000000000000     
  0.50000000000000000       0.34375000000000000        0.0000000000000000     
  0.37500000000000000       0.37500000000000000        0.0000000000000000     
  0.40625000000000000       0.37500000000000000        0.0000000000000000     
  0.43750000000000000       0.37500000000000000        0.0000000000000000     
  0.46875000000000000       0.37500000000000000        0.0000000000000000     
  0.50000000000000000       0.37500000000000000        0.0000000000000000     
  0.50000000000000000       0.25000000000000000        0.0000000000000000     
  0.53125000000000000       0.25000000000000000        0.0000000000000000     
  0.56250000000000000       0.25000000000000000        0.0000000000000000     
  0.59375000000000000       0.25000000000000000        0.0000000000000000     
  0.62500000000000000       0.25000000000000000        0.0000000000000000     
  0.50000000000000000       0.28125000000000000        0.0000000000000000     
  0.53125000000000000       0.28125000000000000        0.0000000000000000     
  0.56250000000000000       0.28125000000000000        0.0000000000000000     
  0.59375000000000000       0.28125000000000000        0.0000000000000000     
  0.62500000000000000       0.28125000000000000        0.0000000000000000     
  0.50000000000000000       0.31250000000000000        0.0000000000000000     
  0.53125000000000000       0.31250000000000000        0.0000000000000000     
  0.56250000000000000       0.31250000000000000        0.0000000000000000     
  0.59375000000000000       0.31250000000000000        0.0000000000000000     
  0.62500000000000000       0.31250000000000000        0.0000000000000000     
  0.50000000000000000       0.34375000000000000        0.0000000000000000     
  0.53125000000000000       0.34375000000000000        0.0000000000000000     
  0.56250000000000000       0.34375000000000000        0.0000000000000000     
  0.59375000000000000       0.34375000000000000        0.0000000000000000     
  0.62500000000000000       0.34375000000000000        0.0000000000000000     
  0.50000000000000000       0.37500000000000000        0.0000000000000000     
  0.53125000000000000       0.37500000000000000        0.0000000000000000     
  0.56250000000000000       0.37500000000000000        0.0000000000000000     
  0.59375000000000000       0.37500000000000000        0.0000000000000000     
  0.62500000000000000       0.37500000000000000        0.0000000000000000     
  0.62500000000000000       0.25000000000000000        0.0000000000000000     
  0.65625000000000000       0.25000000000000000        0.0000000000000000     
  0.68750000000000000       0.25000000000000000        0.0000000000000000     
  0.71875000000000000       0.25000000000000000        0.0000000000000000     
  0.75000000000000000       0.25000000000000000        0.0000000000000000     
  0.62500000000000000       0.28125000000000000        0.0000000000000000     
  0.65625000000000000       0.28125000000000000        0.0000000000000000     
  0.68750000000000000       0.28125000000000000        0.0000000000000000     
  0.71875000000000000       0.28125000000000000        0.0000000000000000     
  0.75000000000000000       0.28125000000000000        0.0000000000000000     
  0.62500000000000000       0.31250000000000000        0.0000000000000000     
  0.65625000000000000       0.31250000000000000        0.0000000000000000     
  0.68750000000000000       0.31250000000000000        0.0000000000000000     
  0.71875000000000000       0.31250000000000000        0.0000000000000000     
  0.75000000000000000       0.31250000000000000        0.0000000000000000     
  0.62500000000000000       0.34375000000000000        0.0000000000000000     
  0.65625000000000000       0.34375000000000000        0.0000000000000000     
  0.68750000000000000       0.34375000000000000        0.0000000000000000     
  0.71875000000000000       0.34375000000000000        0.0000000000000000     
  0.75000000000000000       0.34375000000000000        0.0000000000000000     
  0.62500000000000000       0.37500000000000000        0.0000000000000000     
  0.65625000000000000       0.37500000000000000        0.0000000000000000     
  0.68750000000000000       0.37500000000000000        0.0000000000000000     
  0.71875000000000000       0.37500000000000000        0.0000000000000000     
  0.75000000000000000       0.37500000000000000        0.0000000000000000     
  0.75000000000000000       0.25000000000000000        0.0000000000000000     
  0.78125000000000000       0.25000000000000000        0.0000000000000000     
  0.81250000000000000       0.25000000000000000        0.0000000000000000     
  0.84375000000000000       0.25000000000000000        0.0000000000000000     
  0.87500000000000000       0.25000000000000000        0.0000000000000000     
  0.75000000000000000       0.28125000000000000        0.0000000000000000     
  0.78125000000000000       0.28125000000000000        0.0000000000000000     
  0.81250000000000000       0.28125000000000000        0.0000000000000000     
  0.84375000000000000       0.28125000000000000        0.0000000000000000     
  0.87500000000000000       0.28125000000000000        0.0000000000000000     
  0.75000000000000000       0.31250000000000000        0.0000000000000000     
  0.78125000000000000       0.31250000000000000        0.0000000000000000     
  0.81250000000000000       0.31250000000000000        0.0000000000000000     
  0.84375000000000000       0.31250000000000000        0.0000000000000000     
  0.87500000000000000       0.31250000000000000        0.0000000000000000     
  0.75000000000000000       0.34375000000000000        0.0000000000000000     
  0.78125000000000000       0.34375000000000000        0.0000000000000000     
  0.81250000000000000       0.34375000000000000        0.0000000000000000     
  0.84375000000000000       0.34375000000000000        0.0000000000000000     
  0.87500000000000000       0.34375000000000000        0.0000000000000000     
  0.75000000000000000       0.37500000000000000        0.0000000000000000     
  0.78125000000000000       0.37500000000000000        0.0000000000000000     
  0.81250000000000000       0.37500000000000000        0.0000000000000000     
  0.84375000000000000       0.37500000000000000        0.0000000000000000     
  0.87500000000000000       0.37500000000000000        0.0000000000000000     
  0.87500000000000000       0.25000000000000000        0.0000000000000000     
  0.90625000000000000       0.25000000000000000        0.0000000000000000     
  0.93750000000000000       0.25000000000000000        0.0000000000000000     
  0.96875000000000000       0.25000000000000000        0.0000000000000000     
   1.0000000000000000       0.25000000000000000        0.0000000000000000     
  0.87500000000000000       0.28125000000000000        0.0000000000000000     
  0.90625000000000000       0.28125000000000000        0.0000000000000000     
  0.93750000000000000       0.28125000000000000        0.0000000000000000     
  0.96875000000000000       0.28125000000000000        0.0000000000000000     
   1.0000000000000000       0.28125000000000000        0.0000000000000000     
  0.87500000000000000       0.31250000000000000        0.0000000000000000     
  0.90625000000000000       0.31250000000000000        0.0000000000000000     
  0.93750000000000000       0.31250000000000000        0.0000000000000000     
  0.96875000000000000       0.31250000000000000        0.0000000000000000     
   1.0000000000000000       0.31250000000000000        0.0000000000000000     
  0.87500000000000000       0.34375000000000000        0.0000000000000000     
  0.90625000000000000       0.34375000000000000        0.0000000000000000     
  0.93750000000000000       0.34375000000000000        0.0000000000000000     
  0.96875000000000000       0.34375000000000000        0.0000000000000000     
   1.0000000000000000       0.34375000000000000        0.0000000000000000     
  0.87500000000000000       0.37500000000000000        0.0000000000000000     
  0.90625000000000000       0.37500000000000000        0.0000000000000000     
  0.93750000000000000       0.37500000000000000        0.0000000000000000     
  0.96875000000000000       0.37500000000000000        0.0000000000000000     
   1.0000000000000000       0.37500000000000000        0.0000000000000000     
   0.0000000000000000       0.37500000000000000        0.0000000000000000     
   3.1250000000000000E-002  0.37500000000000000        0.0000000000000000     
   6.2500000000000000E-002  0.37500000000000000        0.0000000000000000     
   9.3750000000000000E-002  0.37500000000000000        0.0000000000000000     
  0.12500000000000000       0.37500000000000000        0.0000000000000000     
   0.0000000000000000       0.40625000000000000        0.0000000000000000     
   3.1250000000000000E-002  0.40625000000000000        0.0000000000000000     
   6.2500000000000000E-002  0.40625000000000000        0.0000000000000000     
   9.3750000000000000E-002  0.40625000000000000        0.0000000000000000     
  0.12500000000000000       0.40625000000000000        0.0000000000000000     
   0.0000000000000000       0.43750000000000000        0.0000000000000000     
   3.1250000000000000E-002  0.43750000000000000        0.0000000000000000     
   6.2500000000000000E-002  0.43750000000000000        0.0000000000000000     
   9.3750000000000000E-002  0.43750000000000000        0.0000000000000000     
  0.12500000000000000       0.43750000000000000        0.0000000000000000     
   0.0000000000000000       0.46875000000000000        0.0000000000000000     
   3.1250000000000000E-002  0.46875000000000000        0.0000000000000000     
   6.2500000000000000E-002  0.46875000000000000        0.0000000000000000     
   9.3750000000000000E-002  0.46875000000000000        0.0000000000000000     
  0.12500000000000000       0.46875000000000000        0.0000000000000000     
   0.0000000000000000       0.50000000000000000        0.0000000000000000     
   3.1250000000000000E-002  0.50000000000000000        0.0000000000000000     
   6.2500000000000000E-002  0.50000000000000000        0.0000000000000000     
   9.3750000000000000E-002  0.50000000000000000        0.0000000000000000     
  0.12500000000000000       0.50000000000000000        0.0000000000000000     
  0.12500000000000000       0.37500000000000000        0.0000000000000000     
  0.15625000000000000       0.37500000000000000        0.0000000000000000     
  0.18750000000000000       0.37500000000000000        0.0000000000000000     
  0.21875000000000000       0.37500000000000000        0.0000000000000000     
  0.25000000000000000       0.37500000000000000        0.0000000000000000     
  0.12500000000000000       0.40625000000000000        0.0000000000000000     
  0.15625000000000000       0.40625000000000000        0.0000000000000000     
  0.18750000000000000       0.40625000000000000        0.0000000000000000     
  0.21875000000000000       0.40625000000000000        0.0000000000000000     
  0.25000000000000000       0.40625000000000000        0.0000000000000000     
  0.12500000000000000       0.43750000000000000        0.0000000000000000     
  0.15625000000000000       0.43750000000000000        0.0000000000000000     
  0.18750000000000000       0.43750000000000000        0.0000000000000000     
  0.21875000000000000       0.43750000000000000        0.0000000000000000     
  0.25000000000000000       0.43750000000000000        0.0000000000000000     
  0.12500000000000000       0.46875000000000000        0.0000000000000000     
  0.15625000000000000       0.46875000000000000        0.0000000000000000     
  0.18750000000000000       0.46875000000000000        0.0000000000000000     
  0.21875000000000000       0.46875000000000000        0.0000000000000000     
  0.25000000000000000       0.46875000000000000        0.0000000000000000     
  0.12500000000000000       0.50000000000000000        0.0000000000000000     
  0.15625000000000000       0.50000000000000000        0.0000000000000000     
  0.18750000000000000       0.50000000000000000        0.0000000000000000     
  0.21875000000000000       0.50000000000000000        0.0000000000000000     
  0.25000000000000000       0.50000000000000000        0.0000000000000000     
  0.25000000000000000       0.37500000000000000        0.0000000000000000     
  0.28125000000000000       0.37500000000000000        0.0000000000000000     
  0.31250000000000000       0.37500000000000000        0.0000000000000000     
  0.34375000000000000       0.37500000000000000        0.0000000000000000     
  0.37500000000000000       0.37500000000000000        0.0000000000000000     
  0.25000000000000000       0.40625000000000000        0.0000000000000000     
  0.28125000000000000       0.40625000000000000        0.0000000000000000     
  0.31250000000000000       0.40625000000000000        0.0000000000000000     
  0.34375000000000000       0.40625000000000000        0.0000000000000000     
  0.37500000000000000       0.40625000000000000        0.0000000000000000     
  0.25000000000000000       0.43750000000000000        0.0000000000000000     
  0.28125000000000000       0.43750000000000000        0.0000000000000000     
  0.31250000000000000       0.43750000000000000        0.0000000000000000     
  0.34375000000000000       0.43750000000000000        0.0000000000000000     
  0.37500000000000000       0.43750000000000000        0.0000000000000000     
  0.25000000000000000       0.46875000000000000        0.0000000000000000     
  0.28125000000000000       0.46875000000000000        0.0000000000000000     
  0.31250000000000000       0.46875000000000000        0.0000000000000000     
  0.34375000000000000       0.46875000000000000        0.0000000000000000     
  0.37500000000000000       0.46875000000000000        0.0000000000000000     
  0.25000000000000000       0.50000000000000000        0.0000000000000000     
  0.28125000000000000       0.50000000000000000        0.0000000000000000     
  0.31250000000000000       0.50000000000000000        0.0000000000000000     
  0.34375000000000000       0.50000000000000000        0.0000000000000000     
  0.37500000000000000       0.50000000000000000        0.0000000000000000     
  0.37500000000000000       0.37500000000000000        0.0000000000000000     
  0.40625000000000000       0.37500000000000000        0.0000000000000000     
  0.43750000000000000       0.37500000000000000        0.0000000000000000     
  0.46875000000000000       0.37500000000000000        0.0000000000000000     
  0.50000000000000000       0.37500000000000000        0.0000000000000000     
  0.37500000000000000       0.40625000000000000        0.0000000000000000     
  0.40625000000000000       0.40625000000000000        0.0000000000000000     
  0.43750000000000000       0.40625000000000000        0.0000000000000000     
  0.46875000000000000       0.40625000000000000        0.0000000000000000     
  0.50000000000000000       0.40625000000000000        0.0000000000000000     
  0.37500000000000000       0.43750000000000000        0.0000000000000000     
  0.40625000000000000       0.43750000000000000        0.0000000000000000     
  0.43750000000000000       0.43750000000000000        0.0000000000000000     
  0.46875000000000000       0.43750000000000000        0.0000000000000000     
  0.50000000000000000       0.43750000000000000        0.0000000000000000     
  0.37500000000000000       0.46875000000000000        0.0000000000000000     
  0.40625000000000000       0.46875000000000000        0.0000000000000000     
  0.43750000000000000       0.46875000000000000        0.0000000000000000     
  0.46875000000000000       0.46875000000000000        0.0000000000000000     
  0.50000000000000000       0.46875000000000000        0.0000000000000000     
  0.37500000000000000       0.50000000000000000        0.0000000000000000     
  0.40625000000000000       0.50000000000000000        0.0000000000000000     
  0.43750000000000000       0.50000000000000000        0.0000000000000000     
  0.46875000000000000       0.50000000000000000        0.0000000000000000     
  0.50000000000000000       0.50000000000000000        0.0000000000000000     
  0.50000000000000000       0.37500000000000000        0.0000000000000000     
  0.53125000000000000       0.37500000000000000        0.0000000000000000     
  0.56250000000000000       0.37500000000000000        0.0000000000000000     
  0.59375000000000000       0.37500000000000000        0.0000000000000000     
  0.62500000000000000       0.37500000000000000        0.0000000000000000     
  0.50000000000000000       0.40625000000000000        0.0000000000000000     
  0.53125000000000000       0.40625000000000000        0.0000000000000000     
  0.56250000000000000       0.40625000000000000        0.0000000000000000     
  0.59375000000000000       0.40625000000000000        0.0000000000000000     
  0.62500000000000000       0.40625000000000000        0.0000000000000000     
  0.50000000000000000       0.43750000000000000        0.0000000000000000     
  0.53125000000000000       0.43750000000000000        0.0000000000000000     
  0.56250000000000000       0.43750000000000000        0.0000000000000000     
  0.59375000000000000       0.43750000000000000        0.0000000000000000     
  0.62500000000000000       0.43750000000000000        0.0000000000000000     
  0.50000000000000000       0.46875000000000000        0.0000000000000000     
  0.53125000000000000       0.46875000000000000        0.0000000000000000     
  0.56250000000000000       0.46875000000000000        0.0000000000000000     
  0.59375000000000000       0.46875000000000000        0.0000000000000000     
  0.62500000000000000       0.46875000000000000        0.0000000000000000     
  0.50000000000000000       0.50000000000000000        0.0000000000000000     
  0.53125000000000000       0.50000000000000000        0.0000000000000000     
  0.56250000000000000       0.50000000000000000        0.0000000000000000     
  0.59375000000000000       0.50000000000000000        0.0000000000000000     
  0.62500000000000000       0.50000000000000000        0.0000000000000000     
  0.62500000000000000       0.37500000000000000        0.0000000000000000     
  0.65625000000000000       0.37500000000000000        0.0000000000000000     
  0.68750000000000000       0.37500000000000000        0.0000000000000000     
  0.71875000000000000       0.37500000000000000        0.0000000000000000     
  0.75000000000000000       0.37500000000000000        0.0000000000000000     
  0.62500000000000000       0.40625000000000000        0.0000000000000000     
  0.65625000000000000       0.40625000000000000        0.0000000000000000     
  0.68750000000000000       0.40625000000000000        0.0000000000000000     
  0.71875000000000000       0.40625000000000000        0.0000000000000000     
  0.75000000000000000       0.40625000000000000        0.0000000000000000     
  0.62500000000000000       0.43750000000000000        0.0000000000000000     
  0.65625000000000000       0.43750000000000000        0.0000000000000000     
  0.68750000000000000       0.43750000000000000        0.0000000000000000     
  0.71875000000000000       0.43750000000000000        0.0000000000000000     
  0.75000000000000000       0.43750000000000000        0.0000000000000000     
  0.62500000000000000       0.46875000000000000        0.0000000000000000     
  0.65625000000000000       0.46875000000000000        0.0000000000000000     
  0.68750000000000000       0.46875000000000000        0.0000000000000000     
  0.71875000000000000       0.46875000000000000        0.0000000000000000     
  0.75000000000000000       0.46875000000000000        0.0000000000000000     
  0.62500000000000000       0.50000000000000000        0.0000000000000000     
  0.65625000000000000       0.50000000000000000        0.0000000000000000     
  0.68750000000000000       0.50000000000000000        0.0000000000000000     
  0.71875000000000000       0.50000000000000000        0.0000000000000000     
  0.75000000000000000       0.50000000000000000        0.0000000000000000     
  0.75000000000000000       0.37500000000000000        0.0000000000000000     
  0.78125000000000000       0.37500000000000000        0.0000000000000000     
  0.81250000000000000       0.37500000000000000        0.0000000000000000     
  0.84375000000000000       0.37500000000000000        0.0000000000000000     
  0.87500000000000000       0.37500000000000000        0.0000000000000000     
  0.75000000000000000       0.40625000000000000        0.0000000000000000     
  0.78125000000000000       0.40625000000000000        0.0000000000000000     
  0.81250000000000000       0.40625000000000000        0.0000000000000000     
  0.84375000000000000       0.40625000000000000        0.0000000000000000     
  0.87500000000000000       0.40625000000000000        0.0000000000000000     
  0.75000000000000000       0.43750000000000000        0.0000000000000000     
  0.78125000000000000       0.43750000000000000        0.0000000000000000     
  0.81250000000000000       0.43750000000000000        0.0000000000000000     
  0.84375000000000000       0.43750000000000000        0.0000000000000000     
  0.87500000000000000       0.43750000000000000        0.0000000000000000     
  0.75000000000000000       0.46875000000000000        0.0000000000000000     
  0.78125000000000000       0.46875000000000000        0.0000000000000000     
  0.81250000000000000       0.46875000000000000        0.0000000000000000     
  0.84375000000000000       0.46875000000000000        0.0000000000000000     
  0.87500000000000000       0.46875000000000000        0.0000000000000000     
  0.75000000000000000       0.50000000000000000        0.0000000000000000     
  0.78125000000000000       0.50000000000000000        0.0000000000000000     
  0.81250000000000000       0.50000000000000000        0.0000000000000000     
  0.84375000000000000       0.50000000000000000        0.0000000000000000     
  0.87500000000000000       0.50000000000000000        0.0000000000000000     
  0.87500000000000000       0.37500000000000000        0.0000000000000000     
  0.90625000000000000       0.37500000000000000        0.0000000000000000     
  0.93750000000000000       0.37500000000000000        0.0000000000000000     
  0.96875000000000000       0.37500000000000000        0.0000000000000000     
   1.0000000000000000       0.37500000000000000        0.0000000000000000     
  0.87500000000000000       0.40625000000000000        0.0000000000000000     
  0.90625000000000000       0.40625000000000000        0.0000000000000000     
  0.93750000000000000       0.40625000000000000        0.0000000000000000     
  0.96875000000000000       0.40625000000000000        0.0000000000000000     
   1.0000000000000000       0.40625000000000000        0.0000000000000000     
  0.87500000000000000       0.43750000000000000        0.0000000000000000     
  0.90625000000000000       0.43750000000000000        0.0000000000000000     
  0.93750000000000000       0.43750000000000000        0.0000000000000000     
  0.96875000000000000       0.43750000000000000        0.0000000000000000     
   1.0000000000000000       0.43750000000000000        0.0000000000000000     
  0.87500000000000000       0.46875000000000000        0.0000000000000000     
  0.90625000000000000       0.46875000000000000        0.0000000000000000     
  0.93750000000000000       0.46875000000000000        0.0000000000000000     
  0.96875000000000000       0.46875000000000000        0.0000000000000000     
   1.0000000000000000       0.46875000000000000        0.0000000000000000     
  0.87500000000000000       0.50000000000000000        0.0000000000000000     
  0.90625000000000000       0.50000000000000000        0.0000000000000000     
  0.93750000000000000       0.50000000000000000        0.0000000000000000     
  0.96875000000000000       0.50000000000000000        0.0000000000000000     
   1.0000000000000000       0.50000000000000000        0.0000000000000000     
   0.0000000000000000       0.50000000000000000        0.0000000000000000     
   3.1250000000000000E-002  0.50000000000000000        0.0000000000000000     
   6.2500000000000000E-002  0.50000000000000000        0.0000000000000000     
   9.3750000000000000E-002  0.50000000000000000        0.0000000000000000     
  0.12500000000000000       0.50000000000000000        0.0000000000000000     
   0.0000000000000000       0.53125000000000000        0.0000000000000000     
   3.1250000000000000E-002  0.53125000000000000        0.0000000000000000     
   6.2500000000000000E-002  0.53125000000000000        0.0000000000000000     
   9.3750000000000000E-002  0.53125000000000000        0.0000000000000000     
  0.12500000000000000       0.53125000000000000        0.0000000000000000     
   0.0000000000000000       0.56250000000000000        0.0000000000000000     
   3.1250000000000000E-002  0.56250000000000000        0.0000000000000000     
   6.2500000000000000E-002  0.56250000000000000        0.0000000000000000     
   9.3750000000000000E-002  0.56250000000000000        0.0000000000000000     
  0.12500000000000000       0.56250000000000000        0.0000000000000000     
   0.0000000000000000       0.59375000000000000        0.0000000000000000     
   3.1250000000000000E-002  0.59375000000000000        0.0000000000000000     
   6.2500000000000000E-002  0.59375000000000000        0.0000000000000000     
   9.3750000000000000E-002  0.59375000000000000        0.0000000000000000     
  0.12500000000000000       0.59375000000000000        0.0000000000000000     
   0.0000000000000000       0.62500000000000000        0.0000000000000000     
   3.1250000000000000E-002  0.62500000000000000        0.0000000000000000     
   6.2500000000000000E-002  0.62500000000000000        0.0000000000000000     
   9.3750000000000000E-002  0.62500000000000000        0.0000000000000000     
  0.12500000000000000       0.62500000000000000        0.0000000000000000     
  0.12500000000000000       0.50000000000000000        0.0000000000000000     
  0.15625000000000000       0.50000000000000000        0.0000000000000000     
  0.18750000000000000       0.50000000000000000        0.0000000000000000     
  0.21875000000000000       0.50000000000000000        0.0000000000000000     
  0.25000000000000000       0.50000000000000000        0.0000000000000000     
  0.12500000000000000       0.53125000000000000        0.0000000000000000     
  0.15625000000000000       0.53125000000000000        0.0000000000000000     
  0.18750000000000000       0.53125000000000000        0.0000000000000000     
  0.21875000000000000       0.53125000000000000        0.0000000000000000     
  0.25000000000000000       0.53125000000000000        0.0000000000000000     
  0.12500000000000000       0.56250000000000000        0.0000000000000000     
  0.15625000000000000       0.56250000000000000        0.0000000000000000     
  0.18750000000000000       0.56250000000000000        0.0000000000000000     
  0.21875000000000000       0.56250000000000000        0.0000000000000000     
  0.25000000000000000       0.56250000000000000        0.0000000000000000     
  0.12500000000000000       0.59375000000000000        0.0000000000000000     
  0.15625000000000000       0.59375000000000000        0.0000000000000000     
  0.18750000000000000       0.59375000000000000        0.0000000000000000     
  0.21875000000000000       0.59375000000000000        0.0000000000000000     
  0.25000000000000000       0.59375000000000000        0.0000000000000000     
  0.12500000000000000       0.62500000000000000        0.0000000000000000     
  0.15625000000000000       0.62500000000000000        0.0000000000000000     
  0.18750000000000000       0.62500000000000000        0.0000000000000000     
  0.21875000000000000       0.62500000000000000        0.0000000000000000     
  0.25000000000000000       0.62500000000000000        0.0000000000000000     
  0.25000000000000000       0.50000000000000000        0.0000000000000000     
  0.28125000000000000       0.50000000000000000        0.0000000000000000     
  0.31250000000000000       0.50000000000000000        0.0000000000000000     
  0.34375000000000000       0.50000000000000000        0.0000000000000000     
  0.37500000000000000       0.50000000000000000        0.0000000000000000     
  0.25000000000000000       0.53125000000000000        0.0000000000000000     
  0.28125000000000000       0.53125000000000000        0.0000000000000000     
  0.31250000000000000       0.53125000000000000        0.0000000000000000     
  0.34375000000000000       0.53125000000000000        0.0000000000000000     
  0.37500000000000000       0.53125000000000000        0.0000000000000000     
  0.25000000000000000       0.56250000000000000        0.0000000000000000     
  0.28125000000000000       0.56250000000000000        0.0000000000000000     
  0.31250000000000000       0.56250000000000000        0.0000000000000000     
  0.34375000000000000       0.56250000000000000        0.0000000000000000     
  0.37500000000000000       0.56250000000000000        0.0000000000000000     
  0.25000000000000000       0.59375000000000000        0.0000000000000000     
  0.28125000000000000       0.59375000000000000        0.0000000000000000     
  0.31250000000000000       0.59375000000000000        0.0000000000000000     
  0.34375000000000000       0.59375000000000000        0.0000000000000000     
  0.37500000000000000       0.59375000000000000        0.0000000000000000     
  0.25000000000000000       0.62500000000000000        0.0000000000000000     
  0.28125000000000000       0.62500000000000000        0.0000000000000000     
  0.31250000000000000       0.62500000000000000        0.0000000000000000     
  0.34375000000000000       0.62500000000000000        0.0000000000000000     
  0.37500000000000000       0.62500000000000000        0.0000000000000000     
  0.37500000000000000       0.50000000000000000        0.0000000000000000     
  0.40625000000000000       0.50000000000000000        0.0000000000000000     
  0.43750000000000000       0.50000000000000000        0.0000000000000000     
  0.46875000000000000       0.50000000000000000        0.0000000000000000     
  0.50000000000000000       0.50000000000000000        0.0000000000000000     
  0.37500000000000000       0.53125000000000000        0.0000000000000000     
  0.40625000000000000       0.53125000000000000        0.0000000000000000     
  0.43750000000000000       0.53125000000000000        0.0000000000000000     
  0.46875000000000000       0.53125000000000000        0.0000000000000000     
  0.50000000000000000       0.53125000000000000        0.0000000000000000     
  0.37500000000000000       0.56250000000000000        0.0000000000000000     
  0.40625000000000000       0.56250000000000000        0.0000000000000000     
  0.43750000000000000       0.56250000000000000        0.0000000000000000     
  0.46875000000000000       0.56250000000000000        0.0000000000000000     
  0.50000000000000000       0.56250000000000000        0.0000000000000000     
  0.37500000000000000       0.59375000000000000        0.0000000000000000     
  0.40625000000000000       0.59375000000000000        0.0000000000000000     
  0.43750000000000000       0.59375000000000000        0.0000000000000000     
  0.46875000000000000       0.59375000000000000        0.0000000000000000     
  0.50000000000000000       0.59375000000000000        0.0000000000000000     
  0.37500000000000000       0.62500000000000000        0.0000000000000000     
  0.40625000000000000       0.62500000000000000        0.0000000000000000     
  0.43750000000000000       0.62500000000000000        0.0000000000000000     
  0.46875000000000000       0.62500000000000000        0.0000000000000000     
  0.50000000000000000       0.62500000000000000        0.0000000000000000     
  0.50000000000000000       0.50000000000000000        0.0000000000000000     
  0.53125000000000000       0.50000000000000000        0.0000000000000000     
  0.56250000000000000       0.50000000000000000        0.0000000000000000     
  0.59375000000000000       0.50000000000000000        0.0000000000000000     
  0.62500000000000000       0.50000000000000000        0.0000000000000000     
  0.50000000000000000       0.53125000000000000        0.0000000000000000     
  0.53125000000000000       0.53125000000000000        0.0000000000000000     
  0.56250000000000000       0.53125000000000000        0.0000000000000000     
  0.59375000000000000       0.53125000000000000        0.0000000000000000     
  0.62500000000000000       0.53125000000000000        0.0000000000000000     
  0.50000000000000000       0.56250000000000000        0.0000000000000000     
  0.53125000000000000       0.56250000000000000        0.0000000000000000     
  0.56250000000000000       0.56250000000000000        0.0000000000000000     
  0.59375000000000000       0.56250000000000000        0.0000000000000000     
  0.62500000000000000       0.56250000000000000        0.0000000000000000     
  0.50000000000000000       0.59375000000000000        0.0000000000000000     
  0.53125000000000000       0.59375000000000000        0.0000000000000000     
  0.56250000000000000       0.59375000000000000        0.0000000000000000     
  0.59375000000000000       0.59375000000000000        0.0000000000000000     
  0.62500000000000000       0.59375000000000000        0.0000000000000000     
  0.50000000000000000       0.62500000000000000        0.0000000000000000     
  0.53125000000000000       0.62500000000000000        0.0000000000000000     
  0.56250000000000000       0.62500000000000000        0.0000000000000000     
  0.59375000000000000       0.62500000000000000        0.0000000000000000     
  0.62500000000000000       0.62500000000000000        0.0000000000000000     
  0.62500000000000000       0.50000000000000000        0.0000000000000000     
  0.65625000000000000       0.50000000000000000        0.0000000000000000     
  0.68750000000000000       0.50000000000000000        0.0000000000000000     
  0.71875000000000000       0.50000000000000000        0.0000000000000000     
  0.75000000000000000       0.50000000000000000        0.0000000000000000     
  0.62500000000000000       0.53125000000000000        0.0000000000000000     
  0.65625000000000000       0.53125000000000000        0.0000000000000000     
  0.68750000000000000       0.53125000000000000        0.0000000000000000     
  0.71875000000000000       0.53125000000000000        0.0000000000000000     
  0.75000000000000000       0.53125000000000000        0.0000000000000000     
  0.62500000000000000       0.56250000000000000        0.0000000000000000     
  0.65625000000000000       0.56250000000000000        0.0000000000000000     
  0.68750000000000000       0.56250000000000000        0.0000000000000000     
  0.71875000000000000       0.56250000000000000        0.0000000000000000     
  0.75000000000000000       0.56250000000000000        0.0000000000000000     
  0.62500000000000000       0.59375000000000000        0.0000000000000000     
  0.65625000000000000       0.59375000000000000        0.0000000000000000     
  0.68750000000000000       0.59375000000000000        0.0000000000000000     
  0.71875000000000000       0.59375000000000000        0.0000000000000000     
  0.75000000000000000       0.59375000000000000        0.0000000000000000     
  0.62500000000000000       0.62500000000000000        0.0000000000000000     
  0.65625000000000000       0.62500000000000000        0.0000000000000000     
  0.68750000000000000       0.62500000000000000        0.0000000000000000     
  0.71875000000000000       0.62500000000000000        0.0000000000000000     
  0.75000000000000000       0.62500000000000000        0.0000000000000000     
  0.75000000000000000       0.50000000000000000        0.0000000000000000     
  0.78125000000000000       0.50000000000000000        0.0000000000000000     
  0.81250000000000000       0.50000000000000000        0.0000000000000000     
  0.84375000000000000       0.50000000000000000        0.0000000000000000     
  0.87500000000000000       0.50000000000000000        0.0000000000000000     
  0.75000000000000000       0.53125000000000000        0.0000000000000000     
  0.78125000000000000       0.53125000000000000        0.0000000000000000     
  0.81250000000000000       0.53125000000000000        0.0000000000000000     
  0.84375000000000000       0.53125000000000000        0.0000000000000000     
  0.87500000000000000       0.53125000000000000        0.0000000000000000     
  0.75000000000000000       0.56250000000000000        0.0000000000000000     
  0.78125000000000000       0.56250000000000000        0.0000000000000000     
  0.81250000000000000       0.56250000000000000        0.0000000000000000     
  0.84375000000000000       0.56250000000000000        0.0000000000000000     
  0.87500000000000000       0.56250000000000000        0.0000000000000000     
  0.75000000000000000       0.59375000000000000        0.0000000000000000     
  0.78125000000000000       0.59375000000000000        0.0000000000000000     
  0.81250000000000000       0.59375000000000000        0.0000000000000000     
  0.84375000000000000       0.59375000000000000        0.0000000000000000     
  0.87500000000000000       0.59375000000000000        0.0000000000000000     
  0.75000000000000000       0.62500000000000000        0.0000000000000000     
  0.78125000000000000       0.62500000000000000        0.0000000000000000     
  0.81250000000000000       0.62500000000000000        0.0000000000000000     
  0.84375000000000000       0.62500000000000000        0.0000000000000000     
  0.87500000000000000       0.62500000000000000        0.0000000000000000     
  0.87500000000000000       0.50000000000000000        0.0000000000000000     
  0.90625000000000000       0.50000000000000000        0.0000000000000000     
  0.93750000000000000       0.50000000000000000        0.0000000000000000     
  0.96875000000000000       0.50000000000000000        0.0000000000000000     
   1.0000000000000000       0.50000000000000000        0.0000000000000000     
  0.87500000000000000       0.53125000000000000        0.0000000000000000     
  0.90625000000000000       0.53125000000000000        0.0000000000000000     
  0.93750000000000000       0.53125000000000000        0.0000000000000000     
  0.96875000000000000       0.53125000000000000        0.0000000000000000     
   1.0000000000000000       0.53125000000000000        0.0000000000000000     
  0.87500000000000000       0.56250000000000000        0.0000000000000000     
  0.90625000000000000       0.56250000000000000        0.0000000000000000     
  0.93750000000000000       0.56250000000000000        0.0000000000000000     
  0.96875000000000000       0.56250000000000000        0.0000000000000000     
   1.0000000000000000       0.56250000000000000        0.0000000000000000     
  0.87500000000000000       0.59375000000000000        0.0000000000000000     
  0.90625000000000000       0.59375000000000000        0.0000000000000000     
  0.93750000000000000       0.59375000000000000        0.0000000000000000     
  0.96875000000000000       0.59375000000000000        0.0000000000000000     
   1.0000000000000000       0.59375000000000000        0.0000000000000000     
  0.87500000000000000       0.62500000000000000        0.0000000000000000     
  0.90625000000000000       0.62500000000000000        0.0000000000000000     
  0.93750000000000000       0.62500000000000000        0.0000000000000000     
  0.96875000000000000       0.62500000000000000        0.0000000000000000     
   1.0000000000000000       0.62500000000000000        0.0000000000000000     
   0.0000000000000000       0.62500000000000000        0.0000000000000000     
   3.1250000000000000E-002  0.62500000000000000        0.0000000000000000     
   6.2500000000000000E-002  0.62500000000000000        0.0000000000000000     
   9.3750000000000000E-002  0.62500000000000000        0.0000000000000000     
  0.12500000000000000       0.62500000000000000        0.0000000000000000     
   0.0000000000000000       0.65625000000000000        0.0000000000000000     
   3.1250000000000000E-002  0.65625000000000000        0.0000000000000000     
   6.2500000000000000E-002  0.65625000000000000        0.0000000000000000     
   9.3750000000000000E-002  0.65625000000000000        0.0000000000000000     
  0.12500000000000000       0.65625000000000000        0.0000000000000000     
   0.0000000000000000       0.68750000000000000        0.0000000000000000     
   3.1250000000000000E-002  0.68750000000000000        0.0000000000000000     
   6.2500000000000000E-002  0.68750000000000000        0.0000000000000000     
   9.3750000000000000E-002  0.68750000000000000        0.0000000000000000     
  0.12500000000000000       0.68750000000000000        0.0000000000000000     
   0.0000000000000000       0.71875000000000000        0.0000000000000000     
   3.1250000000000000E-002  0.71875000000000000        0.0000000000000000     
   6.2500000000000000E-002  0.71875000000000000        0.0000000000000000     
   9.3750000000000000E-002  0.71875000000000000        0.0000000000000000     
  0.12500000000000000       0.71875000000000000        0.0000000000000000     
   0.0000000000000000       0.75000000000000000        0.0000000000000000     
   3.1250000000000000E-002  0.75000000000000000        0.0000000000000000     
   6.2500000000000000E-002  0.75000000000000000        0.0000000000000000     
   9.3750000000000000E-002  0.75000000000000000        0.0000000000000000     
  0.12500000000000000       0.75000000000000000        0.0000000000000000     
  0.12500000000000000       0.62500000000000000        0.0000000000000000     
  0.15625000000000000       0.62500000000000000        0.0000000000000000     
  0.18750000000000000       0.62500000000000000        0.0000000000000000     
  0.21875000000000000       0.62500000000000000        0.0000000000000000     
  0.25000000000000000       0.62500000000000000        0.0000000000000000     
  0.12500000000000000       0.65625000000000000        0.0000000000000000     
  0.15625000000000000       0.65625000000000000        0.0000000000000000     
  0.18750000000000000       0.65625000000000000        0.0000000000000000     
  0.21875000000000000       0.65625000000000000        0.0000000000000000     
  0.25000000000000000       0.65625000000000000        0.0000000000000000     
  0.12500000000000000       0.68750000000000000        0.0000000000000000     
  0.15625000000000000       0.68750000000000000        0.0000000000000000     
  0.18750000000000000       0.68750000000000000        0.0000000000000000     
  0.21875000000000000       0.68750000000000000        0.0000000000000000     
  0.25000000000000000       0.68750000000000000        0.0000000000000000     
  0.12500000000000000       0.71875000000000000        0.0000000000000000     
  0.15625000000000000       0.71875000000000000        0.0000000000000000     
  0.18750000000000000       0.71875000000000000        0.0000000000000000     
  0.21875000000000000       0.71875000000000000        0.0000000000000000     
  0.25000000000000000       0.71875000000000000        0.0000000000000000     
  0.12500000000000000       0.75000000000000000        0.0000000000000000     
  0.15625000000000000       0.75000000000000000        0.0000000000000000     
  0.18750000000000000       0.75000000000000000        0.0000000000000000     
  0.21875000000000000       0.75000000000000000        0.0000000000000000     
  0.25000000000000000       0.75000000000000000        0.0000000000000000     
  0.25000000000000000       0.62500000000000000        0.0000000000000000     
  0.28125000000000000       0.62500000000000000        0.0000000000000000     
  0.31250000000000000       0.62500000000000000        0.0000000000000000     
  0.34375000000000000       0.62500000000000000        0.0000000000000000     
  0.37500000000000000       0.62500000000000000        0.0000000000000000     
  0.25000000000000000       0.65625000000000000        0.0000000000000000     
  0.28125000000000000       0.65625000000000000        0.0000000000000000     
  0.31250000000000000       0.65625000000000000        0.0000000000000000     
  0.34375000000000000       0.65625000000000000        0.0000000000000000     
  0.37500000000000000       0.65625000000000000        0.0000000000000000     
  0.25000000000000000       0.68750000000000000        0.0000000000000000     
  0.28125000000000000       0.68750000000000000        0.0000000000000000     
  0.31250000000000000       0.68750000000000000        0.0000000000000000     
  0.34375000000000000       0.68750000000000000        0.0000000000000000     
  0.37500000000000000       0.68750000000000000        0.0000000000000000     
  0.25000000000000000       0.71875000000000000        0.0000000000000000     
  0.28125000000000000       0.71875000000000000        0.0000000000000000     
  0.31250000000000000       0.71875000000000000        0.0000000000000000     
  0.34375000000000000       0.71875000000000000        0.0000000000000000     
  0.37500000000000000       0.71875000000000000        0.0000000000000000     
  0.25000000000000000       0.75000000000000000        0.0000000000000000     
  0.28125000000000000       0.75000000000000000        0.0000000000000000     
  0.31250000000000000       0.75000000000000000        0.0000000000000000     
  0.34375000000000000       0.75000000000000000        0.0000000000000000     
  0.37500000000000000       0.75000000000000000        0.0000000000000000     
  0.37500000000000000       0.62500000000000000        0.0000000000000000     
  0.40625000000000000       0.62500000000000000        0.0000000000000000     
  0.43750000000000000       0.62500000000000000        0.0000000000000000     
  0.46875000000000000       0.62500000000000000        0.0000000000000000     
  0.50000000000000000       0.62500000000000000        0.0000000000000000     
  0.37500000000000000       0.65625000000000000        0.0000000000000000     
  0.40625000000000000       0.65625000000000000        0.0000000000000000     
  0.43750000000000000       0.65625000000000000        0.0000000000000000     
  0.46875000000000000       0.65625000000000000        0.0000000000000000     
  0.50000000000000000       0.65625000000000000        0.0000000000000000     
  0.37500000000000000       0.68750000000000000        0.0000000000000000     
  0.40625000000000000       0.68750000000000000        0.0000000000000000     
  0.43750000000000000       0.68750000000000000        0.0000000000000000     
  0.46875000000000000       0.68750000000000000        0.0000000000000000     
  0.50000000000000000       0.68750000000000000        0.0000000000000000     
  0.37500000000000000       0.71875000000000000        0.0000000000000000     
  0.40625000000000000       0.71875000000000000        0.0000000000000000     
  0.43750000000000000       0.71875000000000000        0.0000000000000000     
  0.46875000000000000       0.71875000000000000        0.0000000000000000     
  0.50000000000000000       0.71875000000000000        0.0000000000000000     
  0.37500000000000000       0.75000000000000000        0.0000000000000000     
  0.40625000000000000       0.75000000000000000        0.0000000000000000     
  0.43750000000000000       0.75000000000000000        0.0000000000000000     
  0.46875000000000000       0.75000000000000000        0.0000000000000000     
  0.50000000000000000       0.75000000000000000        0.0000000000000000     
  0.50000000000000000       0.62500000000000000        0.0000000000000000     
  0.53125000000000000       0.62500000000000000        0.0000000000000000     
  0.56250000000000000       0.62500000000000000        0.0000000000000000     
  0.59375000000000000       0.62500000000000000        0.0000000000000000     
  0.62500000000000000       0.62500000000000000        0.0000000000000000     
  0.50000000000000000       0.65625000000000000        0.0000000000000000     
  0.53125000000000000       0.65625000000000000        0.0000000000000000     
  0.56250000000000000       0.65625000000000000        0.0000000000000000     
  0.59375000000000000       0.65625000000000000        0.0000000000000000     
  0.62500000000000000       0.65625000000000000        0.0000000000000000     
  0.50000000000000000       0.68750000000000000        0.0000000000000000     
  0.53125000000000000       0.68750000000000000        0.0000000000000000     
  0.56250000000000000       0.68750000000000000        0.0000000000000000     
  0.59375000000000000       0.68750000000000000        0.0000000000000000     
  0.62500000000000000       0.68750000000000000        0.0000000000000000     
  0.50000000000000000       0.71875000000000000        0.0000000000000000     
  0.53125000000000000       0.71875000000000000        0.0000000000000000     
  0.56250000000000000       0.71875000000000000        0.0000000000000000     
  0.59375000000000000       0.71875000000000000        0.0000000000000000     
  0.62500000000000000       0.71875000000000000        0.0000000000000000     
  0.50000000000000000       0.75000000000000000        0.0000000000000000     
  0.53125000000000000       0.75000000000000000        0.0000000000000000     
  0.56250000000000000       0.75000000000000000        0.0000000000000000     
  0.59375000000000000       0.75000000000000000        0.0000000000000000     
  0.62500000000000000       0.75000000000000000        0.0000000000000000     
  0.62500000000000000       0.62500000000000000        0.0000000000000000     
  0.65625000000000000       0.62500000000000000        0.0000000000000000     
  0.68750000000000000       0.62500000000000000        0.0000000000000000     
  0.71875000000000000       0.62500000000000000        0.0000000000000000     
  0.75000000000000000       0.62500000000000000        0.0000000000000000     
  0.62500000000000000       0.65625000000000000        0.0000000000000000     
  0.65625000000000000       0.65625000000000000        0.0000000000000000     
  0.68750000000000000       0.65625000000000000        0.0000000000000000     
  0.71875000000000000       0.65625000000000000        0.0000000000000000     
  0.75000000000000000       0.65625000000000000        0.0000000000000000     
  0.62500000000000000       0.68750000000000000        0.0000000000000000     
  0.65625000000000000       0.68750000000000000        0.0000000000000000     
  0.68750000000000000       0.68750000000000000        0.0000000000000000     
  0.71875000000000000       0.68750000000000000        0.0000000000000000     
  0.75000000000000000       0.68750000000000000        0.0000000000000000     
  0.62500000000000000       0.71875000000000000        0.0000000000000000     
  0.65625000000000000       0.71875000000000000        0.0000000000000000     
  0.68750000000000000       0.71875000000000000        0.0000000000000000     
  0.71875000000000000       0.71875000000000000        0.0000000000000000     
  0.75000000000000000       0.71875000000000000        0.0000000000000000     
  0.62500000000000000       0.75000000000000000        0.0000000000000000     
  0.65625000000000000       0.75000000000000000        0.0000000000000000     
  0.68750000000000000       0.75000000000000000        0.0000000000000000     
  0.71875000000000000       0.75000000000000000        0.0000000000000000     
  0.75000000000000000       0.75000000000000000        0.0000000000000000     
  0.75000000000000000       0.62500000000000000        0.0000000000000000     
  0.78125000000000000       0.62500000000000000        0.0000000000000000     
  0.81250000000000000       0.62500000000000000        0.0000000000000000     
  0.84375000000000000       0.62500000000000000        0.0000000000000000     
  0.87500000000000000       0.62500000000000000        0.0000000000000000     
  0.75000000000000000       0.65625000000000000        0.0000000000000000     
  0.78125000000000000       0.65625000000000000        0.0000000000000000     
  0.81250000000000000       0.65625000000000000        0.0000000000000000     
  0.84375000000000000       0.65625000000000000        0.0000000000000000     
  0.87500000000000000       0.65625000000000000        0.0000000000000000     
  0.75000000000000000       0.68750000000000000        0.0000000000000000     
  0.78125000000000000       0.68750000000000000        0.0000000000000000     
  0.81250000000000000       0.68750000000000000        0.0000000000000000     
  0.84375000000000000       0.68750000000000000        0.0000000000000000     
  0.87500000000000000       0.68750000000000000        0.0000000000000000     
  0.75000000000000000       0.71875000000000000        0.0000000000000000     
  0.78125000000000000       0.71875000000000000        0.0000000000000000     
  0.81250000000000000       0.71875000000000000        0.0000000000000000     
  0.84375000000000000       0.71875000000000000        0.0000000000000000     
  0.87500000000000000       0.71875000000000000        0.0000000000000000     
  0.75000000000000000       0.75000000000000000        0.0000000000000000     
  0.78125000000000000       0.75000000000000000        0.0000000000000000     
  0.81250000000000000       0.75000000000000000        0.0000000000000000     
  0.84375000000000000       0.75000000000000000        0.0000000000000000     
  0.87500000000000000       0.75000000000000000        0.0000000000000000     
  0.87500000000000000       0.62500000000000000        0.0000000000000000     
  0.90625000000000000       0.62500000000000000        0.0000000000000000     
  0.93750000000000000       0.62500000000000000        0.0000000000000000     
  0.96875000000000000       0.62500000000000000        0.0000000000000000     
   1.0000000000000000       0.62500000000000000        0.0000000000000000     
  0.87500000000000000       0.65625000000000000        0.0000000000000000     
  0.90625000000000000       0.65625000000000000        0.0000000000000000     
  0.93750000000000000       0.65625000000000000        0.0000000000000000     
  0.96875000000000000       0.65625000000000000        0.0000000000000000     
   1.0000000000000000       0.65625000000000000        0.0000000000000000     
  0.87500000000000000       0.68750000000000000        0.0000000000000000     
  0.90625000000000000       0.68750000000000000        0.0000000000000000     
  0.93750000000000000       0.68750000000000000        0.0000000000000000     
  0.96875000000000000       0.68750000000000000        0.0000000000000000     
   1.0000000000000000       0.68750000000000000        0.0000000000000000     
  0.87500000000000000       0.71875000000000000        0.0000000000000000     
  0.90625000000000000       0.71875000000000000        0.0000000000000000     
  0.93750000000000000       0.71875000000000000        0.0000000000000000     
  0.96875000000000000       0.71875000000000000        0.0000000000000000     
   1.0000000000000000       0.71875000000000000        0.0000000000000000     
  0.87500000000000000       0.75000000000000000        0.0000000000000000     
  0.90625000000000000       0.75000000000000000        0.0000000000000000     
  0.93750000000000000       0.75000000000000000        0.0000000000000000     
  0.96875000000000000       0.75000000000000000        0.0000000000000000     
   1.0000000000000000       0.75000000000000000        0.0000000000000000     
   0.0000000000000000       0.75000000000000000        0.0000000000000000     
   3.1250000000000000E-002  0.75000000000000000        0.0000000000000000     
   6.2500000000000000E-002  0.75000000000000000        0.0000000000000000     
   9.3750000000000000E-002  0.75000000000000000        0.0000000000000000     
  0.12500000000000000       0.75000000000000000        0.0000000000000000     
   0.0000000000000000       0.78125000000000000        0.0000000000000000     
   3.1250000000000000E-002  0.78125000000000000        0.0000000000000000     
   6.2500000000000000E-002  0.78125000000000000        0.0000000000000000     
   9.3750000000000000E-002  0.78125000000000000        0.0000000000000000     
  0.12500000000000000       0.78125000000000000        0.0000000000000000     
   0.0000000000000000       0.81250000000000000        0.0000000000000000     
   3.1250000000000000E-002  0.81250000000000000        0.0000000000000000     
   6.2500000000000000E-002  0.81250000000000000        0.0000000000000000     
   9.3750000000000000E-002  0.81250000000000000        0.0000000000000000     
  0.12500000000000000       0.81250000000000000        0.0000000000000000     
   0.0000000000000000       0.84375000000000000        0.0000000000000000     
   3.1250000000000000E-002  0.84375000000000000        0.0000000000000000     
   6.2500000000000000E-002  0.84375000000000000        0.0000000000000000     
   9.3750000000000000E-002  0.84375000000000000        0.0000000000000000     
  0.12500000000000000       0.84375000000000000        0.0000000000000000     
   0.0000000000000000       0.87500000000000000        0.0000000000000000     
   3.1250000000000000E-002  0.87500000000000000        0.0000000000000000     
   6.2500000000000000E-002  0.87500000000000000        0.0000000000000000     
   9.3750000000000000E-002  0.87500000000000000        0.0000000000000000     
  0.12500000000000000       0.87500000000000000        0.0000000000000000     
  0.12500000000000000       0.75000000000000000        0.0000000000000000     
  0.15625000000000000       0.75000000000000000        0.0000000000000000     
  0.18750000000000000       0.75000000000000000        0.0000000000000000     
  0.21875000000000000       0.75000000000000000        0.0000000000000000     
  0.25000000000000000       0.75000000000000000        0.0000000000000000     
  0.12500000000000000       0.78125000000000000        0.0000000000000000     
  0.15625000000000000       0.78125000000000000        0.0000000000000000     
  0.18750000000000000       0.78125000000000000        0.0000000000000000     
  0.21875000000000000       0.78125000000000000        0.0000000000000000     
  0.25000000000000000       0.78125000000000000        0.0000000000000000     
  0.12500000000000000       0.81250000000000000        0.0000000000000000     
  0.15625000000000000       0.81250000000000000        0.0000000000000000     
  0.18750000000000000       0.81250000000000000        0.0000000000000000     
  0.21875000000000000       0.81250000000000000        0.0000000000000000     
  0.25000000000000000       0.81250000000000000        0.0000000000000000     
  0.12500000000000000       0.84375000000000000        0.0000000000000000     
  0.15625000000000000       0.84375000000000000        0.0000000000000000     
  0.18750000000000000       0.84375000000000000        0.0000000000000000     
  0.21875000000000000       0.84375000000000000        0.0000000000000000     
  0.25000000000000000       0.84375000000000000        0.0000000000000000     
  0.12500000000000000       0.87500000000000000        0.0000000000000000     
  0.15625000000000000       0.87500000000000000        0.0000000000000000     
  0.18750000000000000       0.87500000000000000        0.0000000000000000     
  0.21875000000000000       0.87500000000000000        0.0000000000000000     
  0.25000000000000000       0.87500000000000000        0.0000000000000000     
  0.25000000000000000       0.75000000000000000        0.0000000000000000     
  0.28125000000000000       0.75000000000000000        0.0000000000000000     
  0.31250000000000000       0.75000000000000000        0.0000000000000000     
  0.34375000000000000       0.75000000000000000        0.0000000000000000     
  0.37500000000000000       0.75000000000000000        0.0000000000000000     
  0.25000000000000000       0.78125000000000000        0.0000000000000000     
  0.28125000000000000       0.78125000000000000        0.0000000000000000     
  0.31250000000000000       0.78125000000000000        0.0000000000000000     
  0.34375000000000000       0.78125000000000000        0.0000000000000000     
  0.37500000000000000       0.78125000000000000        0.0000000000000000     
  0.25000000000000000       0.81250000000000000        0.0000000000000000     
  0.28125000000000000       0.81250000000000000        0.0000000000000000     
  0.31250000000000000       0.81250000000000000        0.0000000000000000     
  0.34375000000000000       0.81250000000000000        0.0000000000000000     
  0.37500000000000000       0.81250000000000000        0.0000000000000000     
  0.25000000000000000       0.84375000000000000        0.0000000000000000     
  0.28125000000000000       0.84375000000000000        0.0000000000000000     
  0.31250000000000000       0.84375000000000000        0.0000000000000000     
  0.34375000000000000       0.84375000000000000        0.0000000000000000     
  0.37500000000000000       0.84375000000000000        0.0000000000000000     
  0.25000000000000000       0.87500000000000000        0.0000000000000000     
  0.28125000000000000       0.87500000000000000        0.0000000000000000     
  0.31250000000000000       0.87500000000000000        0.0000000000000000     
  0.34375000000000000       0.87500000000000000        0.0000000000000000     
  0.37500000000000000       0.87500000000000000        0.0000000000000000     
  0.37500000000000000       0.75000000000000000        0.0000000000000000     
  0.40625000000000000       0.75000000000000000        0.0000000000000000     
  0.43750000000000000       0.75000000000000000        0.0000000000000000     
  0.46875000000000000       0.75000000000000000        0.0000000000000000     
  0.50000000000000000       0.75000000000000000        0.0000000000000000     
  0.37500000000000000       0.78125000000000000        0.0000000000000000     
  0.40625000000000000       0.78125000000000000        0.0000000000000000     
  0.43750000000000000       0.78125000000000000        0.0000000000000000     
  0.46875000000000000       0.78125000000000000        0.0000000000000000     
  0.50000000000000000       0.78125000000000000        0.0000000000000000     
  0.37500000000000000       0.81250000000000000        0.0000000000000000     
  0.40625000000000000       0.81250000000000000        0.0000000000000000     
  0.43750000000000000       0.81250000000000000        0.0000000000000000     
  0.46875000000000000       0.81250000000000000        0.0000000000000000     
  0.50000000000000000       0.81250000000000000        0.0000000000000000     
  0.37500000000000000       0.84375000000000000        0.0000000000000000     
  0.40625000000000000       0.84375000000000000        0.0000000000000000     
  0.43750000000000000       0.84375000000000000        0.0000000000000000     
  0.46875000000000000       0.84375000000000000        0.0000000000000000     
  0.50000000000000000       0.84375000000000000        0.0000000000000000     
  0.37500000000000000       0.87500000000000000        0.0000000000000000     
  0.40625000000000000       0.87500000000000000        0.0000000000000000     
  0.43750000000000000       0.87500000000000000        0.0000000000000000     
  0.46875000000000000       0.87500000000000000        0.0000000000000000     
  0.50000000000000000       0.87500000000000000        0.0000000000000000     
  0.50000000000000000       0.75000000000000000        0.0000000000000000     
  0.53125000000000000       0.75000000000000000        0.0000000000000000     
  0.56250000000000000       0.75000000000000000        0.0000000000000000     
  0.59375000000000000       0.75000000000000000        0.0000000000000000     
  0.62500000000000000       0.75000000000000000        0.0000000000000000     
  0.50000000000000000       0.78125000000000000        0.0000000000000000     
  0.53125000000000000       0.78125000000000000        0.0000000000000000     
  0.56250000000000000       0.78125000000000000        0.0000000000000000     
  0.59375000000000000       0.78125000000000000        0.0000000000000000     
  0.62500000000000000       0.78125000000000000        0.0000000000000000     
  0.50000000000000000       0.81250000000000000        0.0000000000000000     
  0.53125000000000000       0.81250000000000000        0.0000000000000000     
  0.56250000000000000       0.81250000000000000        0.0000000000000000     
  0.59375000000000000       0.81250000000000000        0.0000000000000000     
  0.62500000000000000       0.81250000000000000        0.0000000000000000     
  0.50000000000000000       0.84375000000000000        0.0000000000000000     
  0.53125000000000000       0.84375000000000000        0.0000000000000000     
  0.56250000000000000       0.84375000000000000        0.0000000000000000     
  0.59375000000000000       0.84375000000000000        0.0000000000000000     
  0.62500000000000000       0.84375000000000000        0.0000000000000000     
  0.50000000000000000       0.87500000000000000        0.0000000000000000     
  0.53125000000000000       0.87500000000000000        0.0000000000000000     
  0.56250000000000000       0.87500000000000000        0.0000000000000000     
  0.59375000000000000       0.87500000000000000        0.0000000000000000     
  0.62500000000000000       0.87500000000000000        0.0000000000000000     
  0.62500000000000000       0.75000000000000000        0.0000000000000000     
  0.65625000000000000       0.75000000000000000        0.0000000000000000     
  0.68750000000000000       0.75000000000000000        0.0000000000000000     
  0.71875000000000000       0.75000000000000000        0.0000000000000000     
  0.75000000000000000       0.75000000000000000        0.0000000000000000     
  0.62500000000000000       0.78125000000000000        0.0000000000000000     
  0.65625000000000000       0.78125000000000000        0.0000000000000000     
  0.68750000000000000       0.78125000000000000        0.0000000000000000     
  0.71875000000000000       0.78125000000000000        0.0000000000000000     
  0.75000000000000000       0.78125000000000000        0.0000000000000000     
  0.62500000000000000       0.81250000000000000        0.0000000000000000     
  0.65625000000000000       0.81250000000000000        0.0000000000000000     
  0.68750000000000000       0.81250000000000000        0.0000000000000000     
  0.71875000000000000       0.81250000000000000        0.0000000000000000     
  0.75000000000000000       0.81250000000000000        0.0000000000000000     
  0.62500000000000000       0.84375000000000000        0.0000000000000000     
  0.65625000000000000       0.84375000000000000        0.0000000000000000     
  0.68750000000000000       0.84375000000000000        0.0000000000000000     
  0.71875000000000000       0.84375000000000000        0.0000000000000000     
  0.75000000000000000       0.84375000000000000        0.0000000000000000     
  0.62500000000000000       0.87500000000000000        0.0000000000000000     
  0.65625000000000000       0.87500000000000000        0.0000000000000000     
  0.68750000000000000       0.87500000000000000        0.0000000000000000     
  0.71875000000000000       0.87500000000000000        0.0000000000000000     
  0.75000000000000000       0.87500000000000000        0.0000000000000000     
  0.75000000000000000       0.75000000000000000        0.0000000000000000     
  0.78125000000000000       0.75000000000000000        0.0000000000000000     
  0.81250000000000000       0.75000000000000000        0.0000000000000000     
  0.84375000000000000       0.75000000000000000        0.0000000000000000     
  0.87500000000000000       0.75000000000000000        0.0000000000000000     
  0.75000000000000000       0.78125000000000000        0.0000000000000000     
  0.78125000000000000       0.78125000000000000        0.0000000000000000     
  0.81250000000000000       0.78125000000000000        0.0000000000000000     
  0.84375000000000000       0.78125000000000000        0.0000000000000000     
  0.87500000000000000       0.78125000000000000        0.0000000000000000     
  0.75000000000000000       0.81250000000000000        0.0000000000000000     
  0.78125000000000000       0.81250000000000000        0.0000000000000000     
  0.81250000000000000       0.81250000000000000        0.0000000000000000     
  0.84375000000000000       0.81250000000000000        0.0000000000000000     
  0.87500000000000000       0.81250000000000000        0.0000000000000000     
  0.75000000000000000       0.84375000000000000        0.0000000000000000     
  0.78125000000000000       0.84375000000000000        0.0000000000000000     
  0.81250000000000000       0.84375000000000000        0.0000000000000000     
  0.84375000000000000       0.84375000000000000        0.0000000000000000     
  0.87500000000000000       0.84375000000000000        0.0000000000000000     
  0.75000000000000000       0.87500000000000000        0.0000000000000000     
  0.78125000000000000       0.87500000000000000        0.0000000000000000     
  0.81250000000000000       0.87500000000000000        0.0000000000000000     
  0.84375000000000000       0.87500000000000000        0.0000000000000000     
  0.87500000000000000       0.87500000000000000        0.0000000000000000     
  0.87500000000000000       0.75000000000000000        0.0000000000000000     
  0.90625000000000000       0.75000000000000000        0.0000000000000000     
  0.93750000000000000       0.75000000000000000        0.0000000000000000     
  0.96875000000000000       0.75000000000000000        0.0000000000000000     
   1.0000000000000000       0.75000000000000000        0.0000000000000000     
  0.87500000000000000       0.78125000000000000        0.0000000000000000     
  0.90625000000000000       0.78125000000000000        0.0000000000000000     
  0.93750000000000000       0.78125000000000000        0.0000000000000000     
  0.96875000000000000       0.78125000000000000        0.0000000000000000     
   1.0000000000000000       0.78125000000000000        0.0000000000000000     
  0.87500000000000000       0.81250000000000000        0.0000000000000000     
  0.90625000000000000       0.81250000000000000        0.0000000000000000     
  0.93750000000000000       0.81250000000000000        0.0000000000000000     
  0.96875000000000000       0.81250000000000000        0.0000000000000000     
   1.0000000000000000       0.81250000000000000        0.0000000000000000     
  0.87500000000000000       0.84375000000000000        0.0000000000000000     
  0.90625000000000000       0.84375000000000000        0.0000000000000000     
  0.93750000000000000       0.84375000000000000        0.0000000000000000     
  0.96875000000000000       0.84375000000000000        0.0000000000000000     
   1.0000000000000000       0.84375000000000000        0.0000000000000000     
  0.87500000000000000       0.87500000000000000        0.0000000000000000     
  0.90625000000000000       0.87500000000000000        0.0000000000000000     
  0.93750000000000000       0.87500000000000000        0.0000000000000000     
  0.96875000000000000       0.87500000000000000        0.0000000000000000     
   1.0000000000000000       0.87500000000000000        0.0000000000000000     
   0.0000000000000000       0.87500000000000000        0.0000000000000000     
   3.1250000000000000E-002  0.87500000000000000        0.0000000000000000     
   6.2500000000000000E-002  0.87500000000000000        0.0000000000000000     
   9.3750000000000000E-002  0.87500000000000000        0.0000000000000000     
  0.12500000000000000       0.87500000000000000        0.0000000000000000     
   0.0000000000000000       0.90625000000000000        0.0000000000000000     
   3.1250000000000000E-002  0.90625000000000000        0.0000000000000000     
   6.2500000000000000E-002  0.90625000000000000        0.0000000000000000     
   9.3750000000000000E-002  0.90625000000000000        0.0000000000000000     
  0.12500000000000000       0.90625000000000000        0.0000000000000000     
   0.0000000000000000       0.93750000000000000        0.0000000000000000     
   3.1250000000000000E-002  0.93750000000000000        0.0000000000000000     
   6.2500000000000000E-002  0.93750000000000000        0.0000000000000000     
   9.3750000000000000E-002  0.93750000000000000        0.0000000000000000     
  0.12500000000000000       0.93750000000000000        0.0000000000000000     
   0.0000000000000000       0.96875000000000000        0.0000000000000000     
   3.1250000000000000E-002  0.96875000000000000        0.0000000000000000     
   6.2500000000000000E-002  0.96875000000000000        0.0000000000000000     
   9.3750000000000000E-002  0.96875000000000000        0.0000000000000000     
  0.12500000000000000       0.96875000000000000        0.0000000000000000     
   0.0000000000000000        1.0000000000000000        0.0000000000000000     
   3.1250000000000000E-002   1.0000000000000000        0.0000000000000000     
   6.2500000000000000E-002   1.0000000000000000        0.0000000000000000     
   9.3750000000000000E-002   1.0000000000000000        0.0000000000000000     
  0.12500000000000000        1.0000000000000000        0.0000000000000000     
  0.12500000000000000       0.87500000000000000        0.0000000000000000     
  0.15625000000000000       0.87500000000000000        0.0000000000000000     
  0.18750000000000000       0.87500000000000000        0.0000000000000000     
  0.21875000000000000       0.87500000000000000        0.0000000000000000     
  0.25000000000000000       0.87500000000000000        0.0000000000000000     
  0.12500000000000000       0.90625000000000000        0.0000000000000000     
  0.15625000000000000       0.90625000000000000        0.0000000000000000     
  0.18750000000000000       0.90625000000000000        0.0000000000000000     
  0.21875000000000000       0.90625000000000000        0.0000000000000000     
  0.25000000000000000       0.90625000000000000        0.0000000000000000     
  0.12500000000000000       0.93750000000000000        0.0000000000000000     
  0.15625000000000000       0.93750000000000000        0.0000000000000000     
  0.18750000000000000       0.93750000000000000        0.0000000000000000     
  0.21875000000000000       0.93750000000000000        0.0000000000000000     
  0.25000000000000000       0.93750000000000000        0.0000000000000000     
  0.12500000000000000       0.96875000000000000        0.0000000000000000     
  0.15625000000000000       0.96875000000000000        0.0000000000000000     
  0.18750000000000000       0.96875000000000000        0.0000000000000000     
  0.21875000000000000       0.96875000000000000        0.0000000000000000     
  0.25000000000000000       0.96875000000000000        0.0000000000000000     
  0.12500000000000000        1.0000000000000000        0.0000000000000000     
  0.15625000000000000        1.0000000000000000        0.0000000000000000     
  0.18750000000000000        1.0000000000000000        0.0000000000000000     
  0.21875000000000000        1.0000000000000000        0.0000000000000000     
  0.25000000000000000        1.0000000000000000        0.0000000000000000     
  0.25000000000000000       0.87500000000000000        0.0000000000000000     
  0.28125000000000000       0.87500000000000000        0.0000000000000000     
  0.31250000000000000       0.87500000000000000        0.0000000000000000     
  0.34375000000000000       0.87500000000000000        0.0000000000000000     
  0.37500000000000000       0.87500000000000000        0.0000000000000000     
  0.25000000000000000       0.90625000000000000        0.0000000000000000     
  0.28125000000000000       0.90625000000000000        0.0000000000000000     
  0.31250000000000000       0.90625000000000000        0.0000000000000000     
  0.34375000000000000       0.90625000000000000        0.0000000000000000     
  0.37500000000000000       0.90625000000000000        0.0000000000000000     
  0.25000000000000000       0.93750000000000000        0.0000000000000000     
  0.28125000000000000       0.93750000000000000        0.0000000000000000     
  0.31250000000000000       0.93750000000000000        0.0000000000000000     
  0.34375000000000000       0.93750000000000000        0.0000000000000000     
  0.37500000000000000       0.93750000000000000        0.0000000000000000     
  0.25000000000000000       0.96875000000000000        0.0000000000000000     
  0.28125000000000000       0.96875000000000000        0.0000000000000000     
  0.31250000000000000       0.96875000000000000        0.0000000000000000     
  0.34375000000000000       0.96875000000000000        0.0000000000000000     
  0.37500000000000000       0.96875000000000000        0.0000000000000000     
  0.25000000000000000        1.0000000000000000        0.0000000000000000     
  0.28125000000000000        1.0000000000000000        0.0000000000000000     
  0.31250000000000000        1.0000000000000000        0.0000000000000000     
  0.34375000000000000        1.0000000000000000        0.0000000000000000     
  0.37500000000000000        1.0000000000000000        0.0000000000000000     
  0.37500000000000000       0.87500000000000000        0.0000000000000000     
  0.40625000000000000       0.87500000000000000        0.0000000000000000     
  0.43750000000000000       0.87500000000000000        0.0000000000000000     
  0.46875000000000000       0.87500000000000000        0.0000000000000000     
  0.50000000000000000       0.87500000000000000        0.0000000000000000     
  0.37500000000000000       0.90625000000000000        0.0000000000000000     
  0.40625000000000000       0.90625000000000000        0.0000000000000000     
  0.43750000000000000       0.90625000000000000        0.0000000000000000     
  0.46875000000000000       0.90625000000000000        0.0000000000000000     
  0.50000000000000000       0.90625000000000000        0.0000000000000000     
  0.37500000000000000       0.93750000000000000        0.0000000000000000     
  0.40625000000000000       0.93750000000000000        0.0000000000000000     
  0.43750000000000000       0.93750000000000000        0.0000000000000000     
  0.46875000000000000       0.93750000000000000        0.0000000000000000     
  0.50000000000000000       0.93750000000000000        0.0000000000000000     
  0.37500000000000000       0.96875000000000000        0.0000000000000000     
  0.40625000000000000       0.96875000000000000        0.0000000000000000     
  0.43750000000000000       0.96875000000000000        0.0000000000000000     
  0.46875000000000000       0.96875000000000000        0.0000000000000000     
  0.50000000000000000       0.96875000000000000        0.0000000000000000     
  0.37500000000000000        1.0000000000000000        0.0000000000000000     
  0.40625000000000000        1.0000000000000000        0.0000000000000000     
  0.43750000000000000        1.0000000000000000        0.0000000000000000     
  0.46875000000000000        1.0000000000000000        0.0000000000000000     
  0.50000000000000000        1.0000000000000000        0.0000000000000000     
  0.50000000000000000       0.87500000000000000        0.0000000000000000     
  0.53125000000000000       0.87500000000000000        0.0000000000000000     
  0.56250000000000000       0.87500000000000000        0.0000000000000000     
  0.59375000000000000       0.87500000000000000        0.0000000000000000     
  0.62500000000000000       0.87500000000000000        0.0000000000000000     
  0.50000000000000000       0.90625000000000000        0.0000000000000000     
  0.53125000000000000       0.90625000000000000        0.0000000000000000     
  0.56250000000000000       0.90625000000000000        0.0000000000000000     
  0.59375000000000000       0.90625000000000000        0.0000000000000000     
  0.62500000000000000       0.90625000000000000        0.0000000000000000     
  0.50000000000000000       0.93750000000000000        0.0000000000000000     
  0.53125000000000000       0.93750000000000000        0.0000000000000000     
  0.56250000000000000       0.93750000000000000        0.0000000000000000     
  0.59375000000000000       0.93750000000000000        0.0000000000000000     
  0.62500000000000000       0.93750000000000000        0.0000000000000000     
  0.50000000000000000       0.96875000000000000        0.0000000000000000     
  0.53125000000000000       0.96875000000000000        0.0000000000000000     
  0.56250000000000000       0.96875000000000000        0.0000000000000000     
  0.59375000000000000       0.96875000000000000        0.0000000000000000     
  0.62500000000000000       0.96875000000000000        0.0000000000000000     
  0.50000000000000000        1.0000000000000000        0.0000000000000000     
  0.53125000000000000        1.0000000000000000        0.0000000000000000     
  0.56250000000000000        1.0000000000000000        0.0000000000000000     
  0.59375000000000000        1.0000000000000000        0.0000000000000000     
  0.62500000000000000        1.0000000000000000        0.0000000000000000     
  0.62500000000000000       0.87500000000000000        0.0000000000000000     
  0.65625000000000000       0.87500000000000000        0.0000000000000000     
  0.68750000000000000       0.87500000000000000        0.0000000000000000     
  0.71875000000000000       0.87500000000000000        0.0000000000000000     
  0.75000000000000000       0.87500000000000000        0.0000000000000000     
  0.62500000000000000       0.90625000000000000        0.0000000000000000     
  0.65625000000000000       0.90625000000000000        0.0000000000000000     
  0.68750000000000000       0.90625000000000000        0.0000000000000000     
  0.71875000000000000       0.90625000000000000        0.0000000000000000     
  0.75000000000000000       0.90625000000000000        0.0000000000000000     
  0.62500000000000000       0.93750000000000000        0.0000000000000000     
  0.65625000000000000       0.93750000000000000        0.0000000000000000     
  0.68750000000000000       0.93750000000000000        0.0000000000000000     
  0.71875000000000000       0.93750000000000000        0.0000000000000000     
  0.75000000000000000       0.93750000000000000        0.0000000000000000     
  0.62500000000000000       0.96875000000000000        0.0000000000000000     
  0.65625000000000000       0.96875000000000000        0.0000000000000000     
  0.68750000000000000       0.96875000000000000        0.0000000000000000     
  0.71875000000000000       0.96875000000000000        0.0000000000000000     
  0.75000000000000000       0.96875000000000000        0.0000000000000000     
  0.62500000000000000        1.0000000000000000        0.0000000000000000     
  0.65625000000000000        1.0000000000000000        0.0000000000000000     
  0.68750000000000000        1.0000000000000000        0.0000000000000000     
  0.71875000000000000        1.0000000000000000        0.0000000000000000     
  0.75000000000000000        1.0000000000000000        0.0000000000000000     
  0.75000000000000000       0.87500000000000000        0.0000000000000000     
  0.78125000000000000       0.87500000000000000        0.0000000000000000     
  0.81250000000000000       0.87500000000000000        0.0000000000000000     
  0.84375000000000000       0.87500000000000000        0.0000000000000000     
  0.87500000000000000       0.87500000000000000        0.0000000000000000     
  0.75000000000000000       0.90625000000000000        0.0000000000000000     
  0.78125000000000000       0.90625000000000000        0.0000000000000000     
  0.81250000000000000       0.90625000000000000        0.0000000000000000     
  0.84375000000000000       0.90625000000000000        0.0000000000000000     
  0.87500000000000000       0.90625000000000000        0.0000000000000000     
  0.75000000000000000       0.93750000000000000        0.0000000000000000     
  0.78125000000000000       0.93750000000000000        0.0000000000000000     
  0.81250000000000000       0.93750000000000000        0.0000000000000000     
  0.84375000000000000       0.93750000000000000        0.0000000000000000     
  0.87500000000000000       0.93750000000000000        0.0000000000000000     
  0.75000000000000000       0.96875000000000000        0.0000000000000000     
  0.78125000000000000       0.96875000000000000        0.0000000000000000     
  0.81250000000000000       0.96875000000000000        0.0000000000000000     
  0.84375000000000000       0.96875000000000000        0.0000000000000000     
  0.87500000000000000       0.96875000000000000        0.0000000000000000     
  0.75000000000000000        1.0000000000000000        0.0000000000000000     
  0.78125000000000000        1.0000000000000000        0.0000000000000000     
  0.81250000000000000        1.0000000000000000        0.0000000000000000     
  0.84375000000000000        1.0000000000000000        0.0000000000000000     
  0.87500000000000000        1.0000000000000000        0.0000000000000000     
  0.87500000000000000       0.87500000000000000        0.0000000000000000     
  0.90625000000000000       0.87500000000000000        0.0000000000000000     
  0.93750000000000000       0.87500000000000000        0.0000000000000000     
  0.96875000000000000       0.87500000000000000        0.0000000000000000     
   1.0000000000000000       0.87500000000000000        0.0000000000000000     
  0.87500000000000000       0.90625000000000000        0.0000000000000000     
  0.90625000000000000       0.90625000000000000        0.0000000000000000     
  0.93750000000000000       0.90625000000000000        0.0000000000000000     
  0.96875000000000000       0.90625000000000000        0.0000000000000000     
   1.0000000000000000       0.90625000000000000        0.0000000000000000     
  0.87500000000000000       0.93750000000000000        0.0000000000000000     
  0.90625000000000000       0.93750000000000000        0.0000000000000000     
  0.93750000000000000       0.93750000000000000        0.0000000000000000     
  0.96875000000000000       0.93750000000000000        0.0000000000000000     
   1.0000000000000000       0.93750000000000000        0.0000000000000000     
  0.87500000000000000       0.96875000000000000        0.0000000000000000     
  0.90625000000000000       0.96875000000000000        0.0000000000000000     
  0.93750000000000000       0.96875000000000000        0.0000000000000000     
  0.96875000000000000       0.96875000000000000        0.0000000000000000     
   1.0000000000000000       0.96875000000000000        0.0000000000000000     
  0.87500000000000000        1.0000000000000000        0.0000000000000000     
  0.90625000000000000        1.0000000000000000        0.0000000000000000     
  0.93750000000000000        1.0000000000000000        0.0000000000000000     
  0.96875000000000000        1.0000000000000000        0.0000000000000000     
   1.0000000000000000        1.0000000000000000        0.0000000000000000     
 </DataArray>
 </Points>
 <Cells>
 <DataArray  type="Int32"  Name="connectivity"  format="ascii">
           0           1           6           5
           1           2           7           6
           2           3           8           7
           3           4           9           8
           5           6          11          10
           6           7          12          11
           7           8          13          12
           8           9          14          13
          10          11          16          15
          11          12          17          16
          12          13          18          17
          13          14          19          18
          15          16          21          20
          16          17          22          21
          17          18          23          22
          18          19          24          23
          25          26          31          30
          26          27          32          31
          27          28          33          32
          28          29          34          33
          30          31          36          35
          31          32          37          36
          32          33          38          37
          33          34          39          38
          35          36          41          40
          36          37          42          41
          37          38          43          42
          38          39          44          43
          40          41          46          45
          41          42          47          46
          42          43          48          47
          43          44          49          48
          50          51          56          55
          51          52          57          56
          52          53          58          57
          53          54          59          58
          55          56          61          60
          56          57          62          61
          57          58          63          62
          58          59          64          63
          60          61          66          65
          61          62          67          66
          62          63          68          67
          63          64          69          68
          65          66          71          70
          66          67          72          71
          67          68          73          72
          68          69          74          73
          75          76          81          80
          76          77          82          81
          77          78          83          82
          78          79          84          83
          80          81          86          85
          81          82          87          86
          82          83          88          87
          83          84          89          88
          85          86          91          90
          86          87          92          91
          87          88          93          92
          88          89          94          93
          90          91          96          95
          91          92          97          96
          92          93          98          97
          93          94          99          98
         100         101         106         105
         101         102         107         106
         102         103         108         107
         103         104         109         108
         105         106         111         110
         106         107         112         111
         107         108         113         112
         108         109         114         113
         110         111         116         115
         111         112         117         116
         112         113         118         117
         113         114         119         118
         115         116         121         120
         116         117         122         121
         117         118         123         122
         118         119         124         123
         125         126         131         130
         126         127         132         131
         127         128         133         132
         128         129         134         133
         130         131         136         135
         131         132         137         136
         132         133         138         137
         133         134         139         138
         135         136         141         140
         136         137         142         141
         137         138         143         142
         138         139         144         143
         140         141         146         145
         141         142         147         146
         142         143         148         147
         143         144         149         148
         150         151         156         155
         151         152         157         156
         152         153         158         157
         153         154         159         158
         155         156         161         160
         156         157         162         161
         157         158         163         162
         158         159         164         163
         160         161         166         165
         161         162         167         166
         162         163         168         167
         163         164         169         168
         165         166         171         170
         166         167         172         171
         167         168         173         172
         168         169         174         173
         175         176         181         180
         176         177         182         181
         177         178         183         182
         178         179         184         183
         180         181         186         185
         181         182         187         186
         182         183         188         187
         183         184         189         188
         185         186         191         190
         186         187         192         191
         187         188         193         192
         188         189         194         193
         190         191         196         195
         191         192         197         196
         192         193         198         197
         193         194         199         198
         200         201         206         205
         201         202         207         206
         202         203         208         207
         203         204         209         208
         205         206         211         210
         206         207         212         211
         207         208         213         212
         208         209         214         213
         210         211         216         215
         211         212         217         216
         212         213         218         217
         213         214         219         218
         215         216         221         220
         216         217         222         221
         217         218         223         222
         218         219         224         223
         225         226         231         230
         226         227         232         231
         227         228         233         232
         228         229         234         233
         230         231         236         235
         231         232         237         236
         232         233         238         237
         233         234         239         238
         235         236         241         240
         236         237         242         241
         237         238         243         242
         238         239         244         243
         240         241         246         245
         241         242         247         246
         242         243         248         247
         243         244         249         248
         250         251         256         255
         251         252         257         256
         252         253         258         257
         253         254         259         258
         255         256         261         260
         256         257         262         261
         257         258         263         262
         258         259         264         263
         260         261         266         265
         261         262         267         266
         262         263         268         267
         263         264         269         268
         265         266         271         270
         266         267         272         271
         267         268         273         272
         268         269         274         273
         275         276         281         280
         276         277         282         281
         277         278         283         282
         278         279         284         283
         280         281         286         285
         281         282         287         286
         282         283         288         287
         283         284         289         288
         285         286         291         290
         286         287         292         291
         287         288         293         292
         288         289         294         293
         290         291         296         295
         291         292         297         296
         292         293         298         297
         293         294         299         298
         300         301         306         305
         301         302         307         306
         302         303         308         307
         303         304         309         308
         305         306         311         310
         306         307         312         311
         307         308         313         312
         308         309         314         313
         310         311         316         315
         311         312         317         316
         312         313         318         317
         313         314         319         318
         315         316         321         320
         316         317         322         321
         317         318         323         322
         318         319         324         323
         325         326         331         330
         326         327         332         331
         327         328         333         332
         328         329         334         333
         330         331         336         335
         331         332         337         336
         332         333         338         337
         333         334         339         338
         335         336         341         340
         336         337         342         341
         337         338         343         342
         338         339         344         343
         340         341         346         345
         341         342         347         346
         342         343         348         347
         343         344         349         348
         350         351         356         355
         351         352         357         356
         352         353         358         357
         353         354         359         358
         355         356         361         360
         356         357         362         361
         357         358         363         362
         358         359         364         363
         360         361         366         365
         361         362         367         366
         362         363         368         367
         363         364         369         368
         365         366         371         370
         366         367         372         371
         367         368         373         372
         368         369         374         373
         375         376         381         380
         376         377         382         381
         377         378         383         382
         378         379         384         383
         380         381         386         385
         381         382         387         386
         382         383         388         387
         383         384         389         388
         385         386         391         390
         386         387         392         391
         387         388         393         392
         388         389         394         393
         390         391         396         395
         391         392         397         396
         392         393         398         397
         393         394         399         398
         400         401         406         405
         401         402         407         406
         402         403         408         407
         403         404         409         408
         405         406         411         410
         406         407         412         411
         407         408         413         412
         408         409         414         413
         410         411         416         415
         411         412         417         416
         412         413         418         417
         413         414         419         418
         415         416         421         420
         416         417         422         421
         417         418         423         422
         418         419         424         423
         425         426         431         430
         426         427         432         431
         427         428         433         432
         428         429         434         433
         430         431         436         435
         431         432         437         436
         432         433         438         437
         433         434         439         438
         435         436         441         440
         436         437         442         441
         437         438         443         442
         438         439         444         443
         440         441         446         445
         441         442         447         446
         442         443         448         447
         443         444         449         448
         450         451         456         455
         451         452         457         456
         452         453         458         457
         453         454         459         458
         455         456         461         460
         456         457         462         461
         457         458         463         462
         458         459         464         463
         460         461         466         465
         461         462         467         466
         462         463         468         467
         463         464         469         468
         465         466         471         470
         466         467         472         471
         467         468         473         472
         468         469         474         473
         475         476         481         480
         476         477         482         481
         477         478         483         482
         478         479         484         483
         480         481         486         485
         481         482         487         486
         482         483         488         487
         483         484         489         488
         485         486         491         490
         486         487         492         491
         487         488         493         492
         488         489         494         493
         490         491         496         495
         491         492         497         496
         492         493         498         497
         493         494         499         498
         500         501         506         505
         501         502         507         506
         502         503         508         507
         503         504         509         508
         505         506         511         510
         506         507         512         511
         507         508         513         512
         508         509         514         513
         510         511         516         515
         511         512         517         516
         512         513         518         517
         513         514         519         518
         515         516         521         520
         516         517         522         521
         517         518         523         522
         518         519         524         523
         525         526         531         530
         526         527         532         531
         527         528         533         532
         528         529         534         533
         530         531         536         535
         531         532         537         536
         532         533         538         537
         533         534         539         538
         535         536         541         540
         536         537         542         541
         537         538         543         542
         538         539         544         543
         540         541         546         545
         541         542         547         546
         542         543         548         547
         543         544         549         548
         550         551         556         555
         551         552         557         556
         552         553         558         557
         553         554         559         558
         555         556         561         560
         556         557         562         561
         557         558         563         562
         558         559         564         563
         560         561         566         565
         561         562         567         566
         562         563         568         567
         563         564         569         568
         565         566         571         570
         566         567         572         571
         567         568         573         572
         568         569         574         573
         575         576         581         580
         576         577         582         581
         577         578         583         582
         578         579         584         583
         580         581         586         585
         581         582         587         586
         582         583         588         587
         583         584         589         588
         585         586         591         590
         586         587         592         591
         587         588         593         592
         588         589         594         593
         590         591         596         595
         591         592         597         596
         592         593         598         597
         593         594         599         598
         600         601         606         605
         601         602         607         606
         602         603         608         607
         603         604         609         608
         605         606         611         610
         606         607         612         611
         607         608         613         612
         608         609         614         613
         610         611         616         615
         611         612         617         616
         612         613         618         617
         613         614         619         618
         615         616         621         620
         616         617         622         621
         617         618         623         622
         618         619         624         623
         625         626         631         630
         626         627         632         631
         627         628         633         632
         628         629         634         633
         630         631         636         635
         631         632         637         636
         632         633         638         637
         633         634         639         638
         635         636         641         640
         636         637         642         641
         637         638         643         642
         638         639         644         643
         640         641         646         645
         641         642         647         646
         642         643         648         647
         643         644         649         648
         650         651         656         655
         651         652         657         656
         652         653         658         657
         653         654         659         658
         655         656         661         660
         656         657         662         661
         657         658         663         662
         658         659         664         663
         660         661         666         665
         661         662         667         666
         662         663         668         667
         663         664         669         668
         665         666         671         670
         666         667         672         671
         667         668         673         672
         668         669         674         673
         675         676         681         680
         676         677         682         681
         677         678         683         682
         678         679         684         683
         680         681         686         685
         681         682         687         686
         682         683         688         687
         683         684         689         688
         685         686         691         690
         686         687         692         691
         687         688         693         692
         688         689         694         693
         690         691         696         695
         691         692         697         696
         692         693         698         697
         693         694         699         698
         700         701         706         705
         701         702         707         706
         702         703         708         707
         703         704         709         708
         705         706         711         710
         706         707         712         711
         707         708         713         712
         708         709         714         713
         710         711         716         715
         711         712         717         716
         712         713         718         717
         713         714         719         718
         715         716         721         720
         716         717         722         721
         717         718         723         722
         718         719         724         723
         725         726         731         730
         726         727         732         731
         727         728         733         732
         728         729         734         733
         730         731         736         735
         731         732         737         736
         732         733         738         737
         733         734         739         738
         735         736         741         740
         736         737         742         741
         737         738         743         742
         738         739         744         743
         740         741         746         745
         741         742         747         746
         742         743         748         747
         743         744         749         748
         750         751         756         755
         751         752         757         756
         752         753         758         757
         753         754         759         758
         755         756         761         760
         756         757         762         761
         757         758         763         762
         758         759         764         763
         760         761         766         765
         761         762         767         766
         762         763         768         767
         763         764         769         768
         765         766         771         770
         766         767         772         771
         767         768         773         772
         768         769         774         773
         775         776         781         780
         776         777         782         781
         777         778         783         782
         778         779         784         783
         780         781         786         785
         781         782         787         786
         782         783         788         787
         783         784         789         788
         785         786         791         790
         786         787         792         791
         787         788         793         792
         788         789         794         793
         790         791         796         795
         791         792         797         796
         792         793         798         797
         793         794         799         798
         800         801         806         805
         801         802         807         806
         802         803         808         807
         803         804         809         808
         805         806         811         810
         806         807         812         811
         807         808         813         812
         808         809         814         813
         810         811         816         815
         811         812         817         816
         812         813         818         817
         813         814         819         818
         815         816         821         820
         816         817         822         821
         817         818         823         822
         818         819         824         823
         825         826         831         830
         826         827         832         831
         827         828         833         832
         828         829         834         833
         830         831         836         835
         831         832         837         836
         832         833         838         837
         833         834         839         838
         835         836         841         840
         836         837         842         841
         837         838         843         842
         838         839         844         843
         840         841         846         845
         841         842         847         846
         842         843         848         847
         843         844         849         848
         850         851         856         855
         851         852         857         856
         852         853         858         857
         853         854         859         858
         855         856         861         860
         856         857         862         861
         857         858         863         862
         858         859         864         863
         860         861         866         865
         861         862         867         866
         862         863         868         867
         863         864         869         868
         865         866         871         870
         866         867         872         871
         867         868         873         872
         868         869         874         873
         875         876         881         880
         876         877         882         881
         877         878         883         882
         878         879         884         883
         880         881         886         885
         881         882         887         886
         882         883         888         887
         883         884         889         888
         885         886         891         890
         886         887         892         891
         887         888         893         892
         888         889         894         893
         890         891         896         895
         891         892         897         896
         892         893         898         897
         893         894         899         898
         900         901         906         905
         901         902         907         906
         902         903         908         907
         903         904         909         908
         905         906         911         910
         906         907         912         911
         907         908         913         912
         908         909         914         913
         910         911         916         915
         911         912         917         916
         912         913         918         917
         913         914         919         918
         915         916         921         920
         916         917         922         921
         917         918         923         922
         918         919         924         923
         925         926         931         930
         926         927         932         931
         927         928         933         932
         928         929         934         933
         930         931         936         935
         931         932         937         936
         932         933         938         937
         933         934         939         938
         935         936         941         940
         936         937         942         941
         937         938         943         942
         938         939         944         943
         940         941         946         945
         941         942         947         946
         942         943         948         947
         943         944         949         948
         950         951         956         955
         951         952         957         956
         952         953         958         957
         953         954         959         958
         955         956         961         960
         956         957         962         961
         957         958         963         962
         958         959         964         963
         960         961         966         965
         961         962         967         966
         962         963         968         967
         963         964         969         968
         965         966         971         970
         966         967         972         971
         967         968         973         972
         968         969         974         973
         975         976         981         980
         976         977         982         981
         977         978         983         982
         978         979         984         983
         980         981         986         985
         981         982         987         986
         982         983         988         987
         983         984         989         988
         985         986         991         990
         986         987         992         991
         987         988         993         992
         988         989         994         993
         990         991         996         995
         991         992         997         996
         992         993         998         997
         993         994         999         998
        1000        1001        1006        1005
        1001        1002        1007        1006
        1002        1003        1008        1007
        1003        1004        1009        1008
        1005        1006        1011        1010
        1006        1007        1012        1011
        1007        1008        1013        1012
        1008        1009        1014        1013
        1010        1011        1016        1015
        1011        1012        1017        1016
        1012        1013        1018        1017
        1013        1014        1019        1018
        1015        1016        1021        1020
        1016        1017        1022        1021
        1017        1018        1023        1022
        1018        1019        1024        1023
        1025        1026        1031        1030
        1026        1027        1032        1031
        1027        1028        1033        1032
        1028        1029        1034        1033
        1030        1031        1036        1035
        1031        1032        1037        1036
        1032        1033        1038        1037
        1033        1034        1039        1038
        1035        1036        1041        1040
        1036        1037        1042        1041
        1037        1038        1043        1042
        1038        1039        1044        1043
        1040        1041        1046        1045
        1041        1042        1047        1046
        1042        1043        1048        1047
        1043        1044        1049        1048
        1050        1051        1056        1055
        1051        1052        1057        1056
        1052        1053        1058        1057
        1053        1054        1059        1058
        1055        1056        1061        1060
        1056        1057        1062        1061
        1057        1058        1063        1062
        1058        1059        1064        1063
        1060        1061        1066        1065
        1061        1062        1067        1066
        1062        1063        1068        1067
        1063        1064        1069        1068
        1065        1066        1071        1070
        1066        1067        1072        1071
        1067        1068        1073        1072
        1068        1069        1074        1073
        1075        1076        1081        1080
        1076        1077        1082        1081
        1077        1078        1083        1082
        1078        1079        1084        1083
        1080        1081        1086        1085
        1081        1082        1087        1086
        1082        1083        1088        1087
        1083        1084        1089        1088
        1085        1086        1091        1090
        1086        1087        1092        1091
        1087        1088        1093        1092
        1088        1089        1094        1093
        1090        1091        1096        1095
        1091        1092        1097        1096
        1092        1093        1098        1097
        1093        1094        1099        1098
        1100        1101        1106        1105
        1101        1102        1107        1106
        1102        1103        1108        1107
        1103        1104        1109        1108
        1105        1106        1111        1110
        1106        1107        1112        1111
        1107        1108        1113        1112
        1108        1109        1114        1113
        1110        1111        1116        1115
        1111        1112        1117        1116
        1112        1113        1118        1117
        1113        1114        1119        1118
        1115        1116        1121        1120
        1116        1117        1122        1121
        1117        1118        1123        1122
        1118        1119        1124        1123
        1125        1126        1131        1130
        1126        1127        1132        1131
        1127        1128        1133        1132
        1128        1129        1134        1133
        1130        1131        1136        1135
        1131        1132        1137        1136
        1132        1133        1138        1137
        1133        1134        1139        1138
        1135        1136        1141        1140
        1136        1137        1142        1141
        1137        1138        1143        1142
        1138        1139        1144        1143
        1140        1141        1146        1145
        1141        1142        1147        1146
        1142        1143        1148        1147
        1143        1144        1149        1148
        1150        1151        1156        1155
        1151        1152        1157        1156
        1152        1153        1158        1157
        1153        1154        1159        1158
        1155        1156        1161        1160
        1156        1157        1162        1161
        1157        1158        1163        1162
        1158        1159        1164        1163
        1160        1161        1166        1165
        1161        1162        1167        1166
        1162        1163        1168        1167
        1163        1164        1169        1168
        1165        1166        1171        1170
        1166        1167        1172        1171
        1167        1168        1173        1172
        1168        1169        1174        1173
        1175        1176        1181        1180
        1176        1177        1182        1181
        1177        1178        1183        1182
        1178        1179        1184        1183
        1180        1181        1186        1185
        1181        1182        1187        1186
        1182        1183        1188        1187
        1183        1184        1189        1188
        1185        1186        1191        1190
        1186        1187        1192        1191
        1187        1188        1193        1192
        1188        1189        1194        1193
        1190        1191        1196        1195
        1191        1192        1197        1196
        1192        1193        1198        1197
        1193        1194        1199        1198
        1200        1201        1206        1205
        1201        1202        1207        1206
        1202        1203        1208        1207
        1203        1204        1209        1208
        1205        1206        1211        1210
        1206        1207        1212        1211
        1207        1208        1213        1212
        1208        1209        1214        1213
        1210        1211        1216        1215
        1211        1212        1217        1216
        1212        1213        1218        1217
        1213        1214        1219        1218
        1215        1216        1221        1220
        1216        1217        1222        1221
        1217        1218        1223        1222
        1218        1219        1224        1223
        1225        1226        1231        1230
        1226        1227        1232        1231
        1227        1228        1233        1232
        1228        1229        1234        1233
        1230        1231        1236        1235
        1231        1232        1237        1236
        1232        1233        1238        1237
        1233        1234        1239        1238
        1235        1236        1241        1240
        1236        1237        1242        1241
        1237        1238        1243        1242
        1238        1239        1244        1243
        1240        1241        1246        1245
        1241        1242        1247        1246
        1242        1243        1248        1247
        1243        1244        1249        1248
        1250        1251        1256        1255
        1251        1252        1257        1256
        1252        1253        1258        1257
        1253        1254        1259        1258
        1255        1256        1261        1260
        1256        1257        1262        1261
        1257        1258        1263        1262
        1258        1259        1264        1263
        1260        1261        1266        1265
        1261        1262        1267        1266
        1262        1263        1268        1267
        1263        1264        1269        1268
        1265        1266        1271        1270
        1266        1267        1272        1271
        1267        1268        1273        1272
        1268        1269        1274        1273
        1275        1276        1281        1280
        1276        1277        1282        1281
        1277        1278        1283        1282
        1278        1279        1284        1283
        1280        1281        1286        1285
        1281        1282        1287        1286
        1282        1283        1288        1287
        1283        1284        1289        1288
        1285        1286        1291        1290
        1286        1287        1292        1291
        1287        1288        1293        1292
        1288        1289        1294        1293
        1290        1291        1296        1295
        1291        1292        1297        1296
        1292        1293        1298        1297
        1293        1294        1299        1298
        1300        1301        1306        1305
        1301        1302        1307        1306
        1302        1303        1308        1307
        1303        1304        1309        1308
        1305        1306        1311        1310
        1306        1307        1312        1311
        1307        1308        1313        1312
        1308        1309        1314        1313
        1310        1311        1316        1315
        1311        1312        1317        1316
        1312        1313        1318        1317
        1313        1314        1319        1318
        1315        1316        1321        1320
        1316        1317        1322        1321
        1317        1318        1323        1322
        1318        1319        1324        1323
        1325        1326        1331        1330
        1326        1327        1332        1331
        1327        1328        1333        1332
        1328        1329        1334        1333
        1330        1331        1336        1335
        1331        1332        1337        1336
        1332        1333        1338        1337
        1333        1334        1339        1338
        1335        1336        1341        1340
        1336        1337        1342        1341
        1337        1338        1343        1342
        1338        1339        1344        1343
        1340        1341        1346        1345
        1341        1342        1347        1346
        1342        1343        1348        1347
        1343        1344        1349        1348
        1350        1351        1356        1355
        1351        1352        1357        1356
        1352        1353        1358        1357
        1353        1354        1359        1358
        1355        1356        1361        1360
        1356        1357        1362        1361
        1357        1358        1363        1362
        1358        1359        1364        1363
        1360        1361        1366        1365
        1361        1362        1367        1366
        1362        1363        1368        1367
        1363        1364        1369        1368
        1365        1366        1371        1370
        1366        1367        1372        1371
        1367        1368        1373        1372
        1368        1369        1374        1373
        1375        1376        1381        1380
        1376        1377        1382        1381
        1377        1378        1383        1382
        1378        1379        1384        1383
        1380        1381        1386        1385
        1381        1382        1387        1386
        1382        1383        1388        1387
        1383        1384        1389        1388
        1385        1386        1391        1390
        1386        1387        1392        1391
        1387        1388        1393        1392
        1388        1389        1394        1393
        1390        1391        1396        1395
        1391        1392        1397        1396
        1392        1393        1398        1397
        1393        1394        1399        1398
        1400        1401        1406        1405
        1401        1402        1407        1406
        1402        1403        1408        1407
        1403        1404        1409        1408
        1405        1406        1411        1410
        1406        1407        1412        1411
        1407        1408        1413        1412
        1408        1409        1414        1413
        1410        1411        1416        1415
        1411        1412        1417        1416
        1412        1413        1418        1417
        1413        1414        1419        1418
        1415        1416        1421        1420
        1416        1417        1422        1421
        1417        1418        1423        1422
        1418        1419        1424        1423
        1425        1426        1431        1430
        1426        1427        1432        1431
        1427        1428        1433        1432
        1428        1429        1434        1433
        1430        1431        1436        1435
        1431        1432        1437        1436
        1432        1433        1438        1437
        1433        1434        1439        1438
        1435        1436        1441        1440
        1436        1437        1442        1441
        1437        1438        1443        1442
        1438        1439        1444        1443
        1440        1441        1446        1445
        1441        1442        1447        1446
        1442        1443        1448        1447
        1443        1444        1449        1448
        1450        1451        1456        1455
        1451        1452        1457        1456
        1452        1453        1458        1457
        1453        1454        1459        1458
        1455        1456        1461        1460
        1456        1457        1462        1461
        1457        1458        1463        1462
        1458        1459        1464        1463
        1460        1461        1466        1465
        1461        1462        1467        1466
        1462        1463        1468        1467
        1463        1464        1469        1468
        1465        1466        1471        1470
        1466        1467        1472        1471
        1467        1468        1473        1472
        1468        1469        1474        1473
        1475        1476        1481        1480
        1476        1477        1482        1481
        1477        1478        1483        1482
        1478        1479        1484        1483
        1480        1481        1486        1485
        1481        1482        1487        1486
        1482        1483        1488        1487
        1483        1484        1489        1488
        1485        1486        1491        1490
        1486        1487        1492        1491
        1487        1488        1493        1492
        1488        1489        1494        1493
        1490        1491        1496        1495
        1491        1492        1497        1496
        1492        1493        1498        1497
        1493        1494        1499        1498
        1500        1501        1506        1505
        1501        1502        1507        1506
        1502        1503        1508        1507
        1503        1504        1509        1508
        1505        1506        1511        1510
        1506        1507        1512        1511
        1507        1508        1513        1512
        1508        1509        1514        1513
        1510        1511        1516        1515
        1511        1512        1517        1516
        1512        1513        1518        1517
        1513        1514        1519        1518
        1515        1516        1521        1520
        1516        1517        1522        1521
        1517        1518        1523        1522
        1518        1519        1524        1523
        1525        1526        1531        1530
        1526        1527        1532        1531
        1527        1528        1533        1532
        1528        1529        1534        1533
        1530        1531        1536        1535
        1531        1532        1537        1536
        1532        1533        1538        1537
        1533        1534        1539        1538
        1535        1536        1541        1540
        1536        1537        1542        1541
        1537        1538        1543        1542
        1538        1539        1544        1543
        1540        1541        1546        1545
        1541        1542        1547        1546
        1542        1543        1548        1547
        1543        1544        1549        1548
        1550        1551        1556        1555
        1551        1552        1557        1556
        1552        1553        1558        1557
        1553        1554        1559        1558
        1555        1556        1561        1560
        1556        1557        1562        1561
        1557        1558        1563        1562
        1558        1559        1564        1563
        1560        1561        1566        1565
        1561        1562        1567        1566
        1562        1563        1568        1567
        1563        1564        1569        1568
        1565        1566        1571        1570
        1566        1567        1572        1571
        1567        1568        1573        1572
        1568        1569        1574        1573
        1575        1576        1581        1580
        1576        1577        1582        1581
        1577        1578        1583        1582
        1578        1579        1584        1583
        1580        1581        1586        1585
        1581        1582        1587        1586
        1582        1583        1588        1587
        1583        1584        1589        1588
        1585        1586        1591        1590
        1586        1587        1592        1591
        1587        1588        1593        1592
        1588        1589        1594        1593
        1590        1591        1596        1595
        1591        1592        1597        1596
        1592        1593        1598        1597
        1593        1594        1599        1598
 </DataArray>
 <DataArray  type="Int32"  Name="offsets"  format="ascii"> 
           4
           8
          12
          16
          20
          24
          28
          32
          36
          40
          44
          48
          52
          56
          60
          64
          68
          72
          76
          80
          84
          88
          92
          96
         100
         104
         108
         112
         116
         120
         124
         128
         132
         136
         140
         144
         148
         152
         156
         160
         164
         168
         172
         176
         180
         184
         188
         192
         196
         200
         204
         208
         212
         216
         220
         224
         228
         232
         236
         240
         244
         248
         252
         256
         260
         264
         268
         272
         276
         280
         284
         288
         292
         296
         300
         304
         308
         312
         316
         320
         324
         328
         332
         336
         340
         344
         348
         352
         356
         360
         364
         368
         372
         376
         380
         384
         388
         392
         396
         400
         404
         408
         412
         416
         420
         424
         428
         432
         436
         440
         444
         448
         452
         456
         460
         464
         468
         472
         476
         480
         484
         488
         492
         496
         500
         504
         508
         512
         516
         520
         524
         528
         532
         536
         540
         544
         548
         552
         556
         560
         564
         568
         572
         576
         580
         584
         588
         592
         596
         600
         604
         608
         612
         616
         620
         624
         628
         632
         636
         640
         644
         648
         652
         656
         660
         664
         668
         672
         676
         680
         684
         688
         692
         696
         700
         704
         708
         712
         716
         720
         724
         728
         732
         736
         740
         744
         748
         752
         756
         760
         764
         768
         772
         776
         780
         784
         788
         792
         796
         800
         804
         808
         812
         816
         820
         824
         828
         832
         836
         840
         844
         848
         852
         856
         860
         864
         868
         872
         876
         880
         884
         888
         892
         896
         900
         904
         908
         912
         916
         920
         924
         928
         932
         936
         940
         944
         948
         952
         956
         960
         964
         968
         972
         976
         980
         984
         988
         992
         996
        1000
        1004
        1008
        1012
        1016
        1020
        1024
        1028
        1032
        1036
        1040
        1044
        1048
        1052
        1056
        1060
        1064
        1068
        1072
        1076
        1080
        1084
        1088
        1092
        1096
        1100
        1104
        1108
        1112
        1116
        1120
        1124
        1128
        1132
        1136
        1140
        1144
        1148
        1152
        1156
        1160
        1164
        1168
        1172
        1176
        1180
        1184
        1188
        1192
        1196
        1200
        1204
        1208
        1212
        1216
        1220
        1224
        1228
        1232
        1236
        1240
        1244
        1248
        1252
        1256
        1260
        1264
        1268
        1272
        1276
        1280
        1284
        1288
        1292
        1296
        1300
        1304
        1308
        1312
        1316
        1320
        1324
        1328
        1332
        1336
        1340
        1344
        1348
        1352
        1356
        1360
        1364
        1368
        1372
        1376
        1380
        1384
        1388
        1392
        1396
        1400
        1404
        1408
        1412
        1416
        1420
        1424
        1428
        1432
        1436
        1440
        1444
        1448
        1452
        1456
        1460
        1464
        1468
        1472
        1476
        1480
        1484
        1488
        1492
        1496
        1500
        1504
        1508
        1512
        1516
        1520
        1524
        1528
        1532
        1536
        1540
        1544
        1548
        1552
        1556
        1560
        1564
        1568
        1572
        1576
        1580
        1584
        1588
        1592
        1596
        1600
        1604
        1608
        1612
        1616
        1620
        1624
        1628
        1632
        1636
        1640
        1644
        1648
        1652
        1656
        1660
        1664
        1668
        1672
        1676
        1680
        1684
        1688
        1692
        1696
        1700
        1704
        1708
        1712
        1716
        1720
        1724
        1728
        1732
        1736
        1740
        1744
        1748
        1752
        1756
        1760
        1764
        1768
        1772
        1776
        1780
        1784
        1788
        1792
        1796
        1800
        1804
        1808
        1812
        1816
        1820
        1824
        1828
        1832
        1836
        1840
        1844
        1848
        1852
        1856
        1860
        1864
        1868
        1872
        1876
        1880
        1884
        1888
        1892
        1896
        1900
        1904
        1908
        1912
        1916
        1920
        1924
        1928
        1932
        1936
        1940
        1944
        1948
        1952
        1956
        1960
        1964
        1968
        1972
        1976
        1980
        1984
        1988
        1992
        1996
        2000
        2004
        2008
        2012
        2016
        2020
        2024
        2028
        2032
        2036
        2040
        2044
        2048
        2052
        2056
        2060
        2064
        2068
        2072
        2076
        2080
        2084
        2088
        2092
        2096
        2100
        2104
        2108
        2112
        2116
        2120
        2124
        2128
        2132
        2136
        2140
        2144
        2148
        2152
        2156
        2160
        2164
        2168
        2172
        2176
        2180
        2184
        2188
        2192
        2196
        2200
        2204
        2208
        2212
        2216
        2220
        2224
        2228
        2232
        2236
        2240
        2244
        2248
        2252
        2256
        2260
        2264
        2268
        2272
        2276
        2280
        2284
        2288
        2292
        2296
        2300
        2304
        2308
        2312
        2316
        2320
        2324
        2328
        2332
        2336
        2340
        2344
        2348
        2352
        2356
        2360
        2364
        2368
        2372
        2376
        2380
        2384
        2388
        2392
        2396
        2400
        2404
        2408
        2412
        2416
        2420
        2424
        2428
        2432
        2436
        2440
        2444
        2448
        2452
        2456
        2460
        2464
        2468
        2472
        2476
        2480
        2484
        2488
        2492
        2496
        2500
        2504
        2508
        2512
        2516
        2520
        2524
        2528
        2532
        2536
        2540
        2544
        2548
        2552
        2556
        2560
        2564
        2568
        2572
        2576
        2580
        2584
        2588
        2592
        2596
        2600
        2604
        2608
        2612
        2616
        2620
        2624
        2628
        2632
        2636
        2640
        2644
        2648
        2652
        2656
        2660
        2664
        2668
        2672
        2676
        2680
        2684
        2688
        2692
        2696
        2700
        2704
        2708
        2712
        2716
        2720
        2724
        2728
        2732
        2736
        2740
        2744
        2748
        2752
        2756
        2760
        2764
        2768
        2772
        2776
        2780
        2784
        2788
        2792
        2796
        2800
        2804
        2808
        2812
        2816
        2820
        2824
        2828
        2832
        2836
        2840
        2844
        2848
        2852
        2856
        2860
        2864
        2868
        2872
        2876
        2880
        2884
        2888
        2892
        2896
        2900
        2904
        2908
        2912
        2916
        2920
        2924
        2928
        2932
        2936
        2940
        2944
        2948
        2952
        2956
        2960
        2964
        2968
        2972
        2976
        2980
        2984
        2988
        2992
        2996
        3000
        3004
        3008
        3012
        3016
        3020
        3024
        3028
        3032
        3036
        3040
        3044
        3048
        3052
        3056
        3060
        3064
        3068
        3072
        3076
        3080
        3084
        3088
        3092
        3096
        3100
        3104
        3108
        3112
        3116
        3120
        3124
        3128
        3132
        3136
        3140
        3144
        3148
        3152
        3156
        3160
        3164
        3168
        3172
        3176
        3180
        3184
        3188
        3192
        3196
        3200
        3204
        3208
        3212
        3216
        3220
        3224
        3228
        3232
        3236
        3240
        3244
        3248
        3252
        3256
        3260
        3264
        3268
        3272
        3276
        3280
        3284
        3288
        3292
        3296
        3300
        3304
        3308
        3312
        3316
        3320
        3324
        3328
        3332
        3336
        3340
        3344
        3348
        3352
        3356
        3360
        3364
        3368
        3372
        3376
        3380
        3384
        3388
        3392
        3396
        3400
        3404
        3408
        3412
        3416
        3420
        3424
        3428
        3432
        3436
        3440
        3444
        3448
        3452
        3456
        3460
        3464
        3468
        3472
        3476
        3480
        3484
        3488
        3492
        3496
        3500
        3504
        3508
        3512
        3516
        3520
        3524
        3528
        3532
        3536
        3540
        3544
        3548
        3552
        3556
        3560
        3564
        3568
        3572
        3576
        3580
        3584
        3588
        3592
        3596
        3600
        3604
        3608
        3612
        3616
        3620
        3624
        3628
        3632
        3636
        3640
        3644
        3648
        3652
        3656
        3660
        3664
        3668
        3672
        3676
        3680
        3684
        3688
        3692
        3696
        3700
        3704
        3708
        3712
        3716
        3720
        3724
        3728
        3732
        3736
        3740
        3744
        3748
        3752
        3756
        3760
        3764
        3768
        3772
        3776
        3780
        3784
        3788
        3792
        3796
        3800
        3804
        3808
        3812
        3816
        3820
        3824
        3828
        3832
        3836
        3840
        3844
        3848
        3852
        3856
        3860
        3864
        3868
        3872
        3876
        3880
        3884
        3888
        3892
        3896
        3900
        3904
        3908
        3912
        3916
        3920
        3924
        3928
        3932
        3936
        3940
        3944
        3948
        3952
        3956
        3960
        3964
        3968
        3972
        3976
        3980
        3984
        3988
        3992
        3996
        4000
        4004
        4008
        4012
        4016
        4020
        4024
        4028
        4032
        4036
        4040
        4044
        4048
        4052
        4056
        4060
        4064
        4068
        4072
        4076
        4080
        4084
        4088
        4092
        4096
 </DataArray>
 <DataArray  type="UInt8"  Name="types"  format="ascii">
 9
 9
 9
 9
 9
 9
 9
 9
 9
 9
 9
 9
 9
 9
 9
 9
 9
 9
 9
 9
 9
 9
 9
 9
 9
 9
 9
 9
 9
 9
 9
 9
 9
 9
 9
 9
 9
 9
 9
 9
 9
 9
 9
 9
 9
 9
 9
 9
 9
 9
 9
 9
 9
 9
 9
 9
 9
 9
 9
 9
 9
 9
 9
 9
 9
 9
 9
 9
 9
 9
 9
 9
 9
 9
 9
 9
 9
 9
 9
 9
 9
 9
 9
 9
 9
 9
 9
 9
 9
 9
 9
 9
 9
 9
 9
 9
 9
 9
 9
 9
 9
 9
 9
 9
 9
 9
 9
 9
 9
 9
 9
 9
 9
 9
 9
 9
 9
 9
 9
 9
 9
 9
 9
 9
 9
 9
 9
 9
 9
 9
 9
 9
 9
 9
 9
 9
 9
 9
 9
 9
 9
 9
 9
 9
 9
 9
 9
 9
 9
 9
 9
 9
 9
 9
 9
 9
 9
 9
 9
 9
 9
 9
 9
 9
 9
 9
 9
 9
 9
 9
 9
 9
 9
 9
 9
 9
 9
 9
 9
 9
 9
 9
 9
 9
 9
 9
 9
 9
 9
 9
 9
 9
 9
 9
 9
 9
 9
 9
 9
 9
 9
 9
 9
 9
 9
 9
 9
 9
 9
 9
 9
 9
 9
 9
 9
 9
 9
 9
 9
 9
 9
 9
 9
 9
 9
 9
 9
 9
 9
 9
 9
 9
 9
 9
 9
 9
 9
 9
 9
 9
 9
 9
 9
 9
 9
 9
 9
 9
 9
 9
 9
 9
 9
 9
 9
 9
 9
 9
 9
 9
 9
 9
 9
 9
 9
 9
 9
 9
 9
 9
 9
 9
 9
 9
 9
 9
 9
 9
 9
 9
 9
 9
 9
 9
 9
 9
 9
 9
 9
 9
 9
 9
 9
 9
 9
 9
 9
 9
 9
 9
 9
 9
 9
 9
 9
 9
 9
 9
 9
 9
 9
 9
 9
 9
 9
 9
 9
 9
 9
 9
 9
 9
 9
 9
 9
 9
 9
 9
 9
 9
 9
 9
 9
 9
 9
 9
 9
 9
 9
 9
 9
 9
 9
 9
 9
 9
 9
 9
 9
 9
 9
 9
 9
 9
 9
 9
 9
 9
 9
 9
 9
 9
 9
 9
 9
 9
 9
 9
 9
 9
 9
 9
 9
 9
 9
 9
 9
 9
 9
 9
 9
 9
 9
 9
 9
 9
 9
 9
 9
 9
 9
 9
 9
 9
 9
 9
 9
 9
 9
 9
 9
 9
 9
 9
 9
 9
 9
 9
 9
 9
 9
 9
 9
 9
 9
 9
 9
 9
 9
 9
 9
 9
 9
 9
 9
 9
 9
 9
 9
 9
 9
 9
 9
 9
 9
 9
 9
 9
 9
 9
 9
 9
 9
 9
 9
 9
 9
 9
 9
 9
 9
 9
 9
 9
 9
 9
 9
 9
 9
 9
 9
 9
 9
 9
 9
 9
 9
 9
 9
 9
 9
 9
 9
 9
 9
 9
 9
 9
 9
 9
 9
 9
 9
 9
 9
 9
 9
 9
 9
 9
 9
 9
 9
 9
 9
 9
 9
 9
 9
 9
 9
 9
 9
 9
 9
 9
 9
 9
 9
 9
 9
 9
 9
 9
 9
 9
 9
 9
 9
 9
 9
 9
 9
 9
 9
 9
 9
 9
 9
 9
 9
 9
 9
 9
 9
 9
 9
 9
 9
 9
 9
 9
 9
 9
 9
 9
 9
 9
 9
 9
 9
 9
 9
 9
 9
 9
 9
 9
 9
 9
 9
 9
 9
 9
 9
 9
 9
 9
 9
 9
 9
 9
 9
 9
 9
 9
 9
 9
 9
 9
 9
 9
 9
 9
 9
 9
 9
 9
 9
 9
 9
 9
 9
 9
 9
 9
 9
 9
 9
 9
 9
 9
 9
 9
 9
 9
 9
 9
 9
 9
 9
 9
 9
 9
 9
 9
 9
 9
 9
 9
 9
 9
 9
 9
 9
 9
 9
 9
 9
 9
 9
 9
 9
 9
 9
 9
 9
 9
 9
 9
 9
 9
 9
 9
 9
 9
 9
 9
 9
 9
 9
 9
 9
 9
 9
 9
 9
 9
 9
 9
 9
 9
 9
 9
 9
 9
 9
 9
 9
 9
 9
 9
 9
 9
 9
 9
 9
 9
 9
 9
 9
 9
 9
 9
 9
 9
 9
 9
 9
 9
 9
 9
 9
 9
 9
 9
 9
 9
 9
 9
 9
 9
 9
 9
 9
 9
 9
 9
 9
 9
 9
 9
 9
 9
 9
 9
 9
 9
 9
 9
 9
 9
 9
 9
 9
 9
 9
 9
 9
 9
 9
 9
 9
 9
 9
 9
 9
 9
 9
 9
 9
 9
 9
 9
 9
 9
 9
 9
 9
 9
 9
 9
 9
 9
 9
 9
 9
 9
 9
 9
 9
 9
 9
 9
 9
 9
 9
 9
 9
 9
 9
 9
 9
 9
 9
 9
 9
 9
 9
 9
 9
 9
 9
 9
 9
 9
 9
 9
 9
 9
 9
 9
 9
 9
 9
 9
 9
 9
 9
 9
 9
 9
 9
 9
 9
 9
 9
 9
 9
 9
 9
 9
 9
 9
 9
 9
 9
 9
 9
 9
 9
 9
 9
 9
 9
 9
 9
 9
 9
 9
 9
 9
 9
 9
 9
 9
 9
 9
 9
 9
 9
 9
 9
 9
 9
 9
 9
 9
 9
 9
 9
 9
 9
 9
 9
 9
 9
 9
 9
 9
 9
 9
 9
 9
 9
 9
 9
 9
 9
 9
 9
 9
 9
 9
 9
 9
 9
 9
 9
 9
 9
 9
 9
 9
 9
 9
 9
 9
 9
 9
 9
 9
 9
 9
 9
 9
 9
 9
 9
 9
 9
 9
 9
 9
 9
 9
 9
 9
 9
 9
 9
 9
 9
 9
 9
 9
 9
 9
 9
 9
 9
 9
 9
 9
 9
 9
 9
 9
 9
 9
 9
 9
 9
 9
 9
 9
 9
 9
 9
 9
 9
 9
 9
 9
 9
 9
 9
 9
 9
 9
 9
 9
 9
 9
 9
 9
 9
 9
 9
 9
 9
 9
 9
 9
 9
 9
 9
 9
 9
 9
 9
 9
 9
 9
 9
 9
 9
 9
 9
 9
 9
 9
 9
 9
 9
 9
 9
 9
 9
 9
 9
 9
 9
 9
 9
 9
 9
 9
 9
 9
 9
 9
 9
 9
 9
 9
 9
 9
 9
 9
 9
 9
 9
 9
 9
 9
 9
 9
 9
 9
 9
 9
 9
 9
 </DataArray>
 </Cells> 
 <PointData>
 <DataArray  type="Float64" Name="disp" NumberOfComponents="3" format="ascii">
   0.0000000000000000        0.0000000000000000        0.0000000000000000     
   6.0961727314084602E-003   3.7901018881850495E-003   0.0000000000000000     
   1.1666461212351568E-002   7.3235303415932051E-003   0.0000000000000000     
   1.6710865442829327E-002   1.0600285360224466E-002   0.0000000000000000     
   2.1229385422841730E-002   1.3620366944078834E-002   0.0000000000000000     
   0.0000000000000000        0.0000000000000000        0.0000000000000000     
   4.8912898942308543E-003   3.0218328838406789E-003   0.0000000000000000     
   9.5739514891125341E-003   6.0602183005254899E-003   0.0000000000000000     
   1.4047984784645041E-002   9.1151562500544348E-003   0.0000000000000000     
   1.8313389780828374E-002   1.2186646732427510E-002   0.0000000000000000     
   0.0000000000000000        0.0000000000000000        0.0000000000000000     
   3.9536569234585083E-003   2.4248476794621410E-003   0.0000000000000000     
   7.9108438628938509E-003   5.0626006942811018E-003   0.0000000000000000     
   1.1871560818306030E-002   7.9132590444568815E-003   0.0000000000000000     
   1.5835807789695042E-002   1.0976822729989481E-002   0.0000000000000000     
   0.0000000000000000        0.0000000000000000        0.0000000000000000     
   3.2832738190914203E-003   1.9991462750494362E-003   0.0000000000000000     
   6.6771383336955183E-003   4.3306775228600398E-003   0.0000000000000000     
   1.0181593543812293E-002   6.9945937434318104E-003   0.0000000000000000     
   1.3796639449441745E-002   9.9908949367647510E-003   0.0000000000000000     
   0.0000000000000000        0.0000000000000000        0.0000000000000000     
   2.8801405811295921E-003   1.7447286706025634E-003   0.0000000000000000     
   5.8728349015175355E-003   3.8644487862623030E-003   0.0000000000000000     
   8.9780829611638309E-003   6.3591603469792188E-003   0.0000000000000000     
   1.2195884760068477E-002   9.2288633527533113E-003   0.0000000000000000     
   2.1229385422841730E-002   1.3620366944078834E-002   0.0000000000000000     
   2.5434695880754123E-002   1.6613833942600787E-002   0.0000000000000000     
   2.9539471544931854E-002   1.9810745205234803E-002   0.0000000000000000     
   3.3543712415374918E-002   2.3211100731980891E-002   0.0000000000000000     
   3.7447418492083322E-002   2.6814900522839042E-002   0.0000000000000000     
   1.8313389780828374E-002   1.2186646732427510E-002   0.0000000000000000     
   2.2408303023404151E-002   1.5342558771071319E-002   0.0000000000000000     
   2.6370861058113995E-002   1.8650761389412455E-002   0.0000000000000000     
   3.0201063884957906E-002   2.2111254587450918E-002   0.0000000000000000     
   3.3898911503935890E-002   2.5724038365186712E-002   0.0000000000000000     
   1.5835807789695042E-002   1.0976822729989481E-002   0.0000000000000000     
   1.9731808760473733E-002   1.4211734075805020E-002   0.0000000000000000     
   2.3487787714054940E-002   1.7576435406829613E-002   0.0000000000000000     
   2.7103744650438660E-002   2.1070926723063262E-002   0.0000000000000000     
   3.0579679569624898E-002   2.4695208024505963E-002   0.0000000000000000     
   1.3796639449441745E-002   9.9908949367647510E-003   0.0000000000000000     
   1.7405213091962878E-002   1.3221359856801894E-002   0.0000000000000000     
   2.0890251512754691E-002   1.6587767257486289E-002   0.0000000000000000     
   2.4251754711817185E-002   2.0090117138817927E-002   0.0000000000000000     
   2.7489722689150356E-002   2.3728409500796816E-002   0.0000000000000000     
   1.2195884760068477E-002   9.2288633527533113E-003   0.0000000000000000     
   1.5428516017871577E-002   1.2371436114061942E-002   0.0000000000000000     
   1.8578252454213243E-002   1.5684756941382473E-002   0.0000000000000000     
   2.1645094069093467E-002   1.9168825834714909E-002   0.0000000000000000     
   2.4629040862512254E-002   2.2823642794059247E-002   0.0000000000000000     
   3.7447418492083322E-002   2.6814900522839042E-002   0.0000000000000000     
   4.1255952572931340E-002   3.0618813813291106E-002   0.0000000000000000     
   4.4974677455793262E-002   3.4619509838818931E-002   0.0000000000000000     
   4.8603593140669081E-002   3.8816988599422522E-002   0.0000000000000000     
   5.2142699627558797E-002   4.3211250095101870E-002   0.0000000000000000     
   3.3898911503935890E-002   2.5724038365186712E-002   0.0000000000000000     
   3.7487774520092006E-002   2.9519143148258997E-002   0.0000000000000000     
   4.0991023538470325E-002   3.3526599362306939E-002   0.0000000000000000     
   4.4408658559070842E-002   3.7746407007330549E-002   0.0000000000000000     
   4.7740679581893562E-002   4.2178566083329816E-002   0.0000000000000000     
   3.0579679569624898E-002   2.4695208024505963E-002   0.0000000000000000     
   3.3944724060156736E-002   2.8494816920592674E-002   0.0000000000000000     
   3.7228009710577249E-002   3.2515291020758362E-002   0.0000000000000000     
   4.0429536520886440E-002   3.6756630325003009E-002   0.0000000000000000     
   4.3549304491084309E-002   4.1218834833326626E-002   0.0000000000000000     
   2.7489722689150356E-002   2.3728409500796816E-002   0.0000000000000000     
   3.0626801193125535E-002   2.7545835130292160E-002   0.0000000000000000     
   3.3685635972114047E-002   3.1585584814173194E-002   0.0000000000000000     
   3.6666227026115876E-002   3.5847658552439911E-002   0.0000000000000000     
   3.9568574355131038E-002   4.0332056345092307E-002   0.0000000000000000     
   2.4629040862512254E-002   2.2823642794059247E-002   0.0000000000000000     
   2.7534005918998398E-002   2.6672197777357437E-002   0.0000000000000000     
   3.0363902323080696E-002   3.0737480742551435E-002   0.0000000000000000     
   3.3118730074759149E-002   3.5019491689641247E-002   0.0000000000000000     
   3.5798489174033749E-002   3.9518230618626853E-002   0.0000000000000000     
   5.2142699627558797E-002   4.3211250095101870E-002   0.0000000000000000     
   5.5585005831745936E-002   4.7804359995128186E-002   0.0000000000000000     
   5.8923520668514001E-002   5.2598383968772658E-002   0.0000000000000000     
   6.2158244137862986E-002   5.7593322016035300E-002   0.0000000000000000     
   6.5289176239792898E-002   6.2789174136916093E-002   0.0000000000000000     
   4.7740679581893562E-002   4.2178566083329816E-002   0.0000000000000000     
   5.0982050673943125E-002   4.6814305162433303E-002   0.0000000000000000     
   5.4127735902224132E-002   5.1644852816769581E-002   0.0000000000000000     
   5.7177735266736612E-002   5.6670209046338640E-002   0.0000000000000000     
   6.0132048767480552E-002   6.1890373851140497E-002   0.0000000000000000     
   4.3549304491084309E-002   4.1218834833326626E-002   0.0000000000000000     
   4.6584296695552259E-002   4.5887490334549759E-002   0.0000000000000000     
   4.9531496208671671E-002   5.0748182617492955E-002   0.0000000000000000     
   5.2390903030442547E-002   5.5800911682156194E-002   0.0000000000000000     
   5.5162517160864899E-002   6.1045677528539510E-002   0.0000000000000000     
   3.9568574355131038E-002   4.0332056345092307E-002   0.0000000000000000     
   4.2391743896573346E-002   4.5023915511477546E-002   0.0000000000000000     
   4.5134801587856592E-002   4.9908373370942762E-002   0.0000000000000000     
   4.7797747428980811E-002   5.4985429923487976E-002   0.0000000000000000     
   5.0380581419945954E-002   6.0255085169113175E-002   0.0000000000000000     
   3.5798489174033749E-002   3.9518230618626853E-002   0.0000000000000000     
   3.8404392277006393E-002   4.4223580693216656E-002   0.0000000000000000     
   4.0937652039778921E-002   4.9125425077119020E-002   0.0000000000000000     
   4.3398268462351362E-002   5.4223763770333958E-002   0.0000000000000000     
   4.5786241544723709E-002   5.9518596772861448E-002   0.0000000000000000     
   6.5289176239792898E-002   6.2789174136916093E-002   0.0000000000000000     
   6.8327968362530717E-002   6.8173951225729681E-002   0.0000000000000000     
   7.1286271894303435E-002   7.3735664176790700E-002   0.0000000000000000     
   7.4164086835111026E-002   7.9474312990099091E-002   0.0000000000000000     
   7.6961413184953531E-002   8.5389897665654912E-002   0.0000000000000000     
   6.0132048767480552E-002   6.1890373851140497E-002   0.0000000000000000     
   6.2996606722591664E-002   6.7297918828944384E-002   0.0000000000000000     
   6.5777339450205641E-002   7.2885415577519555E-002   0.0000000000000000     
   6.8474246950322504E-002   7.8652864096866046E-002   0.0000000000000000     
   7.1087329222942225E-002   8.4600264386983814E-002   0.0000000000000000     
   5.5162517160864899E-002   6.1045677528539510E-002   0.0000000000000000     
   5.7848117087454465E-002   6.6477264883738965E-002   0.0000000000000000     
   6.0449481297726954E-002   7.2090458474850627E-002   0.0000000000000000     
   6.2966609791682421E-002   7.7885258301874497E-002   0.0000000000000000     
   6.5399502569320811E-002   8.3861664364810573E-002   0.0000000000000000     
   5.0380581419945954E-002   6.0255085169113175E-002   0.0000000000000000     
   5.2882499457119134E-002   6.5711989390113426E-002   0.0000000000000000     
   5.5302697436867401E-002   7.1350792868783874E-002   0.0000000000000000     
   5.7641175359190784E-002   7.7171495605124471E-002   0.0000000000000000     
   5.9897933224089255E-002   8.3174097599135188E-002   0.0000000000000000     
   4.5786241544723709E-002   5.9518596772861448E-002   0.0000000000000000     
   4.8099753831585670E-002   6.5002092348067794E-002   0.0000000000000000     
   5.0336987867626970E-002   7.0666418759319283E-002   0.0000000000000000     
   5.2497943652847601E-002   7.6511576006615928E-002   0.0000000000000000     
   5.4582621187247563E-002   8.2537564089957716E-002   0.0000000000000000     
   7.6961413184953531E-002   8.5389897665654912E-002   0.0000000000000000     
   7.9667723370643123E-002   9.1479244866199100E-002   0.0000000000000000     
   8.2272489818992045E-002   9.7739181254472590E-002   0.0000000000000000     
   8.4775712530000269E-002  0.10416970683047537        0.0000000000000000     
   8.7177391503667837E-002  0.11077082159420748        0.0000000000000000     
   7.1087329222942225E-002   8.4600264386983814E-002   0.0000000000000000     
   7.3611390393170106E-002   9.0721257999105478E-002   0.0000000000000000     
   7.6041234586111395E-002   9.7009486484463656E-002   0.0000000000000000     
   7.8376861801766062E-002  0.10346494984305833        0.0000000000000000     
   8.0618272040134151E-002  0.11008764807488952        0.0000000000000000     
   6.5399502569320811E-002   8.3861664364810573E-002   0.0000000000000000     
   6.7746682131447716E-002   9.0011142330132798E-002   0.0000000000000000     
   7.0006670978868701E-002   9.6325157864315183E-002   0.0000000000000000     
   7.2179469111583780E-002  0.10280371096735763        0.0000000000000000     
   7.4265076529592911E-002  0.10944680163926025        0.0000000000000000     
   5.9897933224089255E-002   8.3174097599135188E-002   0.0000000000000000     
   6.2073598585475953E-002   8.9348897859281115E-002   0.0000000000000000     
   6.4168798997263993E-002   9.5686195394027118E-002   0.0000000000000000     
   6.6183534459453380E-002  0.10218599020337332        0.0000000000000000     
   6.8117804972044102E-002  0.10884828228731966        0.0000000000000000     
   5.4582621187247563E-002   8.2537564089957716E-002   0.0000000000000000     
   5.6592139755254803E-002   8.8734524586550345E-002   0.0000000000000000     
   5.8527618641297248E-002   9.5092599073599557E-002   0.0000000000000000     
   6.0389057845374905E-002  0.10161178755110536        0.0000000000000000     
   6.2176457367487739E-002  0.10829209001906773        0.0000000000000000     
   8.7177391503667837E-002  0.11077082159420748        0.0000000000000000     
   8.9465220873438556E-002  0.11751113480504907        0.0000000000000000     
   9.1626894772756290E-002  0.12435925572238044        0.0000000000000000     
   9.3662413201621011E-002  0.13131518434620146        0.0000000000000000     
   9.5571776160032762E-002  0.13837892067651225        0.0000000000000000     
   8.0618272040134151E-002  0.11008764807488952        0.0000000000000000     
   8.2764251562652214E-002  0.11685098963858717        0.0000000000000000     
   8.4813586630756818E-002  0.12372838299278126        0.0000000000000000     
   8.6766277244447965E-002  0.13071982813747174        0.0000000000000000     
   8.8622323403725667E-002  0.13782532507265871        0.0000000000000000     
   7.4265076529592911E-002  0.10944680163926025        0.0000000000000000     
   7.6268982633863544E-002  0.11623189875215229        0.0000000000000000     
   7.8196676825363090E-002  0.12313647117816305        0.0000000000000000     
   8.0048159104091507E-002  0.13016051891729258        0.0000000000000000     
   8.1823429470048850E-002  0.13730404196954082        0.0000000000000000     
   6.8117804972044102E-002  0.10884828228731966        0.0000000000000000     
   6.9979414087072561E-002  0.11565386214574440        0.0000000000000000     
   7.1776165356575064E-002  0.12258352027852580        0.0000000000000000     
   7.3508058780551652E-002  0.12963725668566389        0.0000000000000000     
   7.5175094359002326E-002  0.13681507136715859        0.0000000000000000     
   6.2176457367487739E-002  0.10829209001906773        0.0000000000000000     
   6.3895545922279237E-002  0.11511687981936349        0.0000000000000000     
   6.5552052224392796E-002  0.12206953029386948        0.0000000000000000     
   6.7145976273828401E-002  0.12915004144258566        0.0000000000000000     
   6.8677318070586080E-002  0.13635841326551204        0.0000000000000000     
   9.5571776160032762E-002  0.13837892067651225        0.0000000000000000     
   9.7427022873067731E-002  0.14557103650369740        0.0000000000000000     
   9.9300192565802151E-002  0.15291210361814164        0.0000000000000000     
  0.10119128523823605       0.16040212201984494        0.0000000000000000     
  0.10310030089036940       0.16804109170880729        0.0000000000000000     
   8.8622323403725667E-002  0.13782532507265871        0.0000000000000000     
   9.0401698766917310E-002  0.14505437829494797        0.0000000000000000     
   9.2124376992350265E-002  0.15241649230094539        0.0000000000000000     
   9.3790358080024616E-002  0.15991166709065108        0.0000000000000000     
   9.5399642029940265E-002  0.16753990266406493        0.0000000000000000     
   8.1823429470048850E-002  0.13730404196954082        0.0000000000000000     
   8.3509968808683083E-002  0.14456813341287875        0.0000000000000000     
   8.5095258005442168E-002  0.15195388632527726        0.0000000000000000     
   8.6579297060326132E-002  0.15946130070673631        0.0000000000000000     
   8.7962085973334991E-002  0.16709037655725595        0.0000000000000000     
   7.5175094359002326E-002  0.13681507136715859        0.0000000000000000     
   7.6751832998365035E-002  0.14411230185748980        0.0000000000000000     
   7.8212835605077816E-002  0.15152428569113710        0.0000000000000000     
   7.9558102179140652E-002  0.15905102286810066        0.0000000000000000     
   8.0787632720553545E-002  0.16669251338838037        0.0000000000000000     
   6.8677318070586080E-002  0.13635841326551204        0.0000000000000000     
   7.0127291335963224E-002  0.14368688362878104        0.0000000000000000     
   7.1477109791257251E-002  0.15112769039852508        0.0000000000000000     
   7.2726773436468162E-002  0.15868083357474413        0.0000000000000000     
   7.3876282271595928E-002  0.16634631315743820        0.0000000000000000     
   0.0000000000000000        0.0000000000000000        0.0000000000000000     
   2.8801405811295921E-003   1.7447286706025634E-003   0.0000000000000000     
   5.8728349015175355E-003   3.8644487862623030E-003   0.0000000000000000     
   8.9780829611638309E-003   6.3591603469792188E-003   0.0000000000000000     
   1.2195884760068477E-002   9.2288633527533113E-003   0.0000000000000000     
   0.0000000000000000        0.0000000000000000        0.0000000000000000     
   2.6103990561708213E-003   1.5888909566420272E-003   0.0000000000000000     
   5.2899215746788960E-003   3.5565568249902447E-003   0.0000000000000000     
   8.0385675555242238E-003   5.9029976050446534E-003   0.0000000000000000     
   1.0856336998706802E-002   8.6282132968052531E-003   0.0000000000000000     
   0.0000000000000000        0.0000000000000000        0.0000000000000000     
   2.3401910908129055E-003   1.4589292236883307E-003   0.0000000000000000     
   4.7203863614985898E-003   3.2996439795462172E-003   0.0000000000000000     
   7.1405858120570515E-003   5.5221442675736608E-003   0.0000000000000000     
   9.6007894424882910E-003   8.1264300877706575E-003   0.0000000000000000     
   0.0000000000000000        0.0000000000000000        0.0000000000000000     
   2.0695166850558458E-003   1.3548434717414741E-003   0.0000000000000000     
   4.1642292619766177E-003   3.0937102499302210E-003   0.0000000000000000     
   6.2841377307623156E-003   5.2166003345662402E-003   0.0000000000000000     
   8.4292420914129397E-003   7.7235137256495313E-003   0.0000000000000000     
   0.0000000000000000        0.0000000000000000        0.0000000000000000     
   1.7983758388996410E-003   1.2766337008014576E-003   0.0000000000000000     
   3.6214502761129793E-003   2.9387556361422551E-003   0.0000000000000000     
   5.4692233116400155E-003   4.9863658060223925E-003   0.0000000000000000     
   7.3416949454807486E-003   7.4194642104418685E-003   0.0000000000000000     
   1.2195884760068477E-002   9.2288633527533113E-003   0.0000000000000000     
   1.5428516017871577E-002   1.2371436114061942E-002   0.0000000000000000     
   1.8578252454213243E-002   1.5684756941382473E-002   0.0000000000000000     
   2.1645094069093467E-002   1.9168825834714909E-002   0.0000000000000000     
   2.4629040862512254E-002   2.2823642794059247E-002   0.0000000000000000     
   1.0856336998706802E-002   8.6282132968052531E-003   0.0000000000000000     
   1.3689872385712738E-002   1.1650052145315472E-002   0.0000000000000000     
   1.6485816198028132E-002   1.4886362395618746E-002   0.0000000000000000     
   1.9244168435652978E-002   1.8337144047715075E-002   0.0000000000000000     
   2.1964929098587278E-002   2.2002397101604461E-002   0.0000000000000000     
   9.6007894424882910E-003   8.1264300877706575E-003   0.0000000000000000     
   1.2077437042999250E-002   1.1045297248292804E-002   0.0000000000000000     
   1.4546968403796873E-002   1.4211541557295681E-002   0.0000000000000000     
   1.7009383524881159E-002   1.7625163014779295E-002   0.0000000000000000     
   1.9464682406252105E-002   2.1286161620743649E-002   0.0000000000000000     
   8.4292420914129397E-003   7.7235137256495313E-003   0.0000000000000000     
   1.0591209989731117E-002   1.0557171422993932E-002   0.0000000000000000     
   1.2761709071519477E-002   1.3660294426413280E-002   0.0000000000000000     
   1.4940739336778018E-002   1.7032882735907574E-002   0.0000000000000000     
   1.7128300785506739E-002   2.0674936351476807E-002   0.0000000000000000     
   7.3416949454807486E-003   7.4194642104418685E-003   0.0000000000000000     
   9.2311912259083369E-003   1.0185674669418858E-002   0.0000000000000000     
   1.1130038201195938E-002   1.3232621002971533E-002   0.0000000000000000     
   1.3038235871343550E-002   1.6560303211099896E-002   0.0000000000000000     
   1.4955784236351178E-002   2.0168721293803940E-002   0.0000000000000000     
   2.4629040862512254E-002   2.2823642794059247E-002   0.0000000000000000     
   2.7534005918998398E-002   2.6672197777357437E-002   0.0000000000000000     
   3.0363902323080696E-002   3.0737480742551435E-002   0.0000000000000000     
   3.3118730074759149E-002   3.5019491689641247E-002   0.0000000000000000     
   3.5798489174033749E-002   3.9518230618626853E-002   0.0000000000000000     
   2.1964929098587278E-002   2.2002397101604461E-002   0.0000000000000000     
   2.4631550430972083E-002   2.5880040916924231E-002   0.0000000000000000     
   2.7227484676948428E-002   2.9967994853311704E-002   0.0000000000000000     
   2.9752731836516312E-002   3.4266258910766893E-002   0.0000000000000000     
   3.2207291909675737E-002   3.8774833089289799E-002   0.0000000000000000     
   1.9464682406252105E-002   2.1286161620743649E-002   0.0000000000000000     
   2.1884646922243327E-002   2.5175500604128254E-002   0.0000000000000000     
   2.4241058947188435E-002   2.9274143193872622E-002   0.0000000000000000     
   2.6533918481087417E-002   3.3582089389976762E-002   0.0000000000000000     
   2.8763225523940283E-002   3.8099339192440670E-002   0.0000000000000000     
   1.7128300785506739E-002   2.0674936351476807E-002   0.0000000000000000     
   1.9293295392812146E-002   2.4558576838969511E-002   0.0000000000000000     
   2.1404625133800717E-002   2.8655925764234185E-002   0.0000000000000000     
   2.3462290008472473E-002   3.2966983127270838E-002   0.0000000000000000     
   2.5466290016827403E-002   3.7491748928079466E-002   0.0000000000000000     
   1.4955784236351178E-002   2.0168721293803940E-002   0.0000000000000000     
   1.6857495842678521E-002   2.4029269621448000E-002   0.0000000000000000     
   1.8718183236785285E-002   2.8113342564396387E-002   0.0000000000000000     
   2.0537846418671471E-002   3.2420940122649115E-002   0.0000000000000000     
   2.2316485388337082E-002   3.6952062296206185E-002   0.0000000000000000     
   3.5798489174033749E-002   3.9518230618626853E-002   0.0000000000000000     
   3.8404392277006393E-002   4.4223580693216656E-002   0.0000000000000000     
   4.0937652039778921E-002   4.9125425077119020E-002   0.0000000000000000     
   4.3398268462351362E-002   5.4223763770333958E-002   0.0000000000000000     
   4.5786241544723709E-002   5.9518596772861448E-002   0.0000000000000000     
   3.2207291909675737E-002   3.8774833089289799E-002   0.0000000000000000     
   3.4593735092637079E-002   4.3489188715402617E-002   0.0000000000000000     
   3.6914631581610700E-002   4.8404797115627549E-002   0.0000000000000000     
   3.9169981376596621E-002   5.3521658289964601E-002   0.0000000000000000     
   4.1359784477594821E-002   5.8839772238413766E-002   0.0000000000000000     
   2.8763225523940283E-002   3.8099339192440670E-002   0.0000000000000000     
   3.0931265599251120E-002   4.2823442413670948E-002   0.0000000000000000     
   3.3040324230524006E-002   4.7751948866074180E-002   0.0000000000000000     
   3.5090401417758946E-002   5.2884858549650381E-002   0.0000000000000000     
   3.7081497160955941E-002   5.8222171464399522E-002   0.0000000000000000     
   2.5466290016827403E-002   3.7491748928079466E-002   0.0000000000000000     
   2.7416983796848517E-002   4.2226341788021635E-002   0.0000000000000000     
   2.9314729986518833E-002   4.7166880328458893E-002   0.0000000000000000     
   3.1159528585838352E-002   5.2313364549391270E-002   0.0000000000000000     
   3.2951379594807068E-002   5.7665794450818729E-002   0.0000000000000000     
   2.2316485388337082E-002   3.6952062296206185E-002   0.0000000000000000     
   2.4050889685429264E-002   4.1697886838454684E-002   0.0000000000000000     
   2.5737848849595183E-002   4.6649591502781716E-002   0.0000000000000000     
   2.7377362880834834E-002   5.1807176289187282E-002   0.0000000000000000     
   2.8969431779148215E-002   5.7170641197671380E-002   0.0000000000000000     
   4.5786241544723709E-002   5.9518596772861448E-002   0.0000000000000000     
   4.8099753831585670E-002   6.5002092348067794E-002   0.0000000000000000     
   5.0336987867626970E-002   7.0666418759319283E-002   0.0000000000000000     
   5.2497943652847601E-002   7.6511576006615928E-002   0.0000000000000000     
   5.4582621187247563E-002   8.2537564089957716E-002   0.0000000000000000     
   4.1359784477594821E-002   5.8839772238413766E-002   0.0000000000000000     
   4.3482134188453994E-002   6.4348314427202291E-002   0.0000000000000000     
   4.5535123813022840E-002   7.0036460322557434E-002   0.0000000000000000     
   4.7518753351301346E-002   7.5904209924479188E-002   0.0000000000000000     
   4.9433022803289525E-002   8.1951563232967553E-002   0.0000000000000000     
   3.7081497160955941E-002   5.8222171464399522E-002   0.0000000000000000     
   3.9011894505324010E-002   6.3751396297117180E-002   0.0000000000000000     
   4.0879876496072186E-002   6.9460041734598840E-002   0.0000000000000000     
   4.2685443133200489E-002   7.5348107776844517E-002   0.0000000000000000     
   4.4428594416708898E-002   8.1415594423854210E-002   0.0000000000000000     
   3.2951379594807068E-002   5.7665794450818729E-002   0.0000000000000000     
   3.4689034782195725E-002   6.3211337957812419E-002   0.0000000000000000     
   3.6371245916775041E-002   6.8937162995443488E-002   0.0000000000000000     
   3.7998012998545036E-002   7.4843269563711901E-002   0.0000000000000000     
   3.9569336027505696E-002   8.0929657662617685E-002   0.0000000000000000     
   2.8969431779148215E-002   5.7170641197671380E-002   0.0000000000000000     
   3.0513555019069136E-002   6.2728139409288064E-002   0.0000000000000000     
   3.2009232075131386E-002   6.8467824105091377E-002   0.0000000000000000     
   3.3456462947334974E-002   7.4389695285081353E-002   0.0000000000000000     
   3.4855247635679903E-002   8.0493752949257966E-002   0.0000000000000000     
   5.4582621187247563E-002   8.2537564089957716E-002   0.0000000000000000     
   5.6592139755254803E-002   8.8734524586550345E-002   0.0000000000000000     
   5.8527618641297248E-002   9.5092599073599557E-002   0.0000000000000000     
   6.0389057845374905E-002  0.10161178755110536        0.0000000000000000     
   6.2176457367487739E-002  0.10829209001906773        0.0000000000000000     
   4.9433022803289525E-002   8.1951563232967553E-002   0.0000000000000000     
   5.1278656711679652E-002   8.8168776505586077E-002   0.0000000000000000     
   5.3056379619163985E-002   9.4546105999898392E-002   0.0000000000000000     
   5.4766191525742566E-002  0.10108355171590444        0.0000000000000000     
   5.6408092431415355E-002  0.10778111365360425        0.0000000000000000     
   4.4428594416708898E-002   8.1415594423854210E-002   0.0000000000000000     
   4.6109500525645844E-002   8.7652407610033914E-002   0.0000000000000000     
   4.7728331639059762E-002   9.4048453269789598E-002   0.0000000000000000     
   4.9285087756950618E-002  0.10060373140312126        0.0000000000000000     
   5.0779768879318461E-002  0.10731824201002892        0.0000000000000000     
   3.9569336027505696E-002   8.0929657662617685E-002   0.0000000000000000     
   4.1084671197153408E-002   8.7185417899893786E-002   0.0000000000000000     
   4.2543474700984525E-002   9.3599640883273147E-002   0.0000000000000000     
   4.3945746538999103E-002  0.10017232661275584        0.0000000000000000     
   4.5291486711197072E-002  0.10690347508834175        0.0000000000000000     
   3.4855247635679903E-002   8.0493752949257966E-002   0.0000000000000000     
   3.6204168726202308E-002   8.6767807375165706E-002   0.0000000000000000     
   3.7501808804938322E-002   9.3199668840349081E-002   0.0000000000000000     
   3.8748167871887944E-002   9.9789337344808118E-002   0.0000000000000000     
   3.9943245927051181E-002  0.10653681288854278        0.0000000000000000     
   6.2176457367487739E-002  0.10829209001906773        0.0000000000000000     
   6.3895545922279237E-002  0.11511687981936349        0.0000000000000000     
   6.5552052224392796E-002  0.12206953029386948        0.0000000000000000     
   6.7145976273828401E-002  0.12915004144258566        0.0000000000000000     
   6.8677318070586080E-002  0.13635841326551204        0.0000000000000000     
   5.6408092431415355E-002  0.10778111365360425        0.0000000000000000     
   5.7984227066600280E-002  0.11462412169171210        0.0000000000000000     
   5.9496740161715217E-002  0.12159790570894236        0.0000000000000000     
   6.0945631716760200E-002  0.12870246570529500        0.0000000000000000     
   6.2330901731735201E-002  0.13593780168077002        0.0000000000000000     
   5.0779768879318461E-002  0.10731824201002892        0.0000000000000000     
   5.2212306447152350E-002  0.11417875768149269        0.0000000000000000     
   5.3582631901441358E-002  0.12117205100849267        0.0000000000000000     
   5.4890745242185512E-002  0.12829812199102889        0.0000000000000000     
   5.6136646469384779E-002  0.13555697062910135        0.0000000000000000     
   4.5291486711197072E-002  0.10690347508834175        0.0000000000000000     
   4.6579784063935446E-002  0.11378078778870522        0.0000000000000000     
   4.7809727443571204E-002  0.12079196619252043        0.0000000000000000     
   4.8981316850104317E-002  0.12793701029978741        0.0000000000000000     
   5.0094552283534814E-002  0.13521592011050609        0.0000000000000000     
   3.9943245927051181E-002  0.10653681288854278        0.0000000000000000     
   4.1086659916949590E-002  0.11343021201334971        0.0000000000000000     
   4.2178026788104749E-002  0.12045765126102562        0.0000000000000000     
   4.3217346540516656E-002  0.12761913063157046        0.0000000000000000     
   4.4204619174185306E-002  0.13491465012498424        0.0000000000000000     
   6.8677318070586080E-002  0.13635841326551204        0.0000000000000000     
   7.0127291335963224E-002  0.14368688362878104        0.0000000000000000     
   7.1477109791257251E-002  0.15112769039852508        0.0000000000000000     
   7.2726773436468162E-002  0.15868083357474413        0.0000000000000000     
   7.3876282271595928E-002  0.16634631315743820        0.0000000000000000     
   6.2330901731735201E-002  0.13593780168077002        0.0000000000000000     
   6.3647395044352420E-002  0.14329453644515441        0.0000000000000000     
   6.4889956492324027E-002  0.15076329280823525        0.0000000000000000     
   6.6058586075650017E-002  0.15834407077001256        0.0000000000000000     
   6.7153283794330415E-002  0.16603687033048625        0.0000000000000000     
   5.6136646469384779E-002  0.13555697062910135        0.0000000000000000     
   5.7323195346407445E-002  0.14293791802501180        0.0000000000000000     
   5.8453251636621739E-002  0.15043028528106192        0.0000000000000000     
   5.9526815340027683E-002  0.15803407239725170        0.0000000000000000     
   6.0543886456625270E-002  0.16574927937358125        0.0000000000000000     
   5.0094552283534814E-002  0.13521592011050609        0.0000000000000000     
   5.1154692242128298E-002  0.14261702836835310        0.0000000000000000     
   5.2166995224150400E-002  0.15012866781700496        0.0000000000000000     
   5.3131461229601121E-002  0.15775083845646171        0.0000000000000000     
   5.4048090258480466E-002  0.16548354028672327        0.0000000000000000     
   4.4204619174185306E-002  0.13491465012498424        0.0000000000000000     
   4.5141885731514987E-002  0.14233186747517845        0.0000000000000000     
   4.6031187254909990E-002  0.14985844041606450        0.0000000000000000     
   4.6872523744370342E-002  0.15749436894764246        0.0000000000000000     
   4.7665895199896016E-002  0.16523965306991223        0.0000000000000000     
   0.0000000000000000        0.0000000000000000        0.0000000000000000     
   1.7983758388996410E-003   1.2766337008014576E-003   0.0000000000000000     
   3.6214502761129793E-003   2.9387556361422551E-003   0.0000000000000000     
   5.4692233116400155E-003   4.9863658060223925E-003   0.0000000000000000     
   7.3416949454807486E-003   7.4194642104418685E-003   0.0000000000000000     
   0.0000000000000000        0.0000000000000000        0.0000000000000000     
   1.5350433537995613E-003   1.2172491721850148E-003   0.0000000000000000     
   3.0994082203896385E-003   2.8203394958389422E-003   0.0000000000000000     
   4.6930945997702310E-003   4.8092709709617832E-003   0.0000000000000000     
   6.3161024919413389E-003   7.1840435975535372E-003   0.0000000000000000     
   0.0000000000000000        0.0000000000000000        0.0000000000000000     
   1.2877940312108758E-003   1.1696391472088806E-003   0.0000000000000000     
   2.6054619112885567E-003   2.7240211866769071E-003   0.0000000000000000     
   3.9530036402330420E-003   4.6631461184040799E-003   0.0000000000000000     
   5.3304192180443320E-003   6.9870139423904012E-003   0.0000000000000000     
   0.0000000000000000        0.0000000000000000        0.0000000000000000     
   1.0566278711335846E-003   1.1338036258730546E-003   0.0000000000000000     
   2.1396113488097342E-003   2.6498007086561493E-003   0.0000000000000000     
   3.2489504330284491E-003   4.5479912483492833E-003   0.0000000000000000     
   4.3846451237897289E-003   6.8283752449524570E-003   0.0000000000000000     
   0.0000000000000000        0.0000000000000000        0.0000000000000000     
   8.4154487356768786E-004   1.1097426081775369E-003   0.0000000000000000     
   1.7018565329531719E-003   2.5976780617766679E-003   0.0000000000000000     
   2.5809349781564517E-003   4.4638063607973918E-003   0.0000000000000000     
   3.4787802091775281E-003   6.7081275052397098E-003   0.0000000000000000     
   7.3416949454807486E-003   7.4194642104418685E-003   0.0000000000000000     
   9.2311912259083369E-003   1.0185674669418858E-002   0.0000000000000000     
   1.1130038201195938E-002   1.3232621002971533E-002   0.0000000000000000     
   1.3038235871343550E-002   1.6560303211099896E-002   0.0000000000000000     
   1.4955784236351178E-002   2.0168721293803940E-002   0.0000000000000000     
   6.3161024919413389E-003   7.1840435975535372E-003   0.0000000000000000     
   7.9557533794316713E-003   9.8950131469423813E-003   0.0000000000000000     
   9.5993687447699302E-003   1.2892535390456492E-002   0.0000000000000000     
   1.1246948587956119E-002   1.6176610328095871E-002   0.0000000000000000     
   1.2898492908990238E-002   1.9747237959860515E-002   0.0000000000000000     
   5.3304192180443320E-003   6.9870139423904012E-003   0.0000000000000000     
   6.7232690782018786E-003   9.6493930149392938E-003   0.0000000000000000     
   8.1171136541851267E-003   1.2604051692354191E-002   0.0000000000000000     
   9.5119529459940788E-003   1.5850989974635094E-002   0.0000000000000000     
   1.0907786953628738E-002   1.9390207861781996E-002   0.0000000000000000     
   4.3846451237897289E-003   6.8283752449524570E-003   0.0000000000000000     
   5.5337383222189606E-003   9.4488142734096003E-003   0.0000000000000000     
   6.6832729294415295E-003   1.2367169908664634E-002   0.0000000000000000     
   7.8332489454574356E-003   1.5583442150717566E-002   0.0000000000000000     
   8.9836663702666780E-003   1.9097630999568394E-002   0.0000000000000000     
   3.4787802091775281E-003   6.7081275052397098E-003   0.0000000000000000     
   4.3871611114829163E-003   9.2932769223532941E-003   0.0000000000000000     
   5.2978465705391343E-003   1.2181890039387822E-002   0.0000000000000000     
   6.2108365863461816E-003   1.5373966856343289E-002   0.0000000000000000     
   7.1261311589040591E-003   1.8869507373219702E-002   0.0000000000000000     
   1.4955784236351178E-002   2.0168721293803940E-002   0.0000000000000000     
   1.6857495842678521E-002   2.4029269621448000E-002   0.0000000000000000     
   1.8718183236785285E-002   2.8113342564396387E-002   0.0000000000000000     
   2.0537846418671471E-002   3.2420940122649115E-002   0.0000000000000000     
   2.2316485388337082E-002   3.6952062296206185E-002   0.0000000000000000     
   1.2898492908990238E-002   1.9747237959860515E-002   0.0000000000000000     
   1.4537707641036651E-002   2.3578477527284331E-002   0.0000000000000000     
   1.6148298717259733E-002   2.7644388271901230E-002   0.0000000000000000     
   1.7730266137659479E-002   3.1944970193711210E-002   0.0000000000000000     
   1.9283609902235894E-002   3.6480223292714276E-002   0.0000000000000000     
   1.0907786953628738E-002   1.9390207861781996E-002   0.0000000000000000     
   1.2294390157080724E-002   2.3197099132199129E-002   0.0000000000000000     
   1.3661537036341662E-002   2.7247057564290696E-002   0.0000000000000000     
   1.5009227591411553E-002   3.1540083158056703E-002   0.0000000000000000     
   1.6337461822290400E-002   3.6076175913497169E-002   0.0000000000000000     
   8.9836663702666780E-003   1.9097630999568394E-002   0.0000000000000000     
   1.0127543390810734E-002   2.2885134436192382E-002   0.0000000000000000     
   1.1257898194031071E-002   2.6921350441564785E-002   0.0000000000000000     
   1.2374730779927696E-002   3.1206279015685616E-002   0.0000000000000000     
   1.3478041148500609E-002   3.5739920158554865E-002   0.0000000000000000     
   7.1261311589040591E-003   1.8869507373219702E-002   0.0000000000000000     
   8.0371673422266789E-003   2.2642583439264088E-002   0.0000000000000000     
   8.9373821903279624E-003   2.6667266903723501E-002   0.0000000000000000     
   9.8267757032079062E-003   3.0943557766597934E-002   0.0000000000000000     
   1.0705347880866512E-002   3.5471456027887385E-002   0.0000000000000000     
   2.2316485388337082E-002   3.6952062296206185E-002   0.0000000000000000     
   2.4050889685429264E-002   4.1697886838454684E-002   0.0000000000000000     
   2.5737848849595183E-002   4.6649591502781716E-002   0.0000000000000000     
   2.7377362880834834E-002   5.1807176289187282E-002   0.0000000000000000     
   2.8969431779148215E-002   5.7170641197671380E-002   0.0000000000000000     
   1.9283609902235894E-002   3.6480223292714276E-002   0.0000000000000000     
   2.0801696258708577E-002   4.1235622158853680E-002   0.0000000000000000     
   2.2277891454797139E-002   4.6196641382072710E-002   0.0000000000000000     
   2.3712195490501579E-002   5.1363280962371367E-002   0.0000000000000000     
   2.5104608365821898E-002   5.6735540899749637E-002   0.0000000000000000     
   1.6337461822290400E-002   3.6076175913497169E-002   0.0000000000000000     
   1.7638116510401661E-002   4.0837092343102205E-002   0.0000000000000000     
   1.8903068437168789E-002   4.5804588959361965E-002   0.0000000000000000     
   2.0132317602591786E-002   5.0978665762276471E-002   0.0000000000000000     
   2.1325864006670647E-002   5.6359322751845707E-002   0.0000000000000000     
   1.3478041148500609E-002   3.5739920158554865E-002   0.0000000000000000     
   1.4560150440508514E-002   4.0502297391200259E-002   0.0000000000000000     
   1.5613379796710127E-002   4.5473434234649508E-002   0.0000000000000000     
   1.6637729217105442E-002   5.0653330688902612E-002   0.0000000000000000     
   1.7633198701694466E-002   5.6041986753959563E-002   0.0000000000000000     
   1.0705347880866512E-002   3.5471456027887385E-002   0.0000000000000000     
   1.1567798049029141E-002   4.0231237303147836E-002   0.0000000000000000     
   1.2408825533421156E-002   4.5203177207935305E-002   0.0000000000000000     
   1.3228430334042560E-002   5.0387275742249764E-002   0.0000000000000000     
   1.4026612450893351E-002   5.5783532906091213E-002   0.0000000000000000     
   2.8969431779148215E-002   5.7170641197671380E-002   0.0000000000000000     
   3.0513555019069136E-002   6.2728139409288064E-002   0.0000000000000000     
   3.2009232075131386E-002   6.8467824105091377E-002   0.0000000000000000     
   3.3456462947334974E-002   7.4389695285081353E-002   0.0000000000000000     
   3.4855247635679903E-002   8.0493752949257966E-002   0.0000000000000000     
   2.5104608365821898E-002   5.6735540899749637E-002   0.0000000000000000     
   2.6455211431936049E-002   6.2302674505163254E-002   0.0000000000000000     
   2.7764086040021965E-002   6.8053935089567891E-002   0.0000000000000000     
   2.9031232190079654E-002   7.3989322652963568E-002   0.0000000000000000     
   3.0256649882109118E-002   8.0108837195350308E-002   0.0000000000000000     
   2.1325864006670647E-002   5.6359322751845707E-002   0.0000000000000000     
   2.2483760236788268E-002   6.1935817099057162E-002   0.0000000000000000     
   2.3606058880327518E-002   6.7697405974898359E-002   0.0000000000000000     
   2.4692759937288408E-002   7.3644089379369282E-002   0.0000000000000000     
   2.5743863407670931E-002   7.9775867312469939E-002   0.0000000000000000     
   1.7633198701694466E-002   5.6041986753959563E-002   0.0000000000000000     
   1.8599201433625805E-002   6.1627567190969811E-002   0.0000000000000000     
   1.9535150596048063E-002   6.7398236761082780E-002   0.0000000000000000     
   2.0441046188961233E-002   7.3353995464298466E-002   0.0000000000000000     
   2.1316888212365319E-002   7.9494843300616902E-002   0.0000000000000000     
   1.4026612450893351E-002   5.5783532906091213E-002   0.0000000000000000     
   1.4801535022448648E-002   6.1377924780901184E-002   0.0000000000000000     
   1.5551361187183572E-002   6.7156427448121156E-002   0.0000000000000000     
   1.6276090945098121E-002   7.3119040907751148E-002   0.0000000000000000     
   1.6975724296192301E-002   7.9265765159791141E-002   0.0000000000000000     
   3.4855247635679903E-002   8.0493752949257966E-002   0.0000000000000000     
   3.6204168726202308E-002   8.6767807375165706E-002   0.0000000000000000     
   3.7501808804938322E-002   9.3199668840349081E-002   0.0000000000000000     
   3.8748167871887944E-002   9.9789337344808118E-002   0.0000000000000000     
   3.9943245927051181E-002  0.10653681288854278        0.0000000000000000     
   3.0256649882109118E-002   8.0108837195350308E-002   0.0000000000000000     
   3.1438270600326682E-002   8.6399149612914936E-002   0.0000000000000000     
   3.2574025828948659E-002   9.2846930801844335E-002   0.0000000000000000     
   3.3663915567975045E-002   9.9452180762138548E-002   0.0000000000000000     
   3.4707939817405851E-002  0.10621489949379749        0.0000000000000000     
   2.5743863407670931E-002   7.9775867312469939E-002   0.0000000000000000     
   2.6757254307060635E-002   8.6079018190206691E-002   0.0000000000000000     
   2.7730817651043075E-002   9.2539820428585842E-002   0.0000000000000000     
   2.8664553439618250E-002   9.9158274027607449E-002   0.0000000000000000     
   2.9558461672786154E-002  0.10593437898727147        0.0000000000000000     
   2.1316888212365319E-002   7.9494843300616902E-002   0.0000000000000000     
   2.2161119846404152E-002   8.5807413107040972E-002   0.0000000000000000     
   2.2972184271221562E-002   9.2278337720573630E-002   0.0000000000000000     
   2.3750081486817537E-002   9.8907617141214876E-002   0.0000000000000000     
   2.4494811493192079E-002  0.10569525136896468        0.0000000000000000     
   1.6975724296192301E-002   7.9265765159791141E-002   0.0000000000000000     
   1.7649867218357256E-002   8.5584334363417780E-002   0.0000000000000000     
   1.8298125689484128E-002   9.2062482677807644E-002   0.0000000000000000     
   1.8920499709572922E-002   9.8700210102960789E-002   0.0000000000000000     
   1.9516989278623637E-002  0.10549751663887716        0.0000000000000000     
   3.9943245927051181E-002  0.10653681288854278        0.0000000000000000     
   4.1086659916949590E-002  0.11343021201334971        0.0000000000000000     
   4.2178026788104749E-002  0.12045765126102562        0.0000000000000000     
   4.3217346540516656E-002  0.12761913063157046        0.0000000000000000     
   4.4204619174185306E-002  0.13491465012498424        0.0000000000000000     
   3.4707939817405851E-002  0.10621489949379749        0.0000000000000000     
   3.5706778490563001E-002  0.11312336242709561        0.0000000000000000     
   3.6661111500768416E-002  0.12016584499230726        0.0000000000000000     
   3.7570938848022116E-002  0.12734234718943241        0.0000000000000000     
   3.8436260532324081E-002  0.13465286901847109        0.0000000000000000     
   2.9558461672786154E-002  0.10593437898727147        0.0000000000000000     
   3.0413984269143914E-002  0.11285657110161230        0.0000000000000000     
   3.1232563147288638E-002  0.11991328616466432        0.0000000000000000     
   3.2014198307220326E-002  0.12710452417642754        0.0000000000000000     
   3.2758889748938987E-002  0.13443028513690189        0.0000000000000000     
   2.4494811493192079E-002  0.10569525136896468        0.0000000000000000     
   2.5208277252692330E-002  0.11262983803689977        0.0000000000000000     
   2.5892381727665396E-002  0.11969997477809681        0.0000000000000000     
   2.6547124918111301E-002  0.12690566159255579        0.0000000000000000     
   2.7172506824030031E-002  0.13424689848027668        0.0000000000000000     
   1.9516989278623637E-002  0.10549751663887716        0.0000000000000000     
   2.0089657441208237E-002  0.11244316323295805        0.0000000000000000     
   2.0640567241898698E-002  0.11952591083260473        0.0000000000000000     
   2.1169718680695022E-002  0.12674575943781721        0.0000000000000000     
   2.1677111757597203E-002  0.13410270904859550        0.0000000000000000     
   4.4204619174185306E-002  0.13491465012498424        0.0000000000000000     
   4.5141885731514987E-002  0.14233186747517845        0.0000000000000000     
   4.6031187254909990E-002  0.14985844041606450        0.0000000000000000     
   4.6872523744370342E-002  0.15749436894764246        0.0000000000000000     
   4.7665895199896016E-002  0.16523965306991223        0.0000000000000000     
   3.8436260532324081E-002  0.13465286901847109        0.0000000000000000     
   3.9254218817746572E-002  0.14208469489327574        0.0000000000000000     
   4.0021955968361875E-002  0.14962510922769884        0.0000000000000000     
   4.0739471984169981E-002  0.15727411202174041        0.0000000000000000     
   4.1406766865170870E-002  0.16503170327540045        0.0000000000000000     
   3.2758889748938987E-002  0.13443028513690189        0.0000000000000000     
   3.3461134504002156E-002  0.14187777017043307        0.0000000000000000     
   3.4115429603967372E-002  0.14943418040136644        0.0000000000000000     
   3.4721775048834648E-002  0.15709951582970214        0.0000000000000000     
   3.5280170838603971E-002  0.16487377645544016        0.0000000000000000     
   2.7172506824030031E-002  0.13424689848027668        0.0000000000000000     
   2.7762632790281721E-002  0.14171109330665024        0.0000000000000000     
   2.8311608161726499E-002  0.14928565393706725        0.0000000000000000     
   2.8819432938364371E-002  0.15697058037152758        0.0000000000000000     
   2.9286107120195325E-002  0.16476587261003134        0.0000000000000000     
   2.1677111757597203E-002  0.13410270904859550        0.0000000000000000     
   2.2158713676585270E-002  0.14158466430192751        0.0000000000000000     
   2.2610491641639242E-002  0.14917952983480126        0.0000000000000000     
   2.3032445652759127E-002  0.15688730564721673        0.0000000000000000     
   2.3424575709944922E-002  0.16470799173917400        0.0000000000000000     
   0.0000000000000000        0.0000000000000000        0.0000000000000000     
   8.4154487356768786E-004   1.1097426081775369E-003   0.0000000000000000     
   1.7018565329531719E-003   2.5976780617766679E-003   0.0000000000000000     
   2.5809349781564517E-003   4.4638063607973918E-003   0.0000000000000000     
   3.4787802091775281E-003   6.7081275052397098E-003   0.0000000000000000     
   0.0000000000000000        0.0000000000000000        0.0000000000000000     
   6.3365516645415071E-004   1.0938418226293085E-003   0.0000000000000000     
   1.2776816655433348E-003   2.5617486341774649E-003   0.0000000000000000     
   1.9320794972675520E-003   4.4037204346444687E-003   0.0000000000000000     
   2.5968486616268029E-003   6.6197572240303216E-003   0.0000000000000000     
   0.0000000000000000        0.0000000000000000        0.0000000000000000     
   4.2406887773393815E-004   1.0824869977353498E-003   0.0000000000000000     
   8.5257094840468853E-004   2.5361078139975414E-003   0.0000000000000000     
   1.2855062120122509E-003   4.3608624487865765E-003   0.0000000000000000     
   1.7228746685566257E-003   6.5567509021024536E-003   0.0000000000000000     
   0.0000000000000000        0.0000000000000000        0.0000000000000000     
   2.1278600740705050E-004   1.0756781334956608E-003   0.0000000000000000     
   4.2652438153723351E-004   2.5207556012368992E-003   0.0000000000000000     
   6.4121512239054919E-004   4.3352324032237153E-003   0.0000000000000000     
   8.5685822996699743E-004   6.5191085394561083E-003   0.0000000000000000     
   0.0000000000000000        0.0000000000000000        0.0000000000000000     
  -1.9344452651241816E-007   1.0734152299102415E-003   0.0000000000000000     
  -4.5803505903027879E-007   2.5156919958955366E-003   0.0000000000000000     
  -7.9377159755371742E-007   4.3268302979558851E-003   0.0000000000000000     
  -1.2006541420824359E-006   6.5068301360912848E-003   0.0000000000000000     
   3.4787802091775281E-003   6.7081275052397098E-003   0.0000000000000000     
   4.3871611114829163E-003   9.2932769223532941E-003   0.0000000000000000     
   5.2978465705391343E-003   1.2181890039387822E-002   0.0000000000000000     
   6.2108365863461816E-003   1.5373966856343289E-002   0.0000000000000000     
   7.1261311589040591E-003   1.8869507373219702E-002   0.0000000000000000     
   2.5968486616268029E-003   6.6197572240303216E-003   0.0000000000000000     
   3.2690340116538585E-003   9.1769574448663412E-003   0.0000000000000000     
   3.9456804003814919E-003   1.2042419539683847E-002   0.0000000000000000     
   4.6267878278097013E-003   1.5216143508482839E-002   0.0000000000000000     
   5.3123562939384880E-003   1.8698129351263318E-002   0.0000000000000000     
   1.7228746685566257E-003   6.5567509021024536E-003   0.0000000000000000     
   2.1648535883918955E-003   9.0940323240446888E-003   0.0000000000000000     
   2.6116202418721441E-003   1.1942965864712803E-002   0.0000000000000000     
   3.0631746289973704E-003   1.5103551524106791E-002   0.0000000000000000     
   3.5195167497675747E-003   1.8575789302226656E-002   0.0000000000000000     
   8.5685822996699743E-004   6.5191085394561083E-003   0.0000000000000000     
   1.0746198416970284E-003   9.0445015598883457E-003   0.0000000000000000     
   1.2956660950110921E-003   1.1883529014474693E-002   0.0000000000000000     
   1.5199969899091887E-003   1.5036190903215150E-002   0.0000000000000000     
   1.7476125263913181E-003   1.8502487226109712E-002   0.0000000000000000     
  -1.2006541420824359E-006   6.5068301360912848E-003   0.0000000000000000     
  -1.6672284307433789E-006   9.0283651523973048E-003   0.0000000000000000     
  -2.1820402016638164E-006   1.1864108988969512E-002   0.0000000000000000     
  -2.7450894548429895E-006   1.5014061645807906E-002   0.0000000000000000     
  -3.3563761902814402E-006   1.8478223122912488E-002   0.0000000000000000     
   7.1261311589040591E-003   1.8869507373219702E-002   0.0000000000000000     
   8.0371673422266789E-003   2.2642583439264088E-002   0.0000000000000000     
   8.9373821903279624E-003   2.6667266903723501E-002   0.0000000000000000     
   9.8267757032079062E-003   3.0943557766597934E-002   0.0000000000000000     
   1.0705347880866512E-002   3.5471456027887385E-002   0.0000000000000000     
   5.3123562939384880E-003   1.8698129351263318E-002   0.0000000000000000     
   5.9954776025685809E-003   2.2460743185547267E-002   0.0000000000000000     
   6.6692435575007088E-003   2.6476351128856660E-002   0.0000000000000000     
   7.3336541587348727E-003   3.0744953181191501E-002   0.0000000000000000     
   7.9887094062710707E-003   3.5266549342551787E-002   0.0000000000000000     
   3.5195167497675747E-003   1.8575789302226656E-002   0.0000000000000000     
   3.9746897630764493E-003   2.2330910719174920E-002   0.0000000000000000     
   4.4227368278176860E-003   2.6340147295054090E-002   0.0000000000000000     
   4.8636579439912840E-003   3.0603499029864169E-002   0.0000000000000000     
   5.2974531115972442E-003   3.5120965923605155E-002   0.0000000000000000     
   1.7476125263913181E-003   1.8502487226109712E-002   0.0000000000000000     
   1.9748038237502848E-003   2.2253086040147037E-002   0.0000000000000000     
   2.1978620012788924E-003   2.6258655402315780E-002   0.0000000000000000     
   2.4167870589771410E-003   3.0519195312615932E-002   0.0000000000000000     
   2.6315789968450313E-003   3.5034705771047503E-002   0.0000000000000000     
  -3.3563761902814402E-006   1.8478223122912488E-002   0.0000000000000000     
  -4.1802154099128386E-006   2.2227269148463635E-002   0.0000000000000000     
  -5.3809221156712070E-006   2.6231875450641741E-002   0.0000000000000000     
  -6.9584963075566063E-006   3.0492042029446800E-002   0.0000000000000000     
  -8.9129379855685826E-006   3.5007768884878818E-002   0.0000000000000000     
   1.0705347880866512E-002   3.5471456027887385E-002   0.0000000000000000     
   1.1567798049029141E-002   4.0231237303147836E-002   0.0000000000000000     
   1.2408825533421156E-002   4.5203177207935305E-002   0.0000000000000000     
   1.3228430334042560E-002   5.0387275742249764E-002   0.0000000000000000     
   1.4026612450893351E-002   5.5783532906091213E-002   0.0000000000000000     
   7.9887094062710707E-003   3.5266549342551787E-002   0.0000000000000000     
   8.6319431554613794E-003   4.0022369038619089E-002   0.0000000000000000     
   9.2608892616578755E-003   4.4993641695074985E-002   0.0000000000000000     
   9.8755477248605589E-003   5.0180367311919473E-002   0.0000000000000000     
   1.0475918545069428E-002   5.5582545889152547E-002   0.0000000000000000     
   5.2974531115972442E-003   3.5120965923605155E-002   0.0000000000000000     
   5.7234695793030735E-003   3.9874149557288137E-002   0.0000000000000000     
   6.1410545957762798E-003   4.4844651511924176E-002   0.0000000000000000     
   6.5502081610168657E-003   5.0032471787513272E-002   0.0000000000000000     
   6.9509302750248260E-003   5.5437610384055432E-002   0.0000000000000000     
   2.6315789968450313E-003   3.5034705771047503E-002   0.0000000000000000     
   2.8423773205542204E-003   3.9786578859154979E-002   0.0000000000000000     
   3.0493215357763697E-003   4.4756206658482872E-002   0.0000000000000000     
   3.2524116425114778E-003   4.9943589169031154E-002   0.0000000000000000     
   3.4516476407595456E-003   5.5348726390799866E-002   0.0000000000000000     
  -8.9129379855685826E-006   3.5007768884878818E-002   0.0000000000000000     
  -1.1333620785178777E-005   3.9759656944219623E-002   0.0000000000000000     
  -1.4309918341856066E-005   4.4728307134751066E-002   0.0000000000000000     
  -1.7841830655601439E-005   4.9913719456473153E-002   0.0000000000000000     
  -2.1929357726414639E-005   5.5315893909385856E-002   0.0000000000000000     
   1.4026612450893351E-002   5.5783532906091213E-002   0.0000000000000000     
   1.4801535022448648E-002   6.1377924780901184E-002   0.0000000000000000     
   1.5551361187183572E-002   6.7156427448121156E-002   0.0000000000000000     
   1.6276090945098121E-002   7.3119040907751148E-002   0.0000000000000000     
   1.6975724296192301E-002   7.9265765159791141E-002   0.0000000000000000     
   1.0475918545069428E-002   5.5582545889152547E-002   0.0000000000000000     
   1.1059159310690592E-002   6.1183978429409126E-002   0.0000000000000000     
   1.1622427610130166E-002   6.6968465935324129E-002   0.0000000000000000     
   1.2165723443388140E-002   7.2936008406897526E-002   0.0000000000000000     
   1.2689046810464526E-002   7.9086605844129340E-002   0.0000000000000000     
   6.9509302750248260E-003   5.5437610384055432E-002   0.0000000000000000     
   7.3404726057854268E-003   6.1042816697051493E-002   0.0000000000000000     
   7.7160868212839285E-003   6.6830840122002313E-002   0.0000000000000000     
   8.0777729215203327E-003   7.2801680658907852E-002   0.0000000000000000     
   8.4255309064946368E-003   7.8955338307768144E-002   0.0000000000000000     
   3.4516476407595456E-003   5.5348726390799866E-002   0.0000000000000000     
   3.6454749077331483E-003   6.0954439583828277E-002   0.0000000000000000     
   3.8323388206448661E-003   6.6743550008155711E-002   0.0000000000000000     
   4.0122393794946960E-003   7.2716057663782155E-002   0.0000000000000000     
   4.1851765842826402E-003   7.8871962550707594E-002   0.0000000000000000     
  -2.1929357726414639E-005   5.5315893909385856E-002   0.0000000000000000     
  -2.5833783466241598E-005   6.0918847089739492E-002   0.0000000000000000     
  -2.8816391787025324E-005   6.6706595593784321E-002   0.0000000000000000     
  -3.0877182688767688E-005   7.2679139421520378E-002   0.0000000000000000     
  -3.2016156171467197E-005   7.8836478572947608E-002   0.0000000000000000     
   1.6975724296192301E-002   7.9265765159791141E-002   0.0000000000000000     
   1.7649867218357256E-002   8.5584334363417780E-002   0.0000000000000000     
   1.8298125689484128E-002   9.2062482677807644E-002   0.0000000000000000     
   1.8920499709572922E-002   9.8700210102960789E-002   0.0000000000000000     
   1.9516989278623637E-002  0.10549751663887716        0.0000000000000000     
   1.2689046810464526E-002   7.9086605844129340E-002   0.0000000000000000     
   1.3193088509799949E-002   8.5409123942572718E-002   0.0000000000000000     
   1.3678539339835045E-002   9.1892428397780779E-002   0.0000000000000000     
   1.4145399300569815E-002   9.8536519209753509E-002   0.0000000000000000     
   1.4593668392004258E-002  0.10534139637849090        0.0000000000000000     
   8.4255309064946368E-003   7.8955338307768144E-002   0.0000000000000000     
   8.7603758076122504E-003   8.5281123827741417E-002   0.0000000000000000     
   9.0833226562785831E-003   9.1768347977985790E-002   0.0000000000000000     
   9.3943714524936297E-003   9.8417010758501275E-002   0.0000000000000000     
   9.6935221962573918E-003  0.10522711216928791        0.0000000000000000     
   4.1851765842826402E-003   7.8871962550707594E-002   0.0000000000000000     
   4.3517291117941654E-003   8.5200334018923837E-002   0.0000000000000000     
   4.5124756388147409E-003   9.1690241418422691E-002   0.0000000000000000     
   4.6674161653443647E-003   9.8341684749204142E-002   0.0000000000000000     
   4.8165506913830404E-003  0.10515466401126820        0.0000000000000000     
  -3.2016156171467197E-005   7.8836478572947608E-002   0.0000000000000000     
  -3.2851577654310210E-005   8.5166754516120005E-002   0.0000000000000000     
  -3.4001712556478803E-005   9.1658108719091483E-002   0.0000000000000000     
  -3.5466560877975861E-005   9.8310541181862054E-002   0.0000000000000000     
  -3.7246122618799990E-005  0.10512405190443175        0.0000000000000000     
   1.9516989278623637E-002  0.10549751663887716        0.0000000000000000     
   2.0089657441208237E-002  0.11244316323295805        0.0000000000000000     
   2.0640567241898698E-002  0.11952591083260473        0.0000000000000000     
   2.1169718680695022E-002  0.12674575943781721        0.0000000000000000     
   2.1677111757597203E-002  0.13410270904859550        0.0000000000000000     
   1.4593668392004258E-002  0.10534139637849090        0.0000000000000000     
   1.5025199753102167E-002  0.11229573944610378        0.0000000000000000     
   1.5441846522827325E-002  0.11938822795470294        0.0000000000000000     
   1.5843608701179741E-002  0.12661886190428839        0.0000000000000000     
   1.6230486288159412E-002  0.13398764129486007        0.0000000000000000     
   9.6935221962573918E-003  0.10522711216928791        0.0000000000000000     
   9.9819791067846213E-003  0.11218675943265358        0.0000000000000000     
   1.0260946403290059E-002  0.11928405977090621        0.0000000000000000     
   1.0530424085773706E-002  0.12651901318404579        0.0000000000000000     
   1.0790412154235565E-002  0.13389161967207236        0.0000000000000000     
   4.8165506913830404E-003  0.10515466401126820        0.0000000000000000     
   4.9599955022556035E-003  0.11211622319260746        0.0000000000000000     
   5.0978668832868954E-003  0.11921340628121460        0.0000000000000000     
   5.2301648344769136E-003  0.12644621327708955        0.0000000000000000     
   5.3568893558256598E-003  0.13381464418023231        0.0000000000000000     
  -3.7246122618799990E-005  0.10512405190443175        0.0000000000000000     
  -4.0751060484883923E-005  0.11208413072596543        0.0000000000000000     
  -4.7392037182163106E-005  0.11917626748562804        0.0000000000000000     
  -5.7169052710635289E-005  0.12640046218341955        0.0000000000000000     
  -7.0082107070300933E-005  0.13375671481933996        0.0000000000000000     
   2.1677111757597203E-002  0.13410270904859550        0.0000000000000000     
   2.2158713676585270E-002  0.14158466430192751        0.0000000000000000     
   2.2610491641639242E-002  0.14917952983480126        0.0000000000000000     
   2.3032445652759127E-002  0.15688730564721673        0.0000000000000000     
   2.3424575709944922E-002  0.16470799173917400        0.0000000000000000     
   1.6230486288159412E-002  0.13398764129486007        0.0000000000000000     
   1.6601010315027764E-002  0.14148312313550138        0.0000000000000000     
   1.6953711813046224E-002  0.14909386443529551        0.0000000000000000     
   1.7288590782214796E-002  0.15681986519424251        0.0000000000000000     
   1.7605647222533480E-002  0.16466112541234240        0.0000000000000000     
   1.0790412154235565E-002  0.13389161967207236        0.0000000000000000     
   1.1041155857724170E-002  0.14139110978660854        0.0000000000000000     
   1.1282900445288064E-002  0.14900671407927704        0.0000000000000000     
   1.1515645916927240E-002  0.15673843255007780        0.0000000000000000     
   1.1739392272641706E-002  0.16458626519901079        0.0000000000000000     
   5.3568893558256598E-003  0.13381464418023231        0.0000000000000000     
   5.4791503046744882E-003  0.14130862425524904        0.0000000000000000     
   5.5980575383647547E-003  0.14891807876674570        0.0000000000000000     
   5.7136110568964593E-003  0.15664300771472245        0.0000000000000000     
   5.8258108602696028E-003  0.16448341109917919        0.0000000000000000     
  -7.0082107070300933E-005  0.13375671481933996        0.0000000000000000     
  -8.5006344121280834E-005  0.14123566654142283        0.0000000000000000     
  -1.0081690772369568E-004  0.14882795849770172        0.0000000000000000     
  -1.1751379787754599E-004  0.15653359068817663        0.0000000000000000     
  -1.3509701458283042E-004  0.16435256311284757        0.0000000000000000     
   0.0000000000000000        0.0000000000000000        0.0000000000000000     
  -1.9344452651241816E-007   1.0734152299102415E-003   0.0000000000000000     
  -4.5803505903027879E-007   2.5156919958955366E-003   0.0000000000000000     
  -7.9377159755371742E-007   4.3268302979558851E-003   0.0000000000000000     
  -1.2006541420824359E-006   6.5068301360912848E-003   0.0000000000000000     
   0.0000000000000000        0.0000000000000000        0.0000000000000000     
  -2.1316658452875763E-004   1.0757192276982471E-003   0.0000000000000000     
  -4.2741951414134154E-004   2.5209279939704347E-003   0.0000000000000000     
  -6.4275878883775163E-004   4.3356262988165613E-003   0.0000000000000000     
  -8.5918440861798779E-004   6.5198141422366292E-003   0.0000000000000000     
   0.0000000000000000        0.0000000000000000        0.0000000000000000     
  -4.2443051906169207E-004   1.0826110675788328E-003   0.0000000000000000     
  -8.5340326846693832E-004   2.5364745914585739E-003   0.0000000000000000     
  -1.2869182482157387E-003   4.3615905716392241E-003   0.0000000000000000     
  -1.7249754583080930E-003   6.5579590081207813E-003   0.0000000000000000     
   0.0000000000000000        0.0000000000000000        0.0000000000000000     
  -6.3398524812531608E-004   1.0940907495519980E-003   0.0000000000000000     
  -1.2784092980358209E-003   2.5623317883599556E-003   0.0000000000000000     
  -1.9332721497315151E-003   4.4047231164238716E-003   0.0000000000000000     
  -2.5985738032123979E-003   6.6212647337437472E-003   0.0000000000000000     
   0.0000000000000000        0.0000000000000000        0.0000000000000000     
  -8.4183077171962907E-004   1.1101582736177435E-003   0.0000000000000000     
  -1.7024376028479892E-003   2.5984995846745785E-003   0.0000000000000000     
  -2.5818204933850805E-003   4.4650239331705038E-003   0.0000000000000000     
  -3.4799794433309026E-003   6.7097313191055207E-003   0.0000000000000000     
  -1.2006541420824359E-006   6.5068301360912848E-003   0.0000000000000000     
  -1.6672284307433789E-006   9.0283651523973048E-003   0.0000000000000000     
  -2.1820402016638164E-006   1.1864108988969512E-002   0.0000000000000000     
  -2.7450894548429895E-006   1.5014061645807906E-002   0.0000000000000000     
  -3.3563761902814402E-006   1.8478223122912488E-002   0.0000000000000000     
  -8.5918440861798779E-004   6.5198141422366292E-003   0.0000000000000000     
  -1.0778431839302250E-003   9.0454651719876697E-003   0.0000000000000000     
  -1.2998819252226365E-003   1.1884553035826719E-002   0.0000000000000000     
  -1.5253006324952238E-003   1.5037077733753778E-002   0.0000000000000000     
  -1.7540993057479860E-003   1.8503039265768843E-002   0.0000000000000000     
  -1.7249754583080930E-003   6.5579590081207813E-003   0.0000000000000000     
  -2.1677435867402204E-003   9.0956436890755350E-003   0.0000000000000000     
  -2.6153913215083398E-003   1.1944708402675764E-002   0.0000000000000000     
  -3.0679186626124517E-003   1.5105153148921472E-002   0.0000000000000000     
  -3.5253256100525564E-003   1.8576977927812655E-002   0.0000000000000000     
  -2.5985738032123979E-003   6.6212647337437472E-003   0.0000000000000000     
  -3.2713684368607309E-003   9.1789007036608972E-003   0.0000000000000000     
  -3.9487102290587748E-003   1.2044575089516644E-002   0.0000000000000000     
  -4.6305991798065282E-003   1.5218287891310984E-002   0.0000000000000000     
  -5.3170352891039937E-003   1.8700039109043918E-002   0.0000000000000000     
  -3.4799794433309026E-003   6.7097313191055207E-003   0.0000000000000000     
  -4.3887177342917562E-003   9.2952362157437633E-003   0.0000000000000000     
  -5.2998386478739388E-003   1.2184153096349360E-002   0.0000000000000000     
  -6.2133421840774531E-003   1.5376481960922320E-002   0.0000000000000000     
  -7.1292283429022973E-003   1.8872222809462633E-002   0.0000000000000000     
  -3.3563761902814402E-006   1.8478223122912488E-002   0.0000000000000000     
  -4.1802154099128386E-006   2.2227269148463635E-002   0.0000000000000000     
  -5.3809221156712070E-006   2.6231875450641741E-002   0.0000000000000000     
  -6.9584963075566063E-006   3.0492042029446800E-002   0.0000000000000000     
  -8.9129379855685826E-006   3.5007768884878818E-002   0.0000000000000000     
  -1.7540993057479860E-003   1.8503039265768843E-002   0.0000000000000000     
  -1.9828700822853971E-003   2.2253558510225480E-002   0.0000000000000000     
  -2.2082050994119318E-003   2.6259756345477246E-002   0.0000000000000000     
  -2.4301043571275886E-003   3.0521632771524143E-002   0.0000000000000000     
  -2.6485678554323700E-003   3.5039187788366170E-002   0.0000000000000000     
  -3.5253256100525564E-003   1.8576977927812655E-002   0.0000000000000000     
  -3.9818735047574211E-003   2.2332052591533345E-002   0.0000000000000000     
  -4.4318236876558156E-003   2.6342246992267570E-002   0.0000000000000000     
  -4.8751761587477382E-003   3.0607561130015341E-002   0.0000000000000000     
  -5.3119309180331906E-003   3.5127995004776640E-002   0.0000000000000000     
  -5.3170352891039937E-003   1.8700039109043918E-002   0.0000000000000000     
  -6.0011904828259849E-003   2.2462751392387233E-002   0.0000000000000000     
  -6.6762366868473233E-003   2.6479347391012729E-002   0.0000000000000000     
  -7.3421739011680035E-003   3.0749827104920389E-002   0.0000000000000000     
  -7.9990021257880309E-003   3.5274190534110232E-002   0.0000000000000000     
  -7.1292283429022973E-003   1.8872222809462633E-002   0.0000000000000000     
  -8.0408210164910916E-003   2.2645654912787146E-002   0.0000000000000000     
  -8.9414440969864534E-003   2.6671057541712697E-002   0.0000000000000000     
  -9.8310975843883871E-003   3.0948430696239301E-002   0.0000000000000000     
  -1.0709781478696887E-002   3.5477774376366941E-002   0.0000000000000000     
  -8.9129379855685826E-006   3.5007768884878818E-002   0.0000000000000000     
  -1.1333620785178777E-005   3.9759656944219623E-002   0.0000000000000000     
  -1.4309918341856066E-005   4.4728307134751066E-002   0.0000000000000000     
  -1.7841830655601439E-005   4.9913719456473153E-002   0.0000000000000000     
  -2.1929357726414639E-005   5.5315893909385856E-002   0.0000000000000000     
  -2.6485678554323700E-003   3.5039187788366170E-002   0.0000000000000000     
  -2.8638958176912953E-003   3.9792119475826296E-002   0.0000000000000000     
  -3.0763884672693857E-003   4.4760125913727487E-002   0.0000000000000000     
  -3.2860458041666422E-003   4.9943207102069738E-002   0.0000000000000000     
  -3.4928678283830620E-003   5.5341363040853055E-002   0.0000000000000000     
  -5.3119309180331906E-003   3.5127995004776640E-002   0.0000000000000000     
  -5.7415418431403043E-003   3.9882702117319223E-002   0.0000000000000000     
  -6.1634628116972109E-003   4.4850835968410836E-002   0.0000000000000000     
  -6.5776938237039105E-003   5.0032396558051466E-002   0.0000000000000000     
  -6.9842348791604022E-003   5.5427383886241119E-002   0.0000000000000000     
  -7.9990021257880309E-003   3.5274190534110232E-002   0.0000000000000000     
  -8.6442716971322029E-003   4.0031404868698411E-002   0.0000000000000000     
  -9.2755329516253284E-003   4.5000437298801120E-002   0.0000000000000000     
  -9.8927858892674091E-003   5.0181287824418323E-002   0.0000000000000000     
  -1.0496030510058440E-002   5.5573956445550056E-002   0.0000000000000000     
  -1.0709781478696887E-002   3.5477774376366941E-002   0.0000000000000000     
  -1.1572085379666993E-002   4.0238227729963869E-002   0.0000000000000000     
  -1.2412598887053743E-002   4.5208929904898332E-002   0.0000000000000000     
  -1.3231322000857134E-002   5.0389880901170324E-002   0.0000000000000000     
  -1.4028254721077171E-002   5.5781080718779845E-002   0.0000000000000000     
  -2.1929357726414639E-005   5.5315893909385856E-002   0.0000000000000000     
  -2.5833783466241598E-005   6.0918847089739492E-002   0.0000000000000000     
  -2.8816391787025324E-005   6.6706595593784321E-002   0.0000000000000000     
  -3.0877182688767688E-005   7.2679139421520378E-002   0.0000000000000000     
  -3.2016156171467197E-005   7.8836478572947608E-002   0.0000000000000000     
  -3.4928678283830620E-003   5.5341363040853055E-002   0.0000000000000000     
  -3.6939413304868801E-003   6.0940165633774912E-002   0.0000000000000000     
  -3.8863531010463266E-003   6.6725186784532750E-002   0.0000000000000000     
  -4.0701031400614028E-003   7.2696426493126548E-002   0.0000000000000000     
  -4.2451914475321092E-003   7.8853884759556361E-002   0.0000000000000000     
  -6.9842348791604022E-003   5.5427383886241119E-002   0.0000000000000000     
  -7.3793355960029023E-003   6.1022521634924304E-002   0.0000000000000000     
  -7.7592455921676184E-003   6.6804533486045509E-002   0.0000000000000000     
  -8.1239648676545550E-003   7.2773419439604720E-002   0.0000000000000000     
  -8.4734934224637119E-003   7.8929179495601950E-002   0.0000000000000000     
  -1.0496030510058440E-002   5.5573956445550056E-002   0.0000000000000000     
  -1.1082016580014308E-002   6.1165915093187688E-002   0.0000000000000000     
  -1.1647493865150904E-002   6.6944635698322638E-002   0.0000000000000000     
  -1.2192462365468225E-002   7.2910118260954865E-002   0.0000000000000000     
  -1.2716922080966270E-002   7.9062362781084403E-002   0.0000000000000000     
  -1.4028254721077171E-002   5.5781080718779845E-002   0.0000000000000000     
  -1.4801984282521101E-002   6.1370346008565058E-002   0.0000000000000000     
  -1.5551097919996182E-002   6.7145493421364111E-002   0.0000000000000000     
  -1.6275595633502411E-002   7.3106522957176970E-002   0.0000000000000000     
  -1.6975477423039793E-002   7.9253434616003704E-002   0.0000000000000000     
  -3.2016156171467197E-005   7.8836478572947608E-002   0.0000000000000000     
  -3.2851577654310210E-005   8.5166754516120005E-002   0.0000000000000000     
  -3.4001712556478803E-005   9.1658108719091483E-002   0.0000000000000000     
  -3.5466560877975861E-005   9.8310541181862054E-002   0.0000000000000000     
  -3.7246122618799990E-005  0.10512405190443175        0.0000000000000000     
  -4.2451914475321092E-003   7.8853884759556361E-002   0.0000000000000000     
  -4.4133392331707540E-003   8.5184630599408284E-002   0.0000000000000000     
  -4.5762677066896471E-003   9.1675733028268480E-002   0.0000000000000000     
  -4.7339768680887883E-003   9.8327192046136935E-002   0.0000000000000000     
  -4.8864667173681786E-003  0.10513900765301362        0.0000000000000000     
  -8.4734934224637119E-003   7.8929179495601950E-002   0.0000000000000000     
  -8.8097068271927505E-003   8.5258207548867093E-002   0.0000000000000000     
  -9.1344806524393321E-003   9.1746897494229915E-002   0.0000000000000000     
  -9.4478148982034653E-003   9.8395249331690512E-002   0.0000000000000000     
  -9.7497095644851449E-003  0.10520326306124884        0.0000000000000000     
  -1.2716922080966270E-002   7.9062362781084403E-002   0.0000000000000000     
  -1.3221954359720289E-002   8.5387485364496377E-002   0.0000000000000000     
  -1.3708640549805541E-002   9.1871602116975856E-002   0.0000000000000000     
  -1.4176980651222007E-002   9.8514713038522869E-002   0.0000000000000000     
  -1.4626974663969698E-002  0.10531681812913739        0.0000000000000000     
  -1.6975477423039793E-002   7.9253434616003704E-002   0.0000000000000000     
  -1.7650081830753388E-002   8.5572464046296148E-002   0.0000000000000000     
  -1.8298747398788260E-002   9.2049846896506207E-002   0.0000000000000000     
  -1.8921474127144410E-002   9.8685583166633936E-002   0.0000000000000000     
  -1.9518262015821838E-002  0.10547967285667928        0.0000000000000000     
  -3.7246122618799990E-005  0.10512405190443175        0.0000000000000000     
  -4.0751060484883923E-005  0.11208413072596543        0.0000000000000000     
  -4.7392037182163106E-005  0.11917626748562804        0.0000000000000000     
  -5.7169052710635289E-005  0.12640046218341955        0.0000000000000000     
  -7.0082107070300933E-005  0.13375671481933996        0.0000000000000000     
  -4.8864667173681786E-003  0.10513900765301362        0.0000000000000000     
  -5.0364418290516069E-003  0.11209548552412341        0.0000000000000000     
  -5.1866067776628628E-003  0.11918093133469115        0.0000000000000000     
  -5.3369615632019524E-003  0.12639534508471678        0.0000000000000000     
  -5.4875061856688671E-003  0.13373872677420037        0.0000000000000000     
  -9.7497095644851449E-003  0.10520326306124884        0.0000000000000000     
  -1.0043258051059325E-002  0.11215529107847734        0.0000000000000000     
  -1.0331553757700958E-002  0.11923568577894847        0.0000000000000000     
  -1.0614596684410046E-002  0.12644444716266223        0.0000000000000000     
  -1.0892386831186589E-002  0.13378157522961864        0.0000000000000000     
  -1.4626974663969698E-002  0.10531681812913739        0.0000000000000000     
  -1.5061199726508039E-002  0.11226354738902719        0.0000000000000000     
  -1.5482232977296442E-002  0.11934053081840003        0.0000000000000000     
  -1.5890074416334918E-002  0.12654776841725590        0.0000000000000000     
  -1.6284724043623459E-002  0.13388526018559485        0.0000000000000000     
  -1.9518262015821838E-002  0.10547967285667928        0.0000000000000000     
  -2.0090266855397745E-002  0.11242025445577299        0.0000000000000000     
  -2.0638644436449322E-002  0.11949546645304583        0.0000000000000000     
  -2.1163394758976575E-002  0.12670530884849782        0.0000000000000000     
  -2.1664517822979498E-002  0.13404978164212894        0.0000000000000000     
  -7.0082107070300933E-005  0.13375671481933996        0.0000000000000000     
  -8.5006344121280834E-005  0.14123566654142283        0.0000000000000000     
  -1.0081690772369568E-004  0.14882795849770172        0.0000000000000000     
  -1.1751379787754599E-004  0.15653359068817663        0.0000000000000000     
  -1.3509701458283042E-004  0.16435256311284757        0.0000000000000000     
  -5.4875061856688671E-003  0.13373872677420037        0.0000000000000000     
  -5.6373023993994678E-003  0.14120213242966373        0.0000000000000000     
  -5.7854119587296051E-003  0.14877661807762871        0.0000000000000000     
  -5.9318348636592834E-003  0.15646218371809528        0.0000000000000000     
  -6.0765711141884992E-003  0.16425882935106353        0.0000000000000000     
  -1.0892386831186589E-002  0.13378157522961864        0.0000000000000000     
  -1.1163726171896397E-002  0.14123791770450547        0.0000000000000000     
  -1.1427416680405289E-002  0.14880432231201041        0.0000000000000000     
  -1.1683458356713257E-002  0.15648078905213350        0.0000000000000000     
  -1.1931851200820309E-002  0.16426731792487470        0.0000000000000000     
  -1.6284724043623459E-002  0.13388526018559485        0.0000000000000000     
  -1.6664277661612072E-002  0.14134302236594806        0.0000000000000000     
  -1.7026831072750742E-002  0.14891107120084687        0.0000000000000000     
  -1.7372384277039472E-002  0.15658940669029117        0.0000000000000000     
  -1.7700937274478256E-002  0.16437802883428104        0.0000000000000000     
  -2.1664517822979498E-002  0.13404978164212894        0.0000000000000000     
  -2.2138956868546496E-002  0.14151744641399155        0.0000000000000000     
  -2.2583655135765969E-002  0.14909686474413802        0.0000000000000000     
  -2.2998612624637919E-002  0.15678803663256835        0.0000000000000000     
  -2.3383829335162344E-002  0.16459096207928256        0.0000000000000000     
   0.0000000000000000        0.0000000000000000        0.0000000000000000     
  -8.4183077171962907E-004   1.1101582736177435E-003   0.0000000000000000     
  -1.7024376028479892E-003   2.5984995846745785E-003   0.0000000000000000     
  -2.5818204933850805E-003   4.4650239331705038E-003   0.0000000000000000     
  -3.4799794433309026E-003   6.7097313191055207E-003   0.0000000000000000     
   0.0000000000000000        0.0000000000000000        0.0000000000000000     
  -1.0568534249498394E-003   1.1343680846584675E-003   0.0000000000000000     
  -2.1400198880431810E-003   2.6508189990134879E-003   0.0000000000000000     
  -3.2494993892800243E-003   4.5493527430650604E-003   0.0000000000000000     
  -4.3852919286603695E-003   6.8299693168131868E-003   0.0000000000000000     
   0.0000000000000000        0.0000000000000000        0.0000000000000000     
  -1.2879395429211547E-003   1.1702746275565692E-003   0.0000000000000000     
  -2.6056878587611336E-003   2.7251310499877297E-003   0.0000000000000000     
  -3.9532449475199356E-003   4.6645692672934802E-003   0.0000000000000000     
  -5.3306108091975609E-003   6.9885892794738207E-003   0.0000000000000000     
   0.0000000000000000        0.0000000000000000        0.0000000000000000     
  -1.5350891256335757E-003   1.2178779023120498E-003   0.0000000000000000     
  -3.0994415150018472E-003   2.8214357375973037E-003   0.0000000000000000     
  -4.6930571681048135E-003   4.8106735058557623E-003   0.0000000000000000     
  -6.3159360849424761E-003   7.1855912070874252E-003   0.0000000000000000     
   0.0000000000000000        0.0000000000000000        0.0000000000000000     
  -1.7983021730871012E-003   1.2771779089249073E-003   0.0000000000000000     
  -3.6212808567653212E-003   2.9397330618422097E-003   0.0000000000000000     
  -5.4689360510346598E-003   4.9876654587519076E-003   0.0000000000000000     
  -7.3412677558951159E-003   7.4209750996540001E-003   0.0000000000000000     
  -3.4799794433309026E-003   6.7097313191055207E-003   0.0000000000000000     
  -4.3887177342917562E-003   9.2952362157437633E-003   0.0000000000000000     
  -5.2998386478739388E-003   1.2184153096349360E-002   0.0000000000000000     
  -6.2133421840774531E-003   1.5376481960922320E-002   0.0000000000000000     
  -7.1292283429022973E-003   1.8872222809462633E-002   0.0000000000000000     
  -4.3852919286603695E-003   6.8299693168131868E-003   0.0000000000000000     
  -5.5344920233945010E-003   9.4506505711453841E-003   0.0000000000000000     
  -6.6841941906927004E-003   1.2369378356949170E-002   0.0000000000000000     
  -7.8343984305549678E-003   1.5586152674224541E-002   0.0000000000000000     
  -8.9851047429813074E-003   1.9100973522971510E-002   0.0000000000000000     
  -5.3306108091975609E-003   6.9885892794738207E-003   0.0000000000000000     
  -6.7233918485301702E-003   9.6511441156870124E-003   0.0000000000000000     
  -8.1171944702539221E-003   1.2606186805091317E-002   0.0000000000000000     
  -9.5120186743688200E-003   1.5853717347686733E-002   0.0000000000000000     
  -1.0907864460874861E-002   1.9393735743473257E-002   0.0000000000000000     
  -6.3159360849424761E-003   7.1855912070874252E-003   0.0000000000000000     
  -7.9554172096987646E-003   9.8967168493686534E-003   0.0000000000000000     
  -9.5988394865576063E-003   1.2894578440775807E-002   0.0000000000000000     
  -1.1246202915519008E-002   1.6179175981308882E-002   0.0000000000000000     
  -1.2897507496582961E-002   1.9750509470967886E-002   0.0000000000000000     
  -7.3412677558951159E-003   7.4209750996540001E-003   0.0000000000000000     
  -9.2305681069002835E-003   1.0187368772190303E-002   0.0000000000000000     
  -1.1129129239603755E-002   1.3234553264002635E-002   0.0000000000000000     
  -1.3036951154005529E-002   1.6562528575090996E-002   0.0000000000000000     
  -1.4954033850105604E-002   2.0171294705455381E-002   0.0000000000000000     
  -7.1292283429022973E-003   1.8872222809462633E-002   0.0000000000000000     
  -8.0408210164910916E-003   2.2645654912787146E-002   0.0000000000000000     
  -8.9414440969864534E-003   2.6671057541712697E-002   0.0000000000000000     
  -9.8310975843883871E-003   3.0948430696239301E-002   0.0000000000000000     
  -1.0709781478696887E-002   3.5477774376366941E-002   0.0000000000000000     
  -8.9851047429813074E-003   1.9100973522971510E-002   0.0000000000000000     
  -1.0129051972354272E-002   2.2889056430990193E-002   0.0000000000000000     
  -1.1258978963056426E-002   2.6925616926080715E-002   0.0000000000000000     
  -1.2374885715087767E-002   3.1210655008243070E-002   0.0000000000000000     
  -1.3476772228448295E-002   3.5744170677477274E-002   0.0000000000000000     
  -1.0907864460874861E-002   1.9393735743473257E-002   0.0000000000000000     
  -1.2294170217017064E-002   2.3201249225253476E-002   0.0000000000000000     
  -1.3660374330040456E-002   2.7251265025829960E-002   0.0000000000000000     
  -1.5006476799945028E-002   3.1543783145202710E-002   0.0000000000000000     
  -1.6332477626730787E-002   3.6078803583371719E-002   0.0000000000000000     
  -1.2897507496582961E-002   1.9750509470967886E-002   0.0000000000000000     
  -1.4536175750479474E-002   2.3582233295577005E-002   0.0000000000000000     
  -1.6145630197938542E-002   2.7648001840960456E-002   0.0000000000000000     
  -1.7725870838960173E-002   3.1947815107118215E-002   0.0000000000000000     
  -1.9276897673544364E-002   3.6481673094050295E-002   0.0000000000000000     
  -1.4954033850105604E-002   2.0171294705455381E-002   0.0000000000000000     
  -1.6855068572741490E-002   2.4032008641960784E-002   0.0000000000000000     
  -1.8714746566750685E-002   2.8115827371472186E-002   0.0000000000000000     
  -2.0533067832133201E-002   3.2422750893989584E-002   0.0000000000000000     
  -2.2310032368889024E-002   3.6952779209512988E-002   0.0000000000000000     
  -1.0709781478696887E-002   3.5477774376366941E-002   0.0000000000000000     
  -1.1572085379666993E-002   4.0238227729963869E-002   0.0000000000000000     
  -1.2412598887053743E-002   4.5208929904898332E-002   0.0000000000000000     
  -1.3231322000857134E-002   5.0389880901170324E-002   0.0000000000000000     
  -1.4028254721077171E-002   5.5781080718779845E-002   0.0000000000000000     
  -1.3476772228448295E-002   3.5744170677477274E-002   0.0000000000000000     
  -1.4556744983878661E-002   4.0506361462834123E-002   0.0000000000000000     
  -1.5606910462119520E-002   4.5477424893364427E-002   0.0000000000000000     
  -1.6627268663170866E-002   5.0657360969068192E-002   0.0000000000000000     
  -1.7617819587032704E-002   5.6046169689945427E-002   0.0000000000000000     
  -1.6332477626730787E-002   3.6078803583371719E-002   0.0000000000000000     
  -1.7630012602901195E-002   4.0838996829027703E-002   0.0000000000000000     
  -1.8890717520959728E-002   4.5807033370861359E-002   0.0000000000000000     
  -2.0114592380906376E-002   5.0982913208872681E-002   0.0000000000000000     
  -2.1301637182741140E-002   5.6366636343061653E-002   0.0000000000000000     
  -1.9276897673544364E-002   3.6481673094050295E-002   0.0000000000000000     
  -2.0791888236734599E-002   4.1236133828544616E-002   0.0000000000000000     
  -2.2264020063574367E-002   4.6197755337389103E-002   0.0000000000000000     
  -2.3693293154063662E-002   5.1366537620583755E-002   0.0000000000000000     
  -2.5079707508202487E-002   5.6742480678128579E-002   0.0000000000000000     
  -2.2310032368889024E-002   3.6952779209512988E-002   0.0000000000000000     
  -2.4042371885378867E-002   4.1697772461384862E-002   0.0000000000000000     
  -2.5726818089963441E-002   4.6649590792947684E-002   0.0000000000000000     
  -2.7363370982642733E-002   5.1808234204201456E-002   0.0000000000000000     
  -2.8952030563416751E-002   5.7173702695146170E-002   0.0000000000000000     
  -1.4028254721077171E-002   5.5781080718779845E-002   0.0000000000000000     
  -1.4801984282521101E-002   6.1370346008565058E-002   0.0000000000000000     
  -1.5551097919996182E-002   6.7145493421364111E-002   0.0000000000000000     
  -1.6275595633502411E-002   7.3106522957176970E-002   0.0000000000000000     
  -1.6975477423039793E-002   7.9253434616003704E-002   0.0000000000000000     
  -1.7617819587032704E-002   5.6046169689945427E-002   0.0000000000000000     
  -1.8579115321012488E-002   6.1631749349093434E-002   0.0000000000000000     
  -1.9511707952417672E-002   6.7401998239609587E-002   0.0000000000000000     
  -2.0415597481248264E-002   7.3356916361493857E-002   0.0000000000000000     
  -2.1290783907504253E-002   7.9496503714746272E-002   0.0000000000000000     
  -2.1301637182741140E-002   5.6366636343061653E-002   0.0000000000000000     
  -2.2453286312977671E-002   6.1946060082809819E-002   0.0000000000000000     
  -2.3570974158129591E-002   6.7709041737498699E-002   0.0000000000000000     
  -2.4654700718196917E-002   7.3655581307128293E-002   0.0000000000000000     
  -2.5704465993179635E-002   7.9785678791698539E-002   0.0000000000000000     
  -2.5079707508202487E-002   5.6742480678128579E-002   0.0000000000000000     
  -2.6424497258416651E-002   6.2313278209714253E-002   0.0000000000000000     
  -2.7728896537131949E-002   6.8066623915031474E-002   0.0000000000000000     
  -2.8992905344348379E-002   7.4002517794080222E-002   0.0000000000000000     
  -3.0216523680065940E-002   8.0120959846860546E-002   0.0000000000000000     
  -2.8952030563416751E-002   5.7173702695146170E-002   0.0000000000000000     
  -3.0492748157329441E-002   6.2733403729806694E-002   0.0000000000000000     
  -3.1985475089424731E-002   6.8474744772207871E-002   0.0000000000000000     
  -3.3430211359702651E-002   7.4397725822349742E-002   0.0000000000000000     
  -3.4826956968163174E-002   8.0502346880232264E-002   0.0000000000000000     
  -1.6975477423039793E-002   7.9253434616003704E-002   0.0000000000000000     
  -1.7650081830753388E-002   8.5572464046296148E-002   0.0000000000000000     
  -1.8298747398788260E-002   9.2049846896506207E-002   0.0000000000000000     
  -1.8921474127144410E-002   9.8685583166633936E-002   0.0000000000000000     
  -1.9518262015821838E-002  0.10547967285667928        0.0000000000000000     
  -2.1290783907504253E-002   7.9496503714746272E-002   0.0000000000000000     
  -2.2134874346274546E-002   8.5807341271149626E-002   0.0000000000000000     
  -2.2945475912648030E-002   9.2276010002486780E-002   0.0000000000000000     
  -2.3722588606624705E-002   9.8902509908757694E-002   0.0000000000000000     
  -2.4466212428204577E-002  0.10568684098996239        0.0000000000000000     
  -2.5704465993179635E-002   7.9785678791698539E-002   0.0000000000000000     
  -2.6717117012266287E-002   8.6086314715940027E-002   0.0000000000000000     
  -2.7689500804645377E-002   9.2544469604583221E-002   0.0000000000000000     
  -2.8621617370316925E-002   9.9160143457628067E-002   0.0000000000000000     
  -2.9513466709280914E-002  0.10593333627507465        0.0000000000000000     
  -3.0216523680065940E-002   8.0120959846860546E-002   0.0000000000000000     
  -3.1396809828728597E-002   8.6409384380667337E-002   0.0000000000000000     
  -3.2530822074780315E-002   9.2855225702795502E-002   0.0000000000000000     
  -3.3618560418221061E-002   9.9458483813245069E-002   0.0000000000000000     
  -3.4660024859050863E-002  0.10621915871201604        0.0000000000000000     
  -3.4826956968163174E-002   8.0502346880232264E-002   0.0000000000000000     
  -3.6173952795661490E-002   8.6776550265331542E-002   0.0000000000000000     
  -3.7469439723052812E-002   9.3208278297123706E-002   0.0000000000000000     
  -3.8713417750337126E-002   9.9797530975608686E-002   0.0000000000000000     
  -3.9905886877514424E-002  0.10654430830078654        0.0000000000000000     
  -1.9518262015821838E-002  0.10547967285667928        0.0000000000000000     
  -2.0090266855397745E-002  0.11242025445577299        0.0000000000000000     
  -2.0638644436449322E-002  0.11949546645304583        0.0000000000000000     
  -2.1163394758976575E-002  0.12670530884849782        0.0000000000000000     
  -2.1664517822979498E-002  0.13404978164212894        0.0000000000000000     
  -2.4466212428204577E-002  0.10568684098996239        0.0000000000000000     
  -2.5175955468952505E-002  0.11261960702221996        0.0000000000000000     
  -2.5851425820433375E-002  0.11969141178164951        0.0000000000000000     
  -2.6492623482647176E-002  0.12690225526825100        0.0000000000000000     
  -2.7099548455593907E-002  0.13425213748202447        0.0000000000000000     
  -2.9513466709280914E-002  0.10593333627507465        0.0000000000000000     
  -3.0363761598396388E-002  0.11285579983187337        0.0000000000000000     
  -3.1171214814522383E-002  0.11991928590297465        0.0000000000000000     
  -3.1935826357658889E-002  0.12712379448837860        0.0000000000000000     
  -3.2657596227805903E-002  0.13446932558808505        0.0000000000000000     
  -3.4660024859050863E-002  0.10621915871201604        0.0000000000000000     
  -3.5653685243729402E-002  0.11312883288473316        0.0000000000000000     
  -3.6598011418716360E-002  0.12017908881702134        0.0000000000000000     
  -3.7493003384011729E-002  0.12736992650888049        0.0000000000000000     
  -3.8338661139615517E-002  0.13470134596031066        0.0000000000000000     
  -3.9905886877514424E-002  0.10654430830078654        0.0000000000000000     
  -4.1045726404951535E-002  0.11343870618079942        0.0000000000000000     
  -4.2131815633015282E-002  0.12047082052378949        0.0000000000000000     
  -4.3164154561705692E-002  0.12764065132975680        0.0000000000000000     
  -4.4142743191022724E-002  0.13494819859870127        0.0000000000000000     
  -2.1664517822979498E-002  0.13404978164212894        0.0000000000000000     
  -2.2138956868546496E-002  0.14151744641399155        0.0000000000000000     
  -2.2583655135765969E-002  0.14909686474413802        0.0000000000000000     
  -2.2998612624637919E-002  0.15678803663256835        0.0000000000000000     
  -2.3383829335162344E-002  0.16459096207928256        0.0000000000000000     
  -2.7099548455593907E-002  0.13425213748202447        0.0000000000000000     
  -2.7668448910778316E-002  0.14172811119665649        0.0000000000000000     
  -2.8195573019705138E-002  0.14931722918583368        0.0000000000000000     
  -2.8680920782374386E-002  0.15701949144955596        0.0000000000000000     
  -2.9124492198786048E-002  0.16483489798782336        0.0000000000000000     
  -3.2657596227805903E-002  0.13446932558808505        0.0000000000000000     
  -3.3333438906386181E-002  0.14194193806196359        0.0000000000000000     
  -3.3960268874822425E-002  0.14952769076988345        0.0000000000000000     
  -3.4538086133114647E-002  0.15722658371184478        0.0000000000000000     
  -3.5066890681262834E-002  0.16503861688784754        0.0000000000000000     
  -3.8338661139615517E-002  0.13470134596031066        0.0000000000000000     
  -3.9133926855370101E-002  0.14215892700991267        0.0000000000000000     
  -3.9877742701117817E-002  0.14972824949628741        0.0000000000000000     
  -4.0570108676858688E-002  0.15740931341943487        0.0000000000000000     
  -4.1211024782592712E-002  0.16520211877935506        0.0000000000000000     
  -4.4142743191022724E-002  0.13494819859870127        0.0000000000000000     
  -4.5069912757730049E-002  0.14237907804050390        0.0000000000000000     
  -4.5947994498591327E-002  0.14991890536504557        0.0000000000000000     
  -4.6776988413606523E-002  0.15756768057232623        0.0000000000000000     
  -4.7556894502775671E-002  0.16532540366234599        0.0000000000000000     
   0.0000000000000000        0.0000000000000000        0.0000000000000000     
  -1.7983021730871012E-003   1.2771779089249073E-003   0.0000000000000000     
  -3.6212808567653212E-003   2.9397330618422097E-003   0.0000000000000000     
  -5.4689360510346598E-003   4.9876654587519076E-003   0.0000000000000000     
  -7.3412677558951159E-003   7.4209750996540001E-003   0.0000000000000000     
   0.0000000000000000        0.0000000000000000        0.0000000000000000     
  -2.0693342295221668E-003   1.3552776930899277E-003   0.0000000000000000     
  -4.1638800174068399E-003   3.0945305868960225E-003   0.0000000000000000     
  -6.2836373636540200E-003   5.2177586814182841E-003   0.0000000000000000     
  -8.4286062682637046E-003   7.7249619766567102E-003   0.0000000000000000     
   0.0000000000000000        0.0000000000000000        0.0000000000000000     
  -2.3399408391792061E-003   1.4592803005018949E-003   0.0000000000000000     
  -4.7199131302816874E-003   3.3003358769323147E-003   0.0000000000000000     
  -7.1399168733074442E-003   5.5231667292912588E-003   0.0000000000000000     
  -9.5999520682564753E-003   8.1277728575787269E-003   0.0000000000000000     
   0.0000000000000000        0.0000000000000000        0.0000000000000000     
  -2.6101220020582198E-003   1.5891857311608093E-003   0.0000000000000000     
  -5.2893801953898621E-003   3.5571489319510866E-003   0.0000000000000000     
  -8.0377745799949298E-003   5.9038896023708319E-003   0.0000000000000000     
  -1.0855305155873419E-002   8.6294077424200460E-003   0.0000000000000000     
   0.0000000000000000        0.0000000000000000        0.0000000000000000     
  -2.8798777181592069E-003   1.7449939850666702E-003   0.0000000000000000     
  -5.8722812127313664E-003   3.8649697519523392E-003   0.0000000000000000     
  -8.9772104837164794E-003   6.3599273006570058E-003   0.0000000000000000     
  -1.2194665531114543E-002   9.2298666311806717E-003   0.0000000000000000     
  -7.3412677558951159E-003   7.4209750996540001E-003   0.0000000000000000     
  -9.2305681069002835E-003   1.0187368772190303E-002   0.0000000000000000     
  -1.1129129239603755E-002   1.3234553264002635E-002   0.0000000000000000     
  -1.3036951154005529E-002   1.6562528575090996E-002   0.0000000000000000     
  -1.4954033850105604E-002   2.0171294705455381E-002   0.0000000000000000     
  -8.4286062682637046E-003   7.7249619766567102E-003   0.0000000000000000     
  -1.0590375214333455E-002   1.0558838697752629E-002   0.0000000000000000     
  -1.2760532684960817E-002   1.3662087069847364E-002   0.0000000000000000     
  -1.4939078680145795E-002   1.7034707092940915E-002   0.0000000000000000     
  -1.7126013199888383E-002   2.0676698767033277E-002   0.0000000000000000     
  -9.5999520682564753E-003   8.1277728575787269E-003   0.0000000000000000     
  -1.2076369206197004E-002   1.1046865439656299E-002   0.0000000000000000     
  -1.4545518778197247E-002   1.4213155653385550E-002   0.0000000000000000     
  -1.7007400784257210E-002   1.7626643498766480E-002   0.0000000000000000     
  -1.9462015224376891E-002   2.1287328975799089E-002   0.0000000000000000     
  -1.0855305155873419E-002   8.6294077424200460E-003   0.0000000000000000     
  -1.3688550082490930E-002   1.1651448997901307E-002   0.0000000000000000     
  -1.6484087519313049E-002   1.4887759014617192E-002   0.0000000000000000     
  -1.9241917466339787E-002   1.8338337792567695E-002   0.0000000000000000     
  -2.1962039923571125E-002   2.2003185331752825E-002   0.0000000000000000     
  -1.2194665531114543E-002   9.2298666311806717E-003   0.0000000000000000     
  -1.5426917843215236E-002   1.2372589372487659E-002   0.0000000000000000     
  -1.8576238908308219E-002   1.5685897153542287E-002   0.0000000000000000     
  -2.1642628726393505E-002   1.9169789974344563E-002   0.0000000000000000     
  -2.4626087297471084E-002   2.2824267834894482E-002   0.0000000000000000     
  -1.4954033850105604E-002   2.0171294705455381E-002   0.0000000000000000     
  -1.6855068572741490E-002   2.4032008641960784E-002   0.0000000000000000     
  -1.8714746566750685E-002   2.8115827371472186E-002   0.0000000000000000     
  -2.0533067832133201E-002   3.2422750893989584E-002   0.0000000000000000     
  -2.2310032368889024E-002   3.6952779209512988E-002   0.0000000000000000     
  -1.7126013199888383E-002   2.0676698767033277E-002   0.0000000000000000     
  -1.9290290756847690E-002   2.4560165199729676E-002   0.0000000000000000     
  -2.1400865863682794E-002   2.8657209498635351E-002   0.0000000000000000     
  -2.3457738520393706E-002   3.2967831663750273E-002   0.0000000000000000     
  -2.5460908726980432E-002   3.7492031695074472E-002   0.0000000000000000     
  -1.9462015224376891E-002   2.1287328975799089E-002   0.0000000000000000     
  -2.1881284375842632E-002   2.5176292904208572E-002   0.0000000000000000     
  -2.4237130515940761E-002   2.9274616103720119E-002   0.0000000000000000     
  -2.6529553644671296E-002   3.3582298574333737E-002   0.0000000000000000     
  -2.8758553762034227E-002   3.8099340316049404E-002   0.0000000000000000     
  -2.1962039923571125E-002   2.2003185331752825E-002   0.0000000000000000     
  -2.4628049429726316E-002   2.5880391755397466E-002   0.0000000000000000     
  -2.7223540523524603E-002   2.9968047186726514E-002   0.0000000000000000     
  -2.9748513204965969E-002   3.4266151625739955E-002   0.0000000000000000     
  -3.2202967474050423E-002   3.8774705072437798E-002   0.0000000000000000     
  -2.4626087297471084E-002   2.2824267834894482E-002   0.0000000000000000     
  -2.7530585918498753E-002   2.6672461753296357E-002   0.0000000000000000     
  -3.0360095886434298E-002   3.0737502747654515E-002   0.0000000000000000     
  -3.3114617201277716E-002   3.5019390817968947E-002   0.0000000000000000     
  -3.5794149863029014E-002   3.9518125964239662E-002   0.0000000000000000     
  -2.2310032368889024E-002   3.6952779209512988E-002   0.0000000000000000     
  -2.4042371885378867E-002   4.1697772461384862E-002   0.0000000000000000     
  -2.5726818089963441E-002   4.6649590792947684E-002   0.0000000000000000     
  -2.7363370982642733E-002   5.1808234204201456E-002   0.0000000000000000     
  -2.8952030563416751E-002   5.7173702695146170E-002   0.0000000000000000     
  -2.5460908726980432E-002   3.7492031695074472E-002   0.0000000000000000     
  -2.7410814071702920E-002   4.2226036569149888E-002   0.0000000000000000     
  -2.9307892142821170E-002   4.7166073262518489E-002   0.0000000000000000     
  -3.1152142940335158E-002   5.2312141775180253E-002   0.0000000000000000     
  -3.2943566464244900E-002   5.7664242107135215E-002   0.0000000000000000     
  -2.8758553762034227E-002   3.8099340316049404E-002   0.0000000000000000     
  -3.0926565318575679E-002   4.2823049993441137E-002   0.0000000000000000     
  -3.3036022764841771E-002   4.7750736271082887E-002   0.0000000000000000     
  -3.5086926100832527E-002   5.2882399148974669E-002   0.0000000000000000     
  -3.7079275326547916E-002   5.8218038627116483E-002   0.0000000000000000     
  -3.2202967474050423E-002   3.8774705072437798E-002   0.0000000000000000     
  -3.4589625625997135E-002   4.3488812734258607E-002   0.0000000000000000     
  -3.6911209956025266E-002   4.8403579818640900E-002   0.0000000000000000     
  -3.9167720464134824E-002   5.3519006325584706E-002   0.0000000000000000     
  -4.1359157150325808E-002   5.8835092255090003E-002   0.0000000000000000     
  -3.5794149863029014E-002   3.9518125964239662E-002   0.0000000000000000     
  -3.8399994993967297E-002   4.4223324791602306E-002   0.0000000000000000     
  -4.0933453716371637E-002   4.9124603905192528E-002   0.0000000000000000     
  -4.3394526030242075E-002   5.4221963305010341E-002   0.0000000000000000     
  -4.5783211935578570E-002   5.9515402991055739E-002   0.0000000000000000     
  -2.8952030563416751E-002   5.7173702695146170E-002   0.0000000000000000     
  -3.0492748157329441E-002   6.2733403729806694E-002   0.0000000000000000     
  -3.1985475089424731E-002   6.8474744772207871E-002   0.0000000000000000     
  -3.3430211359702651E-002   7.4397725822349742E-002   0.0000000000000000     
  -3.4826956968163174E-002   8.0502346880232264E-002   0.0000000000000000     
  -3.2943566464244900E-002   5.7664242107135215E-002   0.0000000000000000     
  -3.4680621618023239E-002   6.3209854975921659E-002   0.0000000000000000     
  -3.6361767305143025E-002   6.8936461099077917E-002   0.0000000000000000     
  -3.7987003525604260E-002   7.4844060476603982E-002   0.0000000000000000     
  -3.9556330279406957E-002   8.0932653108499855E-002   0.0000000000000000     
  -3.7079275326547916E-002   5.8218038627116483E-002   0.0000000000000000     
  -3.9010700248805263E-002   6.3746050280893668E-002   0.0000000000000000     
  -4.0878830674421877E-002   6.9454829685691569E-002   0.0000000000000000     
  -4.2683666603397757E-002   7.5344376841510144E-002   0.0000000000000000     
  -4.4425208035732897E-002   8.1414691748349449E-002   0.0000000000000000     
  -4.1359157150325808E-002   5.8835092255090003E-002   0.0000000000000000     
  -4.3482984049675516E-002   6.4341989644722722E-002   0.0000000000000000     
  -4.5536665197261308E-002   7.0029850532048799E-002   0.0000000000000000     
  -4.7520200593083130E-002   7.5898674917068268E-002   0.0000000000000000     
  -4.9433590237141015E-002   8.1948462799781061E-002   0.0000000000000000     
  -4.5783211935578570E-002   5.9515402991055739E-002   0.0000000000000000     
  -4.8097473020634024E-002   6.4997673067408820E-002   0.0000000000000000     
  -5.0335270873661291E-002   7.0661523638149676E-002   0.0000000000000000     
  -5.2496605494660391E-002   7.6506954703278299E-002   0.0000000000000000     
  -5.4581476883631311E-002   8.2533966262794703E-002   0.0000000000000000     
  -3.4826956968163174E-002   8.0502346880232264E-002   0.0000000000000000     
  -3.6173952795661490E-002   8.6776550265331542E-002   0.0000000000000000     
  -3.7469439723052812E-002   9.3208278297123706E-002   0.0000000000000000     
  -3.8713417750337126E-002   9.9797530975608686E-002   0.0000000000000000     
  -3.9905886877514424E-002  0.10654430830078654        0.0000000000000000     
  -3.9556330279406957E-002   8.0932653108499855E-002   0.0000000000000000     
  -4.1069423943091619E-002   8.7190686676622400E-002   0.0000000000000000     
  -4.2525960893198794E-002   9.3606608862828566E-002   0.0000000000000000     
  -4.3925941129728467E-002  0.10018041966711830        0.0000000000000000     
  -4.5269364652680666E-002  0.10691211908949162        0.0000000000000000     
  -4.4425208035732897E-002   8.1414691748349449E-002   0.0000000000000000     
  -4.6104101301045593E-002   8.7654667921229654E-002   0.0000000000000000     
  -4.7720992728954116E-002   9.4053198875170899E-002   0.0000000000000000     
  -4.9275882319458481E-002  0.10061028461017328        0.0000000000000000     
  -5.0768770072558679E-002  0.10732592512623670        0.0000000000000000     
  -4.9433590237141015E-002   8.1948462799781061E-002   0.0000000000000000     
  -5.1277984869523410E-002   8.8168493999153233E-002   0.0000000000000000     
  -5.3054535230318792E-002   9.4548048334150731E-002   0.0000000000000000     
  -5.4763241319527145E-002  0.10108712580477359        0.0000000000000000     
  -5.6404103137148477E-002  0.10778572641102180        0.0000000000000000     
  -5.4581476883631311E-002   8.2533966262794703E-002   0.0000000000000000     
  -5.6591074648525107E-002   8.8732164910393166E-002   0.0000000000000000     
  -5.8526588397292821E-002   9.5091157239768034E-002   0.0000000000000000     
  -6.0388018129934468E-002  0.10161094325091928        0.0000000000000000     
  -6.2175363846450046E-002  0.10829152294384688        0.0000000000000000     
  -3.9905886877514424E-002  0.10654430830078654        0.0000000000000000     
  -4.1045726404951535E-002  0.11343870618079942        0.0000000000000000     
  -4.2131815633015282E-002  0.12047082052378949        0.0000000000000000     
  -4.3164154561705692E-002  0.12764065132975680        0.0000000000000000     
  -4.4142743191022724E-002  0.13494819859870127        0.0000000000000000     
  -4.5269364652680666E-002  0.10691211908949162        0.0000000000000000     
  -4.6556112461217547E-002  0.11378973432753860        0.0000000000000000     
  -4.7786065554501322E-002  0.12080129257884926        0.0000000000000000     
  -4.8959223932531964E-002  0.12794679384342364        0.0000000000000000     
  -5.0075587595309501E-002  0.13522623812126172        0.0000000000000000     
  -5.0768770072558679E-002  0.10732592512623670        0.0000000000000000     
  -5.2201070791682215E-002  0.11418623193241721        0.0000000000000000     
  -5.3574199280256592E-002  0.12117731653777071        0.0000000000000000     
  -5.4888155538281802E-002  0.12829917894229725        0.0000000000000000     
  -5.6142939565757832E-002  0.13555181914599682        0.0000000000000000     
  -5.6404103137148477E-002  0.10778572641102180        0.0000000000000000     
  -5.7980601396345539E-002  0.11462819899543525        0.0000000000000000     
  -5.9496216810281104E-002  0.12159889240055387        0.0000000000000000     
  -6.0950949378955156E-002  0.12869780662637764        0.0000000000000000     
  -6.2344799102367718E-002  0.13592494167290653        0.0000000000000000     
  -6.2175363846450046E-002  0.10829152294384688        0.0000000000000000     
  -6.3894704275207520E-002  0.11511563551659276        0.0000000000000000     
  -6.5552118144574859E-002  0.12206602016719870        0.0000000000000000     
  -6.7147605454552076E-002  0.12914267689566475        0.0000000000000000     
  -6.8681166205139144E-002  0.13634560570199089        0.0000000000000000     
  -4.4142743191022724E-002  0.13494819859870127        0.0000000000000000     
  -4.5069912757730049E-002  0.14237907804050390        0.0000000000000000     
  -4.5947994498591327E-002  0.14991890536504557        0.0000000000000000     
  -4.6776988413606523E-002  0.15756768057232623        0.0000000000000000     
  -4.7556894502775671E-002  0.16532540366234599        0.0000000000000000     
  -5.0075587595309501E-002  0.13522623812126172        0.0000000000000000     
  -5.1139240971508362E-002  0.14262600774482009        0.0000000000000000     
  -5.2154268489803007E-002  0.15013248504655533        0.0000000000000000     
  -5.3120670150193436E-002  0.15774567002646733        0.0000000000000000     
  -5.4038445952679634E-002  0.16546556268455626        0.0000000000000000     
  -5.6142939565757832E-002  0.13555181914599682        0.0000000000000000     
  -5.7339755854747342E-002  0.14292333271394420        0.0000000000000000     
  -5.8479808897312961E-002  0.15040181521121415        0.0000000000000000     
  -5.9563098693454677E-002  0.15798726663780671        0.0000000000000000     
  -6.0589625243172518E-002  0.16567968699372185        0.0000000000000000     
  -6.2344799102367718E-002  0.13592494167290653        0.0000000000000000     
  -6.3671457407446980E-002  0.14327105294787618        0.0000000000000000     
  -6.4924615721121168E-002  0.15072689585902210        0.0000000000000000     
  -6.6104274043390296E-002  0.15829247040634428        0.0000000000000000     
  -6.7210432374254309E-002  0.16596777658984280        0.0000000000000000     
  -6.8681166205139144E-002  0.13634560570199089        0.0000000000000000     
  -7.0134345629607284E-002  0.14366916844661604        0.0000000000000000     
  -7.1488688961227634E-002  0.15110772698997912        0.0000000000000000     
  -7.2744196200000222E-002  0.15866128133208013        0.0000000000000000     
  -7.3900867345925034E-002  0.16632983147291910        0.0000000000000000     
   0.0000000000000000        0.0000000000000000        0.0000000000000000     
  -2.8798777181592069E-003   1.7449939850666702E-003   0.0000000000000000     
  -5.8722812127313664E-003   3.8649697519523392E-003   0.0000000000000000     
  -8.9772104837164794E-003   6.3599273006570058E-003   0.0000000000000000     
  -1.2194665531114543E-002   9.2298666311806717E-003   0.0000000000000000     
   0.0000000000000000        0.0000000000000000        0.0000000000000000     
  -3.2830336405563734E-003   1.9993873505971295E-003   0.0000000000000000     
  -6.6765903166959078E-003   4.3311316745627574E-003   0.0000000000000000     
  -1.0180670028418602E-002   6.9952329718968838E-003   0.0000000000000000     
  -1.3795272775724463E-002   9.9916912425995087E-003   0.0000000000000000     
   0.0000000000000000        0.0000000000000000        0.0000000000000000     
  -3.9534154223239241E-003   2.4250481161298392E-003   0.0000000000000000     
  -7.9102816416731971E-003   5.0629680374090292E-003   0.0000000000000000     
  -1.1870598658047819E-002   7.9137597638375707E-003   0.0000000000000000     
  -1.5834366471447786E-002   1.0977423295415466E-002   0.0000000000000000     
   0.0000000000000000        0.0000000000000000        0.0000000000000000     
  -4.8910230634618612E-003   3.0219762816647987E-003   0.0000000000000000     
  -9.5733551876632361E-003   6.0604788404911552E-003   0.0000000000000000     
  -1.4046996372604120E-002   9.1155076764790708E-003   0.0000000000000000     
  -1.8311946618284523E-002   1.2187062789628543E-002   0.0000000000000000     
   0.0000000000000000        0.0000000000000000        0.0000000000000000     
  -6.0958565639701815E-003   3.7901718472020084E-003   0.0000000000000000     
  -1.1665810954666020E-002   7.3236640838091338E-003   0.0000000000000000     
  -1.6709863172087516E-002   1.0600476709821378E-002   0.0000000000000000     
  -2.1228013216234669E-002   1.3620609725238738E-002   0.0000000000000000     
  -1.2194665531114543E-002   9.2298666311806717E-003   0.0000000000000000     
  -1.5426917843215236E-002   1.2372589372487659E-002   0.0000000000000000     
  -1.8576238908308219E-002   1.5685897153542287E-002   0.0000000000000000     
  -2.1642628726393505E-002   1.9169789974344563E-002   0.0000000000000000     
  -2.4626087297471084E-002   2.2824267834894482E-002   0.0000000000000000     
  -1.3795272775724463E-002   9.9916912425995087E-003   0.0000000000000000     
  -1.7403388925619503E-002   1.3222249574118709E-002   0.0000000000000000     
  -2.0888008845109753E-002   1.6588651053902569E-002   0.0000000000000000     
  -2.4249132534195198E-002   2.0090895681951087E-002   0.0000000000000000     
  -2.7486759992875857E-002   2.3728983458264262E-002   0.0000000000000000     
  -1.5834366471447786E-002   1.0977423295415466E-002   0.0000000000000000     
  -1.9729879766953316E-002   1.4212392613497823E-002   0.0000000000000000     
  -2.3485433229644616E-002   1.7577101699439768E-002   0.0000000000000000     
  -2.7101026859521690E-002   2.1071550553241281E-002   0.0000000000000000     
  -3.0576660656584539E-002   2.4695739174902382E-002   0.0000000000000000     
  -1.8311946618284523E-002   1.2187062789628543E-002   0.0000000000000000     
  -2.2406390367216675E-002   1.5343018490624995E-002   0.0000000000000000     
  -2.6368512061912829E-002   1.8651249090153865E-002   0.0000000000000000     
  -3.0198311702372974E-002   2.2111754588215144E-002   0.0000000000000000     
  -3.3895789288597121E-002   2.5724534984808839E-002   0.0000000000000000     
  -2.1228013216234669E-002   1.3620609725238738E-002   0.0000000000000000     
  -2.5432920726409590E-002   1.6614127205500234E-002   0.0000000000000000     
  -2.9537245341914386E-002   1.9811093226044879E-002   0.0000000000000000     
  -3.3540987062749057E-002   2.3211507786872677E-002   0.0000000000000000     
  -3.7444145888913608E-002   2.6815370887983629E-002   0.0000000000000000     
  -2.4626087297471084E-002   2.2824267834894482E-002   0.0000000000000000     
  -2.7530585918498753E-002   2.6672461753296357E-002   0.0000000000000000     
  -3.0360095886434298E-002   3.0737502747654515E-002   0.0000000000000000     
  -3.3114617201277716E-002   3.5019390817968947E-002   0.0000000000000000     
  -3.5794149863029014E-002   3.9518125964239662E-002   0.0000000000000000     
  -2.7486759992875857E-002   2.3728983458264262E-002   0.0000000000000000     
  -3.0623499697370826E-002   2.7546176398234094E-002   0.0000000000000000     
  -3.3681960123899200E-002   3.1585736517252563E-002   0.0000000000000000     
  -3.6662141272460987E-002   3.5847663815319675E-002   0.0000000000000000     
  -3.9564043143056192E-002   4.0331958292435431E-002   0.0000000000000000     
  -3.0576660656584539E-002   2.4695739174902382E-002   0.0000000000000000     
  -3.3941396621553439E-002   2.8495209190539501E-002   0.0000000000000000     
  -3.7224296755148670E-002   3.2515502226269075E-002   0.0000000000000000     
  -4.0425361057370227E-002   3.6756618282091105E-002   0.0000000000000000     
  -4.3544589528218103E-002   4.1218557358005579E-002   0.0000000000000000     
  -3.3895789288597121E-002   2.5724534984808839E-002   0.0000000000000000     
  -3.7484276691046571E-002   2.9519560130212594E-002   0.0000000000000000     
  -4.0987105780182678E-002   3.3526799874704062E-002   0.0000000000000000     
  -4.4404276556005415E-002   3.7746254218283225E-002   0.0000000000000000     
  -4.7735789018514788E-002   4.2177923160950100E-002   0.0000000000000000     
  -3.7444145888913608E-002   2.6815370887983629E-002   0.0000000000000000     
  -4.1252139905850263E-002   3.0619229217253366E-002   0.0000000000000000     
  -4.4970387199001247E-002   3.4619629462557505E-002   0.0000000000000000     
  -4.8598887768366565E-002   3.8816571623896054E-002   0.0000000000000000     
  -5.2137641613946226E-002   4.3210055701269012E-002   0.0000000000000000     
  -3.5794149863029014E-002   3.9518125964239662E-002   0.0000000000000000     
  -3.8399994993967297E-002   4.4223324791602306E-002   0.0000000000000000     
  -4.0933453716371637E-002   4.9124603905192528E-002   0.0000000000000000     
  -4.3394526030242075E-002   5.4221963305010341E-002   0.0000000000000000     
  -4.5783211935578570E-002   5.9515402991055739E-002   0.0000000000000000     
  -3.9564043143056192E-002   4.0331958292435431E-002   0.0000000000000000     
  -4.2386747449447842E-002   4.5023691046943315E-002   0.0000000000000000     
  -4.5129335905399019E-002   4.9907933177186836E-002   0.0000000000000000     
  -4.7791808510909708E-002   5.4984684683165974E-002   0.0000000000000000     
  -5.0374165265979917E-002   6.0253945564880729E-002   0.0000000000000000     
  -4.3544589528218103E-002   4.1218557358005579E-002   0.0000000000000000     
  -4.6578957019400492E-002   4.5887016381752757E-002   0.0000000000000000     
  -4.9525438382625540E-002   5.0747692281072891E-002   0.0000000000000000     
  -5.2384033617893247E-002   5.5800585055965975E-002   0.0000000000000000     
  -5.5154742725203619E-002   6.1045694706432015E-002   0.0000000000000000     
  -4.7735789018514788E-002   4.2177923160950100E-002   0.0000000000000000     
  -5.0976623703825233E-002   4.6813300796030625E-002   0.0000000000000000     
  -5.4121761148051187E-002   5.1643881216850700E-002   0.0000000000000000     
  -5.7171201351192656E-002   5.6669664423410343E-002   0.0000000000000000     
  -6.0124944313249627E-002   6.1890650415709555E-002   0.0000000000000000     
  -5.2137641613946226E-002   4.3210055701269012E-002   0.0000000000000000     
  -5.5579747502722071E-002   4.7802544289776913E-002   0.0000000000000000     
  -5.8918304201675972E-002   5.2596499984520276E-002   0.0000000000000000     
  -6.2153311710807950E-002   5.7591922785499093E-002   0.0000000000000000     
  -6.5284770030117970E-002   6.2788812692713372E-002   0.0000000000000000     
  -4.5783211935578570E-002   5.9515402991055739E-002   0.0000000000000000     
  -4.8097473020634024E-002   6.4997673067408820E-002   0.0000000000000000     
  -5.0335270873661291E-002   7.0661523638149676E-002   0.0000000000000000     
  -5.2496605494660391E-002   7.6506954703278299E-002   0.0000000000000000     
  -5.4581476883631311E-002   8.2533966262794703E-002   0.0000000000000000     
  -5.0374165265979917E-002   6.0253945564880729E-002   0.0000000000000000     
  -5.2875827377114673E-002   6.5710419963850228E-002   0.0000000000000000     
  -5.5296216050818962E-002   7.1348812021593530E-002   0.0000000000000000     
  -5.7635331287092799E-002   7.7169121738110649E-002   0.0000000000000000     
  -5.9893173085936183E-002   8.3171349113401599E-002   0.0000000000000000     
  -5.5154742725203619E-002   6.1045694706432015E-002   0.0000000000000000     
  -5.7839707334551418E-002   6.6477549748945208E-002   0.0000000000000000     
  -6.0441069075931421E-002   7.2090678699979760E-002   0.0000000000000000     
  -6.2958827949343640E-002   7.7885081559535704E-002   0.0000000000000000     
  -6.5392983954788084E-002   8.3860758327613028E-002   0.0000000000000000     
  -6.0124944313249627E-002   6.1890650415709555E-002   0.0000000000000000     
  -6.2989112892944260E-002   6.7299062422693748E-002   0.0000000000000000     
  -6.5769829948998701E-002   7.2887123673308407E-002   0.0000000000000000     
  -6.8467095481412929E-002   7.8654834167553464E-002   0.0000000000000000     
  -7.1080909490186972E-002   8.4602193905428988E-002   0.0000000000000000     
  -6.5284770030117970E-002   6.2788812692713372E-002   0.0000000000000000     
  -6.8324044052293184E-002   6.8174957985095888E-002   0.0000000000000000     
  -7.1282498670020733E-002   7.3738146941579416E-002   0.0000000000000000     
  -7.4160133883300630E-002   7.9478379562163914E-002   0.0000000000000000     
  -7.6956949692132876E-002   8.5395655846849439E-002   0.0000000000000000     
  -5.4581476883631311E-002   8.2533966262794703E-002   0.0000000000000000     
  -5.6591074648525107E-002   8.8732164910393166E-002   0.0000000000000000     
  -5.8526588397292821E-002   9.5091157239768034E-002   0.0000000000000000     
  -6.0388018129934468E-002  0.10161094325091928        0.0000000000000000     
  -6.2175363846450046E-002  0.10829152294384688        0.0000000000000000     
  -5.9893173085936183E-002   8.3171349113401599E-002   0.0000000000000000     
  -6.2070050132271397E-002   8.9345721121566718E-002   0.0000000000000000     
  -6.4166271111020717E-002   9.5682464736706302E-002   0.0000000000000000     
  -6.6181836022184137E-002  0.10218157995882038        0.0000000000000000     
  -6.8116744865761678E-002  0.10884306678790895        0.0000000000000000     
  -6.5392983954788084E-002   8.3860758327613028E-002   0.0000000000000000     
  -6.7741590814983071E-002   9.0009203099291016E-002   0.0000000000000000     
  -7.0002702252647001E-002   9.6321909969649011E-002   0.0000000000000000     
  -7.2176318267779829E-002  0.10279887893868699        0.0000000000000000     
  -7.4262438860381641E-002  0.10944011000640495        0.0000000000000000     
  -7.1080909490186972E-002   8.4602193905428988E-002   0.0000000000000000     
  -7.3605696696660117E-002   9.0722610843566143E-002   0.0000000000000000     
  -7.6035881822171678E-002   9.7009492938596176E-002   0.0000000000000000     
  -7.8371464866721599E-002  0.10346284019051909        0.0000000000000000     
  -8.0612445830309923E-002  0.11008265259933489        0.0000000000000000     
  -7.6956949692132876E-002   8.5395655846849439E-002   0.0000000000000000     
  -7.9662367777302540E-002   9.1485944354392057E-002   0.0000000000000000     
  -8.2265809819594721E-002   9.7745213643547796E-002   0.0000000000000000     
  -8.4767275819009391E-002  0.10417346371431668        0.0000000000000000     
  -8.7166765775546579E-002  0.11077069456669875        0.0000000000000000     
  -6.2175363846450046E-002  0.10829152294384688        0.0000000000000000     
  -6.3894704275207520E-002  0.11511563551659276        0.0000000000000000     
  -6.5552118144574859E-002  0.12206602016719870        0.0000000000000000     
  -6.7147605454552076E-002  0.12914267689566475        0.0000000000000000     
  -6.8681166205139144E-002  0.13634560570199089        0.0000000000000000     
  -6.8116744865761678E-002  0.10884306678790895        0.0000000000000000     
  -6.9978216245644945E-002  0.11564785254144888        0.0000000000000000     
  -7.1773468765725559E-002  0.12257686453691702        0.0000000000000000     
  -7.3502502426003549E-002  0.12963010277431342        0.0000000000000000     
  -7.5165317226478887E-002  0.13680756725363796        0.0000000000000000     
  -7.4262438860381641E-002  0.10944011000640495        0.0000000000000000     
  -7.6265974125034566E-002  0.11622416111556286        0.0000000000000000     
  -7.8191834156320902E-002  0.12312959020892066        0.0000000000000000     
  -8.0040018954240594E-002  0.13015639728647838        0.0000000000000000     
  -8.1810528518793668E-002  0.13730458234823592        0.0000000000000000     
  -8.0612445830309923E-002  0.11008265259933489        0.0000000000000000     
  -8.2757977913376440E-002  0.11684456123893465        0.0000000000000000     
  -8.4807214316360860E-002  0.12372419718320958        0.0000000000000000     
  -8.6760155039263209E-002  0.13072156043215963        0.0000000000000000     
  -8.8616800082083516E-002  0.13783665098578474        0.0000000000000000     
  -8.7166765775546579E-002  0.11077069456669875        0.0000000000000000     
  -8.9454227610670525E-002  0.11750905291156434        0.0000000000000000     
  -9.1619609245845474E-002  0.12436068545978381        0.0000000000000000     
  -9.3662910681071451E-002  0.13132559221135717        0.0000000000000000     
  -9.5584131916348430E-002  0.13840377316628441        0.0000000000000000     
  -6.8681166205139144E-002  0.13634560570199089        0.0000000000000000     
  -7.0134345629607284E-002  0.14366916844661604        0.0000000000000000     
  -7.1488688961227634E-002  0.15110772698997912        0.0000000000000000     
  -7.2744196200000222E-002  0.15866128133208013        0.0000000000000000     
  -7.3900867345925034E-002  0.16632983147291910        0.0000000000000000     
  -7.5165317226478887E-002  0.13680756725363796        0.0000000000000000     
  -7.6737920833707396E-002  0.14410748925746997        0.0000000000000000     
  -7.8196320914244874E-002  0.15152810006838852        0.0000000000000000     
  -7.9540517468091321E-002  0.15906939968639361        0.0000000000000000     
  -8.0770510495246736E-002  0.16673138811148530        0.0000000000000000     
  -8.1810528518793668E-002  0.13730458234823592        0.0000000000000000     
  -8.3491683332226493E-002  0.14457582542774411        0.0000000000000000     
  -8.5071803876785396E-002  0.15197180655855347        0.0000000000000000     
  -8.6550890152470403E-002  0.15949252574066408        0.0000000000000000     
  -8.7928942159281487E-002  0.16713798297407595        0.0000000000000000     
  -8.8616800082083516E-002  0.13783665098578474        0.0000000000000000     
  -9.0395633125164590E-002  0.14507417695743841        0.0000000000000000     
  -9.2115137848849227E-002  0.15243884646047401        0.0000000000000000     
  -9.3775314253137454E-002  0.15993065949489155        0.0000000000000000     
  -9.5376162338029258E-002  0.16754961606069105        0.0000000000000000     
  -9.5584131916348430E-002  0.13840377316628441        0.0000000000000000     
  -9.7449770212521658E-002  0.14560254384655294        0.0000000000000000     
  -9.9326322830436353E-002  0.15292921977415014        0.0000000000000000     
 -0.10121378977009249       0.16038380094907603        0.0000000000000000     
 -0.10311217103149009       0.16796628737133060        0.0000000000000000     
 </DataArray>
 <DataArray  type="Float64" Name="stress" NumberOfComponents="3" format="ascii">
   13417033543.682398        4025110063.1047192        2893616201.0388899     
   11766978113.148338        1890584497.6361108        1715636234.1536250     
   10314194802.285614        413632664.40527868        810742865.92282999     
   9058683611.0942211       -405745436.58777475        178936096.34650484     
   8000444539.5741615       -567549805.34305382       -179784074.57534945     
   10540175565.163130        3162052669.5489388        2225395655.9398985     
   9667912326.8525658        1589729657.6817777        1446536304.9509676     
   8944263028.9799271        512786447.27435875        863152990.80222917     
   8369227671.5452080       -68776961.673317432        475245713.49368310     
   7942806254.5484104       -154960569.16125441        282814473.02532846     
   8338057667.8050251        2501417300.3415074        1712045547.1633706     
   8021842159.3914499        1424773503.3778417        1275538936.2984619     
   7805582412.1823854        681315577.09588242        956897800.45946789     
   7689278426.1778336        271043521.49563122        756122139.64638829     
   7672930201.3777933        193957336.57708740        673211953.85922301     
   6810679851.6080847        2043203955.4824255        1353565874.7093060     
   6828767610.7649879        1395716034.7243018        1202644128.1961074     
   6898152951.8929930        919220053.86985087        1091977294.8945448     
   7018835874.9920998        613716012.91907287        1021565374.8046196     
   7190816380.0623093        479203911.87196708        991408367.92633140     
   5958042116.5723066        1787412634.9716918        1149956638.5777047     
   6088688680.9731817        1502557251.7211587        1227851880.6439037     
   6221974648.1117477        1226499877.5962639        1268391474.1074612     
   6357900017.9880056        959240512.59700608        1271575418.9683781     
   6496464790.6019535        700779156.72338605        1237403715.2266538     
   8000444539.5741615       -567549805.34305382       -179784074.57534945     
   7917558726.6392889       -200413168.55743790       -78389925.401922151     
   7793226087.1970434        28567379.870265484       -9412182.2822481785     
   7627446621.2474232        119391839.94005346        27149154.783670634     
   7420220328.7904253        72060211.651922703        31294085.795837402     
   7942806254.5484104       -154960569.16125441        282814473.02532846     
   7739964466.5461731        15973467.839916229        281068628.93706256     
   7513812313.3526506        109206287.53681135        264742886.95483693     
   7264349794.9678450        124737889.92942715        233837247.07864451     
   6991576911.3917580        62568275.017772675        188351709.30848977     
   7672930201.3777933        193957336.57708740        673211953.85922301     
   7401093890.1933041        183977209.35934591        589485321.37803960     
   7124083675.1336193        156750735.89096642        509015299.16268373     
   6841899556.1987476        112277916.17195249        431801887.21315306     
   6554541533.3886833        50558750.202303648        357845085.52944958     
   7190816380.0623093        479203911.87196708        991408367.92633140     
   6900946997.5806808        303598056.00084782        846860151.92100382     
   6624040172.5399513        171200724.93273067        723405054.34129298     
   6360095904.9401264        82011918.667618752        621043075.18720043     
   6109114194.7811995        36031637.205510139        539774214.45872164     
   6496464790.6019535        700779156.72338605        1237403715.2266538     
   6239523788.7083035        374836007.76442313        1053193120.5659550     
   6013681805.5716448        152556254.66210413        907912152.49066377     
   5818938841.1919785        33939897.416425943        801560811.00078046     
   5655294895.5693073        18986936.027392626        734139096.09630156     
   7420220328.7904253        72060211.651922703        31294085.795837402     
   7220944070.4853764       -17415115.587203503        15923304.885105256     
   7033755050.2064419       -66599649.405965805        3776072.1436333680     
   6858653267.9536142       -75493389.804360390       -5147612.4285657704     
   6695638723.7268982       -44096336.782385349       -10847748.831505932     
   6991576911.3917580        62568275.017772675        188351709.30848977     
   6809578514.3471527        3836537.3136544228        181415071.14300188     
   6635201821.7782850       -29489518.804669857        177450872.80819994     
   6468446833.6851606       -37409893.337179661        176459114.30408427     
   6309313550.0677729       -19924586.283903122        178439795.63065869     
   6554541533.3886833        50558750.202303648        357845085.52944958     
   6389103545.2085791        22355366.314412594        354132800.96711373     
   6226821727.9538431        4672552.1777544022        353141847.89688051     
   6067696081.6244812       -2489692.2076671124        354872226.31875688     
   5911726606.2204857        868633.15813732147        359323936.23274350     
   6109114194.7811995        36031637.205510139        539774214.45872164     
   5959519163.0696573        38141371.415065527        534076494.35743314     
   5808614768.7331142        35886563.541285515        530848997.40967214     
   5656401011.7715721        29267213.584172010        530091723.61544013     
   5502877892.1850290        18283321.543730021        531804672.97474027     
   5655294895.5693073        18986936.027392626        734139096.09630156     
   5520825367.9303846        51194552.615609884        721246151.31396556     
   5380580944.1160975        64152515.285929441        710572321.34657776     
   5234561624.1264372        57860824.038350344        702117606.19414151     
   5082767407.9614067        32319478.872868061        695882005.85665405     
   6695638723.7268982       -44096336.782385349       -10847748.831505932     
   6506707136.5923929       -9603542.4153206348       -8853275.5742018241     
   6312855907.6190977        8490445.8224368095       -794800.39754024148     
   6114085036.8070087        10185627.930884361        13327676.698480740     
   5910394524.1561289       -4517996.0899701118        33514155.713859200     
   6309313550.0677729       -19924586.283903122        178439795.63065869     
   6131335829.9678669       -794125.16492724419        171905574.36778396     
   5950548593.3112059        8971280.7648465633        171278556.57710880     
   5766951840.0977764        9371631.5053980350        176558742.25863987     
   5580545570.3275862        406927.05675005913        187746131.41236600     
   5911726606.2204857        868633.15813732147        359323936.23274350     
   5744254757.5918722        4502362.3600273132        346722833.27872586     
   5576083517.6885262        5804787.3128099442        339872135.34974772     
   5407212886.5104494        4775908.0164904594        338771842.44581532     
   5237642864.0576372        1415724.4710588455        343421954.56692505     
   5502877892.1850290        18283321.543730021        531804672.97474027     
   5345463919.4643974        6285920.1595385075        515598501.15861499     
   5189460680.7510614       -1009034.5336537361        504985935.92037559     
   5034868176.0450230       -3601542.5358533859        499966977.26001751     
   4881686405.3462868       -1491603.8470585346        500541625.17754382     
   5082767407.9614067        32319478.872868061        695882005.85665405     
   4934963315.5854464        4556548.2336089611        678532578.00745821     
   4790680082.4988108       -11470184.774555445        666619958.28898680     
   4649917708.7015066       -15760720.151621819        660144146.70123994     
   4512676194.1935301       -8315057.8975970745        659105143.24422097     
   5910394524.1561289       -4517996.0899701118        33514155.713859200     
   5754580410.6887541       -8771392.1378481388        37253448.071849197     
   5601106142.2807760       -5225304.6544141769        37448338.912505932     
   5449971718.9321918        6120266.3603317738        34098828.235830061     
   5301177140.6430054        25265320.906417847        27204916.041819651     
   5580545570.3275862        406927.05675005913        187746131.41236600     
   5418498229.5854464       -3269419.4354569912        190224166.63488171     
   5257928985.1240301       -2018778.3252537251        191318647.88130164     
   5098837836.9433451        4158850.3873875141        191029575.15161350     
   4941224785.0433807        15263466.702428341        189356948.44582608     
   5237642864.0576372        1415724.4710588455        343421954.56692505     
   5075536146.1585331        168582.56985163689        343633359.07886153     
   4914045775.7614861        975932.34217143059        344622057.15592539     
   4753171752.8665009        3837773.7880306244        346388048.79811990     
   4592914077.4735708        8754106.9074134827        348931334.00543374     
   4881686405.3462868       -1491603.8470585346        500541625.17754382     
   4725694160.4080200        1542613.8780889511        497481025.40378070     
   4569456514.1931410        3758827.3478612900        497358566.73637801     
   4412973466.7016563        5157036.5622768402        500174249.17533505     
   4256245017.9335556        5737241.5213153362        505928072.72064716     
   4512676194.1935301       -8315057.8975970745        659105143.24422097     
   4368972272.3339033        852674.48924493790        651767165.60964346     
   4224161200.4189949        6329906.6918098927        649528176.62266147     
   4078242978.4488158        8116638.7101285458        652388176.28326607     
   3931217606.4233470        6212870.5441689491        660347164.59146059     
   5301177140.6430054        25265320.906417847        27204916.041819651     
   5107962888.1013346        31097731.414523602        16612769.767757691     
   4912417532.1955128        29159797.375475645        11542106.908431536     
   4714541072.9255400        19451518.789247751        11992927.463841183     
   4514333510.2914047        1972895.6558182240        17965231.433984071     
   4941224785.0433807        15263466.702428341        189356948.44582608     
   4761467712.3684587        19061879.086898565        180251393.82810012     
   4579795402.0733938        16476166.070899487        176445416.79859337     
   4396207854.1581907        7506327.6544344425        177939017.35730290     
   4210705068.6228485       -7847636.1624844074        184732195.50422719     
   4592914077.4735708        8754106.9074134827        348931334.00543374     
   4425980168.0181961        10328316.174053431        341797547.74539638     
   4257546886.6866965        6904619.1869561672        339741433.24705321     
   4087614233.4790797       -1516984.0538809299        342762990.51042145     
   3916182208.3953333       -14936493.548478127        350862219.53548497     
   4256245017.9335556        5737241.5213153362        505928072.72064716     
   4101500255.0505495        4897042.6759979725        501251231.51964498     
   3945671986.0354228        445156.72363710403        501430156.25382137     
   3788760210.8881965       -7618416.3357377052        506464846.92319053     
   3630764929.6088572       -19293676.502151966        516355303.52774119     
   3931217606.4233470        6212870.5441689491        660347164.59146059     
   3788027973.4655085        2768058.5927178860        658612445.15084255     
   3644170700.1195722       -2902221.3190505505        661511585.81889141     
   3499645786.3855438       -10797969.191129208        669044586.59561086     
   3354453232.2634249       -20919185.023522377        681211447.48100221     
   4514333510.2914047        1972895.6558182240        17965231.433984071     
   4263138340.4341455       -27949326.302542448       -7091030.9159690253     
   4016155164.0566249       -43831569.995119810       -7002490.8746870216     
   3773383981.1588545       -45673835.421846628        18230851.557828162     
   3534824791.7408333       -33476122.582762480        68608996.381582290     
   4210705068.6228485       -7847636.1624844074        184732195.50422719     
   4020969256.8829408       -21775833.716053247        164121850.45540351     
   3834926050.3179374       -23395347.353290796        161952203.62759069     
   3652575448.9278297       -12706177.074191570        178223255.02077940     
   3473917452.7126222        10291677.121222973        212935004.63497573     
   3916182208.3953333       -14936493.548478127        350862219.53548497     
   3768751171.4292698       -18617041.700302601        334091838.76546246     
   3624493351.3332715       -11720200.285268068        329058052.04622781     
   3483408748.1073198        5754030.6966049671        335760859.37777507     
   3345497361.7514267        33805651.245333552        354200260.76009578     
   3630764929.6088572       -19293676.502151966        516355303.52774119     
   3506484084.0731430       -18472950.255269289        502818934.01421487     
   3384857067.1026311       -8806128.7910377979        494315054.38123661     
   3265883878.6973329        9706787.8905582428        490843664.62881285     
   3149564518.8572474        37065799.789545298        492404764.75694156     
   3354453232.2634249       -20919185.023522377        681211447.48100221     
   3234167994.8145366       -21343559.381003141        670303136.20164216     
   3116017197.6260161       -14653132.870607615        657723210.63260663     
   3000000840.6978660       -847905.49231457710        643471670.77389836     
   2886118924.0300722        20072122.753844976        627548516.62551332     
   3534824791.7408333       -33476122.582762480        68608996.381582290     
   3596621520.0165195        57805901.593000412        128839599.29071303     
   3646938696.1499720        110822751.96128178        122864412.07384543     
   3685776320.1412039        125574428.52216887        50683434.730999999     
   3713134391.9902010        102060931.27563000       -87703332.737830967     
   3473917452.7126222        10291677.121222973        212935004.63497573     
   3377071818.5976524        50334578.393404484        248903322.05614489     
   3271589406.8550167        61588220.906687498        240869256.12669331     
   3157470217.4847388        44052604.661146998        188832806.84662488     
   3034714250.4867897       -2272270.3432549238        92793974.215940818     
   3345497361.7514267        33805651.245333552        354200260.76009578     
   3153447670.3182712        41640921.135627747        369222862.96030813     
   2955603975.7720408        30162847.315661907        362446488.58527035     
   2751966278.1127310       -628570.21456396580        333871137.63498718     
   2542534577.3403411       -50733331.455064178        283496810.10945320     
   3149564518.8572474        37065799.789545298        492404764.75694156     
   2925749075.1783962        31724929.819716454        489798222.00320184     
   2698982402.9010534        16546631.188232183        487596109.44958866     
   2469264502.0252066       -8469096.1049304008        485798427.09609389     
   2236595372.5508471       -43322252.059773922        484405174.94273245     
   2886118924.0300722        20072122.753844976        627548516.62551332     
   2693976033.1780195        20586604.445661068        610629399.18482637     
   2501724688.2420502        20739572.524404168        616318118.71964121     
   2309364889.2221546        20531026.990053415        644614675.22994518     
   2116896636.1183207        19960967.842606544        695519068.71574593     
   5958042116.5723066        1787412634.9716918        1149956638.5777047     
   6088688680.9731817        1502557251.7211587        1227851880.6439037     
   6221974648.1117477        1226499877.5962639        1268391474.1074612     
   6357900017.9880056        959240512.59700608        1271575418.9683781     
   6496464790.6019535        700779156.72338605        1237403715.2266538     
   5434733696.7079268        1630420109.0123780        1033479508.2749037     
   5490125792.2861996        1372670268.6481965        1113824246.6486986     
   5547668104.4450912        1122087816.8860853        1167381455.4032047     
   5607360633.1846056        878672753.72604573        1194151134.5384226     
   5669203378.5047407        642425079.16807556        1194133284.0543511     
   4895343826.0251780        1468603147.8075533        936396153.30723906     
   4905676078.4475689        1247017238.0297396        1018619670.8053815     
   4917669361.2935085        1030968096.3304296        1084623777.6675880     
   4931323674.5630007        820455722.70962358        1134408473.8938584     
   4946639018.2560453        615480117.16732144        1167973759.4841926     
   4339872504.5240593        1301961751.3572178        858706573.67471123     
   4335339539.4572887        1125598159.8657885        942238153.11395311     
   4331978418.6569996        953140715.92929554        1020118440.9006113     
   4329789142.1231909        784589419.54774010        1092347437.0346854     
   4328771709.8558636        619944270.72112143        1158925141.5161767     
   3768319732.2045722        1130495919.6613717        800410769.37732017     
   3779116175.3153629        1008413034.1563429        884679693.57441282     
   3790595276.5355644        888605675.68268418        973865445.10227418     
   3802757035.8651767        771073844.24039531        1067968023.9609045     
   3815601453.3042002        655817539.82947624        1166987430.1503036     
   6496464790.6019535        700779156.72338605        1237403715.2266538     
   6239523788.7083035        374836007.76442313        1053193120.5659550     
   6013681805.5716448        152556254.66210413        907912152.49066377     
   5818938841.1919785        33939897.416425943        801560811.00078046     
   5655294895.5693073        18986936.027392626        734139096.09630156     
   5669203378.5047407        642425079.16807556        1194133284.0543511     
   5519090151.6560011        382633734.35842657        1073379738.0705856     
   5393228766.2919044        203681861.16425133        980605976.11688721     
   5291619222.4124479        105569459.58554769        915811998.19325769     
   5214261520.0176325        88296529.622316837        878997804.29969537     
   4946639018.2560453        615480117.16732144        1167973759.4841926     
   4872068302.0083895        412454997.17383647        1102688888.6929486     
   4814902249.9730272        267445424.55465698        1054433959.3764333     
   4775140862.1499596        180451399.30978060        1023208971.5346494     
   4752784138.5391788        151472921.43920708        1009013925.1675930     
   4328771709.8558636        619944270.72112143        1158925141.5161767     
   4298458239.7654734        464299796.21065545        1141120572.4330459     
   4278702256.6150222        343846944.83332419        1129396102.2693057     
   4269503760.4045095        258585716.58912492        1123751731.0249569     
   4270862751.1339407        208516111.47806263        1124187458.6999974     
   3815601453.3042002        655817539.82947624        1166987430.1503036     
   3798259964.9272461        538168131.46888089        1188674789.2908766     
   3784628786.2178817        432886422.00025082        1205492404.7955012     
   3774707917.1761050        339972411.42358470        1217440276.6641772     
   3768497357.8019190        259426099.73888183        1224518404.8969076     
   5655294895.5693073        18986936.027392626        734139096.09630156     
   5520825367.9303846        51194552.615609884        721246151.31396556     
   5380580944.1160975        64152515.285929441        710572321.34657776     
   5234561624.1264372        57860824.038350344        702117606.19414151     
   5082767407.9614067        32319478.872868061        695882005.85665405     
   5214261520.0176325        88296529.622316837        878997804.29969537     
   5078026999.2710915        86578813.481311560        855226617.21311140     
   4939442786.0472088        77028789.082499504        835707551.24322617     
   4798508880.3459883        59646456.425896168        820440606.39004052     
   4655225282.1674252        34431815.511487961        809425782.65355778     
   4752784138.5391788        151472921.43920708        1009013925.1675930     
   4620593214.1185827        117572449.39904404        978360566.75779676     
   4489477800.9186792        87257014.761180639        953992335.76645160     
   4359437898.9394655        60526617.525620222        935909232.19355416     
   4230473508.1809435        37381257.692360163        924111256.03910732     
   4270862751.1339407        208516111.47806263        1124187458.6999974     
   4148524012.4728642        144175460.36881423        1090647999.9480245     
   4030685988.7305064        94837192.321966171        1065426674.9162515     
   3917348679.9068704        60501307.337522745        1048523483.6046761     
   3808512086.0019550        41167805.415477753        1039938426.0133028     
   3768497357.8019190        259426099.73888183        1224518404.8969076     
   3661819394.3339310        166387846.39062262        1192088916.7837930     
   3563067349.4826922        99769321.764861822        1170010568.6926274     
   3472241223.2482033        59570525.861603975        1158283360.6234112     
   3389341015.6304674        45791458.680849910        1156907292.5761440     
   5082767407.9614067        32319478.872868061        695882005.85665405     
   4934963315.5854464        4556548.2336089611        678532578.00745821     
   4790680082.4988108       -11470184.774555445        666619958.28898680     
   4649917708.7015066       -15760720.151621819        660144146.70123994     
   4512676194.1935301       -8315057.8975970745        659105143.24422097     
   4655225282.1674252        34431815.511487961        809425782.65355778     
   4522864022.5806627        12726458.410313129        796370713.32276559     
   4393005806.3958731       -635420.68428969383        788360036.42107153     
   4265650633.6130514       -5653821.7723262310        785393751.94848001     
   4140798504.2322030       -2328744.8537833691        787471859.90498948     
   4230473508.1809435        37381257.692360163        924111256.03910732     
   4112433893.6644473        21397117.813585043        914163093.35813439     
   3995879506.6625710        10363736.316861153        908866907.40463698     
   3880810347.1753082        4281113.2021894455        908222698.17861640     
   3767226415.2026596        3149248.4695634842        912230465.68007207     
   3808512086.0019550        41167805.415477753        1039938426.0133028     
   3703672928.8368073        30568526.443432570        1031909718.1135669     
   3599301183.2989149        21527286.228910446        1028140571.2396829     
   3495396849.3882799        14044084.771913052        1028630985.3916484     
   3391959927.1049066        8118922.0724484921        1033380960.5694680     
   3389341015.6304674        45791458.680849910        1156907292.5761440     
   3296581128.0977330        40240684.299847484        1149610587.5890627     
   3203270836.3048987        32855229.051850080        1146181027.9262106     
   3109410140.2519689        23635092.936858773        1146618613.5875816     
   3014999039.9389362        12580275.954868555        1150923344.5731814     
   4512676194.1935301       -8315057.8975970745        659105143.24422097     
   4368972272.3339033        852674.48924493790        651767165.60964346     
   4224161200.4189949        6329906.6918098927        649528176.62266147     
   4078242978.4488158        8116638.7101285458        652388176.28326607     
   3931217606.4233470        6212870.5441689491        660347164.59146059     
   4140798504.2322030       -2328744.8537833691        787471859.90498948     
   4008928900.3704624        2010461.1985387802        778644464.44874406     
   3876612981.5538111        4861950.7345037460        774935677.18970811     
   3743850747.7822542        6225723.7541179657        776345498.12787962     
   3610642199.0557976        6101780.2573850155        782873927.26326609     
   3767226415.2026596        3149248.4695634842        912230465.68007207     
   3647247185.1948628        2676744.9441845417        902684626.68592310     
   3527482475.3325329        2919308.5703644753        898277015.43860257     
   3407932285.6156697        3876939.3481070995        899007631.93811548     
   3288596616.0442772        5549637.2774047852        904876476.18446159     
   3391959927.1049066        8118922.0724484921        1033380960.5694680     
   3283927126.8071117        2851525.7261846066        1023887652.3211855     
   3176769681.7551594        501980.19940257072        1019552191.3693529     
   3070487591.9490452        1070285.4920758009        1020374577.7139727     
   2965080857.3887787        4556441.6042319536        1026354811.3550466     
   3014999039.9389362        12580275.954868555        1150923344.5731814     
   2918968725.2072077        2534803.5445436239        1142253541.3545313     
   2824474600.8216925       -2390034.3783991337        1138761204.9819584     
   2731516666.7823958       -2194237.8139499426        1140446335.4554539     
   2640094923.0893083        3122193.2378709316        1147308932.7750280     
   3931217606.4233470        6212870.5441689491        660347164.59146059     
   3788027973.4655085        2768058.5927178860        658612445.15084255     
   3644170700.1195722       -2902221.3190505505        661511585.81889141     
   3499645786.3855438       -10797969.191129208        669044586.59561086     
   3354453232.2634249       -20919185.023522377        681211447.48100221     
   3610642199.0557976        6101780.2573850155        782873927.26326609     
   3479970169.2338009        5158753.3143661022        779779767.62654209     
   3348702670.3331060        2230829.4423594475        781103338.36831760     
   3216839702.3537221       -2681991.3586181402        786844639.48858654     
   3084381265.2956448       -9579709.0885747671        797003670.98734474     
   3288596616.0442772        5549637.2774047852        904876476.18446159     
   3169824675.8433342        6923141.2883737087        900507076.21260250     
   3050529437.8731017        6552319.4017047882        900339276.88906813     
   2930710902.1335773        4437171.6173930168        904373078.21385550     
   2810369068.6247578        577697.93544232845        912608480.18696129     
   2965080857.3887787        4556441.6042319536        1026354811.3550466     
   2857591493.2941122        8061222.5147594213        1020794370.9090257     
   2749651002.7395568        10062248.558987856        1019219401.3811471     
   2641259385.7251110        10559519.736912727        1021629902.7714159     
   2532416642.2507749        9553036.0485315323        1028025875.0798331     
   2640094923.0893083        3122193.2378709316        1147308932.7750280     
   2543270621.5861368        8572996.9935226440        1140641651.7158027     
   2446067364.9324760        12760616.914214134        1137743711.8445530     
   2348485153.1283212        15685052.999927163        1138615113.1612768     
   2250523986.1736817        17346305.250684261        1143255855.6659708     
   3354453232.2634249       -20919185.023522377        681211447.48100221     
   3234167994.8145366       -21343559.381003141        670303136.20164216     
   3116017197.6260161       -14653132.870607615        657723210.63260663     
   3000000840.6978660       -847905.49231457710        643471670.77389836     
   2886118924.0300722        20072122.753844976        627548516.62551332     
   3084381265.2956448       -9579709.0885747671        797003670.98734474     
   2961453456.4627180       -12161215.417177081        787773260.38568366     
   2840081791.1703372       -9555576.6106309891        778679516.54084373     
   2720266269.4185023       -1762792.6689306498        769722439.45283246     
   2602006891.2072096        11217136.407902837        760902029.12163723     
   2810369068.6247578        577697.93544232845        912608480.18696129     
   2689965205.6835108       -2610985.1815590858        904381290.75653267     
   2570539189.5629859       -2540178.8961557150        898099049.12942755     
   2452091020.2631807        790116.79166281223        893761755.30565250     
   2334620697.7841024        7379901.8818874359        891369409.28520250     
   2532416642.2507749        9553036.0485315323        1028025875.0798331     
   2419703242.4769187        7307131.3258390427        1020127227.3141859     
   2307389392.8039584        6393060.2728098631        1015981808.3983593     
   2195475093.2319074        6810822.8894718885        1015589618.3323673     
   2083960343.7607548        8560419.1757999659        1018950657.1161966     
   2250523986.1736817        17346305.250684261        1143255855.6659708     
   2150667566.8429294        17593134.105014563        1135011070.0586486     
   2050632400.8932641        17244140.896286368        1132327794.3476470     
   1950418488.3246768        16299325.624495149        1135206028.5329721     
   1850025829.1371694        14758688.289637685        1143645772.6146240     
   2886118924.0300722        20072122.753844976        627548516.62551332     
   2693976033.1780195        20586604.445661068        610629399.18482637     
   2501724688.2420502        20739572.524404168        616318118.71964121     
   2309364889.2221546        20531026.990053415        644614675.22994518     
   2116896636.1183207        19960967.842606544        695519068.71574593     
   2602006891.2072096        11217136.407902837        760902029.12163723     
   2462626897.0106821        19781089.484707355        746361281.68965590     
   2322956831.0069342        27378136.537436128        747941970.54373837     
   2182996693.1959620        34008277.566088915        765644095.68388212     
   2042746483.5777617        39671512.570644736        799467657.11009610     
   2334620697.7841024        7379901.8818874359        891369409.28520250     
   2229471026.8447361        18433554.324174643        878995144.51806521     
   2123849666.3748469        27914908.331383109        876255915.34756136     
   2017756616.3744388        35823963.903525352        883151721.77370191     
   1911191876.8435016        42160721.040579200        899682563.79647017     
   2083960343.7607548        8560419.1757999659        1018950657.1161966     
   1994508422.6801815        16543998.964060903        1008530987.6700618     
   1904403194.3457823        22349887.906233788        1001259953.1311355     
   1813644658.7575643        25978086.002356529        997137553.49942279     
   1722232815.9155293        27428593.252399921        996163788.77490699     
   1850025829.1371694        14758688.289637685        1143645772.6146240     
   1757739084.5170195        14112423.404358149        1134968811.1456487     
   1664617414.9197395        10683075.261991620        1122954083.8944509     
   1570660820.3453550        4470643.8625873327        1107601590.8610256     
   1475869300.7938385       -4524870.7939014435        1088911332.0453870     
   3768319732.2045722        1130495919.6613717        800410769.37732017     
   3779116175.3153629        1008413034.1563429        884679693.57441282     
   3790595276.5355644        888605675.68268418        973865445.10227418     
   3802757035.8651767        771073844.24039531        1067968023.9609045     
   3815601453.3042002        655817539.82947624        1166987430.1503036     
   3207840205.5123763        962352061.65371287        756427271.22502780     
   3235843362.7905393        868038237.38828790        852833607.93237305     
   3263610631.5228820        772938117.97013092        951150806.38240445     
   3291142011.7094064        677051703.39924288        1051378866.5751221     
   3318437503.3501105        580378993.67562318        1153517788.5105250     
   2685588620.8931313        805676586.26793933        721674610.02779627     
   2722210019.2298570        736555281.30947518        829146721.48095918     
   2757676982.3655329        663585859.01417792        935523729.08872497     
   2791989510.3001590        586768319.38204765        1040805632.8510931     
   2825147603.0337362        506102662.41308439        1144992432.7680645     
   2201564978.3468351        660469493.50405061        696152785.78562558     
   2238216144.6333160        613964165.91990507        813619034.22017026     
   2272794329.0635176        560548898.81482506        926984213.22123480     
   2305299531.6374378        500223692.18881035        1036248322.7888193     
   2335731752.3550782        432988546.04186070        1141411362.9229226     
   1755769277.8734908        526730783.36204720        679861798.49851584     
   1783861739.0009184        500264891.21957773        806250546.15000689     
   1808962671.6168351        463827237.37207198        925532258.77993417     
   1831072075.7212405        417417821.81952989        1037706936.3882991     
   1850189951.3141363        361036644.56195199        1142774578.9751000     
   3815601453.3042002        655817539.82947624        1166987430.1503036     
   3798259964.9272461        538168131.46888089        1188674789.2908766     
   3784628786.2178817        432886422.00025082        1205492404.7955012     
   3774707917.1761050        339972411.42358470        1217440276.6641772     
   3768497357.8019190        259426099.73888183        1224518404.8969076     
   3318437503.3501105        580378993.67562318        1153517788.5105250     
   3293941193.6542125        473351969.79588234        1181748792.0725522     
   3273098284.3139305        378502947.10153127        1206894511.0680654     
   3255908775.3292661        295831925.59257126        1228954945.4970644     
   3242372666.7002192        225338905.26900077        1247930095.3595514     
   2825147603.0337362        506102662.41308439        1144992432.7680645     
   2798594926.5029907        411227559.35942703        1179700686.5542457     
   2775638741.0158896        328340759.78458500        1213108114.8433468     
   2756279046.5724335        257442263.68855965        1245214717.6353674     
   2740515843.1726227        198532071.07135093        1276020494.9303091     
   2335731752.3550782        432988546.04186070        1141411362.9229226     
   2312221163.4735818        351794900.15951562        1182530472.7359564     
   2292250156.3237586        282399860.04941219        1224133216.1213450     
   2275818730.9056087        224803425.71155161        1266219593.0790877     
   2262926887.2191300        179005597.14593244        1308789603.6091833     
   1850189951.3141363        361036644.56195199        1142774578.9751000     
   1834819904.5659869        295053992.19614887        1190238150.6176860     
   1822932530.2375381        240680247.89601147        1239969814.9020598     
   1814527828.3287902        197915411.66154480        1291969571.8282213     
   1809605798.8397422        166759483.49274409        1346237421.3961711     
   3768497357.8019190        259426099.73888183        1224518404.8969076     
   3661819394.3339310        166387846.39062262        1192088916.7837930     
   3563067349.4826922        99769321.764861822        1170010568.6926274     
   3472241223.2482033        59570525.861603975        1158283360.6234112     
   3389341015.6304674        45791458.680849910        1156907292.5761440     
   3242372666.7002192        225338905.26900077        1247930095.3595514     
   3164998324.2143321        150615827.58538318        1231031862.0712316     
   3093808875.5246973        96509062.555941105        1222097156.6707394     
   3028804320.6313176        63018610.180682659        1221125979.1580758     
   2969984659.5341911        50144470.459600568        1228118329.5332377     
   2740515843.1726227        198532071.07135093        1276020494.9303091     
   2685623372.7142038        140077644.36598480        1272622320.8428721     
   2635174771.2315412        96436114.246474981        1274800062.5091400     
   2589170038.7246351        67607480.712820768        1282553719.9291136     
   2547609175.1934872        53591743.765022516        1295883293.1027946     
   2262926887.2191300        179005597.14593244        1308789603.6091833     
   2223694539.8335476        134773296.73242784        1316860293.0987144     
   2187165036.6032252        99550476.836460710        1328119286.2078290     
   2153338377.5281610        73337137.458020568        1342566582.9365289     
   2122214562.6083577        56133278.597116113        1360202183.2848120     
   1809605798.8397422        166759483.49274409        1346237421.3961711     
   1779211825.5723619        134702784.68471271        1363745778.8387582     
   1749779671.6397460        105852150.32589442        1382054827.7668078     
   1721309337.0418913        80207580.416283309        1401164568.1803205     
   1693800821.7788024        57769074.955885470        1421075000.0792964     
   3389341015.6304674        45791458.680849910        1156907292.5761440     
   3296581128.0977330        40240684.299847484        1149610587.5890627     
   3203270836.3048987        32855229.051850080        1146181027.9262106     
   3109410140.2519689        23635092.936858773        1146618613.5875816     
   3014999039.9389362        12580275.954868555        1150923344.5731814     
   2969984659.5341911        50144470.459600568        1228118329.5332377     
   2886375248.1288829        39549858.900287151        1219807352.9836931     
   2802987395.6224155        29693777.003778219        1215832021.3260148     
   2719821102.0147896        20576224.770066023        1216192334.5602028     
   2636876367.3059998        12197202.199155092        1220888292.6862564     
   2547609175.1934872        53591743.765022516        1295883293.1027946     
   2474488810.1088629        38354866.085375547        1287458668.6762156     
   2402361967.0820179        26429728.598328829        1283838188.7091408     
   2331228646.1129508        17816331.303876877        1285021853.2015722     
   2261088847.2016659        12514674.202024221        1291009662.1535096     
   2122214562.6083577        56133278.597116113        1360202183.2848120     
   2060921814.0376713        36655705.855114460        1352564534.6666274     
   2001394550.6837034        23063083.835505247        1350199530.0755875     
   1943632772.5464537        15355412.538289547        1353107169.5116925     
   1887636479.6259198        13532691.963467956        1361287452.9749427     
   1693800821.7788024        57769074.955885470        1421075000.0792964     
   1645674259.9153092        34452378.209500432        1415124950.9549336     
   1600085146.4274750        19593842.715308368        1414916045.4253542     
   1557033481.3152978        13193468.473307610        1420448283.4905593     
   1516519264.5787771        15251255.483496070        1431721665.1505518     
   3014999039.9389362        12580275.954868555        1150923344.5731814     
   2918968725.2072077        2534803.5445436239        1142253541.3545313     
   2824474600.8216925       -2390034.3783991337        1138761204.9819584     
   2731516666.7823958       -2194237.8139499426        1140446335.4554539     
   2640094923.0893083        3122193.2378709316        1147308932.7750280     
   2636876367.3059998        12197202.199155092        1220888292.6862564     
   2554845870.2039156        5824343.2395166159        1214252088.9368823     
   2473735721.2332668        2519311.3846682310        1212359982.6448491     
   2393545920.3940630        2282106.6346335411        1215211973.8101547     
   2314276467.6862960        5112728.9893933535        1222808062.4327984     
   2261088847.2016659        12514674.202024221        1291009662.1535096     
   2191819969.4756970        9442969.2170069218        1285688575.2895045     
   2122855597.6663959        7386283.9542069435        1284678216.4941099     
   2054195731.7737589        6344618.4136275053        1287978585.7673192     
   1985840371.7977881        6317972.5952637196        1295589683.1091397     
   1887636479.6259198        13532691.963467956        1361287452.9749427     
   1829891023.0225499        13390681.477016926        1356563000.4124043     
   1771834230.1210713        12210883.330208898        1355715906.5297413     
   1713466100.9214838        9993297.5230309963        1358746171.3269520     
   1654786635.4237843        6737924.0554887056        1365653794.8040390     
   1516519264.5787771        15251255.483496070        1431721665.1505518     
   1469059030.8444805        17667480.019559383        1426875364.3055787     
   1420671618.5972989        16993109.512672663        1425473052.7517445     
   1371357027.8372340        13228143.962840199        1427514730.4890540     
   1321115258.5642843        6372583.3700615168        1433000397.5175014     
   2640094923.0893083        3122193.2378709316        1147308932.7750280     
   2543270621.5861368        8572996.9935226440        1140641651.7158027     
   2446067364.9324760        12760616.914214134        1137743711.8445530     
   2348485153.1283212        15685052.999927163        1138615113.1612768     
   2250523986.1736817        17346305.250684261        1143255855.6659708     
   2314276467.6862960        5112728.9893933535        1222808062.4327984     
   2226713872.1953340        6776544.0979318619        1215204623.0224102     
   2139102006.9830961        8276126.8022117615        1211830152.1212356     
   2051440872.0495768        9611477.1022289991        1212684649.7292738     
   1963730467.3947811        10782594.997982979        1217768115.8465288     
   1985840371.7977881        6317972.5952637196        1295589683.1091397     
   1908852703.2368751        4588765.3320544958        1287434718.3483255     
   1832145450.3838925        3794277.0952783823        1283968349.4179683     
   1755718613.2388384        3934507.8849328756        1285190576.3180685     
   1679572191.8017156        5009457.7010220289        1291101399.0486281     
   1654786635.4237843        6737924.0554887056        1365653794.8040390     
   1589687114.7107527        2009660.6958730221        1357331937.6935465     
   1525197695.1348634       -684932.20660907030        1354158303.7347524     
   1461318376.6961112       -1345854.6519584060        1356132892.9276607     
   1398049159.3945010        26893.359823107719        1363255705.2722657     
   1321115258.5642843        6372583.3700615168        1433000397.5175014     
   1269217106.6169703       -960769.81060647964        1424896281.0580783     
   1218258741.2360046       -5161501.1034479141        1422400015.0715885     
   1168240162.4213905       -6229610.5084524155        1425511599.5580459     
   1119161370.1731226       -4165098.0256316662        1434231034.5174434     
   2250523986.1736817        17346305.250684261        1143255855.6659708     
   2150667566.8429294        17593134.105014563        1135011070.0586486     
   2050632400.8932641        17244140.896286368        1132327794.3476470     
   1950418488.3246768        16299325.624495149        1135206028.5329721     
   1850025829.1371694        14758688.289637685        1143645772.6146240     
   1963730467.3947811        10782594.997982979        1217768115.8465288     
   1878940915.8765795        12986999.495042205        1210438098.7215009     
   1794304170.7787819        15700758.726777673        1208684721.7922518     
   1709820232.1013877        18923872.693189979        1212507985.0587716     
   1625489099.8443871        22656341.394253850        1221907888.5210729     
   1679572191.8017156        5009457.7010220289        1291101399.0486281     
   1609892737.5230606        9184406.6689172387        1285072962.2851086     
   1540697642.7041276        14973887.169220150        1284636296.0168080     
   1471986907.3449121        22377899.201915383        1289791400.2437303     
   1403760531.4454193        31396442.767015994        1300538274.9658723     
   1398049159.3945010        26893.359823107719        1363255705.2722657     
   1343523031.7823787        6185355.6266491413        1358915660.7494588     
   1289812816.6692972        15063526.223603427        1360182517.0213161     
   1236918514.0552547        26661405.150689721        1367056274.0878446     
   1184840123.9402494        40978992.407903373        1379536931.9490404     
   1119161370.1731226       -4165098.0256316662        1434231034.5174434     
   1079831798.6545286        3989846.3682223558        1431966194.1145504     
   1041649692.6742959        15969675.889944434        1435323384.8057761     
   1004615052.2324165        31774390.539512932        1444302606.5911136     
   968727877.32889831        51403990.316956431        1458903859.4705667     
   1850025829.1371694        14758688.289637685        1143645772.6146240     
   1757739084.5170195        14112423.404358149        1134968811.1456487     
   1664617414.9197395        10683075.261991620        1122954083.8944509     
   1570660820.3453550        4470643.8625873327        1107601590.8610256     
   1475869300.7938385       -4524870.7939014435        1088911332.0453870     
   1625489099.8443871        22656341.394253850        1221907888.5210729     
   1529107247.0654988        22798761.564041078        1215319008.6332147     
   1432589181.9048553        22487140.461318493        1208735807.0850632     
   1335934904.3624511        21721478.086064637        1202158283.8766372     
   1239144414.4382946        20501774.438286364        1195586439.0079126     
   1403760531.4454193        31396442.767015994        1300538274.9658723     
   1312836267.9990287        35193357.239255905        1296852641.3537264     
   1222474504.7662473        40865272.423520863        1296516130.2032320     
   1132675241.7470701        48412188.319790304        1299528741.5143690     
   1043438478.9414953        57834104.928090990        1305890475.2871649     
   1184840123.9402494        40978992.407903373        1379536931.9490404     
   1108926147.3176048        51296210.429979563        1379569709.3071940     
   1034273383.5039208        65817471.148601413        1386295053.2489305     
   960881832.49920452        84542774.563784868        1399712963.7742369     
   888751494.30346262        107472120.67552885        1419823440.8831260     
   968727877.32889831        51403990.316956431        1458903859.4705667     
   917376885.02122307        71107321.136215895        1463470212.4936094     
   867985818.11788368        97343736.636592060        1478072576.2221634     
   820554676.61885953        130113236.81802477        1502710950.6562319     
   775083460.52417433        169415821.68059009        1537385335.7958052     
   1755769277.8734908        526730783.36204720        679861798.49851584     
   1783861739.0009184        500264891.21957773        806250546.15000689     
   1808962671.6168351        463827237.37207198        925532258.77993417     
   1831072075.7212405        417417821.81952989        1037706936.3882991     
   1850189951.3141363        361036644.56195199        1142774578.9751000     
   1326001582.7058649        397800474.81175947        669643811.57160723     
   1339258003.4222543        375612015.00217646        791731435.69614100     
   1350280358.4840407        345976669.67725146        908526656.29538858     
   1359068647.8912246        308894438.83698463        1020029473.3693494     
   1365622871.6438057        264365322.48137510        1126239886.9180238     
   890061956.07672691        267018586.82301807        662340988.41003954     
   893666997.80001140        250662957.77170160        781011195.67400920     
   895795436.72560155        229385319.39473745        896203630.90896964     
   896447272.85349727        203185671.69212562        1007918294.1149200     
   895622506.18369901        172064014.66386613        1116155185.2918611     
   447950397.98607653        134385119.39582294        657953329.01381326     
   447088722.13419008        125417719.52815315        774089826.08361185     
   445507906.34151775        114053186.52452996        888563182.62067759     
   443207950.60805929        100291520.38495338        1001373398.6250108     
   440188854.93381470        84132721.109423131        1112520474.0966113     
  -333091.56608639349       -99927.469825918059        656480833.38292801     
  -476823.57520972774       -123699.72846886703        770967326.92494833     
  -582232.66821079457       -19728.933370751009        885605311.43051314     
  -649318.84508962242        211984.91546816120        1000394786.8996217     
  -678082.10584615427        571441.81804788683        1115335753.3322747     
   1850189951.3141363        361036644.56195199        1142774578.9751000     
   1834819904.5659869        295053992.19614887        1190238150.6176860     
   1822932530.2375381        240680247.89601147        1239969814.9020598     
   1814527828.3287902        197915411.66154480        1291969571.8282213     
   1809605798.8397422        166759483.49274409        1346237421.3961711     
   1365622871.6438057        264365322.48137510        1126239886.9180238     
   1359885741.6391461        216690908.11548266        1181669461.8692319     
   1356740111.2123115        177654825.67567497        1238015902.1352031     
   1356185980.3633025        147257075.16195190        1295279207.7159371     
   1358223349.0921195        125497656.57431531        1353459378.6114326     
   895622506.18369901        172064014.66386613        1116155185.2918611     
   895657643.41674161        141539643.44614810        1178511061.9028380     
   897393107.38573503        116683028.01493195        1240432576.5015516     
   900828898.09067941        97494168.370219737        1301919729.0880032     
   905965015.53157496        83973064.512010098        1362972519.6621926     
   440188854.93381470        84132721.109423131        1112520474.0966113     
   442135609.89877421        69600198.188144296        1180762950.7185020     
   444891518.75780946        57764854.913784966        1247219838.0011055     
   448456581.51092112        48626691.286346763        1311891135.9444213     
   452830798.15810823        42185707.305827320        1374776844.5484493     
  -678082.10584615427        571441.81804788683        1115335753.3322747     
  -680358.91475645942        872572.34147187229        1188425128.3162265     
  -764654.67146560689        900306.37223287695        1258377686.6338649     
  -930969.37597330241        654643.91033222829        1325193428.2851906     
  -1179303.0282794305        135584.95576996467        1388872353.2702038     
   1809605798.8397422        166759483.49274409        1346237421.3961711     
   1779211825.5723619        134702784.68471271        1363745778.8387582     
   1749779671.6397460        105852150.32589442        1382054827.7668078     
   1721309337.0418913        80207580.416283309        1401164568.1803205     
   1693800821.7788024        57769074.955885470        1421075000.0792964     
   1358223349.0921195        125497656.57431531        1353459378.6114326     
   1332802230.3670883        100634857.82451957        1371967088.6559172     
   1308174776.5086250        78417608.629951119        1391839249.1571534     
   1284340987.5167289        58845908.990605831        1413075860.1151392     
   1261300863.3914006        41919758.906484663        1435676921.5298774     
   905965015.53157496        83973064.512010098        1362972519.6621926     
   887127491.26685846        66787387.795839369        1382283402.0956800     
   868915477.40051377        51686745.740909189        1403522493.9572062     
   851328973.93254161        38671138.347218543        1426689795.2467723     
   834367980.86294127        27740565.614769101        1451785305.9643762     
   452830798.15810823        42185707.305827320        1374776844.5484493     
   442187608.27167314        33160374.598673150        1394694719.1580453     
   432001774.31541318        25659561.658769906        1417104562.1669679     
   422273296.28933066        19683268.486125395        1442006373.5752175     
   413002174.19342530        15231495.080736950        1469400153.3827951     
  -1179303.0282794305        135584.95576996467        1388872353.2702038     
  -2017418.6184685666       -246181.76698173478        1409201039.8430128     
  -2566332.7466768543        336056.38353675371        1432585453.7864370     
  -2826045.4129041396        1882299.4073251642        1459025595.1004760     
  -2796556.6171496962        4392547.3043854833        1488521463.7851315     
   1693800821.7788024        57769074.955885470        1421075000.0792964     
   1645674259.9153092        34452378.209500432        1415124950.9549336     
   1600085146.4274750        19593842.715308368        1414916045.4253542     
   1557033481.3152978        13193468.473307610        1420448283.4905593     
   1516519264.5787771        15251255.483496070        1431721665.1505518     
   1261300863.3914006        41919758.906484663        1435676921.5298774     
   1229067461.9381726        25916002.556130350        1433635895.1866331     
   1198467017.7714353        15355437.160745978        1436391631.6266475     
   1169499530.8911874        10238062.720324934        1443944130.8499198     
   1142165001.2974296        10563879.234873950        1456293392.8564510     
   834367980.86294127        27740565.614769101        1451785305.9643762     
   815329508.92990208        18240280.393424362        1452598062.7982225     
   797019503.19418621        11168215.829822540        1457263201.6038010     
   779437963.65579247        6524371.9239628017        1465780722.3811121     
   762584890.31472158        4308748.6758445203        1478150625.1301513     
   413002174.19342530        15231495.080736950        1469400153.3827951     
   404460400.89049900        11425211.721378922        1472011453.7897036     
   395742602.69572675        7032178.7225334495        1477530755.3568182     
   386848779.60911167        2052396.0842112005        1485958058.0841362     
   377778931.63065213       -3514136.1935921311        1497293361.9716597     
  -2796556.6171496962        4392547.3043854833        1488521463.7851315     
  -3539862.1800396098        5470796.5399870463        1491876068.1610739     
  -5363683.7239403408        2947325.8388862340        1497194292.8856947     
  -8268021.2488535689       -3177864.7989230794        1504476137.9589927     
  -12252874.754778735       -12904775.373438850        1513721603.3809705     
   1516519264.5787771        15251255.483496070        1431721665.1505518     
   1469059030.8444805        17667480.019559383        1426875364.3055787     
   1420671618.5972989        16993109.512672663        1425473052.7517445     
   1371357027.8372340        13228143.962840199        1427514730.4890540     
   1321115258.5642843        6372583.3700615168        1433000397.5175014     
   1142165001.2974296        10563879.234873950        1456293392.8564510     
   1103447883.8567016        9330604.6613138914        1449178201.6646225     
   1064321337.8762828        6732568.2887873650        1446186687.3558478     
   1024785363.3561770        2769770.1173036098        1447318849.9301310     
   984839960.29638362       -2557789.8531413674        1452574689.3874671     
   762584890.31472158        4308748.6758445203        1478150625.1301513     
   734552853.71588492        8564.3571551442146        1469370585.2268655     
   706629138.55055737       -3930548.5165072083        1465393909.7985485     
   678813744.81873536       -7508589.9451517463        1466220598.8451989     
   651106672.52042007       -10725559.928769857        1471850652.3668211     
   377778931.63065213       -3514136.1935921311        1497293361.9716597     
   362373940.42203379       -10298640.892912969        1487452514.9923096     
   347595020.62012047       -14996240.903216958        1483094720.0798416     
   333442172.22490740       -17606936.224519640        1484219977.2342563     
   319915395.23639762       -18130726.856814250        1490828286.4555554     
  -12252874.754778735       -12904775.373438850        1513721603.3809705     
  -13088856.024853248       -21591011.088891011        1503423990.9609518     
  -12781015.915026695       -26464508.871338569        1499289118.1997294     
  -11329354.425305394       -27525268.720804341        1501316985.0973022     
  -8733871.5556851998       -24773290.637273446        1509507591.6536744     
   1321115258.5642843        6372583.3700615168        1433000397.5175014     
   1269217106.6169703       -960769.81060647964        1424896281.0580783     
   1218258741.2360046       -5161501.1034479141        1422400015.0715885     
   1168240162.4213905       -6229610.5084524155        1425511599.5580459     
   1119161370.1731226       -4165098.0256316662        1434231034.5174434     
   984839960.29638362       -2557789.8531413674        1452574689.3874671     
   947899114.19879436       -6712379.9896798134        1446029960.4577510     
   911546775.37403321       -8905279.2167946696        1444649440.2370076     
   875782943.82209408       -9136487.5345032215        1448433128.7252319     
   840607619.54298210       -7406004.9427866340        1457381025.9224284     
   651106672.52042007       -10725559.928769857        1471850652.3668211     
   627855584.37550402       -12081651.390277386        1466455485.1243691     
   604841724.20988548       -12646982.920791507        1465780884.8269188     
   582065092.02356577       -12421554.520310372        1469826851.4744680     
   559525687.81654632       -11405366.188828468        1478593385.0670161     
   319915395.23639762       -18130726.856814250        1490828286.4555554     
   309086517.14709365       -17068584.012411028        1486172855.0579219     
   298143587.74355829       -16386612.215446904        1485794348.8413203     
   287086607.02580035       -16084811.465890184        1489692767.8057485     
   275915574.99381578       -16163181.763757929        1497868111.9512074     
  -8733871.5556851998       -24773290.637273446        1509507591.6536744     
  -8408087.4864378087       -21673177.856087677        1505182070.2584155     
  -8547634.0249461383       -20124167.100754663        1504689832.2802165     
  -9152511.1712029967       -20126258.371249549        1508030877.7190766     
  -10222718.925209010       -21679451.667575654        1515205206.5749974     
   1119161370.1731226       -4165098.0256316662        1434231034.5174434     
   1079831798.6545286        3989846.3682223558        1431966194.1145504     
   1041649692.6742959        15969675.889944434        1435323384.8057761     
   1004615052.2324165        31774390.539512932        1444302606.5911136     
   968727877.32889831        51403990.316956431        1458903859.4705667     
   840607619.54298210       -7406004.9427866340        1457381025.9224284     
   813633748.46423686       -2057523.7530292273        1454456581.5834172     
   786834598.22560418        3873360.2371020913        1456062136.4588132     
   760210168.82707524        10386647.027577907        1462197690.5486166     
   733760460.26865435        17482336.618415058        1472863243.8528216     
   559525687.81654632       -11405366.188828468        1478593385.0670161     
   541787426.09276950       -9799375.5286276639        1473874467.9772615     
   523251140.51085275       -10853464.395564407        1472593518.2222018     
   503916831.07079005       -14567632.789650142        1474750535.8018420     
   483784497.77258617       -20941880.710876882        1480345520.7161784     
   275915574.99381578       -16163181.763757929        1497868111.9512074     
   264292831.54012492       -19235708.958583891        1490219853.2960784     
   250899319.53004283       -28210798.008047029        1484917530.0959411     
   235735038.96356916       -43088448.912150607        1481961142.3507965     
   218799989.84069818       -63868661.670909777        1481350690.0606344     
  -10222718.925209010       -21679451.667575654        1515205206.5749974     
  -18850035.193695322       -30366524.042889442        1503492737.5398755     
  -30220864.716821484       -48198640.600336775        1493034172.0800319     
  -44335207.494594231       -75175801.339939043        1483829510.1954708     
  -61193063.527011320       -111298006.26168910        1475878751.8861871     
   968727877.32889831        51403990.316956431        1458903859.4705667     
   917376885.02122307        71107321.136215895        1463470212.4936094     
   867985818.11788368        97343736.636592060        1478072576.2221634     
   820554676.61885953        130113236.81802477        1502710950.6562319     
   775083460.52417433        169415821.68059009        1537385335.7958052     
   733760460.26865435        17482336.618415058        1472863243.8528216     
   701706377.44998181        24699578.528803259        1472737964.8889828     
   670666275.72370195        35296757.413830847        1480301856.8824522     
   640640155.08981609        49273873.273503512        1495554919.8332298     
   611628015.54832029        66630926.107816026        1518497153.7413118     
   483784497.77258617       -20941880.710876882        1480345520.7161784     
   464322068.01948178       -28222304.636390328        1474425008.0681963     
   444927675.04683185       -35275939.293720216        1473846826.6293180     
   425601318.85463786       -42102784.682866514        1478610976.3995450     
   406342999.44290251       -48702840.803813785        1488717457.3788822     
   218799989.84069818       -63868661.670909777        1481350690.0606344     
   205223956.72972181       -87658328.359366909        1468531342.0312507     
   190770016.08726606       -114374353.48608832        1458707485.4627690     
   175438167.91333079       -144016737.05107763        1451879120.3551958     
   159228412.20792085       -176585479.05431610        1448046246.7085176     
  -61193063.527011320       -111298006.26168910        1475878751.8861871     
  -75587956.419291079       -153608492.64010599        1455056966.7781446     
  -91806701.154989690       -201998485.16325179        1434883833.3828046     
  -109849297.73410633       -256467983.83112323        1415359351.7001598     
  -129715746.15663272       -317016988.64369667        1396483521.7302125     
  -333091.56608639349       -99927.469825918059        656480833.38292801     
  -476823.57520972774       -123699.72846886703        770967326.92494833     
  -582232.66821079457       -19728.933370751009        885605311.43051314     
  -649318.84508962242        211984.91546816120        1000394786.8996217     
  -678082.10584615427        571441.81804788683        1115335753.3322747     
  -448612034.08213335       -134583610.22464001        657950369.28832769     
  -447993771.78805888       -125570127.37457016        774162801.02224791     
  -446618822.65327394       -114034355.05546600        888724370.84691942     
  -444487186.67777878       -99976293.267327547        1001635078.7623421     
  -441598863.86157346       -83395942.010154650        1112894924.7685158     
  -890709951.06443620       -267212985.31933087        662388804.50095630     
  -894479274.10371494       -250707121.25151366        781165265.67212880     
  -896773546.37769520       -229284421.29936856        896488512.06125939     
  -897592767.88637722       -202944885.46289575        1008358543.6683490     
  -896936938.62976110       -171688513.74209508        1116775360.4933965     
  -1326626842.5129945       -397988052.75389832        669796139.02081358     
  -1339933330.5221779       -375534681.35929930        791974720.87459159     
  -1351046403.8414745       -345769927.66507864        908897735.07353449     
  -1359966062.4708853       -308693791.67123705        1020565181.6176429     
  -1366692306.4104090       -264306273.37777382        1126977060.5069170     
  -1756362708.4278088       -526908812.52834260        680172372.84789968     
  -1784355941.0434475       -500052807.69792688        806591166.62963545     
  -1809437395.0446119       -463490874.15259612        925952039.88374329     
  -1831607070.4313021       -417223011.89235079        1038254992.6102238     
  -1850864967.2035177       -361249220.91719043        1143500024.8090770     
  -678082.10584615427        571441.81804788683        1115335753.3322747     
  -680358.91475645942        872572.34147187229        1188425128.3162265     
  -764654.67146560689        900306.37223287695        1258377686.6338649     
  -930969.37597330241        654643.91033222829        1325193428.2851906     
  -1179303.0282794305        135584.95576996467        1388872353.2702038     
  -441598863.86157346       -83395942.010154650        1112894924.7685158     
  -443619117.99684978       -68498340.187956035        1181044628.4113035     
  -446534636.78571326       -56584953.877713978        1247410442.0157897     
  -450345420.22816306       -47655783.079427361        1311992365.5819740     
  -455051468.32420045       -41710827.793097869        1374790399.1098571     
  -896936938.62976110       -171688513.74209508        1116775360.4933965     
  -897109665.43994260       -141034789.22568339        1179036606.1382675     
  -898990902.60949886       -116076099.24052221        1240866888.3728485     
  -902580650.13843060       -96812443.786611140        1302266207.1971390     
  -907878908.02673733       -83243822.863950461        1363234562.6111400     
  -1366692306.4104090       -264306273.37777382        1126977060.5069170     
  -1361152001.2440345       -216736774.77171093        1182401061.4971180     
  -1358133452.1428235       -177573129.71619201        1238747025.7050409     
  -1357636659.1067758       -146815338.21121734        1296014953.1306844     
  -1359661622.1358919       -124463400.25678873        1354204843.7740502     
  -1850864967.2035177       -361249220.91719043        1143500024.8090770     
  -1835746125.4091263       -295604296.82603806        1191137994.4878559     
  -1823962285.3856866       -241076045.30472392        1241050854.0123677     
  -1815513447.1331983       -197664466.35324800        1293238603.3826115     
  -1810399610.6516614       -165369559.97160995        1347701242.5985885     
  -1179303.0282794305        135584.95576996467        1388872353.2702038     
  -2017418.6184685666       -246181.76698173478        1409201039.8430128     
  -2566332.7466768543        336056.38353675371        1432585453.7864370     
  -2826045.4129041396        1882299.4073251642        1459025595.1004760     
  -2796556.6171496962        4392547.3043854833        1488521463.7851315     
  -455051468.32420045       -41710827.793097869        1374790399.1098571     
  -445894428.91572654       -33176223.327795684        1395331861.0563295     
  -436876813.03325856       -25106363.949179754        1418448552.2800689     
  -427998620.67679298       -17501249.657238439        1444140472.7810740     
  -419259851.84633350       -10360880.451983541        1472407622.5593472     
  -907878908.02673733       -83243822.863950461        1363234562.6111400     
  -890099565.31488216       -66204702.719179809        1383488737.4452915     
  -872888271.11701703       -51059077.621042669        1405837643.4633613     
  -856245025.43314326       -37806947.569542110        1430281280.6653495     
  -840169828.26325870       -26448312.564674199        1456819649.0512557     
  -1359661622.1358919       -124463400.25678873        1354204843.7740502     
  -1334632827.8159359       -99331619.941132486        1373671669.0098972     
  -1310600706.9979565       -77522084.632063150        1394752727.3363144     
  -1287565259.6819532       -59034794.329582930        1417448018.7533028     
  -1265526485.8679268       -43869749.033689737        1441757543.2608595     
  -1810399610.6516614       -165369559.97160995        1347701242.5985885     
  -1779494216.4188869       -132556974.99365437        1365880655.7501490     
  -1750014120.6760743       -104495384.98223698        1385193803.8989301     
  -1721959323.4232242       -81184789.937361479        1405640687.0449331     
  -1695329824.6603355       -62625189.859024107        1427221305.1881580     
  -2796556.6171496962        4392547.3043854833        1488521463.7851315     
  -3539862.1800396098        5470796.5399870463        1491876068.1610739     
  -5363683.7239403408        2947325.8388862340        1497194292.8856947     
  -8268021.2488535689       -3177864.7989230794        1504476137.9589927     
  -12252874.754778735       -12904775.373438850        1513721603.3809705     
  -419259851.84633350       -10360880.451983541        1472407622.5593472     
  -412385469.79214156       -5592274.7620217055        1473500271.8792083     
  -406566684.53002053       -4342325.0456289202        1477637439.8356035     
  -401803496.05996847       -6611031.3028011620        1484819126.4285295     
  -398095904.38198745       -12398393.533540741        1495045331.6579878     
  -840169828.26325870       -26448312.564674199        1456819649.0512557     
  -822589477.76954615       -17062866.173623323        1455679415.7021358     
  -806039804.87896204       -11113011.793000847        1458664599.2774012     
  -790520809.59150660       -8598749.4228062034        1465775199.7770550     
  -776032491.90717876       -9520079.0630382299        1477011217.2010922     
  -1265526485.8679268       -43869749.033689737        1441757543.2608595     
  -1234151886.1122525       -28940977.694813550        1438413499.6298563     
  -1203783044.7707670       -17364734.403233349        1440275771.2110939     
  -1174419961.8434646       -9141019.1589330435        1447344358.0045710     
  -1146062637.3303518       -4269831.9619281292        1459619260.0102892     
  -1695329824.6603355       -62625189.859024107        1427221305.1881580     
  -1647072694.8202612       -41226609.325597048        1421702523.6623702     
  -1599796404.2054324       -23097492.876321554        1422470955.6366765     
  -1553500952.8158476       -8237840.5111947060        1429526601.1110761     
  -1508186340.6515083        3352347.7697835565        1442869460.0855720     
  -12252874.754778735       -12904775.373438850        1513721603.3809705     
  -13088856.024853248       -21591011.088891011        1503423990.9609518     
  -12781015.915026695       -26464508.871338569        1499289118.1997294     
  -11329354.425305394       -27525268.720804341        1501316985.0973022     
  -8733871.5556851998       -24773290.637273446        1509507591.6536744     
  -398095904.38198745       -12398393.533540741        1495045331.6579878     
  -382294057.95989925       -15160654.010550246        1488118866.8835762     
  -365834312.33002734       -15729917.128282011        1486460920.2354679     
  -348716667.49236995       -14106182.886728153        1490071491.7136631     
  -330941123.44693136       -10289451.285903513        1498950581.3181622     
  -776032491.90717876       -9520079.0630382299        1477011217.2010922     
  -746147736.45719361       -7124839.9008877277        1472888990.8714874     
  -716091003.97153807       -4156343.9531682432        1473141061.1356943     
  -685862294.45021570       -614591.21989294887        1477767427.9937129     
  -655461607.89322197        3500418.2989530563        1486768091.4455404     
  -1146062637.3303518       -4269831.9619281292        1459619260.0102892     
  -1104649891.5167365        2516431.2401003838        1457734362.9246910     
  -1063551090.8395643        8256210.6539840102        1459329540.9004118     
  -1022766235.2988371        12949506.279717922        1464404793.9374509     
  -982295324.89455748        16596318.117294431        1472960122.0358057     
  -1508186340.6515083        3352347.7697835565        1442869460.0855720     
  -1457800523.1385257        13763159.412418008        1442654983.0431817     
  -1408214572.9341025        21507746.693187773        1445026359.5296159     
  -1359428490.0382411        26586109.612084329        1449983589.5448744     
  -1311442274.4509375        28998248.169122577        1457526673.0889602     
  -8733871.5556851998       -24773290.637273446        1509507591.6536744     
  -8408087.4864378087       -21673177.856087677        1505182070.2584155     
  -8547634.0249461383       -20124167.100754663        1504689832.2802165     
  -9152511.1712029967       -20126258.371249549        1508030877.7190766     
  -10222718.925209010       -21679451.667575654        1515205206.5749974     
  -330941123.44693136       -10289451.285903513        1498950581.3181622     
  -320323885.01107407       -8302254.0661235154        1493535884.0025861     
  -310154903.60598350       -7809246.9489011765        1492461233.2969019     
  -300434179.23164672       -8810429.9341912270        1495726629.2011037     
  -291161711.88807595       -11305803.022033304        1503332071.7151914     
  -655461607.89322197        3500418.2989530563        1486768091.4455404     
  -633105020.25410235        4809068.4083196819        1480284137.3828037     
  -611179616.06875610        4680440.3384412825        1478646993.1227868     
  -589685395.33717704        3114534.0893376768        1481856658.6654842     
  -568622358.05937040        111349.66099578142        1489913134.0108995     
  -982295324.89455748        16596318.117294431        1472960122.0358057     
  -946751493.21552026        17660789.567249298        1465426830.3990636     
  -911621771.41326523        17344894.761263013        1463247111.7578688     
  -876906159.48779166        15648633.699339688        1466420966.1122169     
  -842604657.43909526        12572006.381489933        1474948393.4621146     
  -1311442274.4509375        28998248.169122577        1457526673.0889602     
  -1261263303.8953304        30252909.410661340        1448963963.0513687     
  -1211481369.6395159        30184116.319553137        1446261589.2021506     
  -1162096471.6834879        28791868.895825803        1449419551.5413084     
  -1113108610.0272534        26076167.139454067        1458437850.0688367     
  -10222718.925209010       -21679451.667575654        1515205206.5749974     
  -18850035.193695322       -30366524.042889442        1503492737.5398755     
  -30220864.716821484       -48198640.600336775        1493034172.0800319     
  -44335207.494594231       -75175801.339939043        1483829510.1954708     
  -61193063.527011320       -111298006.26168910        1475878751.8861871     
  -291161711.88807595       -11305803.022033304        1503332071.7151914     
  -294110193.80161738       -19919119.729064047        1491476932.0995967     
  -298226897.04180443       -32426507.524911985        1482719202.4890742     
  -303511821.60863751       -48827966.409582056        1477058882.8836265     
  -309964967.50211680       -69123496.383071646        1474495973.2832484     
  -568622358.05937040        111349.66099578142        1489913134.0108995     
  -560624844.38999248       -6848063.0093712211        1479753164.3974950     
  -552220260.11926198       -12450573.675229162        1474534111.2189560     
  -543408605.24717677       -16696182.336570472        1474255974.4752812     
  -534189879.77374005       -19584888.993406236        1478918754.1664734     
  -842604657.43909526        12572006.381489933        1474948393.4621146     
  -818393986.95882237        8846646.1161752343        1468321434.4335651     
  -792200953.94919407        11729160.948714435        1468478898.2696786     
  -764025558.41021562        21219550.879086256        1475420784.9704463     
  -733867800.34188402        37317815.907301337        1489147094.5358725     
  -1113108610.0272534        26076167.139454067        1458437850.0688367     
  -1067417621.5081023        27165007.647601545        1457181742.2078154     
  -1018168978.5316030        40112696.346910000        1464553563.6412404     
  -965362681.09774816        64919233.237403512        1480553314.3691154     
  -908998729.20654798        101584618.31904960        1505180994.3914406     
  -61193063.527011320       -111298006.26168910        1475878751.8861871     
  -75587956.419291079       -153608492.64010599        1455056966.7781446     
  -91806701.154989690       -201998485.16325179        1434883833.3828046     
  -109849297.73410633       -256467983.83112323        1415359351.7001598     
  -129715746.15663272       -317016988.64369667        1396483521.7302125     
  -309964967.50211680       -69123496.383071646        1474495973.2832484     
  -313561766.12143868       -91907413.277097791        1461847929.4719591     
  -318196029.85552138       -118149547.22032738        1452351328.8923035     
  -323867758.70436037       -147849898.21274409        1446006171.5442915     
  -330576952.66795254       -181008466.25433531        1442812457.4279144     
  -534189879.77374005       -19584888.993406236        1478918754.1664734     
  -519837751.20885301       -20696986.529669583        1475361902.8353722     
  -505736701.03006339       -22646012.019595295        1477459286.2548466     
  -491886729.23737538       -25431965.463189691        1485210904.4248953     
  -478287835.83078140       -29054846.860433340        1498616757.3455269     
  -733867800.34188402        37317815.907301337        1489147094.5358725     
  -694415911.68153083        60022787.602186203        1495598886.8683898     
  -654428714.67861962        84512120.438933849        1510207705.4704261     
  -613906209.33314633        110785814.41755277        1532973550.3419719     
  -572848395.64511919        138843869.53802258        1563896421.4830382     
  -908998729.20654798        101584618.31904960        1505180994.3914406     
  -837296247.53948057        150251909.11845046        1522558881.5710166     
  -764272070.80119014        203324850.15525782        1550596586.5390422     
  -689926198.99169075        260803441.42942804        1589294109.2955306     
  -614258632.11096597        322687682.94101930        1638651449.8404677     
  -1756362708.4278088       -526908812.52834260        680172372.84789968     
  -1784355941.0434475       -500052807.69792688        806591166.62963545     
  -1809437395.0446119       -463490874.15259612        925952039.88374329     
  -1831607070.4313021       -417223011.89235079        1038254992.6102238     
  -1850864967.2035177       -361249220.91719043        1143500024.8090770     
  -2202085779.4350877       -660625733.83052635        696610463.85983336     
  -2238577563.2824969       -613861569.20347583        814046853.34595501     
  -2273044245.8755932       -560347067.06205261        927409625.53604269     
  -2305485827.2143788       -500082227.40625679        1036698780.4300961     
  -2335902307.2988510       -433067050.23608816        1141914318.0281157     
  -2685964286.1610408       -805789285.84831226        722203369.93423319     
  -2722428040.5785236       -736558987.22611833        829622898.20455122     
  -2757753371.1018572       -663533942.29009390        935953112.41042864     
  -2791940277.7310414       -586714151.04023862        1041194012.5518653     
  -2824988760.4660778       -506099613.47655380        1145345598.6288607     
  -3207998228.6056676       -962399468.58170021        756951091.07109928     
  -3235907372.9315295       -868145061.76585460        853319301.20542431     
  -3263564770.7234044       -773051499.83672011        951582500.50690138     
  -3290970421.9812937       -677118782.79429770        1051740688.9755315     
  -3318124326.7051964       -580346910.63858700        1153793866.6113143     
  -3768187606.7689681       -1130456282.0306904        800853627.27043188     
  -3779015560.3415136       -1008619792.8226839        885136062.34857345     
  -3790478444.7402349       -888899739.70193124        974297789.82546115     
  -3802576259.9651332       -771296122.66843224        1068338809.7010946     
  -3815309006.0162077       -655808941.72218800        1167259121.9754741     
  -1850864967.2035177       -361249220.91719043        1143500024.8090770     
  -1835746125.4091263       -295604296.82603806        1191137994.4878559     
  -1823962285.3856866       -241076045.30472392        1241050854.0123677     
  -1815513447.1331983       -197664466.35324800        1293238603.3826115     
  -1810399610.6516614       -165369559.97160995        1347701242.5985885     
  -2335902307.2988510       -433067050.23608816        1141914318.0281157     
  -2312576589.4147048       -352101392.87889147        1183286741.8698716     
  -2292708178.8531508       -282660093.26366901        1225161703.6427732     
  -2276297075.6141877       -224743151.39041829        1267539203.3468208     
  -2263343279.6978164       -178350567.25914097        1310419240.9820144     
  -2824988760.4660778       -506099613.47655380        1145345598.6288607     
  -2798520029.1052814       -411332381.63724512        1180309786.8233473     
  -2775630910.6187167       -328497192.71204364        1214004161.0343924     
  -2756321405.0063868       -257594046.70095110        1246428721.2619963     
  -2740591512.2682862       -198622943.60396576        1277583467.5061591     
  -3318124326.7051964       -580346910.63858700        1153793866.6113143     
  -3293576444.4808550       -473297263.10109699        1182207129.3482831     
  -3272730480.6823869       -378587343.64984965        1207578226.1872241     
  -3255586435.3097930       -296217152.28484631        1229907157.1281366     
  -3242144308.3630691       -226186689.00608397        1249193922.1710217     
  -3815309006.0162077       -655808941.72218800        1167259121.9754741     
  -3797745835.5414271       -537996037.27044952        1188978769.4446790     
  -3784006889.0441604       -432930546.07708693        1205883899.1012685     
  -3774092166.5244074       -340612468.14210367        1217974510.9452438     
  -3768001667.9821677       -261041803.46549773        1225250604.9766037     
  -1810399610.6516614       -165369559.97160995        1347701242.5985885     
  -1779494216.4188869       -132556974.99365437        1365880655.7501490     
  -1750014120.6760743       -104495384.98223698        1385193803.8989301     
  -1721959323.4232242       -81184789.937361479        1405640687.0449331     
  -1695329824.6603355       -62625189.859024107        1427221305.1881580     
  -2263343279.6978164       -178350567.25914097        1310419240.9820144     
  -2222975922.2877030       -133522236.71863019        1318631705.5691912     
  -2185605096.2619600       -98682344.126019120        1330216004.0118940     
  -2151230801.6205859       -73830889.481303215        1345172136.3101234     
  -2119853038.3635817       -58967872.784487367        1363500102.4638793     
  -2740591512.2682862       -198622943.60396576        1277583467.5061591     
  -2684367623.5142498       -139860497.05092835        1273995878.4854767     
  -2632711499.0389886       -96323931.427144408        1276018222.1786265     
  -2585623138.8425045       -68013246.732615471        1283650498.5856085     
  -2543102542.9247952       -54928442.967337489        1296892707.7064211     
  -3242144308.3630691       -226186689.00608397        1249193922.1710217     
  -3163669320.0985217       -151571755.99054408        1231973174.4990067     
  -3091333329.0071573       -97420146.885613322        1222600458.3991284     
  -3025136335.0889750       -63731861.691288233        1221075773.8713877     
  -2965078338.3439765       -50506900.407578111        1227399120.9157825     
  -3768001667.9821677       -261041803.46549773        1225250604.9766037     
  -3660881012.0405226       -168656013.53747571        1192563593.6097806     
  -3561470586.1664686       -101970990.50142133        1169962712.6733987     
  -3469770390.3600049       -60986734.357336283        1157447962.1674595     
  -3385780424.6211295       -45703245.105211854        1155019342.0919631     
  -1695329824.6603355       -62625189.859024107        1427221305.1881580     
  -1647072694.8202612       -41226609.325597048        1421702523.6623702     
  -1599796404.2054324       -23097492.876321554        1422470955.6366765     
  -1553500952.8158476       -8237840.5111947060        1429526601.1110761     
  -1508186340.6515083        3352347.7697835565        1442869460.0855720     
  -2119853038.3635817       -58967872.784487367        1363500102.4638793     
  -2057045278.8944962       -40375248.567070603        1357043812.6718595     
  -1994998828.4869957       -24320321.221602321        1356140629.7826786     
  -1933713687.1410770       -10803090.748071313        1360790553.7963369     
  -1873189854.8567400        176442.85351574421        1370993584.7128341     
  -2543102542.9247952       -54928442.967337489        1296892707.7064211     
  -2467841601.2474275       -39771009.292151809        1289755028.1724398     
  -2393122438.4679828       -26419505.276706815        1287436348.9440434     
  -2318945054.5864577       -14873930.920995235        1289936670.0212312     
  -2245309449.6028538       -5134286.2250252962        1297255991.4040062     
  -2965078338.3439765       -50506900.407578111        1227399120.9157825     
  -2879461661.8790555       -39413891.500843525        1219836170.1641133     
  -2794167234.1483932       -29395045.041640878        1216358113.1207743     
  -2709195055.1519899       -20450361.029965997        1216964949.7857645     
  -2624545124.8898478       -12579839.465826869        1221656680.1590853     
  -3385780424.6211295       -45703245.105211854        1155019342.0919631     
  -3291905460.7893806       -39303895.193145275        1147287238.6468771     
  -3198133215.5282283       -33246940.516400456        1142905922.3128676     
  -3104463688.8376727       -27532381.074979424        1141875393.0899320     
  -3010896880.7177172       -22160216.868891120        1144195650.9780731     
  -1508186340.6515083        3352347.7697835565        1442869460.0855720     
  -1457800523.1385257        13763159.412418008        1442654983.0431817     
  -1408214572.9341025        21507746.693187773        1445026359.5296159     
  -1359428490.0382411        26586109.612084329        1449983589.5448744     
  -1311442274.4509375        28998248.169122577        1457526673.0889602     
  -1873189854.8567400        176442.85351574421        1370993584.7128341     
  -1815744150.9748106        7962265.9825333357        1367825176.3228040     
  -1759034020.6369011        13296177.298145175        1368107362.8062818     
  -1703059463.8430185        16178176.800338149        1371840144.1632669     
  -1647820480.5931597        16608264.489116788        1379023520.3937600     
  -2245309449.6028538       -5134286.2250252962        1297255991.4040062     
  -2178333169.7957325        767755.25726234913        1291208661.0582917     
  -2112028169.7681036        4432197.4745813608        1289476666.9307697     
  -2046394449.5199616        5859040.4269356728        1292060009.0214403     
  -1981432009.0513120        5048284.1143205166        1298958687.3303006     
  -2624545124.8898478       -12579839.465826869        1221656680.1590853     
  -2545567579.6012998       -7820372.7634068727        1212805437.2496459     
  -2467197020.3277078       -5084192.7774995565        1209134271.9030819     
  -2389433447.0690742       -4371299.5081211329        1210643184.1193914     
  -2312276859.8253903       -5681692.9552496672        1217332173.8985765     
  -3010896880.7177172       -22160216.868891120        1144195650.9780731     
  -2917447380.3915043       -17802118.079461575        1132615504.8968651     
  -2824540572.3157153       -15252993.458107948        1127080177.7232156     
  -2732176456.4903440       -14512843.004818320        1127589669.4571235     
  -2640355032.9153953       -15581666.719597697        1134143980.0985901     
  -1311442274.4509375        28998248.169122577        1457526673.0889602     
  -1261263303.8953304        30252909.410661340        1448963963.0513687     
  -1211481369.6395159        30184116.319553137        1446261589.2021506     
  -1162096471.6834879        28791868.895825803        1449419551.5413084     
  -1113108610.0272534        26076167.139454067        1458437850.0688367     
  -1647820480.5931597        16608264.489116788        1379023520.3937600     
  -1582983881.4072375        18401478.435954332        1370758562.2994244     
  -1518411373.6373463        19314387.662691832        1367784085.5695794     
  -1454102957.2834866        19346992.169327378        1370100090.2042241     
  -1390058632.3456535        18499291.955866218        1377706576.2033598     
  -1981432009.0513120        5048284.1143205166        1298958687.3303006     
  -1903565937.8747373        6891603.7745761871        1291146583.5436034     
  -1825831013.2304349        8297768.3272627592        1288055106.2975152     
  -1748227235.1184077        9266777.7723621130        1289684255.5920327     
  -1670754603.5386498        9798632.1098977327        1296034031.4271586     
  -2312276859.8253903       -5681692.9552496672        1217332173.8985765     
  -2223009473.2978330       -4276714.5734789371        1210128026.7839041     
  -2133740288.4187887       -2865741.6867556572        1207074651.3859582     
  -2044469305.1882598       -1448774.2950839996        1208172047.7047322     
  -1955196523.6062438       -25812.398452401161        1213420215.7402329     
  -2640355032.9153953       -15581666.719597697        1134143980.0985901     
  -2541314487.6765208       -15103476.608218431        1127702892.0203283     
  -2442139199.2024007       -14176142.379344106        1124842720.8349080     
  -2342829167.4930396       -12799664.033007383        1125563466.5423262     
  -2243384392.5484314       -10974041.569174051        1129865129.1425841     
  -1113108610.0272534        26076167.139454067        1458437850.0688367     
  -1067417621.5081023        27165007.647601545        1457181742.2078154     
  -1018168978.5316030        40112696.346910000        1464553563.6412404     
  -965362681.09774816        64919233.237403512        1480553314.3691154     
  -908998729.20654798        101584618.31904960        1505180994.3914406     
  -1390058632.3456535        18499291.955866218        1377706576.2033598     
  -1323481085.9590511        21079235.268646836        1377628079.5157394     
  -1254880540.1839316        30402509.876489878        1384644135.8614085     
  -1184256995.0202832        46469115.779430568        1398754745.2403662     
  -1111610450.4681141        69279052.977431297        1419959907.6526155     
  -1670754603.5386498        9798632.1098977327        1296034031.4271586     
  -1587671574.3164859        12555355.717743754        1295342714.9993081     
  -1504100200.7746282        16939893.724565208        1300212575.3435915     
  -1420040482.9130712        22952246.130384803        1310643612.4599988     
  -1335492420.7318249        30592412.935171306        1326635826.3485403     
  -1955196523.6062438       -25812.398452401161        1213420215.7402329     
  -1859989086.5804048        1593368.9948900938        1210325648.6585248     
  -1765827960.3036957       -275152.10887372494        1211258882.0877826     
  -1672713144.7761214       -5631375.7097479105        1216219916.0280104     
  -1580644639.9976790       -14475301.807732522        1225208750.4792075     
  -2243384392.5484314       -10974041.569174051        1129865129.1425841     
  -2140433622.7508008       -11806724.899891734        1122576880.4933825     
  -2040063818.7711327       -21242627.623821735        1117783056.0939891     
  -1942274980.6094205       -39281749.740936518        1115483655.9444003     
  -1847067108.2656777       -65924091.251279712        1115678680.0446227     
  -908998729.20654798        101584618.31904960        1505180994.3914406     
  -837296247.53948057        150251909.11845046        1522558881.5710166     
  -764272070.80119014        203324850.15525782        1550596586.5390422     
  -689926198.99169075        260803441.42942804        1589294109.2955306     
  -614258632.11096597        322687682.94101930        1638651449.8404677     
  -1111610450.4681141        69279052.977431297        1419959907.6526155     
  -1021901084.5393972        100941656.69129395        1429148184.3579655     
  -931752858.59070837        134067127.13840002        1445452251.2651017     
  -841165772.62204528        168655464.31875288        1468872108.3740230     
  -750139826.63340771        204706668.23234946        1499407755.6847246     
  -1335492420.7318249        30592412.935171306        1326635826.3485403     
  -1237901963.6462321        42212591.632056892        1326604518.3532183     
  -1140755481.5919123        52352853.558040202        1330144972.9730093     
  -1044052974.5688607        61013198.713122845        1337257190.2079120     
  -947794442.57707679        68193627.097318292        1347941170.0579381     
  -1580644639.9976790       -14475301.807732522        1225208750.4792075     
  -1485298884.8599863       -25935286.059266686        1214927883.5567615     
  -1391279939.8048015       -41817970.585830331        1204674751.6627612     
  -1298587804.8321326       -62123355.387449145        1194449354.7972023     
  -1207222479.9419692       -86851440.464083374        1184251692.9600892     
  -1847067108.2656777       -65924091.251279712        1115678680.0446227     
  -1764091848.1806509       -103501976.38265008        1094118279.9686038     
  -1683326233.2293744       -148445345.29319936        1069041587.3343607     
  -1604770263.4118550       -200754197.98294300        1040448602.1418940     
  -1528423938.7280915       -260428534.45185390        1008339324.3911994     
  -3768187606.7689681       -1130456282.0306904        800853627.27043188     
  -3779015560.3415136       -1008619792.8226839        885136062.34857345     
  -3790478444.7402349       -888899739.70193124        974297789.82546115     
  -3802576259.9651332       -771296122.66843224        1068338809.7010946     
  -3815309006.0162077       -655808941.72218800        1167259121.9754741     
  -4339471016.1039047       -1301841304.8311715        859044991.55582345     
  -4335032228.5015316       -1125691372.6365514        942606247.68144643     
  -4331733404.4182720       -953341318.83898115        1020497987.0075039     
  -4329574543.8541307       -784791143.43846178        1092720209.5339954     
  -4328555646.8091030       -620040846.43499231        1159272915.2609220     
  -4894787052.0634413       -1468436115.6190324        936659196.95086706     
  -4905220978.1384678       -1247014576.8934944        1018910069.3155428     
  -4917299900.4255486       -1031076358.8748027        1084942615.6823413     
  -4931023818.9246836       -820621461.56295788        1134756836.0512626     
  -4946392733.6358728       -615649884.95795906        1168352730.4223070     
  -5434135714.6475763       -1630240714.3942730        1033696243.4555632     
  -5489581809.2523212       -1372589405.5935125        1114047527.2508624     
  -5547177932.7620602       -1122104859.8093946        1167631675.8499732     
  -5606924085.1767921       -878787077.04192054        1194448689.2528956     
  -5668820266.4965172       -642636057.29108834        1194498567.4596291     
  -5957517003.8563099       -1787255101.1568930        1150156131.0699108     
  -6088114721.8430939       -1502415858.7366056        1228018621.4874055     
  -6221367501.4278078       -1226426821.6427577        1268565167.5104001     
  -6357275342.6104555       -959287989.87534952        1271795769.1388943     
  -6495838245.3910322       -700999363.43437934        1237710426.3728886     
  -3815309006.0162077       -655808941.72218800        1167259121.9754741     
  -3797745835.5414271       -537996037.27044952        1188978769.4446790     
  -3784006889.0441604       -432930546.07708693        1205883899.1012685     
  -3774092166.5244074       -340612468.14210367        1217974510.9452438     
  -3768001667.9821677       -261041803.46549773        1225250604.9766037     
  -4328555646.8091030       -620040846.43499231        1159272915.2609220     
  -4297927823.9549675       -464261546.41913545        1141411936.2069907     
  -4277931691.2500725       -343921213.56742489        1129653731.6657679     
  -4268567248.6944232       -259019847.87986112        1123998301.6372540     
  -4269834496.2880192       -209557449.35644555        1124445646.1214480     
  -4946392733.6358728       -615649884.95795906        1168352730.4223070     
  -4871507994.6157408       -412546510.24199200        1102969080.9782205     
  -4814062411.9165821       -267573656.59594059        1054605498.3721654     
  -4774055985.5383987       -180731324.01980662        1023261982.6041423     
  -4751488715.4811916       -152019512.51359034        1008938533.6741514     
  -5668820266.4965172       -642636057.29108834        1194498567.4596291     
  -5518486347.5237474       -382850928.73901796        1073650203.7583674     
  -5392399051.0436888       -203887875.16263676        980739199.22046137     
  -5290558377.0563316       -105746896.56193900        915765553.84591067     
  -5212964325.5616865       -88427992.936931849        878729267.63471580     
  -6495838245.3910322       -700999363.43437934        1237710426.3728886     
  -6238862882.6789951       -375174801.91021705        1053455304.5474328     
  -6012941608.6313925       -152863869.26751089        908054834.21065640     
  -5818074423.2482262       -34066565.506259203        801509015.36255813     
  -5654261326.5294991       -18782890.626467705        733817848.00313807     
  -3768001667.9821677       -261041803.46549773        1225250604.9766037     
  -3660881012.0405226       -168656013.53747571        1192563593.6097806     
  -3561470586.1664686       -101970990.50142133        1169962712.6733987     
  -3469770390.3600049       -60986734.357336283        1157447962.1674595     
  -3385780424.6211295       -45703245.105211854        1155019342.0919631     
  -4269834496.2880192       -209557449.35644555        1124445646.1214480     
  -4147587571.1156802       -145763379.57682467        1090816588.9849586     
  -4029690877.0514011       -96470080.157401562        1065335082.3989620     
  -3916144414.0951786       -61677551.098172903        1048001126.3634574     
  -3806948182.2470174       -41385792.399139166        1038814720.8784443     
  -4751488715.4811916       -152019512.51359034        1008938533.6741514     
  -4619654320.7351580       -118478802.77947068        978287429.55411673     
  -4488810158.1376543       -88238866.873778582        953845296.10462379     
  -4358956227.6886749       -61299704.796508789        935612133.32567322     
  -4230092529.3882275       -37661316.547667503        923587941.21726382     
  -5212964325.5616865       -88427992.936931849        878729267.63471580     
  -5077081260.8989592       -86802283.145411968        854976115.31725335     
  -4938828429.4252262       -77277350.650548458        835493353.79038382     
  -4798205831.1404934       -59853195.452342510        820280983.05410779     
  -4655213466.0447588       -34529817.550791979        809339003.10842288     
  -5654261326.5294991       -18782890.626467705        733817848.00313807     
  -5519868391.6070786       -50733820.674650431        720882646.27437127     
  -5379745690.9141235       -63585531.487720013        710279255.45624459     
  -5233893224.4506302       -57338023.065668344        702007675.54875958     
  -5082310992.2166080       -31991295.408509970        696067906.55191863     
  -3385780424.6211295       -45703245.105211854        1155019342.0919631     
  -3291905460.7893806       -39303895.193145275        1147287238.6468771     
  -3198133215.5282283       -33246940.516400456        1142905922.3128676     
  -3104463688.8376727       -27532381.074979424        1141875393.0899320     
  -3010896880.7177172       -22160216.868891120        1144195650.9780731     
  -3806948182.2470174       -41385792.399139166        1038814720.8784443     
  -3702224340.6317649       -30400871.415509701        1030097772.6451207     
  -3598401995.8066015       -22420939.732183218        1025317119.1945971     
  -3495481147.7715340       -17445997.349170923        1024472760.5268688     
  -3393461796.5265532       -15476044.266453028        1027564696.6419398     
  -4230092529.3882275       -37661316.547667503        923587941.21726382     
  -4112846930.9274063       -21588960.773851633        912954240.27296162     
  -3997301607.4761710       -11184188.365327835        906842341.78317809     
  -3883456559.0345206       -6446999.3220891953        905252245.74791276     
  -3771311785.6024623       -7377393.6441426277        908183952.16716969     
  -4655213466.0447588       -34529817.550791979        809339003.10842288     
  -4523773231.6763039       -12868163.268170357        795856641.53039479     
  -4394832050.5369339        463313.58417415619        787481590.07860923     
  -4268389922.6266422        5464613.0062484741        784213848.75306380     
  -4144446847.9454346        2135734.9980499744        786053417.55376410     
  -5082310992.2166080       -31991295.408509970        696067906.55191863     
  -4935003242.8784628       -4238478.8984682560        678804976.41742408     
  -4790993324.9888926        12521566.116309881        667234864.08089137     
  -4650281238.5478973        18288839.635846615        661357569.54232347     
  -4512866983.5554790        13063341.660122395        661173092.80172122     
  -3010896880.7177172       -22160216.868891120        1144195650.9780731     
  -2917447380.3915043       -17802118.079461575        1132615504.8968651     
  -2824540572.3157153       -15252993.458107948        1127080177.7232156     
  -2732176456.4903440       -14512843.004818320        1127589669.4571235     
  -2640355032.9153953       -15581666.719597697        1134143980.0985901     
  -3393461796.5265532       -15476044.266453028        1027564696.6419398     
  -3285528132.4715939       -13517750.697969913        1016960086.3262300     
  -3177870523.2906408       -12479640.042858839        1012006122.7145268     
  -3070488968.9837012       -12361712.301111579        1012702805.8068283     
  -2963383469.5507698       -13163967.472733498        1019050135.6031359     
  -3771311785.6024623       -7377393.6441426277        908183952.16716969     
  -3650020164.1146126       -8156767.1853594780        898865954.55610347     
  -3528737960.1243634       -8967532.3852460384        894804431.44549036     
  -3407465173.6317201       -9809689.2438087463        895999382.83532989     
  -3286201804.6366706       -10683237.761032462        902450808.72562456     
  -4144446847.9454346        2135734.9980499744        786053417.55376410     
  -4010923475.3205633       -1719167.5416238308        778333109.58648396     
  -3877142882.8168840       -4716670.4852771759        775475103.91610551     
  -3743105070.4343953       -6856773.8328983784        777479400.54262781     
  -3608810038.1730952       -8139477.5844910145        784345999.46605337     
  -4512866983.5554790        13063341.660122395        661173092.80172122     
  -4368238066.0894480        5795048.2332267761        655361551.41737306     
  -4223085291.3681965        272945.65706253052        654018140.12637448     
  -4077408659.3917322       -3502966.0683915615        657142858.92872512     
  -3931208170.1600442       -5532686.9430966377        664735707.82442558     
  -2640355032.9153953       -15581666.719597697        1134143980.0985901     
  -2541314487.6765208       -15103476.608218431        1127702892.0203283     
  -2442139199.2024007       -14176142.379344106        1124842720.8349080     
  -2342829167.4930396       -12799664.033007383        1125563466.5423262     
  -2243384392.5484314       -10974041.569174051        1129865129.1425841     
  -2963383469.5507698       -13163967.472733498        1019050135.6031359     
  -2854887367.4082632       -13473260.560322046        1013098061.1487882     
  -2746065244.7184443       -12695818.490208745        1011020302.0041560     
  -2636917101.4813190       -10831641.262407184        1012816858.1692410     
  -2527442937.6968870       -7880728.8769073486        1018487729.6440458     
  -3286201804.6366706       -10683237.761032462        902450808.72562456     
  -3167411864.3994470       -11528529.690259814        897210904.75925946     
  -3048104626.3028488       -10649495.421574950        896138714.51949239     
  -2928280090.3468781       -8046134.9549844265        899234238.00632083     
  -2807938256.5315361       -3718448.2904952765        906497475.21974385     
  -3608810038.1730952       -8139477.5844910145        784345999.46605337     
  -3478887978.6500750       -9269283.9980299473        780041422.85175097     
  -3348257343.9556160       -8037173.1734533310        780197958.38092029     
  -3216918134.0897212       -4443145.1107567549        784815606.05356443     
  -3084870349.0523915        1512800.1900582314        793894365.86968684     
  -3931208170.1600442       -5532686.9430966377        664735707.82442558     
  -3789315710.1601443       -6695523.4836339951        661589615.42625403     
  -3646523397.6767468       -4858851.7458400726        663198033.58843684     
  -3502831232.7098427       -22671.729702234268        669560962.31097019     
  -3358239215.2594495        7813016.5647442341        680678401.59385943     
  -2243384392.5484314       -10974041.569174051        1129865129.1425841     
  -2140433622.7508008       -11806724.899891734        1122576880.4933825     
  -2040063818.7711327       -21242627.623821735        1117783056.0939891     
  -1942274980.6094205       -39281749.740936518        1115483655.9444003     
  -1847067108.2656777       -65924091.251279712        1115678680.0446227     
  -2527442937.6968870       -7880728.8769073486        1018487729.6440458     
  -2418401592.6174803       -7895756.2321728468        1009413822.5084138     
  -2311556220.2585196       -15230692.655588150        1002341859.1915402     
  -2206906820.6200047       -29885538.147155643        997271839.69342494     
  -2104453393.7019305       -51860292.706859469        994203764.01407242     
  -2807938256.5315361       -3718448.2904952765        906497475.21974385     
  -2694213423.1162081       -3337945.7540625334        896087068.21145010     
  -2582299569.3238130       -8994041.9607273340        887186124.59086835     
  -2472196695.1543431       -20686736.910484314        879794644.35799813     
  -2363904800.6077981       -38416030.603330255        873912627.51284075     
  -3084870349.0523915        1512800.1900582314        793894365.86968684     
  -2967869114.2469926        1866706.5344293118        782596617.60249758     
  -2852293865.9670029       -2532675.5392284393        772315852.29197586     
  -2738144604.2124310       -11685346.030939698        763052069.93811655     
  -2625421328.9832606       -25591304.940676332        754805270.54092550     
  -3358239215.2594495        7813016.5647442341        680678401.59385943     
  -3239368666.0098324        7718200.6333032846        668942470.68155158     
  -3121539110.1881042        4153406.6088863611        657731042.29485869     
  -3004750547.7942777       -2881365.5085319281        647044116.43378341     
  -2889002978.8283420       -13386115.718914509        636881693.09832430     
  -1847067108.2656777       -65924091.251279712        1115678680.0446227     
  -1764091848.1806509       -103501976.38265008        1094118279.9686038     
  -1683326233.2293744       -148445345.29319936        1069041587.3343607     
  -1604770263.4118550       -200754197.98294300        1040448602.1418940     
  -1528423938.7280915       -260428534.45185390        1008339324.3911994     
  -2104453393.7019305       -51860292.706859469        994203764.01407242     
  -2020646497.5417166       -83709462.759827733        973441413.51739693     
  -1937465907.5176950       -117646319.93344182        955513064.46484005     
  -1854911623.6298728       -153670864.22771776        940418716.85640454     
  -1772983645.8782430       -191783095.64263946        928158370.69210124     
  -2363904800.6077981       -38416030.603330255        873912627.51284075     
  -2261122571.2228293       -59093376.433022738        855795555.42599022     
  -2157383308.9764962       -76580612.724828720        846862778.78560841     
  -2052687013.8687987       -90877739.478768110        847114297.59169805     
  -1947033685.8997443       -101984756.69482350        856550111.84425521     
  -2625421328.9832606       -25591304.940676332        754805270.54092550     
  -2485520069.2239833       -29653717.402225137        741180705.69438469     
  -2343078437.6057725       -25248223.667351365        743090730.29666185     
  -2198096434.1286459       -12374823.736086726        760535344.34775186     
  -2050574058.7926011        8966482.3915826082        793514547.84766531     
  -2889002978.8283420       -13386115.718914509        636881693.09832430     
  -2693838991.5451813        4609514.3325524330        629596864.32257998     
  -2494551293.4055328        36350847.238975883        644196918.99800062     
  -2291139884.4094052        81837883.000308037        680681857.12458253     
  -2083604764.5568051        141070621.61658466        739051678.70233190     
  -5957517003.8563099       -1787255101.1568930        1150156131.0699108     
  -6088114721.8430939       -1502415858.7366056        1228018621.4874055     
  -6221367501.4278078       -1226426821.6427577        1268565167.5104001     
  -6357275342.6104555       -959287989.87534952        1271795769.1388943     
  -6495838245.3910322       -700999363.43437934        1237710426.3728886     
  -6810244478.8004427       -2043073343.6401327        1353754237.9664350     
  -6828210015.6943722       -1395611038.8876696        1202803927.5315838     
  -6897480688.0617752       -919165852.38010883        1092127455.6398485     
  -7018056495.9026451       -613737784.11745119        1021724822.2912284     
  -7189937439.2169886       -479326834.09969592        991596027.48572457     
  -8337631698.5907707       -2501289509.5772309        1712205942.3176591     
  -8021279960.2843742       -1424698614.2603498        1275684411.5090003     
  -7804883431.3269882       -681291750.10683465        957026502.18107259     
  -7688442111.7186108       -271068917.11668444        756232214.33387673     
  -7671956001.4592438       -194030115.28990078        673301547.96741223     
  -10539678663.227297       -3161903598.9681892        2225511244.1235838     
  -9667324555.6131020       -1589678584.8546476        1446660073.4196548     
  -8943575731.2234516       -512804514.82293510        863262307.13407302     
  -8368432190.0583515        68718611.126948833        475317945.26683921     
  -7941893932.1178017        154890792.99500179        282826987.81795180     
  -13416385372.710020       -4024915611.8130059        2893670143.3842092     
  -11766343801.680548       -1890550950.6705620        1715730913.2635477     
  -10313557587.751165       -413704146.52841139        810834870.49884987     
  -9058026730.9218674        405624800.61344862        178982015.09011480     
  -7999751231.1926622        567435890.75501347       -179827652.96265811     
  -6495838245.3910322       -700999363.43437934        1237710426.3728886     
  -6238862882.6789951       -375174801.91021705        1053455304.5474328     
  -6012941608.6313925       -152863869.26751089        908054834.21065640     
  -5818074423.2482262       -34066565.506259203        801509015.36255813     
  -5654261326.5294991       -18782890.626467705        733817848.00313807     
  -7189937439.2169886       -479326834.09969592        991596027.48572457     
  -6900179443.0757666       -303842721.55297041        847014604.63937700     
  -6623348302.2134037       -171448126.60244656        723489890.39851642     
  -6359444016.6299019       -82143049.248120546        621021884.76314163     
  -6108466586.3252602       -35927489.489990234        539610587.73325157     
  -7671956001.4592438       -194030115.28990078        673301547.96741223     
  -7400266637.2693930       -184141831.33478260        589542263.05001366     
  -7123376894.9728203       -156918953.69060230        509041743.85490823     
  -6841286774.5695324       -112361482.35736489        431799990.38209623     
  -6553996276.0595264       -50469417.335067987        357817002.63157696     
  -7941893932.1178017        154890792.99500179        282826987.81795180     
  -7739124465.2598705       -16072131.255650520        281038279.77934217     
  -7513027386.9096375       -109276350.53197956        264710394.57983366     
  -7263602697.0671158       -124721864.83399487        233843332.21942437     
  -6990850395.7322960       -62408674.161692619        188437092.69811618     
  -7999751231.1926622        567435890.75501347       -179827652.96265811     
  -7916752927.0471983        200366378.68443203       -78497345.172637984     
  -7792299778.0238628       -28520317.126579285       -9504157.4267101325     
  -7626391784.1226540       -119224196.67801380        27151910.275122929     
  -7419028945.3435736       -71745259.969872952        31470857.932866313     
  -5654261326.5294991       -18782890.626467705        733817848.00313807     
  -5519868391.6070786       -50733820.674650431        720882646.27437127     
  -5379745690.9141235       -63585531.487720013        710279255.45624459     
  -5233893224.4506302       -57338023.065668344        702007675.54875958     
  -5082310992.2166080       -31991295.408509970        696067906.55191863     
  -6108466586.3252602       -35927489.489990234        539610587.73325157     
  -5958726224.0180035       -37780327.451983213        533886408.34471691     
  -5807727540.9291878       -35438762.808778524        530690417.86014062     
  -5655470537.0588179       -28902795.560379505        530022616.27951837     
  -5501955212.4068823       -18172425.706782818        531883003.60285294     
  -6553996276.0595264       -50469417.335067987        357817002.63157696     
  -6388347406.3865404       -22055839.216598272        354087159.76280749     
  -6225911660.9209709       -4352675.1228556633        353081883.79130661     
  -6066689039.6628180        2640074.9461650848        354801174.71707404     
  -5910679542.6120844       -1077589.0095343590        359245032.54011309     
  -6990850395.7322960       -62408674.161692619        188437092.69811618     
  -6808731938.7126856       -3560355.9685006142        181484900.52863777     
  -6634298050.8894653        29672731.570052147        177453653.24974281     
  -6467548732.2626362        37290588.453964710        176343350.86143020     
  -6308483982.8322039        19293214.683235645        178153993.36370119     
  -7419028945.3435736       -71745259.969872952        31470857.932866313     
  -7219879820.9964390        17706122.292320728        16079630.642208153     
  -7032886710.8346710        66637457.269950390        3805726.2354475213     
  -6858049614.8582706        75048744.963021278       -5350855.2874163836     
  -6695368533.0672388        42939985.371534348       -11390113.926385004     
  -5082310992.2166080       -31991295.408509970        696067906.55191863     
  -4935003242.8784628       -4238478.8984682560        678804976.41742408     
  -4790993324.9888926        12521566.116309881        667234864.08089137     
  -4650281238.5478973        18288839.635846615        661357569.54232347     
  -4512866983.5554790        13063341.660122395        661173092.80172122     
  -5501955212.4068823       -18172425.706782818        531883003.60285294     
  -5344547114.1602097       -6220207.7036249638        515820132.67133582     
  -5188361721.7031355        1656324.3342082500        505480235.06538665     
  -5033399035.0356607        5457170.4067077637        500863310.78500491     
  -4879659054.1577768        5182330.5138843060        501969359.83019352     
  -5910679542.6120844       -1077589.0095343590        359245032.54011309     
  -5743084936.8065786       -4900121.9181611538        346803200.74704826     
  -5574637911.1316977       -5881255.2621872425        340114497.80715549     
  -5405338465.5874414       -4020989.0416312218        339178923.72043204     
  -5235186600.1738033        680676.74351835251        343996478.48688757     
  -6308483982.8322039        19293214.683235645        178153993.36370119     
  -6130616710.8175745       -278221.54208946228        171754180.64455789     
  -5949821893.2745895       -10091172.672889471        171137652.30619887     
  -5766099530.2032518       -10145638.709181547        176304408.34860936     
  -5579449621.6035566       -441619.65095424652        187254448.77180183     
  -6695368533.0672388        42939985.371534348       -11390113.926385004     
  -6507142436.1931858        7645493.4246022701       -9326927.6361289080     
  -6313913668.1318016       -10973427.897880077       -1450301.4374871063     
  -6115682228.8830872       -12916778.595938683        12239764.669526869     
  -5912448118.4470406        1815441.3304474354        31743270.684932478     
  -4512866983.5554790        13063341.660122395        661173092.80172122     
  -4368238066.0894480        5795048.2332267761        655361551.41737306     
  -4223085291.3681965        272945.65706253052        654018140.12637448     
  -4077408659.3917322       -3502966.0683915615        657142858.92872512     
  -3931208170.1600442       -5532686.9430966377        664735707.82442558     
  -4879659054.1577768        5182330.5138843060        501969359.83019352     
  -4724136559.5197754        3440646.4189922810        499433406.57060826     
  -4568711094.2548761        1375531.0804319382        499533626.58103293     
  -4413382658.3630791       -1013015.5018098354        502270019.86147028     
  -4258151251.8443847       -3724993.3277204037        507642586.41191584     
  -5235186600.1738033        680676.74351835251        343996478.48688757     
  -5074004690.7162228        2895353.2749302387        344011745.61902082     
  -4913540697.2600670        2716976.4682543278        344831229.19782877     
  -4753794619.8053379        145546.32349300385        346454929.22331113     
  -4594766458.3520241       -4818937.1593341827        348882845.69546467     
  -5579449621.6035566       -441619.65095424652        187254448.77180183     
  -5417842459.6787958        4159168.8010244370        189096568.56261772     
  -5257574100.3837681        4297281.8205323219        189910947.97676370     
  -5098644543.7184963       -27280.592474460602        189697587.01424548     
  -4941053789.6829605       -8814518.4379231930        188456485.67506805     
  -5912448118.4470406        1815441.3304474354        31743270.684932478     
  -5755649866.4074869        7232092.9972767830        34687875.401386119     
  -5600811303.6259871        6116447.1372435093        34772782.917833351     
  -5447932430.1025658       -1531496.2497146130        31997993.234281048     
  -5297013245.8372030       -15711737.163524628        26363506.350727774     
  -3931208170.1600442       -5532686.9430966377        664735707.82442558     
  -3789315710.1601443       -6695523.4836339951        661589615.42625403     
  -3646523397.6767468       -4858851.7458400726        663198033.58843684     
  -3502831232.7098427       -22671.729702234268        669560962.31097019     
  -3358239215.2594495        7813016.5647442341        680678401.59385943     
  -4258151251.8443847       -3724993.3277204037        507642586.41191584     
  -4103722094.1522727       -5159966.9037468433        502375184.06648052     
  -3948195239.6818800       -2935951.2188255787        502059685.62443000     
  -3791570688.4332027        2947053.7270402908        506696091.08576423     
  -3633848440.4062343        12489047.933869600        516284400.45047998     
  -4594766458.3520241       -4818937.1593341827        348882845.69546467     
  -4427236621.9876099       -6356853.4768159389        341724951.74667943     
  -4258411244.5501337       -3576299.5507543087        339716355.04431635     
  -4088290326.0395827        3522724.6188836098        342857055.58836168     
  -3916873866.4559531        14940219.032106400        351147053.37882811     
  -4941053789.6829605       -8814518.4379231930        188456485.67506805     
  -4759859293.6661587       -10286183.202868462        179638918.46685618     
  -4577171412.2815046       -6779896.7416229248        176168041.84808639     
  -4392990145.5289888        1704340.9458286762        178043855.81877172     
  -4207315493.4086165        15166529.859457493        185266360.37890026     
  -5297013245.8372030       -15711737.163524628        26363506.350727774     
  -5101590109.1879110       -16947956.081855536        16117084.226999415     
  -4904475742.8759956       -12546742.791415691        11414746.035758680     
  -4705670146.9014301       -2508097.2921540737        12256491.776995560     
  -4505173321.2642164        13167980.415934086        18642321.450704854     
  -3358239215.2594495        7813016.5647442341        680678401.59385943     
  -3239368666.0098324        7718200.6333032846        668942470.68155158     
  -3121539110.1881042        4153406.6088863611        657731042.29485869     
  -3004750547.7942777       -2881365.5085319281        647044116.43378341     
  -2889002978.8283420       -13386115.718914509        636881693.09832430     
  -3633848440.4062343        12489047.933869600        516284400.45047998     
  -3506812715.8922396        12140760.243637562        503087224.31299138     
  -3381325891.3498230        6629472.6481323242        495704943.18220723     
  -3257387966.7789917       -4044814.8526406288        494137557.05812675     
  -3134998942.1797380       -19882102.258682609        498385065.94074464     
  -3916873866.4559531        14940219.032106400        351147053.37882811     
  -3766557559.5887675        18873081.709728003        335896074.38186163     
  -3618298059.2368445        15949922.669794321        331750382.87268335     
  -3472095365.4001861        6170741.9123098850        338709978.85129076     
  -3327949478.0788002       -10464460.562747240        356774862.31769103     
  -4207315493.4086165        15166529.859457493        185266360.37890026     
  -4018603197.0994148        27915165.031583071        167369020.88815570     
  -3832455613.8491645        32114756.673872948        165867361.36628094     
  -3648872743.6578693        27765304.786305189        180761381.81328246     
  -3467854586.5255337        14866809.368881702        212051082.22915789     
  -4505173321.2642164        13167980.415934086        18642321.450704854     
  -4262949628.4241810        39267010.209216118       -2493936.1681233570     
  -4023798555.1867871        55123974.660361290       -1944121.3369958836     
  -3787720101.5520401        60738873.769356251        20291765.944092397     
  -3554714267.5199308        56111707.536211729        64213725.675149173     
  -2889002978.8283420       -13386115.718914509        636881693.09832430     
  -2693838991.5451813        4609514.3325524330        629596864.32257998     
  -2494551293.4055328        36350847.238975883        644196918.99800062     
  -2291139884.4094052        81837883.000308037        680681857.12458253     
  -2083604764.5568051        141070621.61658466        739051678.70233190     
  -3134998942.1797380       -19882102.258682609        498385065.94074464     
  -2910600362.2972212       -2789406.8062477112        503333579.86386466     
  -2683118520.0650096        24580829.811852455        509093728.01201713     
  -2452553415.4830856        62228607.595658898        515665510.38521099     
  -2218905048.5514550        110153926.54514146        523048926.98344499     
  -3327949478.0788002       -10464460.562747240        356774862.31769103     
  -3134525589.1001616       -12337484.760341167        372742862.34843278     
  -2939058886.2785897       -7401129.4814862013        368449247.37809139     
  -2741549369.6140814        4344605.2738032341        343894017.40665644     
  -2541997039.1066489        22899719.505522013        299077172.43412656     
  -3467854586.5255337        14866809.368881702        212051082.22915789     
  -3365614671.9539771       -24034719.529689074        237824711.77629122     
  -3262372392.0462708       -59595030.641066313        222263477.09620148     
  -3158127746.8024044       -91814123.965244651        165367378.18890044     
  -3052880736.2223744       -120691999.50224376        67136415.054384142     
  -3554714267.5199308        56111707.536211729        64213725.675149173     
  -3603867610.8586793       -37881111.114289522        98579128.147427633     
  -3653059037.3680596       -132000873.66688716        70536417.166366518     
  -3702288547.0480499       -226247580.12149656       -19914407.268030025     
  -3751556139.8986483       -320621230.47818744       -172773345.15577960     
 </DataArray>
 <DataArray  type="Float64" Name="VM" NumberOfComponents="1" format="ascii">
   12935698958.906710     
   11341068746.687626     
   10210745835.012661     
   9273400241.6395226     
   8304627823.9216061     
   10130273699.291319     
   9322220981.8787079     
   8826743083.7517815     
   8444044505.0934286     
   8036352271.5028057     
   7982269874.3705158     
   7735090286.6855831     
   7669433031.5096617     
   7670039131.1666260     
   7667000666.6546774     
   6491598891.1825075     
   6586966568.6811075     
   6757647694.6346188     
   6961603253.6374121     
   7172188014.6877060     
   5657811488.8601437     
   5891015662.8415365     
   6116573397.0858498     
   6332060633.4603062     
   6537282535.4085617     
   8304627823.9216061     
   8020792953.3664007     
   7778998821.1105490     
   7568603088.7531767     
   7384652849.9259090     
   8036352271.5028057     
   7747300803.7703962     
   7473888702.2832632     
   7214169210.2461681     
   6968144709.2567930     
   7667000666.6546774     
   7381794132.6791649     
   7101952081.5918427     
   6827544232.8956938     
   6558760613.6963711     
   7172188014.6877060     
   6911703371.8707809     
   6659063149.8776026     
   6410384209.2716589     
   6162509370.8023729     
   6537282535.4085617     
   6329376604.6021767     
   6143543841.0117178     
   5965836585.7625914     
   5787246735.2312746     
   7384652849.9259090     
   7229719965.9378557     
   7067293259.5244207     
   6896715622.6965504     
   6717821712.9280500     
   6968144709.2567930     
   6814908902.1152620     
   6657094575.9487667     
   6494428481.6679144     
   6326852867.4548807     
   6558760613.6963711     
   6407381933.8157511     
   6254467444.0950260     
   6099987829.8418417     
   5943964852.9341183     
   6162509370.8023729     
   6012132091.9312325     
   5863296353.4307919     
   5716045274.9754314     
   5570443170.9532795     
   5787246735.2312746     
   5635608704.7431440     
   5488563392.3395462     
   5346027929.3572245     
   5208075650.0378590     
   6717821712.9280500     
   6511532275.0367146     
   6308615119.9836349     
   6109042205.6079750     
   5912939757.7443132     
   6326852867.4548807     
   6138957836.4781008     
   5953464036.5866394     
   5770380799.7681818     
   5589808939.7303562     
   5943964852.9341183     
   5773324037.7036848     
   5604187034.5391169     
   5436584289.9446430     
   5270607710.0417995     
   5570443170.9532795     
   5416451634.6834955     
   5263152278.5002155     
   5110571861.1726389     
   4958807485.9640665     
   5208075650.0378590     
   5070760955.5351448     
   4933441365.8316898     
   4796106757.8820858     
   4658872986.8080349     
   5912939757.7443132     
   5759332581.1202679     
   5604095996.7831755     
   5447234353.9181480     
   5288799655.2759371     
   5589808939.7303562     
   5430138561.5159645     
   5269368496.9098167     
   5107488245.2645998     
   4944500307.5681171     
   5270607710.0417995     
   5110231228.5130959     
   4949681216.9426537     
   4788984118.1447868     
   4628173367.9870205     
   4958807485.9640665     
   4802849140.6546364     
   4648103677.5757208     
   4494677561.9544868     
   4342709420.0836411     
   4658872986.8080349     
   4512050027.0692816     
   4368352083.4834776     
   4227985459.2850070     
   4091242043.2058997     
   5288799655.2759371     
   5092566526.7631207     
   4897943534.3047733     
   4704891326.7523918     
   4513454649.6123400     
   4944500307.5681171     
   4762210338.0975552     
   4581783372.7287216     
   4403258719.0648880     
   4226762448.2401423     
   4628173367.9870205     
   4460288207.0763416     
   4294604655.9110427     
   4131253159.9483142     
   3970455025.5322294     
   4342709420.0836411     
   4189988244.9384007     
   4039909377.9362888     
   3892704233.8285413     
   3748699164.0409732     
   4091242043.2058997     
   3954742616.8142586     
   3821433950.6149487     
   3691651157.7131276     
   3565825800.0217209     
   4513454649.6123400     
   4277199126.4410863     
   4038267573.9884911     
   3796558280.7712617     
   3553668635.4075232     
   4226762448.2401423     
   4041909926.6358895     
   3856891251.9652128     
   3671943587.9882064     
   3488334831.7939482     
   3970455025.5322294     
   3822152149.5483131     
   3674834256.1010070     
   3528786199.0300207     
   3384785395.9528785     
   3748699164.0409732     
   3622019827.2531519     
   3495738050.6632423     
   3370040503.9256287     
   3245269905.7465653     
   3565825800.0217209     
   3446338013.9011993     
   3324640848.2184238     
   3200736923.5204349     
   3074671725.9876161     
   3553668635.4075232     
   3575041378.4860940     
   3599106381.3882542     
   3625683824.5796366     
   3666318741.7892575     
   3488334831.7939482     
   3379796257.5792780     
   3267973834.1266022     
   3152687346.6750674     
   3040102564.3001113     
   3384785395.9528785     
   3197441207.8412833     
   3006901660.9750118     
   2812375935.8665223     
   2614796076.4401174     
   3245269905.7465653     
   3031155197.7474966     
   2820172092.9085188     
   2612709643.3078604     
   2409372355.4192824     
   3074671725.9876161     
   2884627470.9371953     
   2710482598.2482796     
   2555926117.9338188     
   2427063004.4167066     
   5657811488.8601437     
   5891015662.8415365     
   6116573397.0858498     
   6332060633.4603062     
   6537282535.4085617     
   5151498875.2631178     
   5311439145.1483860     
   5468004211.8687258     
   5618319576.7410593     
   5760937545.2435808     
   4643531231.2977953     
   4755628796.0517673     
   4868843102.8434849     
   4980543725.7221651     
   5088809634.6347713     
   4134172310.1342053     
   4224420450.5966554     
   4320584929.5112457     
   4420997239.5739326     
   4524192816.9540319     
   3624935412.7297535     
   3719634442.5059152     
   3825588822.1156869     
   3942711828.3417406     
   4070890777.7433438     
   6537282535.4085617     
   6329376604.6021767     
   6143543841.0117178     
   5965836585.7625914     
   5787246735.2312746     
   5760937545.2435808     
   5652557543.9873075     
   5560095700.1216602     
   5474475351.3248835     
   5390160452.1025391     
   5088809634.6347713     
   5054248520.0209179     
   5030167003.1457319     
   5011359287.5284672     
   4994628146.1777325     
   4524192816.9540319     
   4539054167.7221251     
   4558608525.7355089     
   4580387549.3797197     
   4602672728.0072212     
   4070890777.7433438     
   4112316195.8714957     
   4151159730.0049930     
   4186548343.1141129     
   4217767613.0115018     
   5787246735.2312746     
   5635608704.7431440     
   5488563392.3395462     
   5346027929.3572245     
   5208075650.0378590     
   5390160452.1025391     
   5248660995.3602819     
   5110652649.9112301     
   4976183225.0755816     
   4845361742.1657152     
   4994628146.1777325     
   4867444777.8188276     
   4743584131.3215151     
   4623016170.0472574     
   4505786044.8640881     
   4602672728.0072212     
   4494603638.3043871     
   4390736463.2100782     
   4290743625.3798504     
   4194530581.9178076     
   4217767613.0115018     
   4134072073.1269627     
   4056684882.2914462     
   3984724024.9331651     
   3917885904.3747211     
   5208075650.0378590     
   5070760955.5351448     
   4933441365.8316898     
   4796106757.8820858     
   4658872986.8080349     
   4845361742.1657152     
   4722448499.2145710     
   4600633267.9991331     
   4480006089.1664705     
   4360756394.1750059     
   4505786044.8640881     
   4396778208.8322220     
   4289972652.9852338     
   4185534434.0623026     
   4083703480.5050025     
   4194530581.9178076     
   4098710135.3665190     
   4006141329.0146918     
   3917033550.2379465     
   3831650771.4903426     
   3917885904.3747211     
   3834217426.7572565     
   3754726643.3243289     
   3679633347.9509559     
   3609199577.3994360     
   4658872986.8080349     
   4512050027.0692816     
   4368352083.4834776     
   4227985459.2850070     
   4091242043.2058997     
   4360756394.1750059     
   4228748843.3611040     
   4100107298.2701120     
   3975083143.5535965     
   3854013198.4729815     
   4083703480.5050025     
   3967010845.7347956     
   3854030113.4934664     
   3745056650.3159199     
   3640474185.4073162     
   3831650771.4903426     
   3730932735.4457812     
   3634381818.1642313     
   3542329986.8922043     
   3455202979.6540046     
   3609199577.3994360     
   3525225565.8193898     
   3445975089.9076376     
   3371800000.7281876     
   3303153255.0235190     
   4091242043.2058997     
   3954742616.8142586     
   3821433950.6149487     
   3691651157.7131276     
   3565825800.0217209     
   3854013198.4729815     
   3730473983.5371547     
   3610638647.3885450     
   3494862781.2943354     
   3383591522.4025903     
   3640474185.4073162     
   3529678490.2179503     
   3423100521.6800261     
   3321107346.4940653     
   3224145438.0248394     
   3455202979.6540046     
   3356921489.7000852     
   3263347786.9096189     
   3174847270.3792214     
   3091851329.2967501     
   3303153255.0235190     
   3217092729.8408537     
   3136172399.6086273     
   3060739379.4658847     
   2991190847.3306022     
   3565825800.0217209     
   3446338013.9011993     
   3324640848.2184238     
   3200736923.5204349     
   3074671725.9876161     
   3383591522.4025903     
   3266210261.5605536     
   3148383692.8110442     
   3030192213.5077467     
   2911751073.4213357     
   3224145438.0248394     
   3113945992.0708094     
   3005653591.6719632     
   2899524751.2982535     
   2795871467.9364285     
   3091851329.2967501     
   2993211446.9549885     
   2899308970.5604053     
   2810599775.6502590     
   2727619061.7401395     
   2991190847.3306022     
   2907334501.9082317     
   2831347366.8021822     
   2763817219.5755095     
   2705417970.0136151     
   3074671725.9876161     
   2884627470.9371953     
   2710482598.2482796     
   2555926117.9338188     
   2427063004.4167066     
   2911751073.4213357     
   2772611507.3664260     
   2647929633.8261547     
   2539886574.5828543     
   2451692025.2291837     
   2795871467.9364285     
   2692151773.6629620     
   2599173496.7612267     
   2517977754.0989218     
   2449926700.0738606     
   2727619061.7401395     
   2645136039.2307858     
   2567538184.2213035     
   2495138612.1948638     
   2428297069.7074089     
   2705417970.0136151     
   2632394821.8985090     
   2556630527.9861608     
   2477966381.1887016     
   2396262183.5990214     
   3624935412.7297535     
   3719634442.5059152     
   3825588822.1156869     
   3942711828.3417406     
   4070890777.7433438     
   3137807401.5782351     
   3255351343.4711328     
   3382319056.2880788     
   3518228816.9475498     
   3662611866.7422700     
   2694480999.8228130     
   2830253656.8213897     
   2973346099.1263394     
   3122672027.2371087     
   3277317069.4200392     
   2298462073.4393396     
   2449144094.8377819     
   2604552930.2513394     
   2762769622.8469548     
   2922368303.7556763     
   1954990931.7695532     
   2118996011.3100281     
   2284352289.1780391     
   2448111011.4742951     
   2608326121.8434348     
   4070890777.7433438     
   4112316195.8714957     
   4151159730.0049930     
   4186548343.1141129     
   4217767613.0115018     
   3662611866.7422700     
   3701959986.9324045     
   3739965587.4775410     
   3775744627.6319585     
   3808557993.9809847     
   3277317069.4200392     
   3320461328.8718128     
   3363854431.5929966     
   3406676835.8104596     
   3448252701.6188493     
   2922368303.7556763     
   2975203136.6093030     
   3030236909.7502780     
   3086780167.5594716     
   3144295660.6386490     
   2608326121.8434348     
   2676238137.4340920     
   2748607204.3591442     
   2824909706.7743111     
   2904785453.0914040     
   4217767613.0115018     
   4134072073.1269627     
   4056684882.2914462     
   3984724024.9331651     
   3917885904.3747211     
   3808557993.9809847     
   3756263970.2495031     
   3709845164.4448447     
   3668814780.0117846     
   3633072932.3490262     
   3448252701.6188493     
   3422674621.5990787     
   3402156019.6275792     
   3386466762.1186533     
   3375587992.3989921     
   3144295660.6386490     
   3140963180.0704842     
   3141268913.6168599     
   3145120016.8091102     
   3152501970.1287422     
   2904785453.0914040     
   2919500371.7950401     
   2935633198.6529465     
   2953144675.4338965     
   2972004651.8801479     
   3917885904.3747211     
   3834217426.7572565     
   3754726643.3243289     
   3679633347.9509559     
   3609199577.3994360     
   3633072932.3490262     
   3561230189.9389453     
   3494156735.1774559     
   3432092356.2151260     
   3375323377.6376534     
   3375587992.3989921     
   3316972527.8955078     
   3263934628.7900653     
   3216714779.0612898     
   3175610247.6637053     
   3152501970.1287422     
   3108293789.5019126     
   3070679083.8642025     
   3039867743.2936583     
   3016143298.7889605     
   2972004651.8801479     
   2942867517.3282027     
   2921517897.3619781     
   2908092955.1191111     
   2902828833.6150737     
   3609199577.3994360     
   3525225565.8193898     
   3445975089.9076376     
   3371800000.7281876     
   3303153255.0235190     
   3375323377.6376534     
   3306904209.4779205     
   3243854626.4322662     
   3186506767.2759209     
   3135258859.0338807     
   3175610247.6637053     
   3121290117.5073371     
   3072797551.3039455     
   3030411487.3628774     
   2994447076.6618385     
   3016143298.7889605     
   2974048839.7008042     
   2937993676.1826477     
   2908180916.4402537     
   2884830193.1843820     
   2902828833.6150737     
   2870611767.6668682     
   2844358496.6783886     
   2824190059.2368603     
   2810238003.6145468     
   3303153255.0235190     
   3217092729.8408537     
   3136172399.6086273     
   3060739379.4658847     
   2991190847.3306022     
   3135258859.0338807     
   3061597294.3667421     
   2993947121.0881181     
   2932677417.3281260     
   2878203789.6110678     
   2994447076.6618385     
   2933844727.3738399     
   2880198577.7554936     
   2833866597.5780163     
   2795246422.7980704     
   2884830193.1843820     
   2837422139.3633151     
   2797946974.1439018     
   2766714513.8902221     
   2744066728.1318026     
   2810238003.6145468     
   2775449629.8088984     
   2749569867.1166215     
   2732828484.8773947     
   2725482878.0349259     
   2991190847.3306022     
   2907334501.9082317     
   2831347366.8021822     
   2763817219.5755095     
   2705417970.0136151     
   2878203789.6110678     
   2810990394.0239406     
   2752155210.7962441     
   2702223854.5602160     
   2661780823.3642483     
   2795246422.7980704     
   2744319701.7201328     
   2702179573.9733191     
   2669268030.6699204     
   2646064189.1367350     
   2744066728.1318026     
   2708641273.2032623     
   2682294600.0599127     
   2665375925.6180868     
   2658258505.5837026     
   2725482878.0349259     
   2704316145.0799522     
   2692417865.3627572     
   2690050193.2626176     
   2697495320.7824149     
   2705417970.0136151     
   2632394821.8985090     
   2556630527.9861608     
   2477966381.1887016     
   2396262183.5990214     
   2661780823.3642483     
   2595154693.5127101     
   2530559099.3748450     
   2468142829.9501433     
   2408064646.7082920     
   2646064189.1367350     
   2593078256.3103366     
   2547355365.7189531     
   2509339854.6633396     
   2479478193.6707325     
   2658258505.5837026     
   2623947892.1881890     
   2602195618.4618163     
   2593606543.6923027     
   2598770724.2745357     
   2697495320.7824149     
   2684518499.8603635     
   2689326648.5075870     
   2712544010.7806115     
   2754778702.9520249     
   1954990931.7695532     
   2118996011.3100281     
   2284352289.1780391     
   2448111011.4742951     
   2608326121.8434348     
   1653574872.5188808     
   1819937083.2750652     
   1987977227.3614392     
   2155006959.6918836     
   2319275828.5923362     
   1393532518.6200416     
   1570795617.4272554     
   1749036194.8827271     
   1926254072.4812839     
   2101201677.0527914     
   1207157322.4460952     
   1398996160.9714549     
   1590379645.2910361     
   1780530181.6457801     
   1968988489.6702778     
   1137058196.1570499     
   1335354649.9850886     
   1533913501.7330961     
   1732734772.8853905     
   1931818496.0832586     
   2608326121.8434348     
   2676238137.4340920     
   2748607204.3591442     
   2824909706.7743111     
   2904785453.0914040     
   2319275828.5923362     
   2406366026.8187051     
   2495861306.3094177     
   2587365794.8768973     
   2680601303.6374531     
   2101201677.0527914     
   2205023807.2321887     
   2308730755.9911561     
   2412085652.5430422     
   2514921409.1694250     
   1968988489.6702778     
   2086182829.0976298     
   2200508605.0281501     
   2311892289.5693235     
   2420282317.2247930     
   1931818496.0832586     
   2058413144.8213778     
   2179574566.3605537     
   2295302762.5624533     
   2405597807.2133346     
   2904785453.0914040     
   2919500371.7950401     
   2935633198.6529465     
   2953144675.4338965     
   2972004651.8801479     
   2680601303.6374531     
   2701711286.2007723     
   2725167172.1338215     
   2750957389.6511889     
   2779076892.6241102     
   2514921409.1694250     
   2542504478.7126832     
   2573402492.0972381     
   2607616907.0344658     
   2645153180.9315257     
   2420282317.2247930     
   2453056555.3124504     
   2490131520.6821389     
   2531508955.8298264     
   2577192772.3844166     
   2405597807.2133346     
   2440808543.4985576     
   2481312315.8183126     
   2527109793.9191785     
   2578202444.2729583     
   2972004651.8801479     
   2942867517.3282027     
   2921517897.3619781     
   2908092955.1191111     
   2902828833.6150737     
   2779076892.6241102     
   2765024699.6367178     
   2758227466.2139320     
   2758765035.3341274     
   2766759499.9972987     
   2645153180.9315257     
   2642034532.9386287     
   2645243211.4892874     
   2654810754.4159579     
   2670778220.9185915     
   2577192772.3844166     
   2580610560.6818175     
   2589048111.8533826     
   2602513453.3465576     
   2621014893.5798116     
   2578202444.2729583     
   2584017111.8551126     
   2593226853.9996281     
   2605839122.7031622     
   2621872960.9188876     
   2902828833.6150737     
   2870611767.6668682     
   2844358496.6783886     
   2824190059.2368603     
   2810238003.6145468     
   2766759499.9972987     
   2740025700.0879164     
   2720299142.6866827     
   2707683484.6024213     
   2702286992.1772227     
   2670778220.9185915     
   2648907577.5104599     
   2635195545.1914043     
   2629705296.5248208     
   2632502886.7772298     
   2621014893.5798116     
   2602440748.0005054     
   2593254644.3520002     
   2593470918.2765050     
   2603110028.6199894     
   2621872960.9188876     
   2604074879.5046535     
   2596946102.8571467     
   2600467692.6256585     
   2614634417.5588183     
   2810238003.6145468     
   2775449629.8088984     
   2749569867.1166215     
   2732828484.8773947     
   2725482878.0349259     
   2702286992.1772227     
   2679165613.6593542     
   2664610744.8889980     
   2658750910.7115722     
   2661724990.9192986     
   2632502886.7772298     
   2617901679.3951087     
   2611356675.6477380     
   2612921188.9358788     
   2622650542.5157003     
   2603110028.6199894     
   2593690564.8439221     
   2591678649.9247522     
   2597084673.7062941     
   2609918958.3126516     
   2614634417.5588183     
   2607120516.2938418     
   2606257950.4408016     
   2612044412.5999646     
   2624479631.0434422     
   2725482878.0349259     
   2704316145.0799522     
   2692417865.3627572     
   2690050193.2626176     
   2697495320.7824149     
   2661724990.9192986     
   2647642351.9693232     
   2641292643.7116809     
   2642763252.2175174     
   2652142643.7998343     
   2622650542.5157003     
   2610719568.1159854     
   2604838507.6792946     
   2605024508.9934464     
   2611299665.3023696     
   2609918958.3126516     
   2595682994.2740192     
   2585684551.7671328     
   2579963480.8502674     
   2578590061.4196143     
   2624479631.0434422     
   2604261176.4313846     
   2586355142.2840123     
   2570901422.2565017     
   2558119512.8573322     
   2697495320.7824149     
   2684518499.8603635     
   2689326648.5075870     
   2712544010.7806115     
   2754778702.9520249     
   2652142643.7998343     
   2642449885.4728575     
   2645987061.9687624     
   2662955962.0461617     
   2693561951.4630599     
   2611299665.3023696     
   2598323119.5200920     
   2594527639.9889469     
   2599942189.0428615     
   2614596653.7931161     
   2578590061.4196143     
   2556862012.6078572     
   2540625213.1046705     
   2529949474.6296520     
   2524909373.0143595     
   2558119512.8573322     
   2523741366.6674209     
   2491457784.0561666     
   2461584073.3891735     
   2434481983.9250183     
   1137058196.1570499     
   1335354649.9850886     
   1533913501.7330961     
   1732734772.8853905     
   1931818496.0832586     
   1207346571.3983514     
   1399355483.4005384     
   1590922794.9513996     
   1781276067.8875873     
   1969959955.7330616     
   1393927729.9614692     
   1571417330.1499085     
   1749923681.9041722     
   1927448676.3058863     
   2102745982.0746861     
   1654156050.4286182     
   1820694391.2531552     
   1988973928.7752028     
   2156303860.1995187     
   2320929167.5777774     
   1955735984.6272099     
   2119781749.8099289     
   2285255193.0910344     
   2449202150.2150359     
   2609665786.8823824     
   1931818496.0832586     
   2058413144.8213778     
   2179574566.3605537     
   2295302762.5624533     
   2405597807.2133346     
   1969959955.7330616     
   2087031867.0542529     
   2201232911.2516594     
   2312486196.6204987     
   2420738933.2600179     
   2102745982.0746861     
   2206480194.0788379     
   2310099316.1641893     
   2413365961.4829874     
   2516112825.9233308     
   2320929167.5777774     
   2408093585.3894725     
   2497673570.2722616     
   2589280678.6103673     
   2682639564.4451180     
   2609665786.8823824     
   2677894781.4358954     
   2750611592.0496440     
   2827312518.4762425     
   2907645915.9484997     
   2405597807.2133346     
   2440808543.4985576     
   2481312315.8183126     
   2527109793.9191785     
   2578202444.2729583     
   2420738933.2600179     
   2454787652.2857957     
   2493293439.8911304     
   2536261760.4853835     
   2583697910.1518931     
   2516112825.9233308     
   2545555888.5315471     
   2578586925.5480909     
   2615210607.8756704     
   2655434851.1913428     
   2682639564.4451180     
   2705450402.0055199     
   2730950182.4637465     
   2759125751.4280028     
   2789974543.3662577     
   2907645915.9484997     
   2923213393.6471205     
   2940558778.8486400     
   2959630922.7532072     
   2980398754.9644547     
   2578202444.2729583     
   2584017111.8551126     
   2593226853.9996281     
   2605839122.7031622     
   2621872960.9188876     
   2583697910.1518931     
   2584839652.6790709     
   2591097661.3920465     
   2602478997.8623877     
   2619003617.9238725     
   2655434851.1913428     
   2649512509.8894997     
   2650277980.8500247     
   2657760411.9592972     
   2672005908.8512783     
   2789974543.3662577     
   2774049582.0602427     
   2766166059.9899001     
   2766410577.1882119     
   2774896296.7738619     
   2980398754.9644547     
   2951331745.1927710     
   2931416313.3075900     
   2920834553.5454941     
   2919813363.5596895     
   2621872960.9188876     
   2604074879.5046535     
   2596946102.8571467     
   2600467692.6256585     
   2614634417.5588183     
   2619003617.9238725     
   2604625894.4737210     
   2599427981.9062181     
   2603425126.3957381     
   2616635479.6054497     
   2672005908.8512783     
   2657005262.1495547     
   2649577520.7873697     
   2649787850.6484470     
   2657701005.6397638     
   2774896296.7738619     
   2756448060.3314247     
   2743887409.5927215     
   2737317479.0454783     
   2736844276.1883702     
   2919813363.5596895     
   2896410870.5619445     
   2877172557.9329371     
   2862210995.9690642     
   2851649220.0909371     
   2614634417.5588183     
   2607120516.2938418     
   2606257950.4408016     
   2612044412.5999646     
   2624479631.0434422     
   2616635479.6054497     
   2606139907.7686749     
   2603105178.6311674     
   2607544019.4451461     
   2619471912.4724112     
   2657701005.6397638     
   2641517200.6487880     
   2633555355.4391012     
   2633870276.1442180     
   2642521174.0088468     
   2736844276.1883702     
   2712157454.5089474     
   2696375977.7485433     
   2689628789.4658003     
   2692053525.7201567     
   2851649220.0909371     
   2815732043.9667363     
   2789298018.7936878     
   2772581327.8678341     
   2765834275.2068782     
   2624479631.0434422     
   2604261176.4313846     
   2586355142.2840123     
   2570901422.2565017     
   2558119512.8573322     
   2619471912.4724112     
   2598951611.3657460     
   2583735474.8653932     
   2573867238.5431519     
   2569405690.4674163     
   2642521174.0088468     
   2622883184.6821699     
   2611700463.0857434     
   2608982725.2078562     
   2614743274.2639837     
   2692053525.7201567     
   2673011509.0427914     
   2665764918.5809984     
   2670392682.8505173     
   2687009140.0533185     
   2765834275.2068782     
   2745769584.9559870     
   2741143925.9259553     
   2752258085.2858534     
   2779504972.2870998     
   2558119512.8573322     
   2523741366.6674209     
   2491457784.0561666     
   2461584073.3891735     
   2434481983.9250183     
   2569405690.4674163     
   2547341243.2703290     
   2530926008.3367052     
   2520251504.6723833     
   2515418716.8813567     
   2614743274.2639837     
   2605758778.3432555     
   2606431921.3900309     
   2616800333.3890886     
   2636904134.4718943     
   2687009140.0533185     
   2690342926.7304134     
   2707934330.8945584     
   2739925208.4783497     
   2786446741.6036954     
   2779504972.2870998     
   2793564505.3551764     
   2827348160.3316007     
   2881235675.8290939     
   2955535556.3349066     
   1955735984.6272099     
   2119781749.8099289     
   2285255193.0910344     
   2449202150.2150359     
   2609665786.8823824     
   2299272063.3429451     
   2449876657.2061987     
   2605243010.4320850     
   2763448521.3158569     
   2923061625.5110917     
   2695201736.1217756     
   2830852733.2065930     
   2973826267.3021073     
   3123035071.0431185     
   3277563457.3061743     
   3138313949.2828774     
   3255763636.6523890     
   3382615520.4364567     
   3518390783.9472198     
   3662623273.2745152     
   3625120341.5037613     
   3719822596.1517863     
   3825739514.6799355     
   3942792796.1246324     
   4070876563.0214581     
   2609665786.8823824     
   2677894781.4358954     
   2750611592.0496440     
   2827312518.4762425     
   2907645915.9484997     
   2923061625.5110917     
   2976277368.6199374     
   3031734489.4072661     
   3088757448.9324269     
   3146817269.9040365     
   3277563457.3061743     
   3321020980.2812619     
   3364768744.5774360     
   3407991207.0644422     
   3450015522.6890345     
   3662623273.2745152     
   3702115134.3464231     
   3740296024.8996902     
   3776273552.2815704     
   3809302641.3916078     
   4070876563.0214581     
   4112195581.4357696     
   4150950825.9628849     
   4186247892.2032328     
   4217355875.0938306     
   2907645915.9484997     
   2923213393.6471205     
   2940558778.8486400     
   2959630922.7532072     
   2980398754.9644547     
   3146817269.9040365     
   3143087995.3082190     
   3143143499.6836634     
   3146884476.3408375     
   3154306338.6819348     
   3450015522.6890345     
   3423324407.9269934     
   3401694066.9367256     
   3384891726.6149688     
   3372905439.0235314     
   3809302641.3916078     
   3755732732.5012674     
   3707954952.7601728     
   3665486620.1054173     
   3628223999.3204055     
   4217355875.0938306     
   4132758015.1886249     
   4054348576.8811235     
   3981265293.0802755     
   3913191250.0619678     
   2980398754.9644547     
   2951331745.1927710     
   2931416313.3075900     
   2920834553.5454941     
   2919813363.5596895     
   3154306338.6819348     
   3110420462.6067576     
   3073994960.0780678     
   3045279632.4914894     
   3024572862.8030610     
   3372905439.0235314     
   3314223807.9014950     
   3261439090.7411108     
   3214816543.6704030     
   3174670399.5365672     
   3628223999.3204055     
   3555750690.5960588     
   3487790290.0581627     
   3424582180.9629564     
   3366409681.1193485     
   3913191250.0619678     
   3828525261.1967468     
   3747203640.0910897     
   3669416546.2696676     
   3595388718.4603825     
   2919813363.5596895     
   2896410870.5619445     
   2877172557.9329371     
   2862210995.9690642     
   2851649220.0909371     
   3024572862.8030610     
   2987354146.4501047     
   2955151294.0617609     
   2928149895.6356511     
   2906556935.3586526     
   3174670399.5365672     
   3122253646.6468377     
   3075433917.9805851     
   3034470576.5466700     
   2999663670.7426200     
   3366409681.1193485     
   3297386731.7994967     
   3234278952.6153259     
   3177410444.8031483     
   3127173128.5299273     
   3595388718.4603825     
   3508323393.8454652     
   3427259631.3447151     
   3352569544.6980643     
   3284725872.7048640     
   2851649220.0909371     
   2815732043.9667363     
   2789298018.7936878     
   2772581327.8678341     
   2765834275.2068782     
   2906556935.3586526     
   2858713510.5346751     
   2819179534.0623732     
   2788269177.5629215     
   2766323653.5118275     
   2999663670.7426200     
   2939031795.8183246     
   2885504450.7266169     
   2839443820.4390302     
   2801249846.0499392     
   3127173128.5299273     
   3053770088.8036304     
   2986273384.0791059     
   2925052812.3082867     
   2870524139.9747405     
   3284725872.7048640     
   3199260257.3680248     
   3118563476.6894627     
   3042976218.2556052     
   2972887585.9836946     
   2765834275.2068782     
   2745769584.9559870     
   2741143925.9259553     
   2752258085.2858534     
   2779504972.2870998     
   2766323653.5118275     
   2733774289.2649474     
   2713948995.4090924     
   2707249507.5975757     
   2714101530.5404649     
   2801249846.0499392     
   2752186529.6766529     
   2712884423.4074440     
   2683839587.9858274     
   2665561795.2736697     
   2870524139.9747405     
   2803067983.0083308     
   2742098982.1889076     
   2688150656.7444983     
   2641813042.3732748     
   2972887585.9836946     
   2887362211.2681746     
   2804869372.9528456     
   2725910959.0162530     
   2651123048.6286430     
   2779504972.2870998     
   2793564505.3551764     
   2827348160.3316007     
   2881235675.8290939     
   2955535556.3349066     
   2714101530.5404649     
   2699077070.3422723     
   2697971728.0000176     
   2711204075.4807582     
   2739131989.8028669     
   2665561795.2736697     
   2620319993.6093559     
   2582952311.2336164     
   2553867775.3587732     
   2533462928.6315165     
   2641813042.3732748     
   2568348311.9892592     
   2496588048.0866208     
   2426859029.6859636     
   2359541585.6222696     
   2651123048.6286430     
   2555666282.3635030     
   2456479397.5190763     
   2353938266.0251880     
   2248577801.8540626     
   3625120341.5037613     
   3719822596.1517863     
   3825739514.6799355     
   3942792796.1246324     
   4070876563.0214581     
   4134050285.7657719     
   4224369387.6546865     
   4320578890.0320845     
   4421019507.0490093     
   4524235229.0586061     
   4643226699.0623865     
   4755406325.9399767     
   4868690432.7242193     
   4980454873.1604605     
   5088784142.2927818     
   5151130966.4691114     
   5311108543.7245798     
   5467712337.7967806     
   5618068619.1499043     
   5760728816.1662722     
   5657496298.7164555     
   5890636924.4047356     
   6116147244.6533909     
   6331596858.6118813     
   6536781887.2504015     
   4070876563.0214581     
   4112195581.4357696     
   4150950825.9628849     
   4186247892.2032328     
   4217355875.0938306     
   4524235229.0586061     
   4538812991.2797661     
   4558076629.2076864     
   4579544796.7075167     
   4601495339.2674541     
   5088784142.2927818     
   5053878067.6531019     
   5029438791.4045668     
   5010254300.9766283     
   4993125958.9045362     
   5760728816.1662722     
   5652051225.7188902     
   5559284228.8780012     
   5473354535.0682383     
   5388723408.5955782     
   6536781887.2504015     
   6328728647.2672615     
   6142748845.3593102     
   5964913982.3641272     
   5786215211.6682987     
   4217355875.0938306     
   4132758015.1886249     
   4054348576.8811235     
   3981265293.0802755     
   3913191250.0619678     
   4601495339.2674541     
   4493195492.5038166     
   4389053081.5209084     
   4288749477.1468506     
   4192185796.4459186     
   4993125958.9045362     
   4866112518.3343382     
   4742423194.7564678     
   4622030345.0771990     
   4504978843.8638439     
   5388723408.5955782     
   5247526940.7844629     
   5109842062.1935596     
   4975716664.4660654     
   4845260562.3392057     
   5786215211.6682987     
   5634757522.4843817     
   5487906950.0031185     
   5345584081.5574694     
   5207864278.5572348     
   3913191250.0619678     
   3828525261.1967468     
   3747203640.0910897     
   3669416546.2696676     
   3595388718.4603825     
   4192185796.4459186     
   4096113120.8553710     
   4002767249.3443561     
   3912332293.3508906     
   3825045453.9529753     
   4504978843.8638439     
   4396321212.5483704     
   4289630258.1484017     
   4185054916.3899817     
   4082819960.6994390     
   4845260562.3392057     
   4722990638.3908596     
   4601843860.5208597     
   4481906020.2542381     
   4363362877.7278423     
   5207864278.5572348     
   5071063660.8942986     
   4934508249.1493435     
   4798195476.5778322     
   4662246428.6402006     
   3595388718.4603825     
   3508323393.8454652     
   3427259631.3447151     
   3352569544.6980643     
   3284725872.7048640     
   3825045453.9529753     
   3721973715.6758986     
   3623786321.1310792     
   3530835558.0500150     
   3443572930.9341321     
   4082819960.6994390     
   3964444649.5535531     
   3849993876.2973032     
   3739777218.9232817     
   3634196134.4519234     
   4363362877.7278423     
   4230605384.5046349     
   4100982429.3377047     
   3974750258.0115271     
   3852245871.5581818     
   4662246428.6402006     
   4516120882.3649387     
   4372507439.4793777     
   4231607358.1319189     
   4093690123.5211701     
   3284725872.7048640     
   3199260257.3680248     
   3118563476.6894627     
   3042976218.2556052     
   2972887585.9836946     
   3443572930.9341321     
   3345325367.2066412     
   3251562412.0324392     
   3162638289.3133011     
   3078971189.0441761     
   3634196134.4519234     
   3522935912.9669070     
   3415814432.2198210     
   3313184923.2158980     
   3215478646.1552730     
   3852245871.5581818     
   3727719752.2136984     
   3606952713.3285165     
   3490285861.5606623     
   3378150225.1907458     
   4093690123.5211701     
   3955589638.3088698     
   3820855071.4380560     
   3689807972.8992729     
   3562869476.6915832     
   2972887585.9836946     
   2887362211.2681746     
   2804869372.9528456     
   2725910959.0162530     
   2651123048.6286430     
   3078971189.0441761     
   2981003571.2671628     
   2884854439.8514137     
   2790883306.2403574     
   2699555404.2058730     
   3215478646.1552730     
   3107848142.1029181     
   3001070526.8018556     
   2895368475.1194420     
   2791035596.3619657     
   3378150225.1907458     
   3263611971.7595134     
   3149250403.5846043     
   3035180659.8647590     
   2921557307.5074382     
   3562869476.6915832     
   3443983610.5128970     
   3324878803.8641944     
   3205600511.2898540     
   3086211228.1238227     
   2651123048.6286430     
   2555666282.3635030     
   2456479397.5190763     
   2353938266.0251880     
   2248577801.8540626     
   2699555404.2058730     
   2600699303.2833776     
   2505732370.8768764     
   2415042045.7544837     
   2329089383.3112388     
   2791035596.3619657     
   2679497721.5944324     
   2578077441.5617142     
   2487578558.4204946     
   2409109293.9496446     
   2921557307.5074382     
   2784426505.2648664     
   2662338627.8734579     
   2557307577.1347423     
   2472310016.4680185     
   3086211228.1238227     
   2908330050.7554388     
   2749500973.6063256     
   2614097323.8727865     
   2508752141.1818705     
   5657496298.7164555     
   5890636924.4047356     
   6116147244.6533909     
   6331596858.6118813     
   6536781887.2504015     
   6491355883.0687647     
   6586567298.7379284     
   6757100275.1576996     
   6960912974.7603130     
   7171360588.3963070     
   7982021574.5377913     
   7734656039.6713686     
   7668810879.8358297     
   7669236224.7831450     
   7666027066.8704052     
   10129941445.496693     
   9321736927.8416996     
   8826090569.9904861     
   8443235638.7707767     
   8035407267.2706900     
   12935204053.539427     
   11340518268.422668     
   10210103782.961901     
   9272682659.7714653     
   8303876394.2562361     
   6536781887.2504015     
   6328728647.2672615     
   6142748845.3593102     
   5964913982.3641272     
   5786215211.6682987     
   7171360588.3963070     
   6910899266.1096802     
   6658294781.6107731     
   6409672074.4672451     
   6161877287.8770113     
   7666027066.8704052     
   7380910249.1185799     
   7101175929.9229841     
   6826894345.6360168     
   6558257161.5892048     
   8035407267.2706900     
   7746410079.6486053     
   7473067670.1035814     
   7213431757.6786814     
   6967504575.3393068     
   8303876394.2562361     
   8019966347.0707140     
   7778096255.8514471     
   7567630230.0448046     
   7383618960.8120584     
   5786215211.6682987     
   5634757522.4843817     
   5487906950.0031185     
   5345584081.5574694     
   5207864278.5572348     
   6161877287.8770113     
   6011474613.5243540     
   5862596129.3288422     
   5715286115.2968140     
   5569610050.3188372     
   6558257161.5892048     
   6406769999.8986101     
   6253710581.2912159     
   6099048369.0853214     
   5942805357.1988478     
   6967504575.3393068     
   6814206636.6778584     
   6656284116.6381550     
   6493461851.9276104     
   6325683351.3577108     
   7383618960.8120584     
   7228802796.7990246     
   7066444167.7890949     
   6895886509.0301743     
   6716970438.1427317     
   5207864278.5572348     
   5071063660.8942986     
   4934508249.1493435     
   4798195476.5778322     
   4662246428.6402006     
   5569610050.3188372     
   5415643044.1026525     
   5262530238.6346664     
   5110302917.7473879     
   4959063123.4147692     
   5942805357.1988478     
   5771977491.8426285     
   5602755587.7172127     
   5435171783.4916763     
   5269320962.2645912     
   6325683351.3577108     
   6137691272.6557312     
   5952168176.5108242     
   5769120877.2922945     
   5588648044.5810928     
   6716970438.1427317     
   6510988590.6766996     
   6308434612.3641090     
   6109270864.0270319     
   5913611642.4343309     
   4662246428.6402006     
   4516120882.3649387     
   4372507439.4793777     
   4231607358.1319189     
   4093690123.5211701     
   4959063123.4147692     
   4804376477.4808846     
   4650592316.1696939     
   4497810824.0395069     
   4346160070.7721968     
   5269320962.2645912     
   5110308724.9158077     
   4951056985.1227322     
   4791591412.0209427     
   4631945364.3355112     
   5588648044.5810928     
   5429810353.4688148     
   5269999589.1596813     
   5109206652.0593719     
   4947432139.9613657     
   5913611642.4343309     
   5759582695.7375002     
   5604195676.0368452     
   5447448782.2348242     
   5289371986.2371645     
   4093690123.5211701     
   3955589638.3088698     
   3820855071.4380560     
   3689807972.8992729     
   3562869476.6915832     
   4346160070.7721968     
   4192437126.2788725     
   4041392624.5315509     
   3893252331.8178291     
   3748338634.3770094     
   4631945364.3355112     
   4463479477.9499130     
   4297100344.3092270     
   4132939027.1643767     
   3971215910.6054940     
   4947432139.9613657     
   4764894116.2878208     
   4583952104.0002899     
   4404651100.8542957     
   4227116621.7206788     
   5289371986.2371645     
   5093213782.2275896     
   4898254324.4325628     
   4704464497.4970503     
   4511887265.0866499     
   3562869476.6915832     
   3443983610.5128970     
   3324878803.8641944     
   3205600511.2898540     
   3086211228.1238227     
   3748338634.3770094     
   3619357465.1596155     
   3491846977.3197703     
   3365996579.2170744     
   3242136073.2960148     
   3971215910.6054940     
   3820585964.2011018     
   3671542151.3799758     
   3524355694.0530758     
   3379703677.0487857     
   4227116621.7206788     
   4043039457.0272293     
   3859321405.8850060     
   3676190869.2121019     
   3494665845.6549950     
   4511887265.0866499     
   4282720324.5491261     
   4051643194.2760539     
   3818613609.5323100     
   3584825427.0579920     
   3086211228.1238227     
   2908330050.7554388     
   2749500973.6063256     
   2614097323.8727865     
   2508752141.1818705     
   3242136073.2960148     
   3037024444.9444108     
   2836055669.6440845     
   2639932270.9689074     
   2449660210.2750554     
   3379703677.0487857     
   3194298427.6461415     
   3003936434.4206967     
   2807634601.7778449     
   2605537531.5610766     
   3494665845.6549950     
   3378865188.7466235     
   3255826649.1244483     
   3126384345.4295497     
   2996616585.8721433     
   3584825427.0579920     
   3589140810.7353902     
   3590958609.4935675     
   3594674446.9121747     
   3614373359.9133396     
 </DataArray>
 <DataArray  type="Float64" Name="strain" NumberOfComponents="3" format="ascii">
  0.20349167541251637        0.0000000000000000       0.12539003537835189     
  0.18666337939762509       -2.7325148938473178E-002   7.4344236813323750E-002
  0.16983508338273384       -4.4677096271340089E-002   3.5132190856655969E-002
  0.15300678736784257       -5.2055841998600694E-002   7.7538975083485430E-003
  0.13617849135295129       -4.9461386120255038E-002  -7.7906432315984764E-003
  0.15985932940497413        0.0000000000000000        9.6433811757395599E-002
  0.15318322382580055       -2.1844067339566536E-002   6.2683239881208594E-002
  0.14650711824662699       -3.6174874356993653E-002   3.7403296268096596E-002
  0.13983101266745340       -4.2992421052281335E-002   2.0593980918059602E-002
  0.13315490708827979       -4.2296707425429625E-002   1.2255293831097566E-002
  0.12646054129504289        0.0000000000000000        7.4188640377079396E-002
  0.12657350180630161       -1.6362985740659888E-002   5.5273353906266684E-002
  0.12668646231756034       -2.7672652442647216E-002   4.1465571353243608E-002
  0.12679942282881906       -3.3929000105961976E-002   3.2765292718010160E-002
  0.12691238334007779       -3.5132028730604177E-002   2.9172518000566330E-002
  0.10329531108272262        0.0000000000000000        5.8654521237403265E-002
  0.10683421333912829       -1.0881904141753241E-002   5.2114578888497985E-002
  0.11037311559553396       -1.9170430528300784E-002   4.7319016112096948E-002
  0.11391201785193963       -2.4865579159642617E-002   4.4267832908200182E-002
  0.11745092010834532       -2.7967350035778764E-002   4.2961029276807693E-002
   9.0363638768013316E-002   0.0000000000000000        4.9831454338367207E-002
   9.3965358424280568E-002  -5.4008225428465936E-003   5.3206914827902498E-002
   9.7567078080547820E-002  -1.0668208613954344E-002   5.4963630544656653E-002
  0.10116879773681506       -1.5802158213323259E-002   5.5101601488629720E-002
  0.10477051739308230       -2.0802671340953333E-002   5.3620827659821665E-002
  0.13617849135295129       -4.9461386120255038E-002  -7.7906432315984764E-003
  0.13296137795344201       -4.2928013109153743E-002  -3.3968967674166267E-003
  0.12974426455393273       -3.8490007438147456E-002  -4.0786123223075441E-004
  0.12652715115442345       -3.6147369107236225E-002   1.1764633739590608E-003
  0.12331003775491414       -3.5900098116420087E-002   1.3560770511529541E-003
  0.13315490708827979       -4.2296707425429625E-002   1.2255293831097566E-002
  0.12891954043656997       -3.8433597868732267E-002   1.2179640587272712E-002
  0.12468417378486012       -3.5748956774483059E-002   1.1472191768042934E-002
  0.12044880713315029       -3.4242784142682108E-002   1.0132947373407929E-002
  0.11621344048144044       -3.3915079973329251E-002   8.1619074033678907E-003
  0.12691238334007779       -3.5132028730604177E-002   2.9172518000566330E-002
  0.12243167878975833       -3.3939182628310756E-002   2.5544363926381718E-002
  0.11795097423943883       -3.3007906110818663E-002   2.2057329630382962E-002
  0.11347026968911937       -3.2338199178127865E-002   1.8711415112569966E-002
  0.10898956513879987       -3.1930061830238360E-002   1.5506620372942814E-002
  0.11745092010834532       -2.7967350035778764E-002   4.2961029276807693E-002
  0.11349779301300711       -2.9444767387889276E-002   3.6697273249910164E-002
  0.10954466591766888       -3.0266855447154246E-002   3.1347552354789365E-002
  0.10559153882233067       -3.0433614213573653E-002   2.6911866591445351E-002
  0.10163841172699244       -2.9945043687147496E-002   2.3390215959877936E-002
  0.10477051739308230       -2.0802671340953333E-002   5.3620827659821665E-002
  0.10211788310631627       -2.4950352147467797E-002   4.5638368557858050E-002
   9.9465248819550225E-002  -2.7525804783489819E-002   3.9342859941262097E-002
   9.6812614532784183E-002  -2.8529029249019459E-002   3.4734301810033820E-002
   9.4159980246018155E-002  -2.7960025544056660E-002   3.1812694164173067E-002
  0.12331003775491414       -3.5900098116420087E-002   1.3560770511529541E-003
  0.12043614341935896       -3.6394972278880278E-002   6.9000987835456107E-004
  0.11756224908380385       -3.6278769407798298E-002   1.6362979289077928E-004
  0.11468835474824871       -3.5551489503174077E-002  -2.2306320523785006E-004
  0.11181446041269355       -3.4213132565007576E-002  -4.7006911603192369E-004
  0.11621344048144044       -3.3915079973329251E-002   8.1619074033678907E-003
  0.11347379255255094       -3.3983950283174857E-002   7.8613197495300824E-003
  0.11073414462366143       -3.3667501088969251E-002   7.6895378216886648E-003
  0.10799449669477190       -3.2965732390712134E-002   7.6465616198436517E-003
  0.10525484876588240       -3.1878644188403915E-002   7.7323911439952098E-003
  0.10898956513879987       -3.1930061830238360E-002   1.5506620372942814E-002
  0.10637328225523759       -3.1572928287469354E-002   1.5345754708574928E-002
  0.10375699937167529       -3.1056232770139976E-002   1.5302813408864822E-002
  0.10114071648811303       -3.0379975278250190E-002   1.5377796473812797E-002
   9.8524433604550751E-002  -2.9544155811800143E-002   1.5570703903418887E-002
  0.10163841172699244       -2.9945043687147496E-002   2.3390215959877936E-002
   9.9134612527418967E-002  -2.9161906291763864E-002   2.3143314755488770E-002
   9.6630813327845483E-002  -2.8444964451310815E-002   2.3003456554419127E-002
   9.4127014128272013E-002  -2.7794218165788330E-002   2.2970641356669073E-002
   9.1623214928698515E-002  -2.7209667435196316E-002   2.3044869162238746E-002
   9.4159980246018155E-002  -2.7960025544056660E-002   3.1812694164173067E-002
   9.1757783369095042E-002  -2.6750884296058430E-002   3.1253999890271840E-002
   8.9355586492171971E-002  -2.5833696132481661E-002   3.0791467258351704E-002
   8.6953389615248872E-002  -2.5208461053326345E-002   3.0425096268412798E-002
   8.4551192738325787E-002  -2.4875179058592573E-002   3.0154886920455010E-002
  0.11181446041269355       -3.4213132565007576E-002  -4.7006911603192369E-004
  0.10849313665528315       -3.2693594723217312E-002  -3.8364194154874576E-004
  0.10517181289787278       -3.1422772107721542E-002  -3.4441350560077133E-005
  0.10185048914046239       -3.0400664718520307E-002   5.7753265693416544E-004
   9.8529165383052009E-002  -2.9627272555613482E-002   1.4522800809338987E-003
  0.10525484876588240       -3.1878644188403915E-002   7.7323911439952098E-003
  0.10219290112528909       -3.0669914569254789E-002   7.4492415559373054E-003
   9.9130953484695875E-002  -2.9603221620475254E-002   7.4220707850080475E-003
   9.6069005844102606E-002  -2.8678565342065577E-002   7.6508788312077275E-003
   9.3007058203509352E-002  -2.7895945734025429E-002   8.1356656945358596E-003
   9.8524433604550751E-002  -2.9544155811800143E-002   1.5570703903418887E-002
   9.5715067481397728E-002  -2.8646234415292238E-002   1.5024656108744788E-002
   9.2905701358244719E-002  -2.7783671133229132E-002   1.4727792531822402E-002
   9.0096335235091696E-002  -2.6956465965610736E-002   1.4680113172651998E-002
   8.7286969111938673E-002  -2.6164618912437210E-002   1.4881618031233418E-002
   9.1623214928698515E-002  -2.7209667435196316E-002   2.3044869162238746E-002
   8.9059635723608921E-002  -2.6622554261329673E-002   2.2342601716873318E-002
   8.6496056518519299E-002  -2.5964120645982872E-002   2.1882723889882941E-002
   8.3932477313429649E-002  -2.5234366589156006E-002   2.1665235681267426E-002
   8.1368898108340068E-002  -2.4433292090849074E-002   2.1690137091026900E-002
   8.4551192738325787E-002  -2.4875179058592573E-002   3.0154886920455010E-002
   8.2226605851922721E-002  -2.4598874107367080E-002   2.9403078380323189E-002
   7.9902018965519628E-002  -2.4144570158736646E-002   2.8886864859189426E-002
   7.7577432079116548E-002  -2.3512267212701228E-002   2.8606246357053729E-002
   7.5252845192713497E-002  -2.2701965269260937E-002   2.8561222873916242E-002
   9.8529165383052009E-002  -2.9627272555613482E-002   1.4522800809338987E-003
   9.5953530472168480E-002  -2.8919091922407908E-002   1.6143160831134651E-003
   9.3377895561285007E-002  -2.8092619122310786E-002   1.6227613528752571E-003
   9.0802260650401534E-002  -2.7147854155322095E-002   1.4776158902193026E-003
   8.8226625739518005E-002  -2.6084797021441397E-002   1.1788796951455183E-003
   9.3007058203509352E-002  -2.7895945734025429E-002   8.1356656945358596E-003
   9.0324650923601396E-002  -2.7146981471851517E-002   8.2430472208448735E-003
   8.7642243643693440E-002  -2.6323291231041046E-002   8.2904747415230712E-003
   8.4959836363785485E-002  -2.5424875011593601E-002   8.2779482565699183E-003
   8.2277429083877529E-002  -2.4451732813509763E-002   8.2054677659857966E-003
   8.7286969111938673E-002  -2.6164618912437210E-002   1.4881618031233418E-002
   8.4591426189792956E-002  -2.5374871021295139E-002   1.4890778893417334E-002
   8.1895883267647240E-002  -2.4553963339771237E-002   1.4933622476756767E-002
   7.9200340345501524E-002  -2.3701895867865325E-002   1.5010148781251863E-002
   7.6504797423355780E-002  -2.2818668605577630E-002   1.5120357806902129E-002
   8.1368898108340068E-002  -2.4433292090849074E-002   2.1690137091026900E-002
   7.8753856270743217E-002  -2.3602760570738616E-002   2.1557511100830498E-002
   7.6138814433146379E-002  -2.2784635448501352E-002   2.1552204558576381E-002
   7.3523772595549541E-002  -2.1978916724136995E-002   2.1674217464264518E-002
   7.0908730757952690E-002  -2.1185604397645857E-002   2.1923549817894711E-002
   7.5252845192713497E-002  -2.2701965269260937E-002   2.8561222873916242E-002
   7.2811941166452177E-002  -2.1830650120182107E-002   2.8243243843084548E-002
   7.0371037140190870E-002  -2.1015307557231480E-002   2.8146220986981996E-002
   6.7930133113929619E-002  -2.0255937580408601E-002   2.8270154305608197E-002
   6.5489229087668271E-002  -1.9552540189713918E-002   2.8615043798963291E-002
   8.8226625739518005E-002  -2.6084797021441397E-002   1.1788796951455183E-003
   8.4977226144616280E-002  -2.5021518916931274E-002   7.1988668993616667E-004
   8.1727826549714500E-002  -2.4076091038052971E-002   5.0015796603203322E-004
   7.8478426954812774E-002  -2.3248513384806907E-002   5.1969352343311792E-004
   7.5229027359910994E-002  -2.2538785957193386E-002   7.7849336213930975E-004
   8.2277429083877529E-002  -2.4451732813509763E-002   8.2054677659857966E-003
   7.9262485810706496E-002  -2.3489640577060655E-002   7.8108937325510053E-003
   7.6247542537535407E-002  -2.2624374242518647E-002   7.6459680612723790E-003
   7.3232599264364345E-002  -2.1855933809883717E-002   7.7106907521497930E-003
   7.0217655991193229E-002  -2.1184319279155650E-002   8.0050618051831779E-003
   7.6504797423355780E-002  -2.2818668605577630E-002   1.5120357806902129E-002
   7.3714694552766344E-002  -2.1957762237190093E-002   1.4811227068967175E-002
   7.0924591682176824E-002  -2.1172657446984211E-002   1.4722128774038973E-002
   6.8134488811587401E-002  -2.0463354234960082E-002   1.4853062922118264E-002
   6.5344385940997951E-002  -1.9829852601117970E-002   1.5204029513204348E-002
   7.0908730757952690E-002  -2.1185604397645857E-002   2.1923549817894711E-002
   6.8333852370795839E-002  -2.0425883897319447E-002   2.1720886699184615E-002
   6.5758973983638863E-002  -1.9720940651449831E-002   2.1728640104332259E-002
   6.3184095596481971E-002  -1.9070774660036614E-002   2.1946810033338256E-002
   6.0609217209325043E-002  -1.8475385923080151E-002   2.2375396486202119E-002
   6.5489229087668271E-002  -1.9552540189713918E-002   2.8615043798963291E-002
   6.3119959264794884E-002  -1.8894005557448912E-002   2.8539872623203177E-002
   6.0750689441921454E-002  -1.8269223855915367E-002   2.8665502052151959E-002
   5.8381419619048046E-002  -1.7678195085113209E-002   2.8991932085809802E-002
   5.6012149796174693E-002  -1.7120919245042499E-002   2.9519162724176762E-002
   7.5229027359910994E-002  -2.2538785957193386E-002   7.7849336213930975E-004
   7.1192052305415143E-002  -2.1781513807213104E-002  -3.0727800635865776E-004
   6.7155077250919348E-002  -2.0811301986868452E-002  -3.0344127123643760E-004
   6.3118102196423470E-002  -1.9628150496158382E-002   7.9000356750588696E-004
   5.9081127141927703E-002  -1.8232059335083539E-002   2.9730565098685657E-003
   7.0217655991193229E-002  -2.1184319279155650E-002   8.0050618051831779E-003
   6.7125033449962623E-002  -2.0467776846348928E-002   7.1119468530674856E-003
   6.4032410908732074E-002  -1.9564552707477867E-002   7.0179288238622628E-003
   6.0939788367501455E-002  -1.8474646862542340E-002   7.7230077175671069E-003
   5.7847165826270919E-002  -1.7198059311542724E-002   9.2271835341822817E-003
   6.5344385940997951E-002  -1.9829852601117970E-002   1.5204029513204348E-002
   6.2905604732322679E-002  -1.9154039885484725E-002   1.4477313013170040E-002
   6.0466823523647531E-002  -1.8317803428087490E-002   1.4259182255336539E-002
   5.8028042314972307E-002  -1.7321143228926517E-002   1.4549637239703588E-002
   5.5589261106297111E-002  -1.6164059288001575E-002   1.5348677966270818E-002
   6.0609217209325043E-002  -1.8475385923080151E-002   2.2375396486202119E-002
   5.8533766152495399E-002  -1.7840302924620202E-002   2.1788820473949311E-002
   5.6458315095665706E-002  -1.7071054148697119E-002   2.1420319023186921E-002
   5.4382864038836090E-002  -1.6167639595310694E-002   2.1269892133915225E-002
   5.2307412982006397E-002  -1.5130059264460483E-002   2.1337539806134134E-002
   5.6012149796174693E-002  -1.7120919245042499E-002   2.9519162724176762E-002
   5.4009517710480626E-002  -1.6526565963756068E-002   2.9046469235404493E-002
   5.2006885624786642E-002  -1.5824304869306874E-002   2.8501339127412956E-002
   5.0004253539092672E-002  -1.5014135961694573E-002   2.7883772400202261E-002
   4.8001621453398646E-002  -1.4096059240919612E-002   2.7193769053772243E-002
   5.9081127141927703E-002  -1.8232059335083539E-002   2.9730565098685657E-003
   5.9654662492310329E-002  -1.7019675906865928E-002   5.5830493025975647E-003
   6.0228197842693121E-002  -1.6387647614728496E-002   5.3241245231999690E-003
   6.0801733193075885E-002  -1.6335974458669869E-002   2.1962821716766667E-003
   6.1375268543458539E-002  -1.6864656438690506E-002  -3.8004777519726751E-003
   5.7847165826270919E-002  -1.7198059311542724E-002   9.2271835341822817E-003
   5.6032857417993853E-002  -1.6046449453098188E-002   1.0785810622432945E-002
   5.4218549009716843E-002  -1.5331476685830292E-002   1.0437667765490044E-002
   5.2404240601439916E-002  -1.5053141009737911E-002   8.1827549633537444E-003
   5.0589932193162768E-002  -1.5211442424821531E-002   4.0210722160241019E-003
   5.5589261106297111E-002  -1.6164059288001575E-002   1.5348677966270818E-002
   5.2349256566293051E-002  -1.5073222999330893E-002   1.5999657394946687E-002
   4.9109252026289033E-002  -1.4275305756932505E-002   1.5706014505361715E-002
   4.5869247486285007E-002  -1.3770307560806390E-002   1.4467749297516111E-002
   4.2629242946281010E-002  -1.3558228410952777E-002   1.2284861771409639E-002
   5.2307412982006397E-002  -1.5130059264460483E-002   2.1337539806134134E-002
   4.8603859937208026E-002  -1.4099996545563376E-002   2.1224589620138748E-002
   4.4900306892409730E-002  -1.3219134828034731E-002   2.1129164742815509E-002
   4.1196753847611428E-002  -1.2487474111874872E-002   2.1051265174164068E-002
   3.7493200802812987E-002  -1.1905014397083802E-002   2.0990890914185073E-002
   4.8001621453398646E-002  -1.4096059240919612E-002   2.7193769053772243E-002
   4.4796667530738687E-002  -1.3126770091795747E-002   2.6460607298009142E-002
   4.1591713608078812E-002  -1.2162963899136847E-002   2.6707118477851122E-002
   3.8386759685418978E-002  -1.1204640662943216E-002   2.7933302593297626E-002
   3.5181805762758978E-002  -1.0251800383214826E-002   3.0139159644348990E-002
   9.0363638768013316E-002   0.0000000000000000        4.9831454338367207E-002
   9.3965358424280568E-002  -5.4008225428465936E-003   5.3206914827902498E-002
   9.7567078080547820E-002  -1.0668208613954344E-002   5.4963630544656653E-002
  0.10116879773681506       -1.5802158213323259E-002   5.5101601488629720E-002
  0.10477051739308230       -2.0802671340953333E-002   5.3620827659821665E-002
   8.2426794400070225E-002   0.0000000000000000        4.4784112025245827E-002
   8.4638745194862336E-002  -4.5727911506277218E-003   4.8265717354776937E-002
   8.6850695989654420E-002  -9.0368769074573654E-003   5.0586529734138866E-002
   8.9062646784446531E-002  -1.3392257270488933E-002   5.1746549163331643E-002
   9.1274597579238628E-002  -1.7638932239722439E-002   5.1745775642355218E-002
   7.4246048028048531E-002   0.0000000000000000        4.0577166643313692E-002
   7.5526181783977436E-002  -3.7447597584088464E-003   4.4140185734899869E-002
   7.6806315539906328E-002  -7.4055452009603832E-003   4.7000363698928814E-002
   7.8086449295835234E-002  -1.0982356327654610E-002   4.9157700535400535E-002
   7.9366583051764139E-002  -1.4475193138491533E-002   5.0612196244315018E-002
   6.5821399651948234E-002   0.0000000000000000        3.7210618192570821E-002
   6.6627668191625883E-002  -2.9167283661899724E-003   4.0830319968271300E-002
   6.7433936731303518E-002  -5.7742134944634045E-003   4.4205132439026490E-002
   6.8240205270981152E-002  -8.5724553848202899E-003   4.7335055604836369E-002
   6.9046473810658787E-002  -1.1311454037260627E-002   5.0220089465700987E-002
   5.7152849271769349E-002   0.0000000000000000        3.4684466673017209E-002
   5.7943204417807669E-002  -2.0886969739710992E-003   3.8336120054891225E-002
   5.8733559563845988E-002  -4.1428817879664206E-003   4.2200835954431880E-002
   5.9523914709884301E-002  -6.1625544419859606E-003   4.6278614371639194E-002
   6.0314269855922621E-002  -8.1477149360297315E-003   5.0569455306513161E-002
  0.10477051739308230       -2.0802671340953333E-002   5.3620827659821665E-002
  0.10211788310631627       -2.4950352147467797E-002   4.5638368557858050E-002
   9.9465248819550225E-002  -2.7525804783489819E-002   3.9342859941262097E-002
   9.6812614532784183E-002  -2.8529029249019459E-002   3.4734301810033820E-002
   9.4159980246018155E-002  -2.7960025544056660E-002   3.1812694164173067E-002
   9.1274597579238628E-002  -1.7638932239722439E-002   5.1745775642355218E-002
   9.0071667189141211E-002  -2.1218221852306228E-002   4.6513121983058708E-002
   8.8868736799043821E-002  -2.3571446145388669E-002   4.2492925631731779E-002
   8.7665806408946390E-002  -2.4698605118969777E-002   3.9685186588374499E-002
   8.6462876018848972E-002  -2.4599698773049551E-002   3.8089904852986800E-002
   7.9366583051764139E-002  -1.4475193138491533E-002   5.0612196244315018E-002
   7.9138863380937313E-002  -1.7486091557144673E-002   4.7783185176694436E-002
   7.8911143710110515E-002  -1.9617087507287526E-002   4.5692138239645443E-002
   7.8683424039283745E-002  -2.0868180988920116E-002   4.4339055433168142E-002
   7.8455704368456947E-002  -2.1239372002042442E-002   4.3723936757262362E-002
   6.9046473810658787E-002  -1.1311454037260627E-002   5.0220089465700987E-002
   6.9319471681704617E-002  -1.3753961261983109E-002   4.9448558138765322E-002
   6.9592469552750419E-002  -1.5662728869186376E-002   4.8940497765003248E-002
   6.9865467423796207E-002  -1.7037756858870469E-002   4.8695908344414805E-002
   7.0138465294842037E-002  -1.7879045231035326E-002   4.8714789876999891E-002
   6.0314269855922621E-002  -8.1477149360297315E-003   5.0569455306513161E-002
   6.0613492091443032E-002  -1.0021830966821549E-002   5.1509240869271319E-002
   6.0912714326963435E-002  -1.1708370231085225E-002   5.2238004207805055E-002
   6.1211936562483832E-002  -1.3207332728820782E-002   5.2755745322114342E-002
   6.1511158798004242E-002  -1.4518718460028231E-002   5.3062464212199324E-002
   9.4159980246018155E-002  -2.7960025544056660E-002   3.1812694164173067E-002
   9.1757783369095042E-002  -2.6750884296058430E-002   3.1253999890271840E-002
   8.9355586492171971E-002  -2.5833696132481661E-002   3.0791467258351704E-002
   8.6953389615248872E-002  -2.5208461053326345E-002   3.0425096268412798E-002
   8.4551192738325787E-002  -2.4875179058592573E-002   3.0154886920455010E-002
   8.6462876018848972E-002  -2.4599698773049551E-002   3.8089904852986800E-002
   8.4200889253778305E-002  -2.3947154771666930E-002   3.7059820079234827E-002
   8.1938902488707652E-002  -2.3413400778861053E-002   3.6213993887206468E-002
   7.9676915723636998E-002  -2.2998436794631674E-002   3.5552426276901757E-002
   7.7414928958566318E-002  -2.2702262818978997E-002   3.5075117248320839E-002
   7.8455704368456947E-002  -2.1239372002042442E-002   4.3723936757262362E-002
   7.6422024654981158E-002  -2.1143425247275513E-002   4.2395624559504526E-002
   7.4388344941505424E-002  -2.0993105425240386E-002   4.1339667883212902E-002
   7.2354665228029649E-002  -2.0788412535936988E-002   4.0556066728387345E-002
   7.0320985514553916E-002  -2.0529346579365379E-002   4.0044821095027987E-002
   7.0138465294842037E-002  -1.7879045231035326E-002   4.8714789876999891E-002
   6.8421189572703656E-002  -1.8339695722884082E-002   4.7261413331081061E-002
   6.6703913850565275E-002  -1.8572810071619761E-002   4.6168489246370903E-002
   6.4986638128426893E-002  -1.8578388277242307E-002   4.5436017622869300E-002
   6.3269362406288526E-002  -1.8356430339751810E-002   4.5063998460576453E-002
   6.1511158798004242E-002  -1.4518718460028231E-002   5.3062464212199324E-002
   6.0198384006945736E-002  -1.5535966198492610E-002   5.1657186393964362E-002
   5.8885609215887230E-002  -1.6152514717999097E-002   5.0700457976680519E-002
   5.7572834424828710E-002  -1.6368364018547622E-002   5.0192278960347822E-002
   5.6260059633770204E-002  -1.6183514100138172E-002   5.0132649344966237E-002
   8.4551192738325787E-002  -2.4875179058592573E-002   3.0154886920455010E-002
   8.2226605851922721E-002  -2.4598874107367080E-002   2.9403078380323189E-002
   7.9902018965519628E-002  -2.4144570158736646E-002   2.8886864859189426E-002
   7.7577432079116548E-002  -2.3512267212701228E-002   2.8606246357053729E-002
   7.5252845192713497E-002  -2.2701965269260937E-002   2.8561222873916242E-002
   7.7414928958566318E-002  -2.2702262818978997E-002   3.5075117248320839E-002
   7.5317434750959478E-002  -2.2402212472731428E-002   3.4509397577319842E-002
   7.3219940543352652E-002  -2.1975619376717520E-002   3.4162268244913099E-002
   7.1122446335745826E-002  -2.1422483530937363E-002   3.4033729251100799E-002
   6.9024952128138972E-002  -2.0742804935390741E-002   3.4123780595882877E-002
   7.0320985514553916E-002  -2.0529346579365379E-002   4.0044821095027987E-002
   6.8433579305339526E-002  -2.0205550838095818E-002   3.9613734045519156E-002
   6.6546173096125205E-002  -1.9806668594698502E-002   3.9384232654200935E-002
   6.4658766886910857E-002  -1.9332699849173383E-002   3.9356316921073380E-002
   6.2771360677696508E-002  -1.8783644601520572E-002   3.9529986846136456E-002
   6.3269362406288526E-002  -1.8356430339751810E-002   4.5063998460576453E-002
   6.1575039515062956E-002  -1.8008889203460159E-002   4.4716087784921234E-002
   5.9880716623837364E-002  -1.7637717812679400E-002   4.4552758087052925E-002
   5.8186393732611773E-002  -1.7242916167409517E-002   4.4574009366971430E-002
   5.6492070841386195E-002  -1.6824484267650389E-002   4.4779841624676950E-002
   5.6260059633770204E-002  -1.6183514100138172E-002   5.0132649344966237E-002
   5.4741815380129649E-002  -1.5812227568824541E-002   4.9816458795526056E-002
   5.3223571126489067E-002  -1.5468767030660326E-002   4.9667844543469127E-002
   5.1705326872848519E-002  -1.5153132485645530E-002   4.9686806588795207E-002
   5.0187082619207929E-002  -1.4865323933780206E-002   4.9873344931504526E-002
   7.5252845192713497E-002  -2.2701965269260937E-002   2.8561222873916242E-002
   7.2811941166452177E-002  -2.1830650120182107E-002   2.8243243843084548E-002
   7.0371037140190870E-002  -2.1015307557231480E-002   2.8146220986981996E-002
   6.7930133113929619E-002  -2.0255937580408601E-002   2.8270154305608197E-002
   6.5489229087668271E-002  -1.9552540189713918E-002   2.8615043798963291E-002
   6.9024952128138972E-002  -2.0742804935390741E-002   3.4123780595882877E-002
   6.6805429366848343E-002  -2.0011136815209996E-002   3.3741260126112241E-002
   6.4585906605557672E-002  -1.9302032395527330E-002   3.3580546011554017E-002
   6.2366383844266980E-002  -1.8615491676342640E-002   3.3641638252208117E-002
   6.0146861082976372E-002  -1.7951514657655904E-002   3.3924536848074865E-002
   6.2771360677696508E-002  -1.8783644601520572E-002   3.9529986846136456E-002
   6.0774069361860125E-002  -1.8191623510237905E-002   3.9116333823056668E-002
   5.8776778046023728E-002  -1.7588757233823256E-002   3.8925337335672779E-002
   5.6779486730187297E-002  -1.6975045772276563E-002   3.8956997383985004E-002
   5.4782195414350927E-002  -1.6350489125597972E-002   3.9211313967993336E-002
   5.6492070841386195E-002  -1.6824484267650389E-002   4.4779841624676950E-002
   5.4717861151487614E-002  -1.6372110205265817E-002   4.4368464933918036E-002
   5.2943651461588984E-002  -1.5875482072119088E-002   4.4180594959338626E-002
   5.1169441771690374E-002  -1.5334599868210629E-002   4.4216231700938816E-002
   4.9395232081791821E-002  -1.4749463593540027E-002   4.4475375158718689E-002
   5.0187082619207929E-002  -1.4865323933780206E-002   4.9873344931504526E-002
   4.8636804735730746E-002  -1.4552596900293646E-002   4.9497653458696361E-002
   4.7086526852253535E-002  -1.4162206910415115E-002   4.9346318882551532E-002
   4.5536248968776352E-002  -1.3694153964144480E-002   4.9419341203069664E-002
   4.3985971085299114E-002  -1.3148438061482026E-002   4.9716720420251215E-002
   6.5489229087668271E-002  -1.9552540189713918E-002   2.8615043798963291E-002
   6.3119959264794884E-002  -1.8894005557448912E-002   2.8539872623203177E-002
   6.0750689441921454E-002  -1.8269223855915367E-002   2.8665502052151959E-002
   5.8381419619048046E-002  -1.7678195085113209E-002   2.8991932085809802E-002
   5.6012149796174693E-002  -1.7120919245042499E-002   2.9519162724176762E-002
   6.0146861082976372E-002  -1.7951514657655904E-002   3.3924536848074865E-002
   5.7973709053991518E-002  -1.7313871624262900E-002   3.3790456597150159E-002
   5.5800557025006636E-002  -1.6706332860959537E-002   3.3847811329293764E-002
   5.3627404996021789E-002  -1.6128898367745580E-002   3.4096601044505417E-002
   5.1454252967036956E-002  -1.5581568144621138E-002   3.4536825742784938E-002
   5.4782195414350927E-002  -1.6350489125597972E-002   3.9211313967993336E-002
   5.2795795557613705E-002  -1.5733737691077110E-002   3.9021973302546108E-002
   5.0809395700876503E-002  -1.5143441866003762E-002   3.9014701998526288E-002
   4.8822995844139322E-002  -1.4579601650378003E-002   3.9189500055933739E-002
   4.6836595987402085E-002  -1.4042217044199751E-002   3.9546367474768321E-002
   4.9395232081791821E-002  -1.4749463593540027E-002   4.4475375158718689E-002
   4.7586218775661403E-002  -1.4153603757891237E-002   4.4234422739391113E-002
   4.5777205469531013E-002  -1.3580550871047987E-002   4.4166174059849711E-002
   4.3968192163400623E-002  -1.3030304933010344E-002   4.4270629120094690E-002
   4.2159178857270260E-002  -1.2502865943778349E-002   4.4547787920126106E-002
   4.3985971085299114E-002  -1.3148438061482026E-002   4.9716720420251215E-002
   4.2344978708134667E-002  -1.2573469824705308E-002   4.9427804907684780E-002
   4.0703986330970193E-002  -1.2017659876092143E-002   4.9302227513263963E-002
   3.9062993953805719E-002  -1.1481008215642820E-002   4.9339988236988666E-002
   3.7422001576641273E-002  -1.0963514843357003E-002   4.9541087078858737E-002
   5.6012149796174693E-002  -1.7120919245042499E-002   2.9519162724176762E-002
   5.4009517710480626E-002  -1.6526565963756068E-002   2.9046469235404493E-002
   5.2006885624786642E-002  -1.5824304869306874E-002   2.8501339127412956E-002
   5.0004253539092672E-002  -1.5014135961694573E-002   2.7883772400202261E-002
   4.8001621453398646E-002  -1.4096059240919612E-002   2.7193769053772243E-002
   5.1454252967036956E-002  -1.5581568144621138E-002   3.4536825742784938E-002
   4.9418363684797850E-002  -1.5009954205933207E-002   3.4136841283379626E-002
   4.7382474402558772E-002  -1.4359668566028869E-002   3.3742779050103228E-002
   4.5346585120319693E-002  -1.3630711224908023E-002   3.3354639042956075E-002
   4.3310695838080643E-002  -1.2823082182571000E-002   3.2972421261937612E-002
   4.6836595987402085E-002  -1.4042217044199751E-002   3.9546367474768321E-002
   4.4845808353966315E-002  -1.3493342448110207E-002   3.9189855932783083E-002
   4.2855020720530539E-002  -1.2895032262750857E-002   3.8917625462275195E-002
   4.0864233087094706E-002  -1.2247286488121527E-002   3.8729676063244942E-002
   3.8873445453658936E-002  -1.1550105124222387E-002   3.8626007735692108E-002
   4.2159178857270260E-002  -1.2502865943778349E-002   4.4547787920126106E-002
   4.0291851717986119E-002  -1.1976730690287277E-002   4.4205513183614722E-002
   3.8424524578701921E-002  -1.1430395959472959E-002   4.4025878363928905E-002
   3.6557197439417759E-002  -1.0863861751335004E-002   4.4008883461069251E-002
   3.4689870300133582E-002  -1.0277128065873775E-002   4.4154528475035190E-002
   3.7422001576641273E-002  -1.0963514843357003E-002   4.9541087078858737E-002
   3.5756493776857079E-002  -1.0460118932464402E-002   4.9183813035874768E-002
   3.4090985977072968E-002  -9.9657596561948808E-003   4.9067537755064700E-002
   3.2425478177288802E-002  -9.4804370145484644E-003   4.9192261236428794E-002
   3.0759970377504636E-002  -9.0041510075252185E-003   4.9557983479967038E-002
   4.8001621453398646E-002  -1.4096059240919612E-002   2.7193769053772243E-002
   4.4796667530738687E-002  -1.3126770091795747E-002   2.6460607298009142E-002
   4.1591713608078812E-002  -1.2162963899136847E-002   2.6707118477851122E-002
   3.8386759685418978E-002  -1.1204640662943216E-002   2.7933302593297626E-002
   3.5181805762758978E-002  -1.0251800383214826E-002   3.0139159644348990E-002
   4.3310695838080643E-002  -1.2823082182571000E-002   3.2972421261937612E-002
   4.0944876169421163E-002  -1.1983449660308287E-002   3.2342322206551755E-002
   3.8579056500761724E-002  -1.1158481879410737E-002   3.2410818723561996E-002
   3.6213236832102251E-002  -1.0348178839878326E-002   3.3177910812968225E-002
   3.3847417163442806E-002  -9.5525405417113962E-003   3.4643598474770831E-002
   3.8873445453658936E-002  -1.1550105124222387E-002   3.8626007735692108E-002
   3.7065682675791398E-002  -1.0840129228820772E-002   3.8089789595782825E-002
   3.5257919897923866E-002  -1.0153999859684515E-002   3.7971089665060992E-002
   3.3450157120056348E-002  -9.4917170168134363E-003   3.8269907943527082E-002
   3.1642394342188795E-002  -8.8532807002078551E-003   3.8986244431180372E-002
   3.4689870300133582E-002  -1.0277128065873775E-002   4.4154528475035190E-002
   3.3159087049849392E-002  -9.6968087973332284E-003   4.3703009465702679E-002
   3.1628303799565202E-002  -9.1495178399583488E-003   4.3387931302349206E-002
   3.0097520549280957E-002  -8.6352551937485464E-003   4.3209293984974986E-002
   2.8566737298996822E-002  -8.1540208587043139E-003   4.3167097513579306E-002
   3.0759970377504636E-002  -9.0041510075252185E-003   4.9557983479967038E-002
   2.9225089291595202E-002  -8.5534883658457961E-003   4.9181981816311449E-002
   2.7690208205685699E-002  -8.1450358202321688E-003   4.8661343635426207E-002
   2.6155327119776313E-002  -7.7787933706836530E-003   4.7996068937311107E-002
   2.4620446033866816E-002  -7.4547610172008838E-003   4.7186157721966770E-002
   5.7152849271769349E-002   0.0000000000000000        3.4684466673017209E-002
   5.7943204417807669E-002  -2.0886969739710992E-003   3.8336120054891225E-002
   5.8733559563845988E-002  -4.1428817879664206E-003   4.2200835954431880E-002
   5.9523914709884301E-002  -6.1625544419859606E-003   4.6278614371639194E-002
   6.0314269855922621E-002  -8.1477149360297315E-003   5.0569455306513161E-002
   4.8652243116937707E-002   0.0000000000000000        3.2778515086417874E-002
   4.9590531526234216E-002  -1.7119128574812313E-003   3.6956123010402832E-002
   5.0528819935530711E-002  -3.4357511914455598E-003   4.1216534943237529E-002
   5.1467108344827227E-002  -5.1715150018929856E-003   4.5559750884921958E-002
   5.2405396754123729E-002  -6.9192042888235016E-003   4.9985770835456085E-002
   4.0731427416879157E-002   0.0000000000000000        3.1272566434537838E-002
   4.1687390580616906E-002  -1.3351287409913643E-003   3.5929691264174897E-002
   4.2643353744354656E-002  -2.7286205949246982E-003   4.0539361593844747E-002
   4.3599316908092413E-002  -4.1804755618000010E-003   4.5101577423547368E-002
   4.4555280071830176E-002  -5.6906936416172725E-003   4.9616338753282800E-002
   3.3390402171593669E-002   0.0000000000000000        3.0166620717377111E-002
   3.4233781580955747E-002  -9.5834462450149595E-004   3.5256824816207379E-002
   3.5077160990317831E-002  -2.0214899984038353E-003   4.0169315906253507E-002
   3.5920540399679915E-002  -3.1894361217070176E-003   4.4904093987515506E-002
   3.6763919809041999E-002  -4.4621829944110451E-003   4.9461159059993313E-002
   2.6629167381081276E-002   0.0000000000000000        2.9460677934935689E-002
   2.7229704527250750E-002  -5.8156050801162935E-004   3.4937523666500298E-002
   2.7830241673420224E-002  -1.3143594018829759E-003   4.0106397880463815E-002
   2.8430778819589695E-002  -2.1983966816140378E-003   4.4967300576826297E-002
   2.9031315965759176E-002  -3.2336723472048143E-003   4.9520231755587674E-002
   6.0314269855922621E-002  -8.1477149360297315E-003   5.0569455306513161E-002
   6.0613492091443032E-002  -1.0021830966821549E-002   5.1509240869271319E-002
   6.0912714326963435E-002  -1.1708370231085225E-002   5.2238004207805055E-002
   6.1211936562483832E-002  -1.3207332728820782E-002   5.2755745322114342E-002
   6.1511158798004242E-002  -1.4518718460028231E-002   5.3062464212199324E-002
   5.2405396754123729E-002  -6.9192042888235016E-003   4.9985770835456085E-002
   5.2532260045257462E-002  -8.5805064716730217E-003   5.1209114323143928E-002
   5.2659123336391181E-002  -1.0057108969877462E-002   5.2298762146282839E-002
   5.2785986627524914E-002  -1.1349011783436809E-002   5.3254714304872788E-002
   5.2912849918658647E-002  -1.2456214912351084E-002   5.4076970798913895E-002
   4.4555280071830176E-002  -5.6906936416172725E-003   4.9616338753282800E-002
   4.4587110978252707E-002  -7.1391819765245015E-003   5.1120363084017316E-002
   4.4618941884675231E-002  -8.4058477086696969E-003   5.2568018309878360E-002
   4.4650772791097755E-002  -9.4906908380528385E-003   5.3959304430865926E-002
   4.4682603697520293E-002  -1.0393711364673933E-002   5.5294221446980055E-002
   3.6763919809041999E-002  -4.4621829944110451E-003   4.9461159059993313E-002
   3.6778044890428789E-002  -5.6978574813759831E-003   5.1242987151891448E-002
   3.6792169971815586E-002  -6.7545864474619233E-003   5.3045772698591620E-002
   3.6806295053202383E-002  -7.6323698926688485E-003   5.4869515700093803E-002
   3.6820420134589173E-002  -8.3312078169967777E-003   5.6714216156397941E-002
   2.9031315965759176E-002  -3.2336723472048143E-003   4.9520231755587674E-002
   2.9105061781785707E-002  -4.2565329862274542E-003   5.1576986526766400E-002
   2.9178807597812245E-002  -5.1033251862541672E-003   5.3732025312422591E-002
   2.9252553413838780E-002  -5.7740489472848716E-003   5.5985348112556260E-002
   2.9326299229865314E-002  -6.2687042693196429E-003   5.8336954927167416E-002
   6.1511158798004242E-002  -1.4518718460028231E-002   5.3062464212199324E-002
   6.0198384006945736E-002  -1.5535966198492610E-002   5.1657186393964362E-002
   5.8885609215887230E-002  -1.6152514717999097E-002   5.0700457976680519E-002
   5.7572834424828710E-002  -1.6368364018547622E-002   5.0192278960347822E-002
   5.6260059633770204E-002  -1.6183514100138172E-002   5.0132649344966237E-002
   5.2912849918658647E-002  -1.2456214912351084E-002   5.4076970798913895E-002
   5.1996892932311953E-002  -1.3314727827981942E-002   5.3344714023086701E-002
   5.1080935945965251E-002  -1.3860560001691136E-002   5.2957543455732038E-002
   5.0164978959618550E-002  -1.4093711433478545E-002   5.2915459096849957E-002
   4.9249021973271849E-002  -1.4014182123344279E-002   5.3218460946440296E-002
   4.4682603697520293E-002  -1.0393711364673933E-002   5.5294221446980055E-002
   4.4060001323406810E-002  -1.1093489457471274E-002   5.5146967236524465E-002
   4.3437398949293313E-002  -1.1568605285383123E-002   5.5241336042062737E-002
   4.2814796575179823E-002  -1.1819058848409498E-002   5.5577327863594927E-002
   4.2192194201066339E-002  -1.1844850146550394E-002   5.6154942701121105E-002
   3.6820420134589173E-002  -8.3312078169967777E-003   5.6714216156397941E-002
   3.6387709180230321E-002  -8.8722510869606065E-003   5.7063946034277620E-002
   3.5954998225871448E-002  -9.2766505690751143E-003   5.7551835735672595E-002
   3.5522287271512583E-002  -9.5444062633404624E-003   5.8177885260582922E-002
   3.5089576317153710E-002  -9.6755181697565189E-003   5.8942094609008518E-002
   2.9326299229865314E-002  -6.2687042693196429E-003   5.8336954927167416E-002
   2.8980016502782473E-002  -6.6510127164499319E-003   5.9095650416346193E-002
   2.8633733775699628E-002  -6.9846958527671563E-003   5.9889042536561674E-002
   2.8287451048616775E-002  -7.2697536782714029E-003   6.0717131287813884E-002
   2.7941168321533948E-002  -7.5061861929625884E-003   6.1579916670102847E-002
   5.6260059633770204E-002  -1.6183514100138172E-002   5.0132649344966237E-002
   5.4741815380129649E-002  -1.5812227568824541E-002   4.9816458795526056E-002
   5.3223571126489067E-002  -1.5468767030660326E-002   4.9667844543469127E-002
   5.1705326872848519E-002  -1.5153132485645530E-002   4.9686806588795207E-002
   5.0187082619207929E-002  -1.4865323933780206E-002   4.9873344931504526E-002
   4.9249021973271849E-002  -1.4014182123344279E-002   5.3218460946440296E-002
   4.7908504840979943E-002  -1.3772711925639627E-002   5.2858318629293369E-002
   4.6567987708688030E-002  -1.3520040694715772E-002   5.2686054257460639E-002
   4.5227470576396159E-002  -1.3256168430572847E-002   5.2701667830942128E-002
   4.3886953444104218E-002  -1.2981095133210746E-002   5.2905159349737774E-002
   4.2192194201066339E-002  -1.1844850146550394E-002   5.6154942701121105E-002
   4.1049705838054167E-002  -1.1733196282454721E-002   5.5789875642636017E-002
   3.9907217475041987E-002  -1.1571314358771274E-002   5.5632988177396106E-002
   3.8764729112029800E-002  -1.1359204375500139E-002   5.5684280305401464E-002
   3.7622240749017641E-002  -1.1096866332641259E-002   5.5943752026652083E-002
   3.5089576317153710E-002  -9.6755181697565189E-003   5.8942094609008518E-002
   3.4165418371352285E-002  -9.6936806392697826E-003   5.8611129835553853E-002
   3.3241260425550867E-002  -9.6225880228267627E-003   5.8508646303275458E-002
   3.2317102479749449E-002  -9.4622403204274435E-003   5.8634644012173338E-002
   3.1392944533947989E-002  -9.2126375320717990E-003   5.8989122962247516E-002
   2.7941168321533948E-002  -7.5061861929625884E-003   6.1579916670102847E-002
   2.7255642440874320E-002  -7.6541649960848723E-003   6.1322081208047122E-002
   2.6570116560214709E-002  -7.6738616868822357E-003   6.1313028635098688E-002
   2.5884590679555092E-002  -7.5652762653546958E-003   6.1552758951257572E-002
   2.5199064798895471E-002  -7.3284087315022839E-003   6.2041272156523913E-002
   5.0187082619207929E-002  -1.4865323933780206E-002   4.9873344931504526E-002
   4.8636804735730746E-002  -1.4552596900293646E-002   4.9497653458696361E-002
   4.7086526852253535E-002  -1.4162206910415115E-002   4.9346318882551532E-002
   4.5536248968776352E-002  -1.3694153964144480E-002   4.9419341203069664E-002
   4.3985971085299114E-002  -1.3148438061482026E-002   4.9716720420251215E-002
   4.3886953444104218E-002  -1.2981095133210746E-002   5.2905159349737774E-002
   4.2551642787201006E-002  -1.2677156963694300E-002   5.2617590520598237E-002
   4.1216332130297774E-002  -1.2326690083088530E-002   5.2535599247943460E-002
   3.9881021473394548E-002  -1.1929694491393089E-002   5.2659185531773373E-002
   3.8545710816491302E-002  -1.1486170188608258E-002   5.2988349372087934E-002
   3.7622240749017641E-002  -1.1096866332641259E-002   5.5943752026652083E-002
   3.6483117978509921E-002  -1.0801717027095037E-002   5.5713171595878526E-002
   3.5343995208002230E-002  -1.0491173255761863E-002   5.5669389381411430E-002
   3.4204872437494510E-002  -1.0165235018641670E-002   5.5812405383250503E-002
   3.3065749666986818E-002  -9.8239023157345451E-003   5.6142219601396051E-002
   3.1392944533947989E-002  -9.2126375320717990E-003   5.8989122962247516E-002
   3.0431230309657414E-002  -8.9262770904958016E-003   5.8784396684537520E-002
   2.9469516085366812E-002  -8.6556564284352086E-003   5.8747689282955456E-002
   2.8507801861076244E-002  -8.4007755458902367E-003   5.8879000757501250E-002
   2.7546087636785628E-002  -8.1616344428607768E-003   5.9178331108175025E-002
   2.5199064798895471E-002  -7.3284087315022839E-003   6.2041272156523913E-002
   2.4395979780643548E-002  -7.0508371538964137E-003   6.1831265786575079E-002
   2.3592894762391618E-002  -6.8201396011086171E-003   6.1770498952575595E-002
   2.2789809744139699E-002  -6.6363160731388333E-003   6.1858971654525675E-002
   2.1986724725887766E-002  -6.4993665699870640E-003   6.2096683892425064E-002
   4.3985971085299114E-002  -1.3148438061482026E-002   4.9716720420251215E-002
   4.2344978708134667E-002  -1.2573469824705308E-002   4.9427804907684780E-002
   4.0703986330970193E-002  -1.2017659876092143E-002   4.9302227513263963E-002
   3.9062993953805719E-002  -1.1481008215642820E-002   4.9339988236988666E-002
   3.7422001576641273E-002  -1.0963514843357003E-002   4.9541087078858737E-002
   3.8545710816491302E-002  -1.1486170188608258E-002   5.2988349372087934E-002
   3.7078015149432569E-002  -1.1020626959344471E-002   5.2658866997637777E-002
   3.5610319482373878E-002  -1.0557574588211951E-002   5.2512639925253540E-002
   3.4142623815315132E-002  -1.0097013075210732E-002   5.2549668154935197E-002
   3.2674928148256441E-002  -9.6389424203408569E-003   5.2769951686682914E-002
   3.3065749666986818E-002  -9.8239023157345451E-003   5.6142219601396051E-002
   3.1791267893954311E-002  -9.4677840939834668E-003   5.5788837795094109E-002
   3.0516786120921818E-002  -9.0974893003314891E-003   5.5638628474778622E-002
   2.9242304347889311E-002  -8.7130179347786451E-003   5.5691591640449636E-002
   2.7967822574856818E-002  -8.3143699973248775E-003   5.5947727292107216E-002
   2.7546087636785628E-002  -8.1616344428607768E-003   5.9178331108175025E-002
   2.6484736941699845E-002  -7.9149412286225462E-003   5.8817717300053682E-002
   2.5423386246614100E-002  -7.6374040124511343E-003   5.8680193161839270E-002
   2.4362035551528313E-002  -7.3290227943465297E-003   5.8765758693531962E-002
   2.3300684856442568E-002  -6.9897975743087870E-003   5.9074413895131517E-002
   2.1986724725887766E-002  -6.4993665699870640E-003   6.2096683892425064E-002
   2.1158422292669204E-002  -6.3620983632616257E-003   6.1745505512516730E-002
   2.0330119859450650E-002  -6.1773187245708211E-003   6.1637333986435505E-002
   1.9501817426232106E-002  -5.9450276539144940E-003   6.1772169314181988E-002
   1.8673514993013535E-002  -5.6652251512928076E-003   6.2150011495755886E-002
   3.7422001576641273E-002  -1.0963514843357003E-002   4.9541087078858737E-002
   3.5756493776857079E-002  -1.0460118932464402E-002   4.9183813035874768E-002
   3.4090985977072968E-002  -9.9657596561948808E-003   4.9067537755064700E-002
   3.2425478177288802E-002  -9.4804370145484644E-003   4.9192261236428794E-002
   3.0759970377504636E-002  -9.0041510075252185E-003   4.9557983479967038E-002
   3.2674928148256441E-002  -9.6389424203408569E-003   5.2769951686682914E-002
   3.1250746933801116E-002  -9.1782545877988619E-003   5.2452317611265037E-002
   2.9826565719345811E-002  -8.7098415417809494E-003   5.2376337944330914E-002
   2.8402384504890511E-002  -8.2337032822871054E-003   5.2542012685880102E-002
   2.6978203290435182E-002  -7.7498398093177046E-003   5.2949341835913155E-002
   2.7967822574856818E-002  -8.3143699973248775E-003   5.5947727292107216E-002
   2.6785623592039759E-002  -7.8963902431333499E-003   5.5686495032354705E-002
   2.5603424609222693E-002  -7.4539234273669694E-003   5.5667572827395019E-002
   2.4421225626405623E-002  -6.9869695500259701E-003   5.5890960677228319E-002
   2.3239026643588574E-002  -6.4955286111101629E-003   5.6356658581854471E-002
   2.3300684856442568E-002  -6.9897975743087870E-003   5.9074413895131517E-002
   2.2361123751573064E-002  -6.6145258984677407E-003   5.8886345299143217E-002
   2.1421562646703605E-002  -6.1980053129530970E-003   5.8941242404257028E-002
   2.0482001541834129E-002  -5.7402358177647784E-003   5.9239105210473271E-002
   1.9542440436964639E-002  -5.2412174129028571E-003   5.9779933717791750E-002
   1.8673514993013535E-002  -5.6652251512928076E-003   6.2150011495755886E-002
   1.7977247412401032E-002  -5.3326615538022704E-003   6.2051868411630517E-002
   1.7280979831788543E-002  -4.9420871985390719E-003   6.2197346674916970E-002
   1.6584712251176047E-002  -4.4935020855035347E-003   6.2586446285614925E-002
   1.5888444670563523E-002  -3.9869062146952183E-003   6.3219167243724561E-002
   3.0759970377504636E-002  -9.0041510075252185E-003   4.9557983479967038E-002
   2.9225089291595202E-002  -8.5534883658457961E-003   4.9181981816311449E-002
   2.7690208205685699E-002  -8.1450358202321688E-003   4.8661343635426207E-002
   2.6155327119776313E-002  -7.7787933706836530E-003   4.7996068937311107E-002
   2.4620446033866816E-002  -7.4547610172008838E-003   4.7186157721966770E-002
   2.6978203290435182E-002  -7.7498398093177046E-003   5.2949341835913155E-002
   2.5371126976604777E-002  -7.2655568759268097E-003   5.2663823707439300E-002
   2.3764050662774330E-002  -6.7881602351689690E-003   5.2378551640352738E-002
   2.2156974348943863E-002  -6.3176498870445123E-003   5.2093525634654275E-002
   2.0549898035113479E-002  -5.8540258315533666E-003   5.1808745690342883E-002
   2.3239026643588574E-002  -6.4955286111101629E-003   5.6356658581854471E-002
   2.1704637680454199E-002  -5.9776253860075457E-003   5.6196947791994814E-002
   2.0170248717319848E-002  -5.4312846501058873E-003   5.6182365642140054E-002
   1.8635859754185552E-002  -4.8565064034055121E-003   5.6312912132289325E-002
   1.7101470791051135E-002  -4.2532906459059605E-003   5.6588587262443812E-002
   1.9542440436964639E-002  -5.2412174129028571E-003   5.9779933717791750E-002
   1.8225621403143516E-002  -4.6896938960883650E-003   5.9781354069978407E-002
   1.6908802369322337E-002  -4.0744090650429131E-003   6.0072785640786983E-002
   1.5591983335501151E-002  -3.3953629197662752E-003   6.0654228430216936E-002
   1.4275164301680066E-002  -2.6525554602584989E-003   6.1525682438268794E-002
   1.5888444670563523E-002  -3.9869062146952183E-003   6.3219167243724561E-002
   1.4934078144672638E-002  -3.4017624061691842E-003   6.3417042541389745E-002
   1.3979711618781768E-002  -2.7175334799795503E-003   6.4049811636293752E-002
   1.3025345092890869E-002  -1.9342194361272186E-003   6.5117474528436720E-002
   1.2070978566999957E-002  -1.0518202746110372E-003   6.6620031217818232E-002
   2.6629167381081276E-002   0.0000000000000000        2.9460677934935689E-002
   2.7229704527250750E-002  -5.8156050801162935E-004   3.4937523666500298E-002
   2.7830241673420224E-002  -1.3143594018829759E-003   4.0106397880463815E-002
   2.8430778819589695E-002  -2.1983966816140378E-003   4.4967300576826297E-002
   2.9031315965759176E-002  -3.2336723472048143E-003   4.9520231755587674E-002
   2.0111024004372285E-002   0.0000000000000000        2.9017898501436313E-002
   2.0442906648693356E-002  -4.3608976707499702E-004   3.4308362213499442E-002
   2.0774789293014424E-002  -9.8512396446601320E-004   3.9369488439466839E-002
   2.1106671937335491E-002  -1.6471025921730468E-003   4.4201277179338472E-002
   2.1438554581656555E-002  -2.4220256501961109E-003   4.8803728433114368E-002
   1.3499273000497025E-002   0.0000000000000000        2.8701442831101716E-002
   1.3641135174475016E-002  -2.9061902613836382E-004   3.3843818479207068E-002
   1.3782997348453006E-002  -6.5588852704905054E-004   3.8835490672722017E-002
   1.3924859522430994E-002  -1.0958085027320593E-003   4.3676459411646537E-002
   1.4066721696408987E-002  -1.6103789531873931E-003   4.8366724695980648E-002
   6.7939143694554938E-003   0.0000000000000000        2.8511310923931908E-002
   6.8243901045957362E-003  -1.4514828520173148E-004   3.3543892463623180E-002
   6.8548658397359795E-003  -3.2665308963208961E-004   3.8504404580229364E-002
   6.8853415748762218E-003  -5.4451441329107352E-004   4.3392847273750472E-002
   6.9158173100164625E-003  -7.9873225617868777E-004   4.8209220544186485E-002
  -5.0518887523103018E-006   0.0000000000000000        2.8447502779926880E-002
  -7.3285609444844607E-006   3.2245573490085472E-007   3.3408584166747760E-002
  -9.6052331366594870E-006   2.5823477848747889E-006   3.8376230161988906E-002
  -1.1881905328834513E-005   6.7796761499174657E-006   4.3350440765650276E-002
  -1.4158577521008672E-005   1.2914440830028885E-005   4.8331215977731906E-002
   2.9031315965759176E-002  -3.2336723472048143E-003   4.9520231755587674E-002
   2.9105061781785707E-002  -4.2565329862274542E-003   5.1576986526766400E-002
   2.9178807597812245E-002  -5.1033251862541672E-003   5.3732025312422591E-002
   2.9252553413838780E-002  -5.7740489472848716E-003   5.5985348112556260E-002
   2.9326299229865314E-002  -6.2687042693196429E-003   5.8336954927167416E-002
   2.1438554581656555E-002  -2.4220256501961109E-003   4.8803728433114368E-002
   2.1581307820075023E-002  -3.1879135729376870E-003   5.1205676681000054E-002
   2.1724061058493484E-002  -3.8227867948003079E-003   5.3647355759192140E-002
   2.1866814296911948E-002  -4.3266453157839802E-003   5.6128765667690608E-002
   2.2009567535330416E-002  -4.6994891358886764E-003   5.8649906406495415E-002
   1.4066721696408987E-002  -1.6103789531873931E-003   4.8366724695980648E-002
   1.4219929173048287E-002  -2.1192941596479067E-003   5.1068812682456312E-002
   1.4373136649687592E-002  -2.5422484033464764E-003   5.3752078315067238E-002
   1.4526344126326892E-002  -2.8792416842830684E-003   5.6416521593813475E-002
   1.4679551602966199E-002  -3.1302740024577065E-003   5.9062142518695009E-002
   6.9158173100164625E-003  -7.9873225617868777E-004   4.8209220544186485E-002
   7.0209258407055155E-003  -1.0506747463581330E-003   5.1166394531135091E-002
   7.1260343713945660E-003  -1.2617100118926311E-003   5.4046192980047911E-002
   7.2311429020836190E-003  -1.4318380527821599E-003   5.6848615890924922E-002
   7.3362514327726669E-003  -1.5610588690267522E-003   5.9573663263766133E-002
  -1.4158577521008672E-005   1.2914440830028885E-005   4.8331215977731906E-002
  -1.5702176953300354E-005   1.7944666931646834E-005   5.1498422227036482E-002
  -1.7245776385591167E-005   1.8828379561209316E-005   5.4529699754134145E-002
  -1.8789375817882849E-005   1.5565578718736985E-005   5.7425048559024930E-002
  -2.0332975250173663E-005   8.1562644042298960E-006   6.0184468641708830E-002
   2.9326299229865314E-002  -6.2687042693196429E-003   5.8336954927167416E-002
   2.8980016502782473E-002  -6.6510127164499319E-003   5.9095650416346193E-002
   2.8633733775699628E-002  -6.9846958527671563E-003   5.9889042536561674E-002
   2.8287451048616775E-002  -7.2697536782714029E-003   6.0717131287813884E-002
   2.7941168321533948E-002  -7.5061861929625884E-003   6.1579916670102847E-002
   2.2009567535330416E-002  -4.6994891358886764E-003   5.8649906406495415E-002
   2.1710196216995541E-002  -4.9867635214267819E-003   5.9451907175089747E-002
   2.1410824898660662E-002  -5.2339137387106063E-003   6.0313034130143314E-002
   2.1111453580325786E-002  -5.4409397877402139E-003   6.1233287271656035E-002
   2.0812082261990921E-002  -5.6078416685155924E-003   6.2212666599628028E-002
   1.4679551602966199E-002  -3.1302740024577065E-003   5.9062142518695009E-002
   1.4451521248801776E-002  -3.3225143264036354E-003   5.9898947424146136E-002
   1.4223490894637352E-002  -3.4831316246540832E-003   6.0819308071478943E-002
   1.3995460540472933E-002  -3.6121258972090656E-003   6.1823224460693466E-002
   1.3767430186308509E-002  -3.7094971440685548E-003   6.2910696591789633E-002
   7.3362514327726669E-003  -1.5610588690267522E-003   5.9573663263766133E-002
   7.2039915982011872E-003  -1.6582651313804802E-003   6.0436771163515299E-002
   7.0717317636297032E-003  -1.7323495105975675E-003   6.1407864360568609E-002
   6.9394719290582175E-003  -1.7833120066778970E-003   6.2486942854926092E-002
   6.8072120944867361E-003  -1.8111526196215103E-003   6.3674006646587789E-002
  -2.0332975250173663E-005   8.1562644042298960E-006   6.0184468641708830E-002
  -3.2392734806234100E-005   5.9840636426472527E-006   6.1065378393197221E-002
  -4.4452494362298006E-005   1.8432603458996832E-005   6.2078702997412277E-002
  -5.6512253918361479E-005   4.5501883853273431E-005   6.3224442454353963E-002
  -6.8572013474422350E-005   8.7191904825506539E-005   6.4502596764022369E-002
   2.7941168321533948E-002  -7.5061861929625884E-003   6.1579916670102847E-002
   2.7255642440874320E-002  -7.6541649960848723E-003   6.1322081208047122E-002
   2.6570116560214709E-002  -7.6738616868822357E-003   6.1313028635098688E-002
   2.5884590679555092E-002  -7.5652762653546958E-003   6.1552758951257572E-002
   2.5199064798895471E-002  -7.3284087315022839E-003   6.2041272156523913E-002
   2.0812082261990921E-002  -5.6078416685155924E-003   6.2212666599628028E-002
   2.0354877686188891E-002  -5.7134039337553566E-003   6.2124222124754103E-002
   1.9897673110386857E-002  -5.7364111361780760E-003   6.2243637370488061E-002
   1.9440468534584830E-002  -5.6768632757838540E-003   6.2570912336829862E-002
   1.8983263958782789E-002  -5.5347603525725819E-003   6.3106047023779546E-002
   1.3767430186308509E-002  -3.7094971440685548E-003   6.2910696591789633E-002
   1.3497623746864581E-002  -3.7726428714257715E-003   6.2945916054589643E-002
   1.3227817307420658E-002  -3.7989605854738887E-003   6.3148072069498046E-002
   1.2958010867976726E-002  -3.7884502862129150E-003   6.3517164636514856E-002
   1.2688204428532805E-002  -3.7411119736428661E-003   6.4053193755639892E-002
   6.8072120944867361E-003  -1.8111526196215103E-003   6.3674006646587789E-002
   6.6838806229014220E-003  -1.8318818090961794E-003   6.3787162997553826E-002
   6.5605491513161121E-003  -1.8615100347697429E-003   6.4026332732128793E-002
   6.4372176797308049E-003  -1.9000372966420384E-003   6.4391515850312567E-002
   6.3138862081454960E-003  -1.9474635947131294E-003   6.4882712352105257E-002
  -6.8572013474422350E-005   8.7191904825506539E-005   6.4502596764022369E-002
  -8.6351685700595399E-005   1.0887925323331549E-004   6.4647962953646540E-002
  -1.0413135792677018E-004   7.5940515934472264E-005   6.4878419358380110E-002
  -1.2191103015294410E-004  -1.1624307071116807E-005   6.5193965978223023E-002
  -1.3969070237911801E-004  -1.5381521578342050E-004   6.5594602813175390E-002
   2.5199064798895471E-002  -7.3284087315022839E-003   6.2041272156523913E-002
   2.4395979780643548E-002  -7.0508371538964137E-003   6.1831265786575079E-002
   2.3592894762391618E-002  -6.8201396011086171E-003   6.1770498952575595E-002
   2.2789809744139699E-002  -6.6363160731388333E-003   6.1858971654525675E-002
   2.1986724725887766E-002  -6.4993665699870640E-003   6.2096683892425064E-002
   1.8983263958782789E-002  -5.5347603525725819E-003   6.3106047023779546E-002
   1.8344145040971788E-002  -5.3617293415949424E-003   6.2797722072133647E-002
   1.7705026123160779E-002  -5.2093972179016249E-003   6.2668089785420072E-002
   1.7065907205349767E-002  -5.0777639814924922E-003   6.2717150163639004E-002
   1.6426788287538768E-002  -4.9668296323676087E-003   6.2944903206790248E-002
   1.2688204428532805E-002  -3.7411119736428661E-003   6.4053193755639892E-002
   1.2242504740145640E-002  -3.6726215292935058E-003   6.3672725359830845E-002
   1.1796805051758492E-002  -3.5986548346945736E-003   6.3500402757937099E-002
   1.1351105363371347E-002  -3.5192118898462058E-003   6.3536225949958614E-002
   1.0905405674984183E-002  -3.4342926947482644E-003   6.3780194935895582E-002
   6.3138862081454960E-003  -1.9474635947131294E-003   6.4882712352105257E-002
   6.0910588781651282E-003  -1.9835137169920518E-003   6.4456275649666744E-002
   5.8682315481847595E-003  -1.9879124514875519E-003   6.4267437870126468E-002
   5.6454042182043883E-003  -1.9606597981998643E-003   6.4316199013484440E-002
   5.4225768882240318E-003  -1.9017557571288923E-003   6.4602559079740732E-002
  -1.3969070237911801E-004  -1.5381521578342050E-004   6.5594602813175390E-002
  -1.1019254496976577E-004  -2.9440590469058392E-004   6.5148372941641247E-002
  -8.0694387560418732E-005  -3.7717006828050931E-004   6.4969195121988274E-002
  -5.1196230151068223E-005  -4.0210770655354534E-004   6.5057069354216429E-002
  -2.1698072741719449E-005  -3.6921881950946478E-004   6.5411995638325893E-002
   2.1986724725887766E-002  -6.4993665699870640E-003   6.2096683892425064E-002
   2.1158422292669204E-002  -6.3620983632616257E-003   6.1745505512516730E-002
   2.0330119859450650E-002  -6.1773187245708211E-003   6.1637333986435505E-002
   1.9501817426232106E-002  -5.9450276539144940E-003   6.1772169314181988E-002
   1.8673514993013535E-002  -5.6652251512928076E-003   6.2150011495755886E-002
   1.6426788287538768E-002  -4.9668296323676087E-003   6.2944903206790248E-002
   1.5831880469928304E-002  -4.8513685708219678E-003   6.2661298286502548E-002
   1.5236972652317861E-002  -4.7061551971500776E-003   6.2601475743603668E-002
   1.4642064834707418E-002  -4.5311895113521912E-003   6.2765435578093387E-002
   1.4047157017096967E-002  -4.3264715134280207E-003   6.3153177789971898E-002
   1.0905405674984183E-002  -3.4342926947482644E-003   6.3780194935895582E-002
   1.0524667996543120E-002  -3.3406387783821434E-003   6.3546404355389330E-002
   1.0143930318102049E-002  -3.2349916697292855E-003   6.3517171675833151E-002
   9.7631926396609808E-003  -3.1173513687896681E-003   6.3692496897226947E-002
   9.3824549612199146E-003  -2.9877178755632061E-003   6.4072380019570704E-002
   5.4225768882240318E-003  -1.9017557571288923E-003   6.4602559079740732E-002
   5.2367848725136164E-003  -1.8299089859423190E-003   6.4400823719176617E-002
   5.0509928568032054E-003  -1.7638281423085732E-003   6.4384421783123882E-002
   4.8652008410927910E-003  -1.7035132262271718E-003   6.4553353271582431E-002
   4.6794088253823852E-003  -1.6489642376983776E-003   6.4907618184552318E-002
  -2.1698072741719449E-005  -3.6921881950946478E-004   6.5411995638325893E-002
  -3.1768902160191764E-005  -3.1917919350260560E-004   6.5224556377864673E-002
  -4.1839731578662345E-005  -2.9266461488784701E-004   6.5203226065476044E-002
  -5.1910560997135528E-005  -2.8967508366481085E-004   6.5348004701159992E-002
  -6.1981390415605242E-005  -3.1021059983354915E-004   6.5658892284916559E-002
   1.8673514993013535E-002  -5.6652251512928076E-003   6.2150011495755886E-002
   1.7977247412401032E-002  -5.3326615538022704E-003   6.2051868411630517E-002
   1.7280979831788543E-002  -4.9420871985390719E-003   6.2197346674916970E-002
   1.6584712251176047E-002  -4.4935020855035347E-003   6.2586446285614925E-002
   1.5888444670563523E-002  -3.9869062146952183E-003   6.3219167243724561E-002
   1.4047157017096967E-002  -4.3264715134280207E-003   6.3153177789971898E-002
   1.3570850093169093E-002  -4.1024608048716715E-003   6.3026451868614747E-002
   1.3094543169241225E-002  -3.8696169871763192E-003   6.3096025913215240E-002
   1.2618236245313365E-002  -3.6279400603424113E-003   6.3361899923773390E-002
   1.2141929321385497E-002  -3.3774300243696875E-003   6.3824073900288936E-002
   9.3824549612199146E-003  -2.9877178755632061E-003   6.4072380019570704E-002
   9.0787873125226307E-003  -2.8722600559409756E-003   6.3867893612348001E-002
   8.7751196638253676E-003  -2.7971467758136706E-003   6.3812385789628751E-002
   8.4714520151280854E-003  -2.7623780351814526E-003   6.3905856551413148E-002
   8.1677843664308206E-003  -2.7679538340442122E-003   6.4148305897701069E-002
   4.6794088253823852E-003  -1.6489642376983776E-003   6.4907618184552318E-002
   4.5010590704616677E-003  -1.6420593070103559E-003   6.4576193642830071E-002
   4.3227093155409485E-003  -1.7246765644509977E-003   6.4346426304157447E-002
   4.1443595606202397E-003  -1.8968160100203560E-003   6.4218316168534517E-002
   3.9660098056995188E-003  -2.1584776437186537E-003   6.4191863235960822E-002
  -6.1981390415605242E-005  -3.1021059983354915E-004   6.5658892284916559E-002
  -1.6233463301380813E-004  -4.1185855807968075E-004   6.5151351960061277E-002
  -2.6268787561200754E-004  -6.5220635308817221E-004   6.4698147456801386E-002
  -3.6304111821020869E-004  -1.0312539848593462E-003   6.4299278775137067E-002
  -4.6339436080840984E-004  -1.5490014533930951E-003   6.3954745915068112E-002
   1.5888444670563523E-002  -3.9869062146952183E-003   6.3219167243724561E-002
   1.4934078144672638E-002  -3.4017624061691842E-003   6.3417042541389745E-002
   1.3979711618781768E-002  -2.7175334799795503E-003   6.4049811636293752E-002
   1.3025345092890869E-002  -1.9342194361272186E-003   6.5117474528436720E-002
   1.2070978566999957E-002  -1.0518202746110372E-003   6.6620031217818232E-002
   1.2141929321385497E-002  -3.3774300243696875E-003   6.3824073900288936E-002
   1.1571608398189014E-002  -3.0968722451031883E-003   6.3818645145189257E-002
   1.1001287474992544E-002  -2.7650520883879953E-003   6.4146413798239599E-002
   1.0430966551796084E-002  -2.3819695542240220E-003   6.4807379859439962E-002
   9.8606456285995903E-003  -1.9476246426113342E-003   6.5801543328790180E-002
   8.1677843664308206E-003  -2.7679538340442122E-003   6.4148305897701069E-002
   7.8798126568399816E-003  -2.7919820840372478E-003   6.3891750349621843E-002
   7.5918409472491323E-003  -2.8125706967961628E-003   6.3866695820603780E-002
   7.3038692376582968E-003  -2.8297196723209642E-003   6.4073142310646952E-002
   7.0158975280674440E-003  -2.8434290106114091E-003   6.4511089819751566E-002
   3.9660098056995188E-003  -2.1584776437186537E-003   6.4191863235960822E-002
   3.8586909206255312E-003  -2.4870919229713906E-003   6.3636358154687531E-002
   3.7513720355515428E-003  -2.8600893052044690E-003   6.3210657703386658E-002
   3.6440531504775683E-003  -3.2774697904179480E-003   6.2914761882058481E-002
   3.5367342654035946E-003  -3.7392333786115395E-003   6.2748670690702432E-002
  -4.6339436080840984E-004  -1.5490014533930951E-003   6.3954745915068112E-002
  -4.9175681045432115E-004  -2.1822017619053113E-003   6.3052468560386266E-002
  -5.2011926010023593E-004  -2.9076079136125810E-003   6.2178299446588203E-002
  -5.4848170974615591E-004  -3.7252199085148555E-003   6.1332238573673592E-002
  -5.7684415939206202E-004  -4.6350377466117809E-003   6.0514285941642543E-002
  -5.0518887523103018E-006   0.0000000000000000        2.8447502779926880E-002
  -7.3285609444844607E-006   3.2245573490085472E-007   3.3408584166747760E-002
  -9.6052331366594870E-006   2.5823477848747889E-006   3.8376230161988906E-002
  -1.1881905328834513E-005   6.7796761499174657E-006   4.3350440765650276E-002
  -1.4158577521008672E-005   1.2914440830028885E-005   4.8331215977731906E-002
  -6.8039491835790228E-003   0.0000000000000000        2.8511182669160869E-002
  -6.8387122262614647E-003   1.4713340269745852E-004   3.3547054710964079E-002
  -6.8734752689439023E-003   3.3252152900860310E-004   3.8511389403366507E-002
  -6.9082383116263416E-003   5.5616437893343459E-004   4.3404186746368159E-002
  -6.9430013543087844E-003   8.1806195247195648E-004   4.8225446739969022E-002
  -1.3509100924477283E-002   0.0000000000000000        2.8703514861708107E-002
  -1.3654452295471013E-002   2.9394434966001316E-004   3.3850494845792251E-002
  -1.3799803666464744E-002   6.6246071023233315E-004   3.8847835522654577E-002
  -1.3945155037458475E-002   1.1055490817169561E-003   4.3695536892295127E-002
  -1.4090506408452209E-002   1.6232094641138871E-003   4.8393598954713853E-002
  -2.0120507111447083E-002   0.0000000000000000        2.9024499357568592E-002
  -2.0454548768573135E-002   4.4075529662256758E-004   3.4318904571232302E-002
  -2.0788590425699183E-002   9.9239989145606233E-004   3.9385568519853163E-002
  -2.1122632082825235E-002   1.6549337845004754E-003   4.4224491203431193E-002
  -2.1456673739951280E-002   2.4283569757558143E-003   4.8835672621966406E-002
  -2.6638167744488433E-002   0.0000000000000000        2.9474136156742322E-002
  -2.7239001645567827E-002   5.8756624358512460E-004   3.4952283887284205E-002
  -2.7839835546647221E-002   1.3223390726797915E-003   4.0124588394962211E-002
  -2.8440669447726614E-002   2.2043184872839981E-003   4.4991049679776365E-002
  -2.9041503348806008E-002   3.2335044873977471E-003   4.9551667741726674E-002
  -1.4158577521008672E-005   1.2914440830028885E-005   4.8331215977731906E-002
  -1.5702176953300354E-005   1.7944666931646834E-005   5.1498422227036482E-002
  -1.7245776385591167E-005   1.8828379561209316E-005   5.4529699754134145E-002
  -1.8789375817882849E-005   1.5565578718736985E-005   5.7425048559024930E-002
  -2.0332975250173663E-005   8.1562644042298960E-006   6.0184468641708830E-002
  -6.9430013543087844E-003   8.1806195247195648E-004   4.8225446739969022E-002
  -7.0511602656743826E-003   1.0764565868516484E-003   5.1178600564489821E-002
  -7.1593191770399842E-003   1.2895906193000001E-003   5.4054452487350885E-002
  -7.2674780884055806E-003   1.4574640498170258E-003   5.6853002508552207E-002
  -7.3756369997711848E-003   1.5800768784027044E-003   5.9574250628093808E-002
  -1.4090506408452209E-002   1.6232094641138871E-003   4.8393598954713853E-002
  -1.4246653811203960E-002   2.1349685067716564E-003   5.1091586265991591E-002
  -1.4402801213955704E-002   2.5603528590387907E-003   5.3770898496156766E-002
  -1.4558948616707455E-002   2.8993625209153009E-003   5.6431535645209356E-002
  -1.4715096019459204E-002   3.1519974924011790E-003   5.9073497713149396E-002
  -2.1456673739951280E-002   2.4283569757558143E-003   4.8835672621966406E-002
  -2.1602182813542023E-002   3.1934804266916580E-003   5.1237379331541780E-002
  -2.1747691887132766E-002   3.8311150987775850E-003   5.3679037780551775E-002
  -2.1893200960723509E-002   4.3412609920135898E-003   5.6160647968996329E-002
  -2.2038710034314252E-002   4.7239181063996466E-003   5.8682209896875510E-002
  -2.9041503348806008E-002   3.2335044873977471E-003   4.9551667741726674E-002
  -2.9117747272688579E-002   4.2519923466116626E-003   5.1615979761140421E-002
  -2.9193991196571158E-002   5.1018773385163672E-003   5.3778870340535932E-002
  -2.9270235120453729E-002   5.7831594631118565E-003   5.6040339479913166E-002
  -2.9346479044336307E-002   6.2958387203981420E-003   5.8400387179272165E-002
  -2.0332975250173663E-005   8.1562644042298960E-006   6.0184468641708830E-002
  -3.2392734806234100E-005   5.9840636426472527E-006   6.1065378393197221E-002
  -4.4452494362298006E-005   1.8432603458996832E-005   6.2078702997412277E-002
  -5.6512253918361479E-005   4.5501883853273431E-005   6.3224442454353963E-002
  -6.8572013474422350E-005   8.7191904825506539E-005   6.4502596764022369E-002
  -7.3756369997711848E-003   1.5800768784027044E-003   5.9574250628093808E-002
  -7.2656926986231305E-003   1.6765350891153712E-003   6.0464380645774279E-002
  -7.1557483974750771E-003   1.7659446660132968E-003   6.1466103932136314E-002
  -7.0458040963270246E-003   1.8483056090966578E-003   6.2579420487179876E-002
  -6.9358597951789738E-003   1.9236179183652752E-003   6.3804330310905044E-002
  -1.4715096019459204E-002   3.1519974924011790E-003   5.9073497713149396E-002
  -1.4503969241652138E-002   3.3470861145880812E-003   5.9951178622629296E-002
  -1.4292842463845070E-002   3.5134567285677078E-003   6.0919631216745651E-002
  -1.4081715686038011E-002   3.6511093343400145E-003   6.1978855495498475E-002
  -1.3870588908230942E-002   3.7600439319050577E-003   6.3128851458887747E-002
  -2.2038710034314252E-002   4.7239181063996466E-003   5.8682209896875510E-002
  -2.1747222363893270E-002   5.0176371400608051E-003   5.9525772323762209E-002
  -2.1455734693472291E-002   5.2609687911220632E-003   6.0439284851240289E-002
  -2.1164247023051308E-002   5.4539130595833846E-003   6.1422747479309793E-002
  -2.0872759352630332E-002   5.5964699454448055E-003   6.2476160207970574E-002
  -2.9346479044336307E-002   6.2958387203981420E-003   5.8400387179272165E-002
  -2.8995452065346511E-002   6.6881881655335290E-003   5.9188161749173129E-002
  -2.8644425086356722E-002   7.0084808536764222E-003   6.0025064835620305E-002
  -2.8293398107366929E-002   7.2567167848267633E-003   6.0911096438613768E-002
  -2.7942371128377139E-002   7.4328959589846089E-003   6.1846256558153512E-002
  -6.8572013474422350E-005   8.7191904825506539E-005   6.4502596764022369E-002
  -8.6351685700595399E-005   1.0887925323331549E-004   6.4647962953646540E-002
  -1.0413135792677018E-004   7.5940515934472264E-005   6.4878419358380110E-002
  -1.2191103015294410E-004  -1.1624307071116807E-005   6.5193965978223023E-002
  -1.3969070237911801E-004  -1.5381521578342050E-004   6.5594602813175390E-002
  -6.9358597951789738E-003   1.9236179183652752E-003   6.3804330310905044E-002
  -6.8451297893922514E-003   1.9687227695936796E-003   6.3851678448099025E-002
  -6.7543997836055306E-003   1.9604613385562873E-003   6.4030955726209482E-002
  -6.6636697778188021E-003   1.8988336252531565E-003   6.4342162145236276E-002
  -6.5729397720320874E-003   1.7838396296842585E-003   6.4785297705179476E-002
  -1.3870588908230942E-002   3.7600439319050577E-003   6.3128851458887747E-002
  -1.3624510298624319E-002   3.8285662859540090E-003   6.3079441347092549E-002
  -1.3378431689017698E-002   3.8449821611781301E-003   6.3208799302020724E-002
  -1.3132353079411080E-002   3.8092915575774298E-003   6.3516925323672382E-002
  -1.2886274469804455E-002   3.7214944751519236E-003   6.4003819412047330E-002
  -2.0872759352630332E-002   5.5964699454448055E-003   6.2476160207970574E-002
  -2.0424493213396806E-002   5.6884098023143696E-003   6.2331251650627112E-002
  -1.9976227074163282E-002   5.7295029837999452E-003   6.2411950085814065E-002
  -1.9527960934929745E-002   5.7197494899017725E-003   6.2718255513531412E-002
  -1.9079694795696222E-002   5.6591493206196233E-003   6.3250167933779203E-002
  -2.7942371128377139E-002   7.4328959589846089E-003   6.1846256558153512E-002
  -2.7245078533709704E-002   7.5482533186746886E-003   6.1607109358702714E-002
  -2.6547785939042265E-002   7.6140238064218019E-003   6.1640408077589318E-002
  -2.5850493344374822E-002   7.6302074222259937E-003   6.1946152714813296E-002
  -2.5153200749707390E-002   7.5968041660872676E-003   6.2524343270374788E-002
  -1.3969070237911801E-004  -1.5381521578342050E-004   6.5594602813175390E-002
  -1.1019254496976577E-004  -2.9440590469058392E-004   6.5148372941641247E-002
  -8.0694387560418732E-005  -3.7717006828050931E-004   6.4969195121988274E-002
  -5.1196230151068223E-005  -4.0210770655354534E-004   6.5057069354216429E-002
  -2.1698072741719449E-005  -3.6921881950946478E-004   6.5411995638325893E-002
  -6.5729397720320874E-003   1.7838396296842585E-003   6.4785297705179476E-002
  -6.2957643626122359E-003   1.6587927229569921E-003   6.4485150898288296E-002
  -6.0185889531923793E-003   1.5670062761787701E-003   6.4413306543536941E-002
  -5.7414135437725252E-003   1.5084802893497139E-003   6.4569764640925398E-002
  -5.4642381343526711E-003   1.4832147624695979E-003   6.4954525190453694E-002
  -1.2886274469804455E-002   3.7214944751519236E-003   6.4003819412047330E-002
  -1.2400171408115454E-002   3.6119913506045057E-003   6.3825189604431121E-002
  -1.1914068346426460E-002   3.5111826206382195E-003   6.3836112649213420E-002
  -1.1427965284737465E-002   3.4190682852528629E-003   6.4036588546394227E-002
  -1.0941862223048465E-002   3.3356483444486607E-003   6.4426617295973418E-002
  -1.9079694795696222E-002   5.6591493206196233E-003   6.3250167933779203E-002
  -1.8423413681479445E-002   5.5651899782520227E-003   6.3168489060069943E-002
  -1.7767132567262662E-002   5.4553589650975561E-003   6.3237613439017848E-002
  -1.7110851453045875E-002   5.3296562811561508E-003   6.3457541070622875E-002
  -1.6454570338829098E-002   5.1880819264276956E-003   6.3828271954884913E-002
  -2.5153200749707390E-002   7.5968041660872676E-003   6.2524343270374788E-002
  -2.4365491182704185E-002   7.5183886058995952E-003   6.2515049265204542E-002
  -2.3577781615700982E-002   7.3995353095569760E-003   6.2617808912950018E-002
  -2.2790072048697773E-002   7.2402442770592781E-003   6.2832622213611231E-002
  -2.2002362481694571E-002   7.0405155084067306E-003   6.3159489167188276E-002
  -2.1698072741719449E-005  -3.6921881950946478E-004   6.5411995638325893E-002
  -3.1768902160191764E-005  -3.1917919350260560E-004   6.5224556377864673E-002
  -4.1839731578662345E-005  -2.9266461488784701E-004   6.5203226065476044E-002
  -5.1910560997135528E-005  -2.8967508366481085E-004   6.5348004701159992E-002
  -6.1981390415605242E-005  -3.1021059983354915E-004   6.5658892284916559E-002
  -5.4642381343526711E-003   1.4832147624695979E-003   6.4954525190453694E-002
  -5.2972201465206169E-003   1.4632485239533116E-003   6.4719888306778731E-002
  -5.1302021586885523E-003   1.4206204022148977E-003   6.4673320109532417E-002
  -4.9631841708564894E-003   1.3553303972550466E-003   6.4814820598714490E-002
  -4.7961661830244334E-003   1.2673785090731582E-003   6.5144389774324962E-002
  -1.0941862223048465E-002   3.3356483444486607E-003   6.4426617295973418E-002
  -1.0575795679609971E-002   3.2456762414091733E-003   6.4145645953254823E-002
  -1.0209729136171476E-002   3.1339054193178020E-003   6.4074703035320757E-002
  -9.8436625927329734E-003   3.0003358781748469E-003   6.4213788542170983E-002
  -9.4775960492944865E-003   2.8449676179801153E-003   6.4562902473805653E-002
  -1.6454570338829098E-002   5.1880819264276956E-003   6.3828271954884913E-002
  -1.5867495501428252E-002   5.0281039588650905E-003   6.3501829317292757E-002
  -1.5280420664027402E-002   4.8471904364207098E-003   6.3407374842840980E-002
  -1.4693345826626559E-002   4.6453413590946202E-003   6.3544908531529401E-002
  -1.4106270989225705E-002   4.4225567268869753E-003   6.3914430383358298E-002
  -2.2002362481694571E-002   7.0405155084067306E-003   6.3159489167188276E-002
  -2.1172319611975479E-002   6.8105316763210078E-003   6.2788438398892643E-002
  -2.0342276742256363E-002   6.5604754535234650E-003   6.2671335532093198E-002
  -1.9512233872537262E-002   6.2903468400145358E-003   6.2808180566790037E-002
  -1.8682191002818163E-002   6.0001458357938353E-003   6.3198973502982925E-002
  -6.1981390415605242E-005  -3.1021059983354915E-004   6.5658892284916559E-002
  -1.6233463301380813E-004  -4.1185855807968075E-004   6.5151351960061277E-002
  -2.6268787561200754E-004  -6.5220635308817221E-004   6.4698147456801386E-002
  -3.6304111821020869E-004  -1.0312539848593462E-003   6.4299278775137067E-002
  -4.6339436080840984E-004  -1.5490014533930951E-003   6.3954745915068112E-002
  -4.7961661830244334E-003   1.2673785090731582E-003   6.5144389774324962E-002
  -4.8022409647149704E-003   1.1385656401903532E-003   6.4630667057649194E-002
  -4.8083157464055143E-003   9.5069269312715587E-004   6.4251165441193220E-002
  -4.8143905280960478E-003   7.0375966788348635E-004   6.4005884924957152E-002
  -4.8204653097865882E-003   3.9776656445938974E-004   6.3894825508940767E-002
  -9.4775960492944865E-003   2.8449676179801153E-003   6.4562902473805653E-002
  -9.3095070914530204E-003   2.6889898384604427E-003   6.4122637123891449E-002
  -9.1414181336115542E-003   2.5535917393424909E-003   6.3896478152821429E-002
  -8.9733291757700950E-003   2.4387733206263761E-003   6.3884425560595523E-002
  -8.8052402179286376E-003   2.3445345823119301E-003   6.4086479347213843E-002
  -1.4106270989225705E-002   4.4225567268869753E-003   6.3914430383358298E-002
  -1.3684133013227915E-002   4.2394140367303657E-003   6.3627262158787820E-002
  -1.3261995037230139E-002   4.1564907855578780E-003   6.3634085591686068E-002
  -1.2839857061232357E-002   4.1737869733691818E-003   6.3934900682052681E-002
  -1.2417719085234574E-002   4.2913026001644428E-003   6.4529707429887811E-002
  -1.8682191002818163E-002   6.0001458357938353E-003   6.3198973502982925E-002
  -1.7926118730039714E-002   5.7898382350005384E-003   6.3144542162338668E-002
  -1.7170046457261268E-002   5.7593898317731818E-003   6.3463987757787083E-002
  -1.6413974184482823E-002   5.9088006261121331E-003   6.4157310289328334E-002
  -1.5657901911704381E-002   6.2380706180168999E-003   6.5224509756962423E-002
  -4.6339436080840984E-004  -1.5490014533930951E-003   6.3954745915068112E-002
  -4.9175681045432115E-004  -2.1822017619053113E-003   6.3052468560386266E-002
  -5.2011926010023593E-004  -2.9076079136125810E-003   6.2178299446588203E-002
  -5.4848170974615591E-004  -3.7252199085148555E-003   6.1332238573673592E-002
  -5.7684415939206202E-004  -4.6350377466117809E-003   6.0514285941642543E-002
  -4.8204653097865882E-003   3.9776656445938974E-004   6.3894825508940767E-002
  -4.7664923689718225E-003   3.6018609322230333E-005   6.3346743610451561E-002
  -4.7125194281570533E-003  -3.7817897106118270E-004   6.2935224251999822E-002
  -4.6585464873422858E-003  -8.4482617669059956E-004   6.2660267433585964E-002
  -4.6045735465275323E-003  -1.3639230075658260E-003   6.2521873155209629E-002
  -8.8052402179286376E-003   2.3445345823119301E-003   6.4086479347213843E-002
  -8.5604775874992024E-003   2.2542389805497720E-003   6.3932349122866133E-002
  -8.3157149570697482E-003   2.1512499714903960E-003   6.4023235737710016E-002
  -8.0709523266403078E-003   2.0355675551337153E-003   6.4359139191745462E-002
  -7.8261896962108571E-003   1.9071917314800180E-003   6.4940059484972834E-002
  -1.2417719085234574E-002   4.2913026001644428E-003   6.4529707429887811E-002
  -1.1873712466036445E-002   4.4724593517774247E-003   6.4809285097630231E-002
  -1.1329705846838329E-002   4.6806789140419955E-003   6.5442333903718466E-002
  -1.0785699227640203E-002   4.9159612869582783E-003   6.6428853848152114E-002
  -1.0241692608442101E-002   5.1783064705259729E-003   6.7768844930931660E-002
  -1.5657901911704381E-002   6.2380706180168999E-003   6.5224509756962423E-002
  -1.4706197004583595E-002   6.6906797230049109E-003   6.5977551534744050E-002
  -1.3754492097462791E-002   7.2101078565935811E-003   6.7192518750025160E-002
  -1.2802787190341986E-002   7.7963550187822549E-003   6.8869411402806321E-002
  -1.1851082283221195E-002   8.4494212095718169E-003   7.1008229493086938E-002
  -2.6638167744488433E-002   0.0000000000000000        2.9474136156742322E-002
  -2.7239001645567827E-002   5.8756624358512460E-004   3.4952283887284205E-002
  -2.7839835546647221E-002   1.3223390726797915E-003   4.0124588394962211E-002
  -2.8440669447726614E-002   2.2043184872839981E-003   4.4991049679776365E-002
  -2.9041503348806008E-002   3.2335044873977471E-003   4.9551667741726674E-002
  -3.3398300988098831E-002   0.0000000000000000        3.0186453433926112E-002
  -3.4240318208690897E-002   9.6186166302121914E-004   3.5275363644991384E-002
  -3.5082335429282956E-002   2.0261034450104213E-003   4.0187750439895184E-002
  -3.5924352649875028E-002   3.1927253459676144E-003   4.4923613818637499E-002
  -3.6766369870467080E-002   4.4617273658927870E-003   4.9482953781218350E-002
  -4.0737125006775787E-002   0.0000000000000000        3.1295479363816769E-002
  -4.1691005740178137E-002   1.3361570824573137E-003   3.5950325588863886E-002
  -4.2644886473580487E-002   2.7298678173410546E-003   4.0557968204451907E-002
  -4.3598767206982830E-002   4.1811322046512289E-003   4.5118407210580830E-002
  -4.4552647940385194E-002   5.6899502443878260E-003   4.9631642607250635E-002
  -4.8654639800519289E-002   0.0000000000000000        3.2801213946414304E-002
  -4.9591064240029556E-002   1.7104525018934061E-003   3.6977169718901720E-002
  -5.0527488679539809E-002   3.4336321896716888E-003   4.1235241688632393E-002
  -5.1463913119050075E-002   5.1695390633348390E-003   4.5575429855606364E-002
  -5.2400337558560335E-002   6.9181731228828650E-003   4.9997734219823620E-002
  -5.7150845369329351E-002   0.0000000000000000        3.4703657181718715E-002
  -5.7940493708245139E-002   2.0847479213295037E-003   3.8355896035104850E-002
  -5.8730142047160927E-002   4.1373965620023195E-003   4.2219570892436650E-002
  -5.9519790386076722E-002   6.1579459220184596E-003   4.6294681753714102E-002
  -6.0309438724992517E-002   8.1463960013779049E-003   5.0581228618937213E-002
  -2.9041503348806008E-002   3.2335044873977471E-003   4.9551667741726674E-002
  -2.9117747272688579E-002   4.2519923466116626E-003   5.1615979761140421E-002
  -2.9193991196571158E-002   5.1018773385163672E-003   5.3778870340535932E-002
  -2.9270235120453729E-002   5.7831594631118565E-003   5.6040339479913166E-002
  -2.9346479044336307E-002   6.2958387203981420E-003   5.8400387179272165E-002
  -3.6766369870467080E-002   4.4617273658927870E-003   4.9482953781218350E-002
  -3.6782436192517289E-002   5.6945263990919991E-003   5.1275758814361104E-002
  -3.6798502514567497E-002   6.7525393398712684E-003   5.3090340491186841E-002
  -3.6814568836617705E-002   7.6357661882306338E-003   5.4926698811695568E-002
  -3.6830635158667906E-002   8.3442069441700684E-003   5.6784833775887292E-002
  -4.4552647940385194E-002   5.6899502443878260E-003   4.9631642607250635E-002
  -4.4585338576901792E-002   7.1370604515723201E-003   5.1146757429011716E-002
  -4.4618029213418398E-002   8.4032013412261904E-003   5.2606846978156999E-002
  -4.4650719849935024E-002   9.4883729133494153E-003   5.4011911254686504E-002
  -4.4683410486451608E-002   1.0392575167942002E-002   5.5361950258600232E-002
  -5.2400337558560335E-002   6.9181731228828650E-003   4.9997734219823620E-002
  -5.2526454425842105E-002   8.5795945040526601E-003   5.1228975605092271E-002
  -5.2652571293123868E-002   1.0053863342581107E-002   5.2328389801446377E-002
  -5.2778688160405651E-002   1.1340979638468194E-002   5.3295976808885918E-002
  -5.2904805027687400E-002   1.2440943391713945E-002   5.4131736627410942E-002
  -6.0309438724992517E-002   8.1463960013779049E-003   5.0581228618937213E-002
  -6.0605783739338205E-002   1.0022128556532976E-002   5.1522413342602762E-002
  -6.0902128753683900E-002   1.1704525343936017E-002   5.2254968961054971E-002
  -6.1198473768029601E-002   1.3193586363586975E-002   5.2778895474293902E-002
  -6.1494818782375310E-002   1.4489311615485875E-002   5.3094192882319494E-002
  -2.9346479044336307E-002   6.2958387203981420E-003   5.8400387179272165E-002
  -2.8995452065346511E-002   6.6881881655335290E-003   5.9188161749173129E-002
  -2.8644425086356722E-002   7.0084808536764222E-003   6.0025064835620305E-002
  -2.8293398107366929E-002   7.2567167848267633E-003   6.0911096438613768E-002
  -2.7942371128377139E-002   7.4328959589846089E-003   6.1846256558153512E-002
  -3.6830635158667906E-002   8.3442069441700684E-003   5.6784833775887292E-002
  -3.6381987521201906E-002   8.8895089994613478E-003   5.7140707241331620E-002
  -3.5933339883735906E-002   9.2833197458761472E-003   5.7642693507182076E-002
  -3.5484692246269919E-002   9.5256391834145429E-003   5.8290792573438679E-002
  -3.5036044608803926E-002   9.6164673120764516E-003   5.9085004440101438E-002
  -4.4683410486451608E-002   1.0392575167942002E-002   5.5361950258600232E-002
  -4.4040157906649523E-002   1.1090829833389111E-002   5.5206488067703993E-002
  -4.3396905326847424E-002   1.1558158638075871E-002   5.5294122961073819E-002
  -4.2753652747045331E-002   1.1794561582002264E-002   5.5624854938709702E-002
  -4.2110400167243225E-002   1.1800038665168350E-002   5.6198684000611579E-002
  -5.2904805027687400E-002   1.2440943391713945E-002   5.4131736627410942E-002
  -5.1969963221689314E-002   1.3292150667316874E-002   5.3385504228290290E-002
  -5.1035121415691227E-002   1.3832997530275566E-002   5.2979353197295569E-002
  -5.0100279609693141E-002   1.4063483980590071E-002   5.2913283534426807E-002
  -4.9165437803695054E-002   1.3983610018260248E-002   5.3187295239683907E-002
  -6.1494818782375310E-002   1.4489311615485875E-002   5.3094192882319494E-002
  -6.0171403466321334E-002   1.5493471501244686E-002   5.1677755723090496E-002
  -5.8847988150267372E-002   1.6107836422475322E-002   5.0698384215847277E-002
  -5.7524572834213396E-002   1.6332406379177752E-002   5.0156078360589912E-002
  -5.6201157518159434E-002   1.6167181371352118E-002   5.0050838157318395E-002
  -2.7942371128377139E-002   7.4328959589846089E-003   6.1846256558153512E-002
  -2.7245078533709704E-002   7.5482533186746886E-003   6.1607109358702714E-002
  -2.6547785939042265E-002   7.6140238064218019E-003   6.1640408077589318E-002
  -2.5850493344374822E-002   7.6302074222259937E-003   6.1946152714813296E-002
  -2.5153200749707390E-002   7.5968041660872676E-003   6.2524343270374788E-002
  -3.5036044608803926E-002   9.6164673120764516E-003   5.9085004440101438E-002
  -3.4082211738739585E-002   9.6123055850213038E-003   5.8805231882447247E-002
  -3.3128378868675250E-002   9.5696554554082734E-003   5.8766093957249403E-002
  -3.2174545998610929E-002   9.4885169232375305E-003   5.8967590664507935E-002
  -3.1220713128546577E-002   9.3688899885089605E-003   5.9409722004222815E-002
  -4.2110400167243225E-002   1.1800038665168350E-002   5.6198684000611579E-002
  -4.0931838307663032E-002   1.1676357851367940E-002   5.5889384554139054E-002
  -3.9753276448082846E-002   1.1525287104394800E-002   5.5788908454241885E-002
  -3.8574714588502659E-002   1.1346826424249038E-002   5.5897255700920023E-002
  -3.7396152728922438E-002   1.1140975810930515E-002   5.6214426294173600E-002
  -4.9165437803695054E-002   1.3983610018260248E-002   5.3187295239683907E-002
  -4.7793958240480036E-002   1.3740410117714551E-002   5.2859567373778248E-002
  -4.6422478677265018E-002   1.3480918753381286E-002   5.2708851568566882E-002
  -4.5050999114050007E-002   1.3205135925260517E-002   5.2735147824049790E-002
  -4.3679519550834996E-002   1.2913061633352124E-002   5.2938456140227026E-002
  -5.6201157518159434E-002   1.6167181371352118E-002   5.0050838157318395E-002
  -5.4668571537190618E-002   1.5804462384061149E-002   4.9715780341364674E-002
  -5.3135985556221801E-002   1.5436550402367799E-002   4.9525923300224262E-002
  -5.1603399575252985E-002   1.5063445426272040E-002   4.9481267033897047E-002
  -5.0070813594284169E-002   1.4685147455773734E-002   4.9581811542383170E-002
  -2.5153200749707390E-002   7.5968041660872676E-003   6.2524343270374788E-002
  -2.4365491182704185E-002   7.5183886058995952E-003   6.2515049265204542E-002
  -2.3577781615700982E-002   7.3995353095569760E-003   6.2617808912950018E-002
  -2.2790072048697773E-002   7.2402442770592781E-003   6.2832622213611231E-002
  -2.2002362481694571E-002   7.0405155084067306E-003   6.3159489167188276E-002
  -3.1220713128546577E-002   9.3688899885089605E-003   5.9409722004222815E-002
  -3.0302213846159508E-002   9.2114251879162751E-003   5.9272424307321506E-002
  -2.9383714563772409E-002   9.0167730581535918E-003   5.9284652388272213E-002
  -2.8465215281385334E-002   8.7849335992207286E-003   5.9446406247074896E-002
  -2.7546715998998245E-002   8.5159068111177461E-003   5.9757685883729594E-002
  -3.7396152728922438E-002   1.1140975810930515E-002   5.6214426294173600E-002
  -3.6309391606215193E-002   1.0904461769933038E-002   5.5952375312525969E-002
  -3.5222630483507968E-002   1.0634010806750208E-002   5.5877322233666690E-002
  -3.4135869360800701E-002   1.0329622921382068E-002   5.5989267057595750E-002
  -3.3049108238093469E-002   9.9912981138285673E-003   5.6288209784313023E-002
  -4.3679519550834996E-002   1.2913061633352124E-002   5.2938456140227026E-002
  -4.2387024462871299E-002   1.2597498351949718E-002   5.2554902280817994E-002
  -4.1094529374907630E-002   1.2251248555346879E-002   5.2395818449133547E-002
  -3.9802034286943962E-002   1.1874312243543352E-002   5.2461204645173634E-002
  -3.8509539198980258E-002   1.1466689416539458E-002   5.2751060868938313E-002
  -5.0070813594284169E-002   1.4685147455773734E-002   4.9581811542383170E-002
  -4.8535112416127763E-002   1.4290534933966495E-002   4.9080005212197492E-002
  -4.6999411237971384E-002   1.3868486303943446E-002   4.8840141034672671E-002
  -4.5463710059814977E-002   1.3419001565704749E-002   4.8862219009808687E-002
  -4.3928008881658598E-002   1.2942080719250348E-002   4.9146239137605574E-002
  -2.2002362481694571E-002   7.0405155084067306E-003   6.3159489167188276E-002
  -2.1172319611975479E-002   6.8105316763210078E-003   6.2788438398892643E-002
  -2.0342276742256363E-002   6.5604754535234650E-003   6.2671335532093198E-002
  -1.9512233872537262E-002   6.2903468400145358E-003   6.2808180566790037E-002
  -1.8682191002818163E-002   6.0001458357938353E-003   6.3198973502982925E-002
  -2.7546715998998245E-002   8.5159068111177461E-003   5.9757685883729594E-002
  -2.6475072082300398E-002   8.2216107143020939E-003   5.9399537699641722E-002
  -2.5403428165602565E-002   7.9139633292315964E-003   5.9270643708015103E-002
  -2.4331784248904746E-002   7.5929646559062224E-003   5.9371003908849709E-002
  -2.3260140332206889E-002   7.2586146943260377E-003   5.9700618302145597E-002
  -3.3049108238093469E-002   9.9912981138285673E-003   5.6288209784313023E-002
  -3.1760556983451836E-002   9.6326897522832911E-003   5.5949685286889483E-002
  -3.0472005728810227E-002   9.2674512049398874E-003   5.5815721272892325E-002
  -2.9183454474168605E-002   8.8955824717980737E-003   5.5886317742321417E-002
  -2.7894903219526986E-002   8.5170835528582123E-003   5.6161474695176877E-002
  -3.8509539198980258E-002   1.1466689416539458E-002   5.2751060868938313E-002
  -3.7028774315429822E-002   1.1043768790264516E-002   5.2438881160635845E-002
  -3.5548009431879364E-002   1.0620939080648015E-002   5.2306568226724852E-002
  -3.4067244548328907E-002   1.0198200287689897E-002   5.2354122067205064E-002
  -3.2586479664778470E-002   9.7755524113903453E-003   5.2581542682076758E-002
  -4.3928008881658598E-002   1.2942080719250348E-002   4.9146239137605574E-002
  -4.2279724078234257E-002   1.2454847828245630E-002   4.8867125320880889E-002
  -4.0631439274809958E-002   1.1974426956356268E-002   4.8743184569512682E-002
  -3.8983154471385617E-002   1.1500818103581740E-002   4.8774416883500801E-002
  -3.7334869667961318E-002   1.1034021269922589E-002   4.8960822262845316E-002
  -1.8682191002818163E-002   6.0001458357938353E-003   6.3198973502982925E-002
  -1.7926118730039714E-002   5.7898382350005384E-003   6.3144542162338668E-002
  -1.7170046457261268E-002   5.7593898317731818E-003   6.3463987757787083E-002
  -1.6413974184482823E-002   5.9088006261121331E-003   6.4157310289328334E-002
  -1.5657901911704381E-002   6.2380706180168999E-003   6.5224509756962423E-002
  -2.3260140332206889E-002   7.2586146943260377E-003   5.9700618302145597E-002
  -2.2163414275660754E-002   6.9687260176060362E-003   5.9697216779015377E-002
  -2.1066688219114643E-002   6.7811111988611561E-003   6.0001245887327706E-002
  -1.9969962162568539E-002   6.6957702380919248E-003   6.0612705627082535E-002
  -1.8873236106022394E-002   6.7127031352977595E-003   6.1531595998280009E-002
  -2.7894903219526986E-002   8.5170835528582123E-003   5.6161474695176877E-002
  -2.6523969683863485E-002   8.1476138002114923E-003   5.6131517649970014E-002
  -2.5153036148199963E-002   7.8028325659492276E-003   5.6342544931555633E-002
  -2.3782102612536441E-002   7.4827398500717686E-003   5.6794556539933282E-002
  -2.2411169076872940E-002   7.1873356525786469E-003   5.7487552475103412E-002
  -3.2586479664778470E-002   9.7755524113903453E-003   5.2581542682076758E-002
  -3.1007784954647861E-002   9.3265015828168582E-003   5.2447444775202745E-002
  -2.9429090244517227E-002   8.8245539330372505E-003   5.2487884890470585E-002
  -2.7850395534386618E-002   8.2697094620514753E-003   5.2702863027880451E-002
  -2.6271700824255988E-002   7.6619681698595204E-003   5.3092379187432329E-002
  -3.7334869667961318E-002   1.1034021269922589E-002   4.8960822262845316E-002
  -3.5614860088013886E-002   1.0505389365422474E-002   4.8644998154713237E-002
  -3.3894850508066440E-002   9.8462753001253012E-003   4.8437265764072868E-002
  -3.2174840928118995E-002   9.0566790740314942E-003   4.8337625090924013E-002
  -3.0454831348171563E-002   8.1366006871403940E-003   4.8346076135266980E-002
  -1.5657901911704381E-002   6.2380706180168999E-003   6.5224509756962423E-002
  -1.4706197004583595E-002   6.6906797230049109E-003   6.5977551534744050E-002
  -1.3754492097462791E-002   7.2101078565935811E-003   6.7192518750025160E-002
  -1.2802787190341986E-002   7.7963550187822549E-003   6.8869411402806321E-002
  -1.1851082283221195E-002   8.4494212095718169E-003   7.1008229493086938E-002
  -1.8873236106022394E-002   6.7127031352977595E-003   6.1531595998280009E-002
  -1.7536393025779758E-002   6.7918663675518853E-003   6.1929754655511843E-002
  -1.6199549945537139E-002   6.8932164119268752E-003   6.2636264221487742E-002
  -1.4862706865294518E-002   7.0167532684227742E-003   6.3651124696207664E-002
  -1.3525863785051877E-002   7.1624769370395303E-003   6.4974336079671402E-002
  -2.2411169076872940E-002   7.1873356525786469E-003   5.7487552475103412E-002
  -2.0842762352264156E-002   6.8930530120987765E-003   5.7486195795306130E-002
  -1.9274355627655407E-002   6.5763249672602317E-003   5.7639615495497072E-002
  -1.7705948903046626E-002   6.2371515180630176E-003   5.7947811575676189E-002
  -1.6137542178437870E-002   5.8755326645073547E-003   5.8410784035843988E-002
  -2.6271700824255988E-002   7.6619681698595204E-003   5.3092379187432329E-002
  -2.4625304984036773E-002   6.9942396566454873E-003   5.2646874954126330E-002
  -2.2978909143817540E-002   6.2594335225935015E-003   5.2202572572052991E-002
  -2.1332513303598297E-002   5.4575497677031770E-003   5.1759472041212104E-002
  -1.9686117463379071E-002   4.5885883919751236E-003   5.1317573361603863E-002
  -3.0454831348171563E-002   8.1366006871403940E-003   4.8346076135266980E-002
  -2.8884020921097597E-002   7.0954263011924201E-003   4.7411792131972830E-002
  -2.7313210494023576E-002   5.9425420779268823E-003   4.6325135451155630E-002
  -2.5742400066949535E-002   4.6779480173435584E-003   4.5086106092815409E-002
  -2.4171589639875590E-002   3.3016441194428925E-003   4.3694704056951972E-002
  -5.7150845369329351E-002   0.0000000000000000        3.4703657181718715E-002
  -5.7940493708245139E-002   2.0847479213295037E-003   3.8355896035104850E-002
  -5.8730142047160927E-002   4.1373965620023195E-003   4.2219570892436650E-002
  -5.9519790386076722E-002   6.1579459220184596E-003   4.6294681753714102E-002
  -6.0309438724992517E-002   8.1463960013779049E-003   5.0581228618937213E-002
  -6.5815310410909225E-002   0.0000000000000000        3.7225282967419018E-002
  -6.6622080278509438E-002   2.9136382652318032E-003   4.0846270732862677E-002
  -6.7428850146109637E-002   5.7696450414416751E-003   4.4221579436991836E-002
  -6.8235620013709863E-002   8.5680203286296226E-003   4.7351209079806472E-002
  -6.9042389881310090E-002   1.1308764126795644E-002   5.0235159661306615E-002
  -7.4237603622962195E-002   0.0000000000000000        4.0588565201204241E-002
  -7.5518610084506999E-002   3.7425286091341027E-003   4.4152769670340188E-002
  -7.6799616546051802E-002   7.4018935208810333E-003   4.7014180012901460E-002
  -7.8080623007596606E-002   1.0978094735240789E-002   4.9172796228888052E-002
  -7.9361629469141409E-002   1.4471132252213376E-002   5.0628618318299970E-002
  -8.2417725005488246E-002   0.0000000000000000        4.4793503883074404E-002
  -8.4630083126237793E-002   4.5714189530363996E-003   4.8275392847537374E-002
  -8.6842441246987354E-002   9.0341420003203880E-003   5.0597372620165504E-002
  -8.9054799367736942E-002   1.3388169141851952E-002   5.1759443200958807E-002
  -9.1267157488486503E-002   1.7633500377631110E-002   5.1761604589917264E-002
  -9.0355674558487364E-002   0.0000000000000000        4.9840099013029465E-002
  -9.3956499403701862E-002   5.4003092969387035E-003   5.3214140264454243E-002
  -9.7557324248916347E-002   1.0666390479759747E-002   5.4971157258784001E-002
 -0.10115814909413084        1.5798243548463119E-002   5.5111149996018752E-002
 -0.10475897393934532        2.0795868503048844E-002   5.3634118476158510E-002
  -6.0309438724992517E-002   8.1463960013779049E-003   5.0581228618937213E-002
  -6.0605783739338205E-002   1.0022128556532976E-002   5.1522413342602762E-002
  -6.0902128753683900E-002   1.1704525343936017E-002   5.2254968961054971E-002
  -6.1198473768029601E-002   1.3193586363586975E-002   5.2778895474293902E-002
  -6.1494818782375310E-002   1.4489311615485875E-002   5.3094192882319494E-002
  -6.9042389881310090E-002   1.1308764126795644E-002   5.0235159661306615E-002
  -6.9310822667153771E-002   1.3751946679455911E-002   4.9461183902302933E-002
  -6.9579255452997424E-002   1.5657638230126617E-002   4.8951661705516611E-002
  -6.9847688238841077E-002   1.7025838778807763E-002   4.8706593070947678E-002
  -7.0116121024684758E-002   1.7856548325499336E-002   4.8725977998596078E-002
  -7.9361629469141409E-002   1.4471132252213376E-002   5.0628618318299970E-002
  -7.9129067359052382E-002   1.7481764802378834E-002   4.7795326842389553E-002
  -7.8896505248963328E-002   1.9610751116317233E-002   4.5699571596127170E-002
  -7.8663943138874287E-002   2.0858091194028552E-002   4.4341352579512834E-002
  -7.8431381028785246E-002   2.1223785035512789E-002   4.3720669792546560E-002
  -9.1267157488486503E-002   1.7633500377631110E-002   5.1761604589917264E-002
  -9.0060517815034047E-002   2.1211582925301772E-002   4.6524842162862588E-002
  -8.8853878141581633E-002   2.3563864002507831E-002   4.2498698632886661E-002
  -8.7647238468129177E-002   2.4690343609249345E-002   3.9683173999989461E-002
  -8.6440598794676776E-002   2.4591021745526232E-002   3.8078268264171017E-002
 -0.10475897393934532        2.0795868503048844E-002   5.3634118476158510E-002
 -0.10210517403509883        2.4941401048224690E-002   4.5649729863722087E-002
  -9.9451374130852324E-002   2.7516976888698447E-002   3.9349042815795113E-002
  -9.6797574226605815E-002   2.8522596024470145E-002   3.4732057332377518E-002
  -9.4143774322359319E-002   2.7958258455539703E-002   3.1798773413469317E-002
  -6.1494818782375310E-002   1.4489311615485875E-002   5.3094192882319494E-002
  -6.0171403466321334E-002   1.5493471501244686E-002   5.1677755723090496E-002
  -5.8847988150267372E-002   1.6107836422475322E-002   5.0698384215847277E-002
  -5.7524572834213396E-002   1.6332406379177752E-002   5.0156078360589912E-002
  -5.6201157518159434E-002   1.6167181371352118E-002   5.0050838157318395E-002
  -7.0116121024684758E-002   1.7856548325499336E-002   4.8725977998596078E-002
  -6.8397642620710547E-002   1.8308548195964659E-002   4.7268718856014871E-002
  -6.6679164216736336E-002   1.8540619715966978E-002   4.6164520237288356E-002
  -6.4960685812762112E-002   1.8552762885506346E-002   4.5413382142416490E-002
  -6.3242207408787929E-002   1.8344977704582766E-002   4.5015304571399253E-002
  -7.8431381028785246E-002   2.1223785035512789E-002   4.3720669792546560E-002
  -7.6401844665021951E-002   2.1123624890684613E-002   4.2392455280678393E-002
  -7.4372308301258683E-002   2.0973403009458630E-002   4.1333296164533698E-002
  -7.2342771937495373E-002   2.0773119391834897E-002   4.0543192444112509E-002
  -7.0313235573732119E-002   2.0522774037813343E-002   4.0022144119414765E-002
  -8.6440598794676776E-002   2.4591021745526232E-002   3.8078268264171017E-002
  -8.4184009599255580E-002   2.3938701585404593E-002   3.7048964997080977E-002
  -8.1927420403834370E-002   2.3406186302950327E-002   3.6204711997583301E-002
  -7.9670831208413187E-002   2.2993475898163428E-002   3.5545509265678003E-002
  -7.7414242012992018E-002   2.2700570371043928E-002   3.5071356801364993E-002
  -9.4143774322359319E-002   2.7958258455539703E-002   3.1798773413469317E-002
  -9.1744137423411393E-002   2.6753778280124554E-002   3.1238248005222756E-002
  -8.9344500524463452E-002   2.5838969596441948E-002   3.0778767736437264E-002
  -8.6944863625515498E-002   2.5213832404492015E-002   3.0420332607112917E-002
  -8.4545226726567585E-002   2.4878366704274540E-002   3.0162942617249805E-002
  -5.6201157518159434E-002   1.6167181371352118E-002   5.0050838157318395E-002
  -5.4668571537190618E-002   1.5804462384061149E-002   4.9715780341364674E-002
  -5.3135985556221801E-002   1.5436550402367799E-002   4.9525923300224262E-002
  -5.1603399575252985E-002   1.5063445426272040E-002   4.9481267033897047E-002
  -5.0070813594284169E-002   1.4685147455773734E-002   4.9581811542383170E-002
  -6.3242207408787929E-002   1.8344977704582766E-002   4.5015304571399253E-002
  -6.1551734653451866E-002   1.8004440512900330E-002   4.4637570147955233E-002
  -5.9861261898115775E-002   1.7618327650163287E-002   4.4430408498432543E-002
  -5.8170789142779712E-002   1.7186639116371489E-002   4.4393819622830982E-002
  -5.6480316387443621E-002   1.6709374911525215E-002   4.4527803521150724E-002
  -7.0313235573732119E-002   2.0522774037813343E-002   4.0022144119414765E-002
  -6.8439504044920843E-002   2.0204418641739504E-002   3.9561350411828337E-002
  -6.6565772516109539E-002   1.9800104897958720E-002   3.9296501477271054E-002
  -6.4692040987298235E-002   1.9309832806471118E-002   3.9227597315742886E-002
  -6.2818309458486987E-002   1.8733602367276600E-002   3.9354637927244022E-002
  -7.7414242012992018E-002   2.2700570371043928E-002   3.5071356801364993E-002
  -7.5331879711597549E-002   2.2404396770578681E-002   3.4487121132983772E-002
  -7.3249517410203094E-002   2.1981882145754236E-002   3.4124202236739731E-002
  -7.1167155108808611E-002   2.1433026496570685E-002   3.3982600112632766E-002
  -6.9084792807414155E-002   2.0757829823028005E-002   3.4062314760663112E-002
  -8.4545226726567585E-002   2.4878366704274540E-002   3.0162942617249805E-002
  -8.2228861653482033E-002   2.4604374899417844E-002   2.9414882311421711E-002
  -7.9912496580396425E-002   2.4163659393549627E-002   2.8913510776838625E-002
  -7.7596131507310845E-002   2.3556220186670262E-002   2.8658828013500684E-002
  -7.5279766434225265E-002   2.2782057278779438E-002   2.8650834021407917E-002
  -5.0070813594284169E-002   1.4685147455773734E-002   4.9581811542383170E-002
  -4.8535112416127763E-002   1.4290534933966495E-002   4.9080005212197492E-002
  -4.6999411237971384E-002   1.3868486303943446E-002   4.8840141034672671E-002
  -4.5463710059814977E-002   1.3419001565704749E-002   4.8862219009808687E-002
  -4.3928008881658598E-002   1.2942080719250348E-002   4.9146239137605574E-002
  -5.6480316387443621E-002   1.6709374911525215E-002   4.4527803521150724E-002
  -5.4691213454370044E-002   1.6202344817391801E-002   4.4068270407469967E-002
  -5.2902110521296390E-002   1.5681358615738890E-002   4.3853598650962826E-002
  -5.1113007588222792E-002   1.5146416306566645E-002   4.3883788251629224E-002
  -4.9323904655149159E-002   1.4597517889874956E-002   4.4158839209469225E-002
  -6.2818309458486987E-002   1.8733602367276600E-002   3.9354637927244022E-002
  -6.0792885565983418E-002   1.8114154700817071E-002   3.8950858030764486E-002
  -5.8767461673479827E-002   1.7494230927534386E-002   3.8774858695971248E-002
  -5.6742037780976293E-002   1.6873831047428456E-002   3.8826639922864295E-002
  -5.4716613888472682E-002   1.6252955060499480E-002   3.9106201711443730E-002
  -6.9084792807414155E-002   2.0757829823028005E-002   3.4062314760663112E-002
  -6.6840128750967925E-002   2.0025964584242415E-002   3.3727768082080972E-002
  -6.4595464694521681E-002   1.9307103239329798E-002   3.3603921169697903E-002
  -6.2350800638075438E-002   1.8601245788290338E-002   3.3690774023513871E-002
  -6.0106136581629138E-002   1.7908392231123962E-002   3.3988326643528979E-002
  -7.5279766434225265E-002   2.2782057278779438E-002   2.8650834021407917E-002
  -7.2832943009323609E-002   2.1937774467667689E-002   2.8399000561419502E-002
  -7.0386119584421925E-002   2.1119975551125360E-002   2.8340786072142896E-002
  -6.7939296159520240E-002   2.0328660529152130E-002   2.8476190553578092E-002
  -6.5492472734618584E-002   1.9563829401748611E-002   2.8805214005725110E-002
  -4.3928008881658598E-002   1.2942080719250348E-002   4.9146239137605574E-002
  -4.2279724078234257E-002   1.2454847828245630E-002   4.8867125320880889E-002
  -4.0631439274809958E-002   1.1974426956356268E-002   4.8743184569512682E-002
  -3.8983154471385617E-002   1.1500818103581740E-002   4.8774416883500801E-002
  -3.7334869667961318E-002   1.1034021269922589E-002   4.8960822262845316E-002
  -4.9323904655149159E-002   1.4597517889874956E-002   4.4158839209469225E-002
  -4.7514089820669445E-002   1.4049882494369281E-002   4.3900915983114158E-002
  -4.5704274986189702E-002   1.3518729248755412E-002   4.3810879753513429E-002
  -4.3894460151709946E-002   1.3004058153033141E-002   4.3888730520667107E-002
  -4.2084645317230246E-002   1.2505869207202647E-002   4.4134468284575318E-002
  -5.4716613888472682E-002   1.6252955060499480E-002   3.9106201711443730E-002
  -5.2732555091539485E-002   1.5644917160492905E-002   3.8879139206234578E-002
  -5.0748496294606267E-002   1.5063031541154660E-002   3.8832677629178004E-002
  -4.8764437497673049E-002   1.4507298202484651E-002   3.8966816980273905E-002
  -4.6780378700739797E-002   1.3977717144482760E-002   3.9281557259522232E-002
  -6.0106136581629138E-002   1.7908392231123962E-002   3.3988326643528979E-002
  -5.7935119890844433E-002   1.7239951826616542E-002   3.3801794990242544E-002
  -5.5764103200059666E-002   1.6607333833553856E-002   3.3808578196506546E-002
  -5.3593086509274905E-002   1.6010538251935994E-002   3.4008676262321125E-002
  -5.1422069818490151E-002   1.5449565081762928E-002   3.4402089187686433E-002
  -6.5492472734618584E-002   1.9563829401748611E-002   2.8805214005725110E-002
  -6.3121784218584234E-002   1.8834986492740152E-002   2.8668883335137674E-002
  -6.0751095702549912E-002   1.8151636125953066E-002   2.8738581455498929E-002
  -5.8380407186515534E-002   1.7513778301387509E-002   2.9014308366808711E-002
  -5.6009718670481212E-002   1.6921413019042986E-002   2.9496064069067240E-002
  -3.7334869667961318E-002   1.1034021269922589E-002   4.8960822262845316E-002
  -3.5614860088013886E-002   1.0505389365422474E-002   4.8644998154713237E-002
  -3.3894850508066440E-002   9.8462753001253012E-003   4.8437265764072868E-002
  -3.2174840928118995E-002   9.0566790740314942E-003   4.8337625090924013E-002
  -3.0454831348171563E-002   8.1366006871403940E-003   4.8346076135266980E-002
  -4.2084645317230246E-002   1.2505869207202647E-002   4.4134468284575318E-002
  -4.0267214429130470E-002   1.1960412025884520E-002   4.3741265642031263E-002
  -3.8449783541030721E-002   1.1303936223699462E-002   4.3434813898300076E-002
  -3.6632352652930973E-002   1.0536441800647431E-002   4.3215113053381750E-002
  -3.4814921764831211E-002   9.6579287567286620E-003   4.3082163107276472E-002
  -4.6780378700739797E-002   1.3977717144482760E-002   3.9281557259522232E-002
  -4.4886867323166491E-002   1.3415434686346664E-002   3.8830439622496174E-002
  -4.2993355945593247E-002   1.2761597147273609E-002   3.8444732065604295E-002
  -4.1099844568019961E-002   1.2016204527263642E-002   3.8124434588846588E-002
  -3.9206333190446647E-002   1.1179256826316819E-002   3.7869547192223102E-002
  -5.1422069818490151E-002   1.5449565081762928E-002   3.4402089187686433E-002
  -4.9473818770122024E-002   1.4870457346808787E-002   3.3912520096108227E-002
  -4.7525567721753911E-002   1.4219258070847875E-002   3.3467020265985623E-002
  -4.5577316673385819E-002   1.3495967253879826E-002   3.3065589697318383E-002
  -4.3629065625017630E-002   1.2700584895905032E-002   3.2708228390106772E-002
  -5.6009718670481212E-002   1.6921413019042986E-002   2.9496064069067240E-002
  -5.4028068769997051E-002   1.6325480007270882E-002   2.8987507062867235E-002
  -5.2046418869512834E-002   1.5676918994421959E-002   2.8501678499443878E-002
  -5.0064768969028631E-002   1.4975729980495855E-002   2.8038578378797280E-002
  -4.8083119068544455E-002   1.4221912965493133E-002   2.7598206700927386E-002
  -3.0454831348171563E-002   8.1366006871403940E-003   4.8346076135266980E-002
  -2.8884020921097597E-002   7.0954263011924201E-003   4.7411792131972830E-002
  -2.7313210494023576E-002   5.9425420779268823E-003   4.6325135451155630E-002
  -2.5742400066949535E-002   4.6779480173435584E-003   4.5086106092815409E-002
  -2.4171589639875590E-002   3.3016441194428925E-003   4.3694704056951972E-002
  -3.4814921764831211E-002   9.6579287567286620E-003   4.3082163107276472E-002
  -3.3258894311896138E-002   8.7080747750447884E-003   4.2182461252420533E-002
  -3.1702866858961037E-002   7.7265575386977758E-003   4.1405566126809734E-002
  -3.0146839406025958E-002   6.7133770476874022E-003   4.0751477730444199E-002
  -2.8590811953090850E-002   5.6685333020138895E-003   4.0220196063324387E-002
  -3.9206333190446647E-002   1.1179256826316819E-002   3.7869547192223102E-002
  -3.7389909304882042E-002   1.0320723248897101E-002   3.7084474068459578E-002
  -3.5573485419317458E-002   9.5105729994686694E-003   3.6697387080709701E-002
  -3.3757061533752804E-002   8.7488060780311905E-003   3.6708286228973583E-002
  -3.1940637648188289E-002   8.0354224845849975E-003   3.7117171513251057E-002
  -4.3629065625017630E-002   1.2700584895905032E-002   3.2708228390106772E-002
  -4.1277065900055261E-002   1.1933371722749497E-002   3.2117830580090004E-002
  -3.8925066175092789E-002   1.1294588460239674E-002   3.2200598312855350E-002
  -3.6573066450130330E-002   1.0784235108375118E-002   3.2956531588402581E-002
  -3.4221066725167934E-002   1.0402311667156050E-002   3.4385630406732162E-002
  -4.8083119068544455E-002   1.4221912965493133E-002   2.7598206700927386E-002
  -4.4920364097415788E-002   1.3546020196601782E-002   2.7282530787311798E-002
  -4.1757609126287093E-002   1.3078603921010595E-002   2.7915199823246695E-002
  -3.8594854155158301E-002   1.2819664138718830E-002   2.9496213808731908E-002
  -3.5432099184029675E-002   1.2769200849727103E-002   3.2025572743767716E-002
  -9.0355674558487364E-002   0.0000000000000000        4.9840099013029465E-002
  -9.3956499403701862E-002   5.4003092969387035E-003   5.3214140264454243E-002
  -9.7557324248916347E-002   1.0666390479759747E-002   5.4971157258784001E-002
 -0.10115814909413084        1.5798243548463119E-002   5.5111149996018752E-002
 -0.10475897393934532        2.0795868503048844E-002   5.3634118476158510E-002
 -0.10328870792847338        0.0000000000000000        5.8662683645212182E-002
 -0.10682544506713453        1.0880866097010703E-002   5.2121503526368636E-002
 -0.11036218220579570        1.9167972567307057E-002   4.7325523077726771E-002
 -0.11389891934445684        2.4861319410889045E-002   4.4274742299286567E-002
 -0.11743565648311799        2.7960906627756677E-002   4.2969161191048065E-002
 -0.12645408076196002        0.0000000000000000        7.4195590833765229E-002
 -0.12656450626677115        1.6361422897082707E-002   5.5279657832056676E-002
 -0.12667493177158229        2.7669554654854364E-002   4.1471148427846480E-002
 -0.12678535727639342        3.3924395273314978E-002   3.2770062621134660E-002
 -0.12689578278120456        3.5125944752464541E-002   2.9176400411921197E-002
 -0.15985179305894734        0.0000000000000000        9.6438820578688633E-002
 -0.15317368300261178        2.1841979697154710E-002   6.2688603181518379E-002
 -0.14649557294627619        3.6171136742401674E-002   3.7408033309143163E-002
 -0.13981746288994060        4.2987471135740904E-002   2.0597110961563032E-002
 -0.13313935283360503        4.2290982877172374E-002   1.2255836138777912E-002
 -0.20348184481943529        0.0000000000000000       0.12539237287998239     
 -0.18665297527465632        2.7322536497226706E-002   7.4348339574753730E-002
 -0.16982410572987736        4.4672718829948971E-002   3.5136177721616826E-002
 -0.15299523618509839        5.2050546998166823E-002   7.7558873205716417E-003
 -0.13616636664031945        4.9456021001880207E-002  -7.7925316283818519E-003
 -0.10475897393934532        2.0795868503048844E-002   5.3634118476158510E-002
 -0.10210517403509883        2.4941401048224690E-002   4.5649729863722087E-002
  -9.9451374130852324E-002   2.7516976888698447E-002   3.9349042815795113E-002
  -9.6797574226605815E-002   2.8522596024470145E-002   3.4732057332377518E-002
  -9.4143774322359319E-002   2.7958258455539703E-002   3.1798773413469317E-002
 -0.11743565648311799        2.7960906627756677E-002   4.2969161191048065E-002
 -0.11348377711016459        2.9436851856162662E-002   3.6703966201039669E-002
 -0.10953189773721117        3.0259272734359577E-002   3.1351228583935714E-002
 -0.10558001836425777        3.0428169262347506E-002   2.6910948339736136E-002
 -0.10162813899130438        2.9943541440126460E-002   2.3383125468440902E-002
 -0.12689578278120456        3.5125944752464541E-002   2.9176400411921197E-002
 -0.12241706813114930        3.3932302664100591E-002   2.5546831398833927E-002
 -0.11793835348109399        3.3001568580020728E-002   2.2058475567046022E-002
 -0.11345963883103873        3.2333742500224916E-002   1.8711332916557504E-002
 -0.10898092418098343        3.1928824424713162E-002   1.5505403447368334E-002
 -0.13313935283360503        4.2290982877172374E-002   1.2255836138777912E-002
 -0.12890504709805292        3.8427753472038514E-002   1.2178325457104828E-002
 -0.12467074136250074        3.5743864425681865E-002   1.1470783765126126E-002
 -0.12043643562694861        3.4239315738102322E-002   1.0133211062841723E-002
 -0.11620212989139647        3.3914107409299933E-002   8.1656073502517010E-003
 -0.13616636664031945        4.9456021001880207E-002  -7.7925316283818519E-003
 -0.13294771401087546        4.2923204279976521E-002  -3.4015516241476459E-003
 -0.12972906138143148        3.8486160271342988E-002  -4.1184682182410573E-004
 -0.12651040875198749        3.6144888975979700E-002   1.1765827785886604E-003
 -0.12329175612254353        3.5899390393886649E-002   1.3637371770908735E-003
  -9.4143774322359319E-002   2.7958258455539703E-002   3.1798773413469317E-002
  -9.1744137423411393E-002   2.6753778280124554E-002   3.1238248005222756E-002
  -8.9344500524463452E-002   2.5838969596441948E-002   3.0778767736437264E-002
  -8.6944863625515498E-002   2.5213832404492015E-002   3.0420332607112917E-002
  -8.4545226726567585E-002   2.4878366704274540E-002   3.0162942617249805E-002
 -0.10162813899130438        2.9943541440126460E-002   2.3383125468440902E-002
  -9.9123202096373472E-002   2.9163958995890294E-002   2.3135077694937733E-002
  -9.6618265201442580E-002   2.8447991657832968E-002   2.2996584773939427E-002
  -9.4113328306511729E-002   2.7795639425954428E-002   2.2967646705445797E-002
  -9.1608391411580795E-002   2.7206902300254701E-002   2.3048263489456960E-002
 -0.10898092418098343        3.1928824424713162E-002   1.5505403447368334E-002
 -0.10636217757702601        3.1574139711656062E-002   1.5343776923054992E-002
 -0.10374343097306858        3.1057013719223928E-002   1.5300214964289953E-002
 -0.10112468436911112        3.0377446447416842E-002   1.5374717571073207E-002
  -9.8505937765153734E-002   2.9535437896234848E-002   1.5567284743404901E-002
 -0.11620212989139647        3.3914107409299933E-002   8.1656073502517010E-003
 -0.11346106386536892        3.3984320427421749E-002   7.8643456895743039E-003
 -0.11071999783934136        3.3666035780614868E-002   7.6896583074888549E-003
 -0.10797893181331375        3.2959253468879256E-002   7.6415452039953081E-003
 -0.10523786578728624        3.1863973492214946E-002   7.7200063790937180E-003
 -0.12329175612254353        3.5899390393886649E-002   1.3637371770908735E-003
 -0.12041986096140225        3.6394501143187541E-002   6.9678399449568662E-004
 -0.11754796580026093        3.6275057842005860E-002   1.6491480353605925E-004
 -0.11467607063911961        3.5541060490341711E-002  -2.3187039578804330E-004
 -0.11180417547797833        3.4192509088195100E-002  -4.9357160347668350E-004
  -8.4545226726567585E-002   2.4878366704274540E-002   3.0162942617249805E-002
  -8.2228861653482033E-002   2.4604374899417844E-002   2.9414882311421711E-002
  -7.9912496580396425E-002   2.4163659393549627E-002   2.8913510776838625E-002
  -7.7596131507310845E-002   2.3556220186670262E-002   2.8658828013500684E-002
  -7.5279766434225265E-002   2.2782057278779438E-002   2.8650834021407917E-002
  -9.1608391411580795E-002   2.7206902300254701E-002   2.3048263489456960E-002
  -8.9044684197485374E-002   2.6619065442407303E-002   2.2352205749091220E-002
  -8.6480976983389968E-002   2.5969414014085816E-002   2.1904143519500090E-002
  -8.3917269769294547E-002   2.5257948015290098E-002   2.1704076800683546E-002
  -8.1353562555199044E-002   2.4484667446020292E-002   2.1752005592641718E-002
  -9.8505937765153734E-002   2.9535437896234848E-002   1.5567284743404901E-002
  -9.5693581670518849E-002   2.8633755985396879E-002   1.5028138699038757E-002
  -9.2881225575884019E-002   2.7775168634622031E-002   1.4738294904976738E-002
  -9.0068869481249203E-002   2.6959675843910021E-002   1.4697753361218723E-002
  -8.7256513386614318E-002   2.6187277613260992E-002   1.4906514067765129E-002
 -0.10523786578728624        3.1863973492214946E-002   7.7200063790937180E-003
 -0.10217555407258247        3.0648446528386383E-002   7.4426811612641761E-003
  -9.9113242357878717E-002   2.9580923255158122E-002   7.4159649332686175E-003
  -9.6050930643174950E-002   2.8661403672529898E-002   7.6398576951064055E-003
  -9.2988618928471184E-002   2.7889887780501880E-002   8.1143594467780796E-003
 -0.11180417547797833        3.4192509088195100E-002  -4.9357160347668350E-004
 -0.10849060140367611        3.2663137071375969E-002  -4.0416686423225268E-004
 -0.10517702732937395        3.1386677875694338E-002  -6.2846395624441276E-005
 -0.10186345325507176        3.0363131501149793E-002   5.3038980234616437E-004
  -9.8549879180769573E-002   2.9592497947742658E-002   1.3755417296804073E-003
  -7.5279766434225265E-002   2.2782057278779438E-002   2.8650834021407917E-002
  -7.2832943009323609E-002   2.1937774467667689E-002   2.8399000561419502E-002
  -7.0386119584421925E-002   2.1119975551125360E-002   2.8340786072142896E-002
  -6.7939296159520240E-002   2.0328660529152130E-002   2.8476190553578092E-002
  -6.5492472734618584E-002   1.9563829401748611E-002   2.8805214005725110E-002
  -8.1353562555199044E-002   2.4484667446020292E-002   2.1752005592641718E-002
  -7.8752812557424556E-002   2.3678026904582081E-002   2.1642114284726358E-002
  -7.6152062559650097E-002   2.2866480989281582E-002   2.1646457151844760E-002
  -7.3551312561875595E-002   2.2050029700118563E-002   2.1765034193997047E-002
  -7.0950562564101136E-002   2.1228673037093249E-002   2.1997845411183020E-002
  -8.7256513386614318E-002   2.6187277613260992E-002   1.4906514067765129E-002
  -8.4581221611645024E-002   2.5418279341496618E-002   1.4907175643490901E-002
  -8.1905929836675731E-002   2.4612986427437911E-002   1.4942686598572581E-002
  -7.9230638061706438E-002   2.3771398871084908E-002   1.5013046933010149E-002
  -7.6555346286737075E-002   2.2893516672437886E-002   1.5118256646803468E-002
  -9.2988618928471184E-002   2.7889887780501880E-002   8.1143594467780796E-003
  -9.0318170171985054E-002   2.7158531778411054E-002   8.1941846377134343E-003
  -8.7647721415498800E-002   2.6359491865594380E-002   8.2294744123264270E-003
  -8.4977272659012573E-002   2.5492768042051243E-002   8.2202287706173039E-003
  -8.2306823902526388E-002   2.4558360307782745E-002   8.1664477125862819E-003
  -9.8549879180769573E-002   2.9592497947742658E-002   1.3755417296804073E-003
  -9.5963658238444494E-002   2.8898784215325379E-002   1.5031412673933986E-003
  -9.3377437296119331E-002   2.8105997303750657E-002   1.5068205931061118E-003
  -9.0791216353794182E-002   2.7214137213017582E-002   1.3865797068188454E-003
  -8.8204995411469089E-002   2.6223203943127271E-002   1.1424186085315369E-003
  -6.5492472734618584E-002   1.9563829401748611E-002   2.8805214005725110E-002
  -6.3121784218584234E-002   1.8834986492740152E-002   2.8668883335137674E-002
  -6.0751095702549912E-002   1.8151636125953066E-002   2.8738581455498929E-002
  -5.8380407186515534E-002   1.7513778301387509E-002   2.9014308366808711E-002
  -5.6009718670481212E-002   1.6921413019042986E-002   2.9496064069067240E-002
  -7.0950562564101136E-002   2.1228673037093249E-002   2.1997845411183020E-002
  -6.8369568401352485E-002   2.0432611022365585E-002   2.1769591309547490E-002
  -6.5788574238603875E-002   1.9692043678095641E-002   2.1755919710391966E-002
  -6.3207580075855252E-002   1.9006971004283352E-002   2.1956830613716449E-002
  -6.0626585913106587E-002   1.8377393000928999E-002   2.2372324019520801E-002
  -7.6555346286737075E-002   2.2893516672437886E-002   1.5118256646803468E-002
  -7.3755492765742753E-002   2.2030235551991115E-002   1.4808081242356108E-002
  -7.0955639244748459E-002   2.1232451230238099E-002   1.4721042051920374E-002
  -6.8155785723754123E-002   2.0500163707179303E-002   1.4857139075495674E-002
  -6.5355932202759759E-002   1.9833372982814873E-002   1.5216372313082552E-002
  -8.2306823902526388E-002   2.4558360307782745E-002   8.1664477125862819E-003
  -7.9279557311754970E-002   2.3627860081616318E-002   7.7843531335637685E-003
  -7.6252290720983634E-002   2.2772858782380476E-002   7.6339484800837434E-003
  -7.3225024130212299E-002   2.1993356410075424E-002   7.7152337521467747E-003
  -7.0197757539440894E-002   2.1289352964700706E-002   8.0282089497523447E-003
  -8.8204995411469089E-002   2.6223203943127271E-002   1.1424186085315369E-003
  -8.4941762039389246E-002   2.5225484611241966E-002   6.9840698316997463E-004
  -8.1678528667309513E-002   2.4313266334523048E-002   4.9463899488287610E-004
  -7.8415295295229726E-002   2.3486549112971246E-002   5.3111464366980762E-004
  -7.5152061923149938E-002   2.2745332946586649E-002   8.0783392953054367E-004
  -5.6009718670481212E-002   1.6921413019042986E-002   2.9496064069067240E-002
  -5.4028068769997051E-002   1.6325480007270882E-002   2.8987507062867235E-002
  -5.2046418869512834E-002   1.5676918994421959E-002   2.8501678499443878E-002
  -5.0064768969028631E-002   1.4975729980495855E-002   2.8038578378797280E-002
  -4.8083119068544455E-002   1.4221912965493133E-002   2.7598206700927386E-002
  -6.0626585913106587E-002   1.8377393000928999E-002   2.2372324019520801E-002
  -5.8507582399422178E-002   1.7736409583521823E-002   2.1800446386896294E-002
  -5.6388578885737707E-002   1.7017120667551316E-002   2.1480547537895647E-002
  -5.4269575372053319E-002   1.6219526253017612E-002   2.1412627472518826E-002
  -5.2150571858368883E-002   1.5343626339920646E-002   2.1596686190765602E-002
  -6.5355932202759759E-002   1.9833372982814873E-002   1.5216372313082552E-002
  -6.2870324735028099E-002   1.9147339159772639E-002   1.4555496556547337E-002
  -6.0384717267296377E-002   1.8357322340680791E-002   1.4375849924482945E-002
  -5.7899109799564655E-002   1.7463322525539428E-002   1.4677432416889267E-002
  -5.5413502331832939E-002   1.6465339714348215E-002   1.5460244033766612E-002
  -7.0197757539440894E-002   2.1289352964700706E-002   8.0282089497523447E-003
  -6.7116295776814841E-002   2.0558268736023462E-002   7.2526575718200800E-003
  -6.4034834014188774E-002   1.9697524013810374E-002   7.1875856592055077E-003
  -6.0953372251562686E-002   1.8707118798061102E-002   7.8329932119089070E-003
  -5.7871910488936640E-002   1.7587053088775700E-002   9.1888802299301756E-003
  -7.5152061923149938E-002   2.2745332946586649E-002   8.0783392953054367E-004
  -7.1245495524782432E-002   2.1969198312274507E-002  -1.0807056728534548E-004
  -6.7338929126414926E-002   2.1037725686939956E-002  -8.4245257936488294E-005
  -6.3432362728047448E-002   1.9950915070582803E-002   8.7930985757733726E-004
  -5.9525796329679914E-002   1.8708766463203186E-002   2.7825947792564643E-003
  -4.8083119068544455E-002   1.4221912965493133E-002   2.7598206700927386E-002
  -4.4920364097415788E-002   1.3546020196601782E-002   2.7282530787311798E-002
  -4.1757609126287093E-002   1.3078603921010595E-002   2.7915199823246695E-002
  -3.8594854155158301E-002   1.2819664138718830E-002   2.9496213808731908E-002
  -3.5432099184029675E-002   1.2769200849727103E-002   3.2025572743767716E-002
  -5.2150571858368883E-002   1.5343626339920646E-002   2.1596686190765602E-002
  -4.8496059004255784E-002   1.4506511698048646E-002   2.1811121794100802E-002
  -4.4841546150142755E-002   1.3825273097189256E-002   2.2060728213854075E-002
  -4.1187033296029726E-002   1.3299910537343078E-002   2.2345505450025810E-002
  -3.7532520441916628E-002   1.2930424018509634E-002   2.2665453502615951E-002
  -5.5413502331832939E-002   1.6465339714348215E-002   1.5460244033766612E-002
  -5.2180405727867654E-002   1.5467003199495122E-002   1.6152190701765420E-002
  -4.8947309123902404E-002   1.4571942273368180E-002   1.5966134053050626E-002
  -4.5714212519937042E-002   1.3780156935967128E-002   1.4902074087621779E-002
  -4.2481115915971757E-002   1.3091647187291944E-002   1.2960010805478817E-002
  -5.7871910488936640E-002   1.7587053088775700E-002   9.1888802299301756E-003
  -5.5973404268251176E-002   1.6427494700941736E-002   1.0305737510305953E-002
  -5.4074898047565850E-002   1.5318611449546916E-002   9.6314173408353979E-003
  -5.2176391826880518E-002   1.4260403334591278E-002   7.1659197215190196E-003
  -5.0277885606195019E-002   1.3252870356074475E-002   2.9092446523566462E-003
  -5.9525796329679914E-002   1.8708766463203186E-002   2.7825947792564643E-003
  -5.9875054625406543E-002   1.7387986202388572E-002   4.2717622197218641E-003
  -6.0224312921133227E-002   1.6065280625725514E-002   3.0565780772092155E-003
  -6.0573571216860023E-002   1.4740649733215309E-002  -8.6295764828130117E-004
  -6.0922829512586540E-002   1.3414093524856785E-002  -7.4868449567504491E-003
 </DataArray>
 </PointData>
 </Piece>
 <Piece  NumberOfPoints="          1600 "  NumberOfCells="         1024 ">
 <Points>
 <DataArray  type="Float64" NumberOfComponents="3"  format="ascii" >
  0.50000000000000000        0.0000000000000000        0.0000000000000000     
  0.53125000000000000        0.0000000000000000        0.0000000000000000     
  0.56250000000000000        0.0000000000000000        0.0000000000000000     
  0.59375000000000000        0.0000000000000000        0.0000000000000000     
  0.62500000000000000        0.0000000000000000        0.0000000000000000     
  0.50000000000000000        3.1250000000000000E-002   0.0000000000000000     
  0.53125000000000000        3.1250000000000000E-002   0.0000000000000000     
  0.56250000000000000        3.1250000000000000E-002   0.0000000000000000     
  0.59375000000000000        3.1250000000000000E-002   0.0000000000000000     
  0.62500000000000000        3.1250000000000000E-002   0.0000000000000000     
  0.50000000000000000        6.2500000000000000E-002   0.0000000000000000     
  0.53125000000000000        6.2500000000000000E-002   0.0000000000000000     
  0.56250000000000000        6.2500000000000000E-002   0.0000000000000000     
  0.59375000000000000        6.2500000000000000E-002   0.0000000000000000     
  0.62500000000000000        6.2500000000000000E-002   0.0000000000000000     
  0.50000000000000000        9.3750000000000000E-002   0.0000000000000000     
  0.53125000000000000        9.3750000000000000E-002   0.0000000000000000     
  0.56250000000000000        9.3750000000000000E-002   0.0000000000000000     
  0.59375000000000000        9.3750000000000000E-002   0.0000000000000000     
  0.62500000000000000        9.3750000000000000E-002   0.0000000000000000     
  0.50000000000000000       0.12500000000000000        0.0000000000000000     
  0.53125000000000000       0.12500000000000000        0.0000000000000000     
  0.56250000000000000       0.12500000000000000        0.0000000000000000     
  0.59375000000000000       0.12500000000000000        0.0000000000000000     
  0.62500000000000000       0.12500000000000000        0.0000000000000000     
  0.62500000000000000        0.0000000000000000        0.0000000000000000     
  0.65625000000000000        0.0000000000000000        0.0000000000000000     
  0.68750000000000000        0.0000000000000000        0.0000000000000000     
  0.71875000000000000        0.0000000000000000        0.0000000000000000     
  0.75000000000000000        0.0000000000000000        0.0000000000000000     
  0.62500000000000000        3.1250000000000000E-002   0.0000000000000000     
  0.65625000000000000        3.1250000000000000E-002   0.0000000000000000     
  0.68750000000000000        3.1250000000000000E-002   0.0000000000000000     
  0.71875000000000000        3.1250000000000000E-002   0.0000000000000000     
  0.75000000000000000        3.1250000000000000E-002   0.0000000000000000     
  0.62500000000000000        6.2500000000000000E-002   0.0000000000000000     
  0.65625000000000000        6.2500000000000000E-002   0.0000000000000000     
  0.68750000000000000        6.2500000000000000E-002   0.0000000000000000     
  0.71875000000000000        6.2500000000000000E-002   0.0000000000000000     
  0.75000000000000000        6.2500000000000000E-002   0.0000000000000000     
  0.62500000000000000        9.3750000000000000E-002   0.0000000000000000     
  0.65625000000000000        9.3750000000000000E-002   0.0000000000000000     
  0.68750000000000000        9.3750000000000000E-002   0.0000000000000000     
  0.71875000000000000        9.3750000000000000E-002   0.0000000000000000     
  0.75000000000000000        9.3750000000000000E-002   0.0000000000000000     
  0.62500000000000000       0.12500000000000000        0.0000000000000000     
  0.65625000000000000       0.12500000000000000        0.0000000000000000     
  0.68750000000000000       0.12500000000000000        0.0000000000000000     
  0.71875000000000000       0.12500000000000000        0.0000000000000000     
  0.75000000000000000       0.12500000000000000        0.0000000000000000     
  0.75000000000000000        0.0000000000000000        0.0000000000000000     
  0.78125000000000000        0.0000000000000000        0.0000000000000000     
  0.81250000000000000        0.0000000000000000        0.0000000000000000     
  0.84375000000000000        0.0000000000000000        0.0000000000000000     
  0.87500000000000000        0.0000000000000000        0.0000000000000000     
  0.75000000000000000        3.1250000000000000E-002   0.0000000000000000     
  0.78125000000000000        3.1250000000000000E-002   0.0000000000000000     
  0.81250000000000000        3.1250000000000000E-002   0.0000000000000000     
  0.84375000000000000        3.1250000000000000E-002   0.0000000000000000     
  0.87500000000000000        3.1250000000000000E-002   0.0000000000000000     
  0.75000000000000000        6.2500000000000000E-002   0.0000000000000000     
  0.78125000000000000        6.2500000000000000E-002   0.0000000000000000     
  0.81250000000000000        6.2500000000000000E-002   0.0000000000000000     
  0.84375000000000000        6.2500000000000000E-002   0.0000000000000000     
  0.87500000000000000        6.2500000000000000E-002   0.0000000000000000     
  0.75000000000000000        9.3750000000000000E-002   0.0000000000000000     
  0.78125000000000000        9.3750000000000000E-002   0.0000000000000000     
  0.81250000000000000        9.3750000000000000E-002   0.0000000000000000     
  0.84375000000000000        9.3750000000000000E-002   0.0000000000000000     
  0.87500000000000000        9.3750000000000000E-002   0.0000000000000000     
  0.75000000000000000       0.12500000000000000        0.0000000000000000     
  0.78125000000000000       0.12500000000000000        0.0000000000000000     
  0.81250000000000000       0.12500000000000000        0.0000000000000000     
  0.84375000000000000       0.12500000000000000        0.0000000000000000     
  0.87500000000000000       0.12500000000000000        0.0000000000000000     
  0.87500000000000000        0.0000000000000000        0.0000000000000000     
  0.90625000000000000        0.0000000000000000        0.0000000000000000     
  0.93750000000000000        0.0000000000000000        0.0000000000000000     
  0.96875000000000000        0.0000000000000000        0.0000000000000000     
   1.0000000000000000        0.0000000000000000        0.0000000000000000     
  0.87500000000000000        3.1250000000000000E-002   0.0000000000000000     
  0.90625000000000000        3.1250000000000000E-002   0.0000000000000000     
  0.93750000000000000        3.1250000000000000E-002   0.0000000000000000     
  0.96875000000000000        3.1250000000000000E-002   0.0000000000000000     
   1.0000000000000000        3.1250000000000000E-002   0.0000000000000000     
  0.87500000000000000        6.2500000000000000E-002   0.0000000000000000     
  0.90625000000000000        6.2500000000000000E-002   0.0000000000000000     
  0.93750000000000000        6.2500000000000000E-002   0.0000000000000000     
  0.96875000000000000        6.2500000000000000E-002   0.0000000000000000     
   1.0000000000000000        6.2500000000000000E-002   0.0000000000000000     
  0.87500000000000000        9.3750000000000000E-002   0.0000000000000000     
  0.90625000000000000        9.3750000000000000E-002   0.0000000000000000     
  0.93750000000000000        9.3750000000000000E-002   0.0000000000000000     
  0.96875000000000000        9.3750000000000000E-002   0.0000000000000000     
   1.0000000000000000        9.3750000000000000E-002   0.0000000000000000     
  0.87500000000000000       0.12500000000000000        0.0000000000000000     
  0.90625000000000000       0.12500000000000000        0.0000000000000000     
  0.93750000000000000       0.12500000000000000        0.0000000000000000     
  0.96875000000000000       0.12500000000000000        0.0000000000000000     
   1.0000000000000000       0.12500000000000000        0.0000000000000000     
   1.0000000000000000        0.0000000000000000        0.0000000000000000     
   1.0312500000000000        0.0000000000000000        0.0000000000000000     
   1.0625000000000000        0.0000000000000000        0.0000000000000000     
   1.0937500000000000        0.0000000000000000        0.0000000000000000     
   1.1250000000000000        0.0000000000000000        0.0000000000000000     
   1.0000000000000000        3.1250000000000000E-002   0.0000000000000000     
   1.0312500000000000        3.1250000000000000E-002   0.0000000000000000     
   1.0625000000000000        3.1250000000000000E-002   0.0000000000000000     
   1.0937500000000000        3.1250000000000000E-002   0.0000000000000000     
   1.1250000000000000        3.1250000000000000E-002   0.0000000000000000     
   1.0000000000000000        6.2500000000000000E-002   0.0000000000000000     
   1.0312500000000000        6.2500000000000000E-002   0.0000000000000000     
   1.0625000000000000        6.2500000000000000E-002   0.0000000000000000     
   1.0937500000000000        6.2500000000000000E-002   0.0000000000000000     
   1.1250000000000000        6.2500000000000000E-002   0.0000000000000000     
   1.0000000000000000        9.3750000000000000E-002   0.0000000000000000     
   1.0312500000000000        9.3750000000000000E-002   0.0000000000000000     
   1.0625000000000000        9.3750000000000000E-002   0.0000000000000000     
   1.0937500000000000        9.3750000000000000E-002   0.0000000000000000     
   1.1250000000000000        9.3750000000000000E-002   0.0000000000000000     
   1.0000000000000000       0.12500000000000000        0.0000000000000000     
   1.0312500000000000       0.12500000000000000        0.0000000000000000     
   1.0625000000000000       0.12500000000000000        0.0000000000000000     
   1.0937500000000000       0.12500000000000000        0.0000000000000000     
   1.1250000000000000       0.12500000000000000        0.0000000000000000     
   1.1250000000000000        0.0000000000000000        0.0000000000000000     
   1.1562500000000000        0.0000000000000000        0.0000000000000000     
   1.1875000000000000        0.0000000000000000        0.0000000000000000     
   1.2187500000000000        0.0000000000000000        0.0000000000000000     
   1.2500000000000000        0.0000000000000000        0.0000000000000000     
   1.1250000000000000        3.1250000000000000E-002   0.0000000000000000     
   1.1562500000000000        3.1250000000000000E-002   0.0000000000000000     
   1.1875000000000000        3.1250000000000000E-002   0.0000000000000000     
   1.2187500000000000        3.1250000000000000E-002   0.0000000000000000     
   1.2500000000000000        3.1250000000000000E-002   0.0000000000000000     
   1.1250000000000000        6.2500000000000000E-002   0.0000000000000000     
   1.1562500000000000        6.2500000000000000E-002   0.0000000000000000     
   1.1875000000000000        6.2500000000000000E-002   0.0000000000000000     
   1.2187500000000000        6.2500000000000000E-002   0.0000000000000000     
   1.2500000000000000        6.2500000000000000E-002   0.0000000000000000     
   1.1250000000000000        9.3750000000000000E-002   0.0000000000000000     
   1.1562500000000000        9.3750000000000000E-002   0.0000000000000000     
   1.1875000000000000        9.3750000000000000E-002   0.0000000000000000     
   1.2187500000000000        9.3750000000000000E-002   0.0000000000000000     
   1.2500000000000000        9.3750000000000000E-002   0.0000000000000000     
   1.1250000000000000       0.12500000000000000        0.0000000000000000     
   1.1562500000000000       0.12500000000000000        0.0000000000000000     
   1.1875000000000000       0.12500000000000000        0.0000000000000000     
   1.2187500000000000       0.12500000000000000        0.0000000000000000     
   1.2500000000000000       0.12500000000000000        0.0000000000000000     
   1.2500000000000000        0.0000000000000000        0.0000000000000000     
   1.2812500000000000        0.0000000000000000        0.0000000000000000     
   1.3125000000000000        0.0000000000000000        0.0000000000000000     
   1.3437500000000000        0.0000000000000000        0.0000000000000000     
   1.3750000000000000        0.0000000000000000        0.0000000000000000     
   1.2500000000000000        3.1250000000000000E-002   0.0000000000000000     
   1.2812500000000000        3.1250000000000000E-002   0.0000000000000000     
   1.3125000000000000        3.1250000000000000E-002   0.0000000000000000     
   1.3437500000000000        3.1250000000000000E-002   0.0000000000000000     
   1.3750000000000000        3.1250000000000000E-002   0.0000000000000000     
   1.2500000000000000        6.2500000000000000E-002   0.0000000000000000     
   1.2812500000000000        6.2500000000000000E-002   0.0000000000000000     
   1.3125000000000000        6.2500000000000000E-002   0.0000000000000000     
   1.3437500000000000        6.2500000000000000E-002   0.0000000000000000     
   1.3750000000000000        6.2500000000000000E-002   0.0000000000000000     
   1.2500000000000000        9.3750000000000000E-002   0.0000000000000000     
   1.2812500000000000        9.3750000000000000E-002   0.0000000000000000     
   1.3125000000000000        9.3750000000000000E-002   0.0000000000000000     
   1.3437500000000000        9.3750000000000000E-002   0.0000000000000000     
   1.3750000000000000        9.3750000000000000E-002   0.0000000000000000     
   1.2500000000000000       0.12500000000000000        0.0000000000000000     
   1.2812500000000000       0.12500000000000000        0.0000000000000000     
   1.3125000000000000       0.12500000000000000        0.0000000000000000     
   1.3437500000000000       0.12500000000000000        0.0000000000000000     
   1.3750000000000000       0.12500000000000000        0.0000000000000000     
   1.3750000000000000        0.0000000000000000        0.0000000000000000     
   1.4062500000000000        0.0000000000000000        0.0000000000000000     
   1.4375000000000000        0.0000000000000000        0.0000000000000000     
   1.4687500000000000        0.0000000000000000        0.0000000000000000     
   1.5000000000000000        0.0000000000000000        0.0000000000000000     
   1.3750000000000000        3.1250000000000000E-002   0.0000000000000000     
   1.4062500000000000        3.1250000000000000E-002   0.0000000000000000     
   1.4375000000000000        3.1250000000000000E-002   0.0000000000000000     
   1.4687500000000000        3.1250000000000000E-002   0.0000000000000000     
   1.5000000000000000        3.1250000000000000E-002   0.0000000000000000     
   1.3750000000000000        6.2500000000000000E-002   0.0000000000000000     
   1.4062500000000000        6.2500000000000000E-002   0.0000000000000000     
   1.4375000000000000        6.2500000000000000E-002   0.0000000000000000     
   1.4687500000000000        6.2500000000000000E-002   0.0000000000000000     
   1.5000000000000000        6.2500000000000000E-002   0.0000000000000000     
   1.3750000000000000        9.3750000000000000E-002   0.0000000000000000     
   1.4062500000000000        9.3750000000000000E-002   0.0000000000000000     
   1.4375000000000000        9.3750000000000000E-002   0.0000000000000000     
   1.4687500000000000        9.3750000000000000E-002   0.0000000000000000     
   1.5000000000000000        9.3750000000000000E-002   0.0000000000000000     
   1.3750000000000000       0.12500000000000000        0.0000000000000000     
   1.4062500000000000       0.12500000000000000        0.0000000000000000     
   1.4375000000000000       0.12500000000000000        0.0000000000000000     
   1.4687500000000000       0.12500000000000000        0.0000000000000000     
   1.5000000000000000       0.12500000000000000        0.0000000000000000     
  0.50000000000000000       0.12500000000000000        0.0000000000000000     
  0.53125000000000000       0.12500000000000000        0.0000000000000000     
  0.56250000000000000       0.12500000000000000        0.0000000000000000     
  0.59375000000000000       0.12500000000000000        0.0000000000000000     
  0.62500000000000000       0.12500000000000000        0.0000000000000000     
  0.50000000000000000       0.15625000000000000        0.0000000000000000     
  0.53125000000000000       0.15625000000000000        0.0000000000000000     
  0.56250000000000000       0.15625000000000000        0.0000000000000000     
  0.59375000000000000       0.15625000000000000        0.0000000000000000     
  0.62500000000000000       0.15625000000000000        0.0000000000000000     
  0.50000000000000000       0.18750000000000000        0.0000000000000000     
  0.53125000000000000       0.18750000000000000        0.0000000000000000     
  0.56250000000000000       0.18750000000000000        0.0000000000000000     
  0.59375000000000000       0.18750000000000000        0.0000000000000000     
  0.62500000000000000       0.18750000000000000        0.0000000000000000     
  0.50000000000000000       0.21875000000000000        0.0000000000000000     
  0.53125000000000000       0.21875000000000000        0.0000000000000000     
  0.56250000000000000       0.21875000000000000        0.0000000000000000     
  0.59375000000000000       0.21875000000000000        0.0000000000000000     
  0.62500000000000000       0.21875000000000000        0.0000000000000000     
  0.50000000000000000       0.25000000000000000        0.0000000000000000     
  0.53125000000000000       0.25000000000000000        0.0000000000000000     
  0.56250000000000000       0.25000000000000000        0.0000000000000000     
  0.59375000000000000       0.25000000000000000        0.0000000000000000     
  0.62500000000000000       0.25000000000000000        0.0000000000000000     
  0.62500000000000000       0.12500000000000000        0.0000000000000000     
  0.65625000000000000       0.12500000000000000        0.0000000000000000     
  0.68750000000000000       0.12500000000000000        0.0000000000000000     
  0.71875000000000000       0.12500000000000000        0.0000000000000000     
  0.75000000000000000       0.12500000000000000        0.0000000000000000     
  0.62500000000000000       0.15625000000000000        0.0000000000000000     
  0.65625000000000000       0.15625000000000000        0.0000000000000000     
  0.68750000000000000       0.15625000000000000        0.0000000000000000     
  0.71875000000000000       0.15625000000000000        0.0000000000000000     
  0.75000000000000000       0.15625000000000000        0.0000000000000000     
  0.62500000000000000       0.18750000000000000        0.0000000000000000     
  0.65625000000000000       0.18750000000000000        0.0000000000000000     
  0.68750000000000000       0.18750000000000000        0.0000000000000000     
  0.71875000000000000       0.18750000000000000        0.0000000000000000     
  0.75000000000000000       0.18750000000000000        0.0000000000000000     
  0.62500000000000000       0.21875000000000000        0.0000000000000000     
  0.65625000000000000       0.21875000000000000        0.0000000000000000     
  0.68750000000000000       0.21875000000000000        0.0000000000000000     
  0.71875000000000000       0.21875000000000000        0.0000000000000000     
  0.75000000000000000       0.21875000000000000        0.0000000000000000     
  0.62500000000000000       0.25000000000000000        0.0000000000000000     
  0.65625000000000000       0.25000000000000000        0.0000000000000000     
  0.68750000000000000       0.25000000000000000        0.0000000000000000     
  0.71875000000000000       0.25000000000000000        0.0000000000000000     
  0.75000000000000000       0.25000000000000000        0.0000000000000000     
  0.75000000000000000       0.12500000000000000        0.0000000000000000     
  0.78125000000000000       0.12500000000000000        0.0000000000000000     
  0.81250000000000000       0.12500000000000000        0.0000000000000000     
  0.84375000000000000       0.12500000000000000        0.0000000000000000     
  0.87500000000000000       0.12500000000000000        0.0000000000000000     
  0.75000000000000000       0.15625000000000000        0.0000000000000000     
  0.78125000000000000       0.15625000000000000        0.0000000000000000     
  0.81250000000000000       0.15625000000000000        0.0000000000000000     
  0.84375000000000000       0.15625000000000000        0.0000000000000000     
  0.87500000000000000       0.15625000000000000        0.0000000000000000     
  0.75000000000000000       0.18750000000000000        0.0000000000000000     
  0.78125000000000000       0.18750000000000000        0.0000000000000000     
  0.81250000000000000       0.18750000000000000        0.0000000000000000     
  0.84375000000000000       0.18750000000000000        0.0000000000000000     
  0.87500000000000000       0.18750000000000000        0.0000000000000000     
  0.75000000000000000       0.21875000000000000        0.0000000000000000     
  0.78125000000000000       0.21875000000000000        0.0000000000000000     
  0.81250000000000000       0.21875000000000000        0.0000000000000000     
  0.84375000000000000       0.21875000000000000        0.0000000000000000     
  0.87500000000000000       0.21875000000000000        0.0000000000000000     
  0.75000000000000000       0.25000000000000000        0.0000000000000000     
  0.78125000000000000       0.25000000000000000        0.0000000000000000     
  0.81250000000000000       0.25000000000000000        0.0000000000000000     
  0.84375000000000000       0.25000000000000000        0.0000000000000000     
  0.87500000000000000       0.25000000000000000        0.0000000000000000     
  0.87500000000000000       0.12500000000000000        0.0000000000000000     
  0.90625000000000000       0.12500000000000000        0.0000000000000000     
  0.93750000000000000       0.12500000000000000        0.0000000000000000     
  0.96875000000000000       0.12500000000000000        0.0000000000000000     
   1.0000000000000000       0.12500000000000000        0.0000000000000000     
  0.87500000000000000       0.15625000000000000        0.0000000000000000     
  0.90625000000000000       0.15625000000000000        0.0000000000000000     
  0.93750000000000000       0.15625000000000000        0.0000000000000000     
  0.96875000000000000       0.15625000000000000        0.0000000000000000     
   1.0000000000000000       0.15625000000000000        0.0000000000000000     
  0.87500000000000000       0.18750000000000000        0.0000000000000000     
  0.90625000000000000       0.18750000000000000        0.0000000000000000     
  0.93750000000000000       0.18750000000000000        0.0000000000000000     
  0.96875000000000000       0.18750000000000000        0.0000000000000000     
   1.0000000000000000       0.18750000000000000        0.0000000000000000     
  0.87500000000000000       0.21875000000000000        0.0000000000000000     
  0.90625000000000000       0.21875000000000000        0.0000000000000000     
  0.93750000000000000       0.21875000000000000        0.0000000000000000     
  0.96875000000000000       0.21875000000000000        0.0000000000000000     
   1.0000000000000000       0.21875000000000000        0.0000000000000000     
  0.87500000000000000       0.25000000000000000        0.0000000000000000     
  0.90625000000000000       0.25000000000000000        0.0000000000000000     
  0.93750000000000000       0.25000000000000000        0.0000000000000000     
  0.96875000000000000       0.25000000000000000        0.0000000000000000     
   1.0000000000000000       0.25000000000000000        0.0000000000000000     
   1.0000000000000000       0.12500000000000000        0.0000000000000000     
   1.0312500000000000       0.12500000000000000        0.0000000000000000     
   1.0625000000000000       0.12500000000000000        0.0000000000000000     
   1.0937500000000000       0.12500000000000000        0.0000000000000000     
   1.1250000000000000       0.12500000000000000        0.0000000000000000     
   1.0000000000000000       0.15625000000000000        0.0000000000000000     
   1.0312500000000000       0.15625000000000000        0.0000000000000000     
   1.0625000000000000       0.15625000000000000        0.0000000000000000     
   1.0937500000000000       0.15625000000000000        0.0000000000000000     
   1.1250000000000000       0.15625000000000000        0.0000000000000000     
   1.0000000000000000       0.18750000000000000        0.0000000000000000     
   1.0312500000000000       0.18750000000000000        0.0000000000000000     
   1.0625000000000000       0.18750000000000000        0.0000000000000000     
   1.0937500000000000       0.18750000000000000        0.0000000000000000     
   1.1250000000000000       0.18750000000000000        0.0000000000000000     
   1.0000000000000000       0.21875000000000000        0.0000000000000000     
   1.0312500000000000       0.21875000000000000        0.0000000000000000     
   1.0625000000000000       0.21875000000000000        0.0000000000000000     
   1.0937500000000000       0.21875000000000000        0.0000000000000000     
   1.1250000000000000       0.21875000000000000        0.0000000000000000     
   1.0000000000000000       0.25000000000000000        0.0000000000000000     
   1.0312500000000000       0.25000000000000000        0.0000000000000000     
   1.0625000000000000       0.25000000000000000        0.0000000000000000     
   1.0937500000000000       0.25000000000000000        0.0000000000000000     
   1.1250000000000000       0.25000000000000000        0.0000000000000000     
   1.1250000000000000       0.12500000000000000        0.0000000000000000     
   1.1562500000000000       0.12500000000000000        0.0000000000000000     
   1.1875000000000000       0.12500000000000000        0.0000000000000000     
   1.2187500000000000       0.12500000000000000        0.0000000000000000     
   1.2500000000000000       0.12500000000000000        0.0000000000000000     
   1.1250000000000000       0.15625000000000000        0.0000000000000000     
   1.1562500000000000       0.15625000000000000        0.0000000000000000     
   1.1875000000000000       0.15625000000000000        0.0000000000000000     
   1.2187500000000000       0.15625000000000000        0.0000000000000000     
   1.2500000000000000       0.15625000000000000        0.0000000000000000     
   1.1250000000000000       0.18750000000000000        0.0000000000000000     
   1.1562500000000000       0.18750000000000000        0.0000000000000000     
   1.1875000000000000       0.18750000000000000        0.0000000000000000     
   1.2187500000000000       0.18750000000000000        0.0000000000000000     
   1.2500000000000000       0.18750000000000000        0.0000000000000000     
   1.1250000000000000       0.21875000000000000        0.0000000000000000     
   1.1562500000000000       0.21875000000000000        0.0000000000000000     
   1.1875000000000000       0.21875000000000000        0.0000000000000000     
   1.2187500000000000       0.21875000000000000        0.0000000000000000     
   1.2500000000000000       0.21875000000000000        0.0000000000000000     
   1.1250000000000000       0.25000000000000000        0.0000000000000000     
   1.1562500000000000       0.25000000000000000        0.0000000000000000     
   1.1875000000000000       0.25000000000000000        0.0000000000000000     
   1.2187500000000000       0.25000000000000000        0.0000000000000000     
   1.2500000000000000       0.25000000000000000        0.0000000000000000     
   1.2500000000000000       0.12500000000000000        0.0000000000000000     
   1.2812500000000000       0.12500000000000000        0.0000000000000000     
   1.3125000000000000       0.12500000000000000        0.0000000000000000     
   1.3437500000000000       0.12500000000000000        0.0000000000000000     
   1.3750000000000000       0.12500000000000000        0.0000000000000000     
   1.2500000000000000       0.15625000000000000        0.0000000000000000     
   1.2812500000000000       0.15625000000000000        0.0000000000000000     
   1.3125000000000000       0.15625000000000000        0.0000000000000000     
   1.3437500000000000       0.15625000000000000        0.0000000000000000     
   1.3750000000000000       0.15625000000000000        0.0000000000000000     
   1.2500000000000000       0.18750000000000000        0.0000000000000000     
   1.2812500000000000       0.18750000000000000        0.0000000000000000     
   1.3125000000000000       0.18750000000000000        0.0000000000000000     
   1.3437500000000000       0.18750000000000000        0.0000000000000000     
   1.3750000000000000       0.18750000000000000        0.0000000000000000     
   1.2500000000000000       0.21875000000000000        0.0000000000000000     
   1.2812500000000000       0.21875000000000000        0.0000000000000000     
   1.3125000000000000       0.21875000000000000        0.0000000000000000     
   1.3437500000000000       0.21875000000000000        0.0000000000000000     
   1.3750000000000000       0.21875000000000000        0.0000000000000000     
   1.2500000000000000       0.25000000000000000        0.0000000000000000     
   1.2812500000000000       0.25000000000000000        0.0000000000000000     
   1.3125000000000000       0.25000000000000000        0.0000000000000000     
   1.3437500000000000       0.25000000000000000        0.0000000000000000     
   1.3750000000000000       0.25000000000000000        0.0000000000000000     
   1.3750000000000000       0.12500000000000000        0.0000000000000000     
   1.4062500000000000       0.12500000000000000        0.0000000000000000     
   1.4375000000000000       0.12500000000000000        0.0000000000000000     
   1.4687500000000000       0.12500000000000000        0.0000000000000000     
   1.5000000000000000       0.12500000000000000        0.0000000000000000     
   1.3750000000000000       0.15625000000000000        0.0000000000000000     
   1.4062500000000000       0.15625000000000000        0.0000000000000000     
   1.4375000000000000       0.15625000000000000        0.0000000000000000     
   1.4687500000000000       0.15625000000000000        0.0000000000000000     
   1.5000000000000000       0.15625000000000000        0.0000000000000000     
   1.3750000000000000       0.18750000000000000        0.0000000000000000     
   1.4062500000000000       0.18750000000000000        0.0000000000000000     
   1.4375000000000000       0.18750000000000000        0.0000000000000000     
   1.4687500000000000       0.18750000000000000        0.0000000000000000     
   1.5000000000000000       0.18750000000000000        0.0000000000000000     
   1.3750000000000000       0.21875000000000000        0.0000000000000000     
   1.4062500000000000       0.21875000000000000        0.0000000000000000     
   1.4375000000000000       0.21875000000000000        0.0000000000000000     
   1.4687500000000000       0.21875000000000000        0.0000000000000000     
   1.5000000000000000       0.21875000000000000        0.0000000000000000     
   1.3750000000000000       0.25000000000000000        0.0000000000000000     
   1.4062500000000000       0.25000000000000000        0.0000000000000000     
   1.4375000000000000       0.25000000000000000        0.0000000000000000     
   1.4687500000000000       0.25000000000000000        0.0000000000000000     
   1.5000000000000000       0.25000000000000000        0.0000000000000000     
  0.50000000000000000       0.25000000000000000        0.0000000000000000     
  0.53125000000000000       0.25000000000000000        0.0000000000000000     
  0.56250000000000000       0.25000000000000000        0.0000000000000000     
  0.59375000000000000       0.25000000000000000        0.0000000000000000     
  0.62500000000000000       0.25000000000000000        0.0000000000000000     
  0.50000000000000000       0.28125000000000000        0.0000000000000000     
  0.53125000000000000       0.28125000000000000        0.0000000000000000     
  0.56250000000000000       0.28125000000000000        0.0000000000000000     
  0.59375000000000000       0.28125000000000000        0.0000000000000000     
  0.62500000000000000       0.28125000000000000        0.0000000000000000     
  0.50000000000000000       0.31250000000000000        0.0000000000000000     
  0.53125000000000000       0.31250000000000000        0.0000000000000000     
  0.56250000000000000       0.31250000000000000        0.0000000000000000     
  0.59375000000000000       0.31250000000000000        0.0000000000000000     
  0.62500000000000000       0.31250000000000000        0.0000000000000000     
  0.50000000000000000       0.34375000000000000        0.0000000000000000     
  0.53125000000000000       0.34375000000000000        0.0000000000000000     
  0.56250000000000000       0.34375000000000000        0.0000000000000000     
  0.59375000000000000       0.34375000000000000        0.0000000000000000     
  0.62500000000000000       0.34375000000000000        0.0000000000000000     
  0.50000000000000000       0.37500000000000000        0.0000000000000000     
  0.53125000000000000       0.37500000000000000        0.0000000000000000     
  0.56250000000000000       0.37500000000000000        0.0000000000000000     
  0.59375000000000000       0.37500000000000000        0.0000000000000000     
  0.62500000000000000       0.37500000000000000        0.0000000000000000     
  0.62500000000000000       0.25000000000000000        0.0000000000000000     
  0.65625000000000000       0.25000000000000000        0.0000000000000000     
  0.68750000000000000       0.25000000000000000        0.0000000000000000     
  0.71875000000000000       0.25000000000000000        0.0000000000000000     
  0.75000000000000000       0.25000000000000000        0.0000000000000000     
  0.62500000000000000       0.28125000000000000        0.0000000000000000     
  0.65625000000000000       0.28125000000000000        0.0000000000000000     
  0.68750000000000000       0.28125000000000000        0.0000000000000000     
  0.71875000000000000       0.28125000000000000        0.0000000000000000     
  0.75000000000000000       0.28125000000000000        0.0000000000000000     
  0.62500000000000000       0.31250000000000000        0.0000000000000000     
  0.65625000000000000       0.31250000000000000        0.0000000000000000     
  0.68750000000000000       0.31250000000000000        0.0000000000000000     
  0.71875000000000000       0.31250000000000000        0.0000000000000000     
  0.75000000000000000       0.31250000000000000        0.0000000000000000     
  0.62500000000000000       0.34375000000000000        0.0000000000000000     
  0.65625000000000000       0.34375000000000000        0.0000000000000000     
  0.68750000000000000       0.34375000000000000        0.0000000000000000     
  0.71875000000000000       0.34375000000000000        0.0000000000000000     
  0.75000000000000000       0.34375000000000000        0.0000000000000000     
  0.62500000000000000       0.37500000000000000        0.0000000000000000     
  0.65625000000000000       0.37500000000000000        0.0000000000000000     
  0.68750000000000000       0.37500000000000000        0.0000000000000000     
  0.71875000000000000       0.37500000000000000        0.0000000000000000     
  0.75000000000000000       0.37500000000000000        0.0000000000000000     
  0.75000000000000000       0.25000000000000000        0.0000000000000000     
  0.78125000000000000       0.25000000000000000        0.0000000000000000     
  0.81250000000000000       0.25000000000000000        0.0000000000000000     
  0.84375000000000000       0.25000000000000000        0.0000000000000000     
  0.87500000000000000       0.25000000000000000        0.0000000000000000     
  0.75000000000000000       0.28125000000000000        0.0000000000000000     
  0.78125000000000000       0.28125000000000000        0.0000000000000000     
  0.81250000000000000       0.28125000000000000        0.0000000000000000     
  0.84375000000000000       0.28125000000000000        0.0000000000000000     
  0.87500000000000000       0.28125000000000000        0.0000000000000000     
  0.75000000000000000       0.31250000000000000        0.0000000000000000     
  0.78125000000000000       0.31250000000000000        0.0000000000000000     
  0.81250000000000000       0.31250000000000000        0.0000000000000000     
  0.84375000000000000       0.31250000000000000        0.0000000000000000     
  0.87500000000000000       0.31250000000000000        0.0000000000000000     
  0.75000000000000000       0.34375000000000000        0.0000000000000000     
  0.78125000000000000       0.34375000000000000        0.0000000000000000     
  0.81250000000000000       0.34375000000000000        0.0000000000000000     
  0.84375000000000000       0.34375000000000000        0.0000000000000000     
  0.87500000000000000       0.34375000000000000        0.0000000000000000     
  0.75000000000000000       0.37500000000000000        0.0000000000000000     
  0.78125000000000000       0.37500000000000000        0.0000000000000000     
  0.81250000000000000       0.37500000000000000        0.0000000000000000     
  0.84375000000000000       0.37500000000000000        0.0000000000000000     
  0.87500000000000000       0.37500000000000000        0.0000000000000000     
  0.87500000000000000       0.25000000000000000        0.0000000000000000     
  0.90625000000000000       0.25000000000000000        0.0000000000000000     
  0.93750000000000000       0.25000000000000000        0.0000000000000000     
  0.96875000000000000       0.25000000000000000        0.0000000000000000     
   1.0000000000000000       0.25000000000000000        0.0000000000000000     
  0.87500000000000000       0.28125000000000000        0.0000000000000000     
  0.90625000000000000       0.28125000000000000        0.0000000000000000     
  0.93750000000000000       0.28125000000000000        0.0000000000000000     
  0.96875000000000000       0.28125000000000000        0.0000000000000000     
   1.0000000000000000       0.28125000000000000        0.0000000000000000     
  0.87500000000000000       0.31250000000000000        0.0000000000000000     
  0.90625000000000000       0.31250000000000000        0.0000000000000000     
  0.93750000000000000       0.31250000000000000        0.0000000000000000     
  0.96875000000000000       0.31250000000000000        0.0000000000000000     
   1.0000000000000000       0.31250000000000000        0.0000000000000000     
  0.87500000000000000       0.34375000000000000        0.0000000000000000     
  0.90625000000000000       0.34375000000000000        0.0000000000000000     
  0.93750000000000000       0.34375000000000000        0.0000000000000000     
  0.96875000000000000       0.34375000000000000        0.0000000000000000     
   1.0000000000000000       0.34375000000000000        0.0000000000000000     
  0.87500000000000000       0.37500000000000000        0.0000000000000000     
  0.90625000000000000       0.37500000000000000        0.0000000000000000     
  0.93750000000000000       0.37500000000000000        0.0000000000000000     
  0.96875000000000000       0.37500000000000000        0.0000000000000000     
   1.0000000000000000       0.37500000000000000        0.0000000000000000     
   1.0000000000000000       0.25000000000000000        0.0000000000000000     
   1.0312500000000000       0.25000000000000000        0.0000000000000000     
   1.0625000000000000       0.25000000000000000        0.0000000000000000     
   1.0937500000000000       0.25000000000000000        0.0000000000000000     
   1.1250000000000000       0.25000000000000000        0.0000000000000000     
   1.0000000000000000       0.28125000000000000        0.0000000000000000     
   1.0312500000000000       0.28125000000000000        0.0000000000000000     
   1.0625000000000000       0.28125000000000000        0.0000000000000000     
   1.0937500000000000       0.28125000000000000        0.0000000000000000     
   1.1250000000000000       0.28125000000000000        0.0000000000000000     
   1.0000000000000000       0.31250000000000000        0.0000000000000000     
   1.0312500000000000       0.31250000000000000        0.0000000000000000     
   1.0625000000000000       0.31250000000000000        0.0000000000000000     
   1.0937500000000000       0.31250000000000000        0.0000000000000000     
   1.1250000000000000       0.31250000000000000        0.0000000000000000     
   1.0000000000000000       0.34375000000000000        0.0000000000000000     
   1.0312500000000000       0.34375000000000000        0.0000000000000000     
   1.0625000000000000       0.34375000000000000        0.0000000000000000     
   1.0937500000000000       0.34375000000000000        0.0000000000000000     
   1.1250000000000000       0.34375000000000000        0.0000000000000000     
   1.0000000000000000       0.37500000000000000        0.0000000000000000     
   1.0312500000000000       0.37500000000000000        0.0000000000000000     
   1.0625000000000000       0.37500000000000000        0.0000000000000000     
   1.0937500000000000       0.37500000000000000        0.0000000000000000     
   1.1250000000000000       0.37500000000000000        0.0000000000000000     
   1.1250000000000000       0.25000000000000000        0.0000000000000000     
   1.1562500000000000       0.25000000000000000        0.0000000000000000     
   1.1875000000000000       0.25000000000000000        0.0000000000000000     
   1.2187500000000000       0.25000000000000000        0.0000000000000000     
   1.2500000000000000       0.25000000000000000        0.0000000000000000     
   1.1250000000000000       0.28125000000000000        0.0000000000000000     
   1.1562500000000000       0.28125000000000000        0.0000000000000000     
   1.1875000000000000       0.28125000000000000        0.0000000000000000     
   1.2187500000000000       0.28125000000000000        0.0000000000000000     
   1.2500000000000000       0.28125000000000000        0.0000000000000000     
   1.1250000000000000       0.31250000000000000        0.0000000000000000     
   1.1562500000000000       0.31250000000000000        0.0000000000000000     
   1.1875000000000000       0.31250000000000000        0.0000000000000000     
   1.2187500000000000       0.31250000000000000        0.0000000000000000     
   1.2500000000000000       0.31250000000000000        0.0000000000000000     
   1.1250000000000000       0.34375000000000000        0.0000000000000000     
   1.1562500000000000       0.34375000000000000        0.0000000000000000     
   1.1875000000000000       0.34375000000000000        0.0000000000000000     
   1.2187500000000000       0.34375000000000000        0.0000000000000000     
   1.2500000000000000       0.34375000000000000        0.0000000000000000     
   1.1250000000000000       0.37500000000000000        0.0000000000000000     
   1.1562500000000000       0.37500000000000000        0.0000000000000000     
   1.1875000000000000       0.37500000000000000        0.0000000000000000     
   1.2187500000000000       0.37500000000000000        0.0000000000000000     
   1.2500000000000000       0.37500000000000000        0.0000000000000000     
   1.2500000000000000       0.25000000000000000        0.0000000000000000     
   1.2812500000000000       0.25000000000000000        0.0000000000000000     
   1.3125000000000000       0.25000000000000000        0.0000000000000000     
   1.3437500000000000       0.25000000000000000        0.0000000000000000     
   1.3750000000000000       0.25000000000000000        0.0000000000000000     
   1.2500000000000000       0.28125000000000000        0.0000000000000000     
   1.2812500000000000       0.28125000000000000        0.0000000000000000     
   1.3125000000000000       0.28125000000000000        0.0000000000000000     
   1.3437500000000000       0.28125000000000000        0.0000000000000000     
   1.3750000000000000       0.28125000000000000        0.0000000000000000     
   1.2500000000000000       0.31250000000000000        0.0000000000000000     
   1.2812500000000000       0.31250000000000000        0.0000000000000000     
   1.3125000000000000       0.31250000000000000        0.0000000000000000     
   1.3437500000000000       0.31250000000000000        0.0000000000000000     
   1.3750000000000000       0.31250000000000000        0.0000000000000000     
   1.2500000000000000       0.34375000000000000        0.0000000000000000     
   1.2812500000000000       0.34375000000000000        0.0000000000000000     
   1.3125000000000000       0.34375000000000000        0.0000000000000000     
   1.3437500000000000       0.34375000000000000        0.0000000000000000     
   1.3750000000000000       0.34375000000000000        0.0000000000000000     
   1.2500000000000000       0.37500000000000000        0.0000000000000000     
   1.2812500000000000       0.37500000000000000        0.0000000000000000     
   1.3125000000000000       0.37500000000000000        0.0000000000000000     
   1.3437500000000000       0.37500000000000000        0.0000000000000000     
   1.3750000000000000       0.37500000000000000        0.0000000000000000     
   1.3750000000000000       0.25000000000000000        0.0000000000000000     
   1.4062500000000000       0.25000000000000000        0.0000000000000000     
   1.4375000000000000       0.25000000000000000        0.0000000000000000     
   1.4687500000000000       0.25000000000000000        0.0000000000000000     
   1.5000000000000000       0.25000000000000000        0.0000000000000000     
   1.3750000000000000       0.28125000000000000        0.0000000000000000     
   1.4062500000000000       0.28125000000000000        0.0000000000000000     
   1.4375000000000000       0.28125000000000000        0.0000000000000000     
   1.4687500000000000       0.28125000000000000        0.0000000000000000     
   1.5000000000000000       0.28125000000000000        0.0000000000000000     
   1.3750000000000000       0.31250000000000000        0.0000000000000000     
   1.4062500000000000       0.31250000000000000        0.0000000000000000     
   1.4375000000000000       0.31250000000000000        0.0000000000000000     
   1.4687500000000000       0.31250000000000000        0.0000000000000000     
   1.5000000000000000       0.31250000000000000        0.0000000000000000     
   1.3750000000000000       0.34375000000000000        0.0000000000000000     
   1.4062500000000000       0.34375000000000000        0.0000000000000000     
   1.4375000000000000       0.34375000000000000        0.0000000000000000     
   1.4687500000000000       0.34375000000000000        0.0000000000000000     
   1.5000000000000000       0.34375000000000000        0.0000000000000000     
   1.3750000000000000       0.37500000000000000        0.0000000000000000     
   1.4062500000000000       0.37500000000000000        0.0000000000000000     
   1.4375000000000000       0.37500000000000000        0.0000000000000000     
   1.4687500000000000       0.37500000000000000        0.0000000000000000     
   1.5000000000000000       0.37500000000000000        0.0000000000000000     
  0.50000000000000000       0.37500000000000000        0.0000000000000000     
  0.53125000000000000       0.37500000000000000        0.0000000000000000     
  0.56250000000000000       0.37500000000000000        0.0000000000000000     
  0.59375000000000000       0.37500000000000000        0.0000000000000000     
  0.62500000000000000       0.37500000000000000        0.0000000000000000     
  0.50000000000000000       0.40625000000000000        0.0000000000000000     
  0.53125000000000000       0.40625000000000000        0.0000000000000000     
  0.56250000000000000       0.40625000000000000        0.0000000000000000     
  0.59375000000000000       0.40625000000000000        0.0000000000000000     
  0.62500000000000000       0.40625000000000000        0.0000000000000000     
  0.50000000000000000       0.43750000000000000        0.0000000000000000     
  0.53125000000000000       0.43750000000000000        0.0000000000000000     
  0.56250000000000000       0.43750000000000000        0.0000000000000000     
  0.59375000000000000       0.43750000000000000        0.0000000000000000     
  0.62500000000000000       0.43750000000000000        0.0000000000000000     
  0.50000000000000000       0.46875000000000000        0.0000000000000000     
  0.53125000000000000       0.46875000000000000        0.0000000000000000     
  0.56250000000000000       0.46875000000000000        0.0000000000000000     
  0.59375000000000000       0.46875000000000000        0.0000000000000000     
  0.62500000000000000       0.46875000000000000        0.0000000000000000     
  0.50000000000000000       0.50000000000000000        0.0000000000000000     
  0.53125000000000000       0.50000000000000000        0.0000000000000000     
  0.56250000000000000       0.50000000000000000        0.0000000000000000     
  0.59375000000000000       0.50000000000000000        0.0000000000000000     
  0.62500000000000000       0.50000000000000000        0.0000000000000000     
  0.62500000000000000       0.37500000000000000        0.0000000000000000     
  0.65625000000000000       0.37500000000000000        0.0000000000000000     
  0.68750000000000000       0.37500000000000000        0.0000000000000000     
  0.71875000000000000       0.37500000000000000        0.0000000000000000     
  0.75000000000000000       0.37500000000000000        0.0000000000000000     
  0.62500000000000000       0.40625000000000000        0.0000000000000000     
  0.65625000000000000       0.40625000000000000        0.0000000000000000     
  0.68750000000000000       0.40625000000000000        0.0000000000000000     
  0.71875000000000000       0.40625000000000000        0.0000000000000000     
  0.75000000000000000       0.40625000000000000        0.0000000000000000     
  0.62500000000000000       0.43750000000000000        0.0000000000000000     
  0.65625000000000000       0.43750000000000000        0.0000000000000000     
  0.68750000000000000       0.43750000000000000        0.0000000000000000     
  0.71875000000000000       0.43750000000000000        0.0000000000000000     
  0.75000000000000000       0.43750000000000000        0.0000000000000000     
  0.62500000000000000       0.46875000000000000        0.0000000000000000     
  0.65625000000000000       0.46875000000000000        0.0000000000000000     
  0.68750000000000000       0.46875000000000000        0.0000000000000000     
  0.71875000000000000       0.46875000000000000        0.0000000000000000     
  0.75000000000000000       0.46875000000000000        0.0000000000000000     
  0.62500000000000000       0.50000000000000000        0.0000000000000000     
  0.65625000000000000       0.50000000000000000        0.0000000000000000     
  0.68750000000000000       0.50000000000000000        0.0000000000000000     
  0.71875000000000000       0.50000000000000000        0.0000000000000000     
  0.75000000000000000       0.50000000000000000        0.0000000000000000     
  0.75000000000000000       0.37500000000000000        0.0000000000000000     
  0.78125000000000000       0.37500000000000000        0.0000000000000000     
  0.81250000000000000       0.37500000000000000        0.0000000000000000     
  0.84375000000000000       0.37500000000000000        0.0000000000000000     
  0.87500000000000000       0.37500000000000000        0.0000000000000000     
  0.75000000000000000       0.40625000000000000        0.0000000000000000     
  0.78125000000000000       0.40625000000000000        0.0000000000000000     
  0.81250000000000000       0.40625000000000000        0.0000000000000000     
  0.84375000000000000       0.40625000000000000        0.0000000000000000     
  0.87500000000000000       0.40625000000000000        0.0000000000000000     
  0.75000000000000000       0.43750000000000000        0.0000000000000000     
  0.78125000000000000       0.43750000000000000        0.0000000000000000     
  0.81250000000000000       0.43750000000000000        0.0000000000000000     
  0.84375000000000000       0.43750000000000000        0.0000000000000000     
  0.87500000000000000       0.43750000000000000        0.0000000000000000     
  0.75000000000000000       0.46875000000000000        0.0000000000000000     
  0.78125000000000000       0.46875000000000000        0.0000000000000000     
  0.81250000000000000       0.46875000000000000        0.0000000000000000     
  0.84375000000000000       0.46875000000000000        0.0000000000000000     
  0.87500000000000000       0.46875000000000000        0.0000000000000000     
  0.75000000000000000       0.50000000000000000        0.0000000000000000     
  0.78125000000000000       0.50000000000000000        0.0000000000000000     
  0.81250000000000000       0.50000000000000000        0.0000000000000000     
  0.84375000000000000       0.50000000000000000        0.0000000000000000     
  0.87500000000000000       0.50000000000000000        0.0000000000000000     
  0.87500000000000000       0.37500000000000000        0.0000000000000000     
  0.90625000000000000       0.37500000000000000        0.0000000000000000     
  0.93750000000000000       0.37500000000000000        0.0000000000000000     
  0.96875000000000000       0.37500000000000000        0.0000000000000000     
   1.0000000000000000       0.37500000000000000        0.0000000000000000     
  0.87500000000000000       0.40625000000000000        0.0000000000000000     
  0.90625000000000000       0.40625000000000000        0.0000000000000000     
  0.93750000000000000       0.40625000000000000        0.0000000000000000     
  0.96875000000000000       0.40625000000000000        0.0000000000000000     
   1.0000000000000000       0.40625000000000000        0.0000000000000000     
  0.87500000000000000       0.43750000000000000        0.0000000000000000     
  0.90625000000000000       0.43750000000000000        0.0000000000000000     
  0.93750000000000000       0.43750000000000000        0.0000000000000000     
  0.96875000000000000       0.43750000000000000        0.0000000000000000     
   1.0000000000000000       0.43750000000000000        0.0000000000000000     
  0.87500000000000000       0.46875000000000000        0.0000000000000000     
  0.90625000000000000       0.46875000000000000        0.0000000000000000     
  0.93750000000000000       0.46875000000000000        0.0000000000000000     
  0.96875000000000000       0.46875000000000000        0.0000000000000000     
   1.0000000000000000       0.46875000000000000        0.0000000000000000     
  0.87500000000000000       0.50000000000000000        0.0000000000000000     
  0.90625000000000000       0.50000000000000000        0.0000000000000000     
  0.93750000000000000       0.50000000000000000        0.0000000000000000     
  0.96875000000000000       0.50000000000000000        0.0000000000000000     
   1.0000000000000000       0.50000000000000000        0.0000000000000000     
   1.0000000000000000       0.37500000000000000        0.0000000000000000     
   1.0312500000000000       0.37500000000000000        0.0000000000000000     
   1.0625000000000000       0.37500000000000000        0.0000000000000000     
   1.0937500000000000       0.37500000000000000        0.0000000000000000     
   1.1250000000000000       0.37500000000000000        0.0000000000000000     
   1.0000000000000000       0.40625000000000000        0.0000000000000000     
   1.0312500000000000       0.40625000000000000        0.0000000000000000     
   1.0625000000000000       0.40625000000000000        0.0000000000000000     
   1.0937500000000000       0.40625000000000000        0.0000000000000000     
   1.1250000000000000       0.40625000000000000        0.0000000000000000     
   1.0000000000000000       0.43750000000000000        0.0000000000000000     
   1.0312500000000000       0.43750000000000000        0.0000000000000000     
   1.0625000000000000       0.43750000000000000        0.0000000000000000     
   1.0937500000000000       0.43750000000000000        0.0000000000000000     
   1.1250000000000000       0.43750000000000000        0.0000000000000000     
   1.0000000000000000       0.46875000000000000        0.0000000000000000     
   1.0312500000000000       0.46875000000000000        0.0000000000000000     
   1.0625000000000000       0.46875000000000000        0.0000000000000000     
   1.0937500000000000       0.46875000000000000        0.0000000000000000     
   1.1250000000000000       0.46875000000000000        0.0000000000000000     
   1.0000000000000000       0.50000000000000000        0.0000000000000000     
   1.0312500000000000       0.50000000000000000        0.0000000000000000     
   1.0625000000000000       0.50000000000000000        0.0000000000000000     
   1.0937500000000000       0.50000000000000000        0.0000000000000000     
   1.1250000000000000       0.50000000000000000        0.0000000000000000     
   1.1250000000000000       0.37500000000000000        0.0000000000000000     
   1.1562500000000000       0.37500000000000000        0.0000000000000000     
   1.1875000000000000       0.37500000000000000        0.0000000000000000     
   1.2187500000000000       0.37500000000000000        0.0000000000000000     
   1.2500000000000000       0.37500000000000000        0.0000000000000000     
   1.1250000000000000       0.40625000000000000        0.0000000000000000     
   1.1562500000000000       0.40625000000000000        0.0000000000000000     
   1.1875000000000000       0.40625000000000000        0.0000000000000000     
   1.2187500000000000       0.40625000000000000        0.0000000000000000     
   1.2500000000000000       0.40625000000000000        0.0000000000000000     
   1.1250000000000000       0.43750000000000000        0.0000000000000000     
   1.1562500000000000       0.43750000000000000        0.0000000000000000     
   1.1875000000000000       0.43750000000000000        0.0000000000000000     
   1.2187500000000000       0.43750000000000000        0.0000000000000000     
   1.2500000000000000       0.43750000000000000        0.0000000000000000     
   1.1250000000000000       0.46875000000000000        0.0000000000000000     
   1.1562500000000000       0.46875000000000000        0.0000000000000000     
   1.1875000000000000       0.46875000000000000        0.0000000000000000     
   1.2187500000000000       0.46875000000000000        0.0000000000000000     
   1.2500000000000000       0.46875000000000000        0.0000000000000000     
   1.1250000000000000       0.50000000000000000        0.0000000000000000     
   1.1562500000000000       0.50000000000000000        0.0000000000000000     
   1.1875000000000000       0.50000000000000000        0.0000000000000000     
   1.2187500000000000       0.50000000000000000        0.0000000000000000     
   1.2500000000000000       0.50000000000000000        0.0000000000000000     
   1.2500000000000000       0.37500000000000000        0.0000000000000000     
   1.2812500000000000       0.37500000000000000        0.0000000000000000     
   1.3125000000000000       0.37500000000000000        0.0000000000000000     
   1.3437500000000000       0.37500000000000000        0.0000000000000000     
   1.3750000000000000       0.37500000000000000        0.0000000000000000     
   1.2500000000000000       0.40625000000000000        0.0000000000000000     
   1.2812500000000000       0.40625000000000000        0.0000000000000000     
   1.3125000000000000       0.40625000000000000        0.0000000000000000     
   1.3437500000000000       0.40625000000000000        0.0000000000000000     
   1.3750000000000000       0.40625000000000000        0.0000000000000000     
   1.2500000000000000       0.43750000000000000        0.0000000000000000     
   1.2812500000000000       0.43750000000000000        0.0000000000000000     
   1.3125000000000000       0.43750000000000000        0.0000000000000000     
   1.3437500000000000       0.43750000000000000        0.0000000000000000     
   1.3750000000000000       0.43750000000000000        0.0000000000000000     
   1.2500000000000000       0.46875000000000000        0.0000000000000000     
   1.2812500000000000       0.46875000000000000        0.0000000000000000     
   1.3125000000000000       0.46875000000000000        0.0000000000000000     
   1.3437500000000000       0.46875000000000000        0.0000000000000000     
   1.3750000000000000       0.46875000000000000        0.0000000000000000     
   1.2500000000000000       0.50000000000000000        0.0000000000000000     
   1.2812500000000000       0.50000000000000000        0.0000000000000000     
   1.3125000000000000       0.50000000000000000        0.0000000000000000     
   1.3437500000000000       0.50000000000000000        0.0000000000000000     
   1.3750000000000000       0.50000000000000000        0.0000000000000000     
   1.3750000000000000       0.37500000000000000        0.0000000000000000     
   1.4062500000000000       0.37500000000000000        0.0000000000000000     
   1.4375000000000000       0.37500000000000000        0.0000000000000000     
   1.4687500000000000       0.37500000000000000        0.0000000000000000     
   1.5000000000000000       0.37500000000000000        0.0000000000000000     
   1.3750000000000000       0.40625000000000000        0.0000000000000000     
   1.4062500000000000       0.40625000000000000        0.0000000000000000     
   1.4375000000000000       0.40625000000000000        0.0000000000000000     
   1.4687500000000000       0.40625000000000000        0.0000000000000000     
   1.5000000000000000       0.40625000000000000        0.0000000000000000     
   1.3750000000000000       0.43750000000000000        0.0000000000000000     
   1.4062500000000000       0.43750000000000000        0.0000000000000000     
   1.4375000000000000       0.43750000000000000        0.0000000000000000     
   1.4687500000000000       0.43750000000000000        0.0000000000000000     
   1.5000000000000000       0.43750000000000000        0.0000000000000000     
   1.3750000000000000       0.46875000000000000        0.0000000000000000     
   1.4062500000000000       0.46875000000000000        0.0000000000000000     
   1.4375000000000000       0.46875000000000000        0.0000000000000000     
   1.4687500000000000       0.46875000000000000        0.0000000000000000     
   1.5000000000000000       0.46875000000000000        0.0000000000000000     
   1.3750000000000000       0.50000000000000000        0.0000000000000000     
   1.4062500000000000       0.50000000000000000        0.0000000000000000     
   1.4375000000000000       0.50000000000000000        0.0000000000000000     
   1.4687500000000000       0.50000000000000000        0.0000000000000000     
   1.5000000000000000       0.50000000000000000        0.0000000000000000     
  0.50000000000000000       0.50000000000000000        0.0000000000000000     
  0.53125000000000000       0.50000000000000000        0.0000000000000000     
  0.56250000000000000       0.50000000000000000        0.0000000000000000     
  0.59375000000000000       0.50000000000000000        0.0000000000000000     
  0.62500000000000000       0.50000000000000000        0.0000000000000000     
  0.50000000000000000       0.53125000000000000        0.0000000000000000     
  0.53125000000000000       0.53125000000000000        0.0000000000000000     
  0.56250000000000000       0.53125000000000000        0.0000000000000000     
  0.59375000000000000       0.53125000000000000        0.0000000000000000     
  0.62500000000000000       0.53125000000000000        0.0000000000000000     
  0.50000000000000000       0.56250000000000000        0.0000000000000000     
  0.53125000000000000       0.56250000000000000        0.0000000000000000     
  0.56250000000000000       0.56250000000000000        0.0000000000000000     
  0.59375000000000000       0.56250000000000000        0.0000000000000000     
  0.62500000000000000       0.56250000000000000        0.0000000000000000     
  0.50000000000000000       0.59375000000000000        0.0000000000000000     
  0.53125000000000000       0.59375000000000000        0.0000000000000000     
  0.56250000000000000       0.59375000000000000        0.0000000000000000     
  0.59375000000000000       0.59375000000000000        0.0000000000000000     
  0.62500000000000000       0.59375000000000000        0.0000000000000000     
  0.50000000000000000       0.62500000000000000        0.0000000000000000     
  0.53125000000000000       0.62500000000000000        0.0000000000000000     
  0.56250000000000000       0.62500000000000000        0.0000000000000000     
  0.59375000000000000       0.62500000000000000        0.0000000000000000     
  0.62500000000000000       0.62500000000000000        0.0000000000000000     
  0.62500000000000000       0.50000000000000000        0.0000000000000000     
  0.65625000000000000       0.50000000000000000        0.0000000000000000     
  0.68750000000000000       0.50000000000000000        0.0000000000000000     
  0.71875000000000000       0.50000000000000000        0.0000000000000000     
  0.75000000000000000       0.50000000000000000        0.0000000000000000     
  0.62500000000000000       0.53125000000000000        0.0000000000000000     
  0.65625000000000000       0.53125000000000000        0.0000000000000000     
  0.68750000000000000       0.53125000000000000        0.0000000000000000     
  0.71875000000000000       0.53125000000000000        0.0000000000000000     
  0.75000000000000000       0.53125000000000000        0.0000000000000000     
  0.62500000000000000       0.56250000000000000        0.0000000000000000     
  0.65625000000000000       0.56250000000000000        0.0000000000000000     
  0.68750000000000000       0.56250000000000000        0.0000000000000000     
  0.71875000000000000       0.56250000000000000        0.0000000000000000     
  0.75000000000000000       0.56250000000000000        0.0000000000000000     
  0.62500000000000000       0.59375000000000000        0.0000000000000000     
  0.65625000000000000       0.59375000000000000        0.0000000000000000     
  0.68750000000000000       0.59375000000000000        0.0000000000000000     
  0.71875000000000000       0.59375000000000000        0.0000000000000000     
  0.75000000000000000       0.59375000000000000        0.0000000000000000     
  0.62500000000000000       0.62500000000000000        0.0000000000000000     
  0.65625000000000000       0.62500000000000000        0.0000000000000000     
  0.68750000000000000       0.62500000000000000        0.0000000000000000     
  0.71875000000000000       0.62500000000000000        0.0000000000000000     
  0.75000000000000000       0.62500000000000000        0.0000000000000000     
  0.75000000000000000       0.50000000000000000        0.0000000000000000     
  0.78125000000000000       0.50000000000000000        0.0000000000000000     
  0.81250000000000000       0.50000000000000000        0.0000000000000000     
  0.84375000000000000       0.50000000000000000        0.0000000000000000     
  0.87500000000000000       0.50000000000000000        0.0000000000000000     
  0.75000000000000000       0.53125000000000000        0.0000000000000000     
  0.78125000000000000       0.53125000000000000        0.0000000000000000     
  0.81250000000000000       0.53125000000000000        0.0000000000000000     
  0.84375000000000000       0.53125000000000000        0.0000000000000000     
  0.87500000000000000       0.53125000000000000        0.0000000000000000     
  0.75000000000000000       0.56250000000000000        0.0000000000000000     
  0.78125000000000000       0.56250000000000000        0.0000000000000000     
  0.81250000000000000       0.56250000000000000        0.0000000000000000     
  0.84375000000000000       0.56250000000000000        0.0000000000000000     
  0.87500000000000000       0.56250000000000000        0.0000000000000000     
  0.75000000000000000       0.59375000000000000        0.0000000000000000     
  0.78125000000000000       0.59375000000000000        0.0000000000000000     
  0.81250000000000000       0.59375000000000000        0.0000000000000000     
  0.84375000000000000       0.59375000000000000        0.0000000000000000     
  0.87500000000000000       0.59375000000000000        0.0000000000000000     
  0.75000000000000000       0.62500000000000000        0.0000000000000000     
  0.78125000000000000       0.62500000000000000        0.0000000000000000     
  0.81250000000000000       0.62500000000000000        0.0000000000000000     
  0.84375000000000000       0.62500000000000000        0.0000000000000000     
  0.87500000000000000       0.62500000000000000        0.0000000000000000     
  0.87500000000000000       0.50000000000000000        0.0000000000000000     
  0.90625000000000000       0.50000000000000000        0.0000000000000000     
  0.93750000000000000       0.50000000000000000        0.0000000000000000     
  0.96875000000000000       0.50000000000000000        0.0000000000000000     
   1.0000000000000000       0.50000000000000000        0.0000000000000000     
  0.87500000000000000       0.53125000000000000        0.0000000000000000     
  0.90625000000000000       0.53125000000000000        0.0000000000000000     
  0.93750000000000000       0.53125000000000000        0.0000000000000000     
  0.96875000000000000       0.53125000000000000        0.0000000000000000     
   1.0000000000000000       0.53125000000000000        0.0000000000000000     
  0.87500000000000000       0.56250000000000000        0.0000000000000000     
  0.90625000000000000       0.56250000000000000        0.0000000000000000     
  0.93750000000000000       0.56250000000000000        0.0000000000000000     
  0.96875000000000000       0.56250000000000000        0.0000000000000000     
   1.0000000000000000       0.56250000000000000        0.0000000000000000     
  0.87500000000000000       0.59375000000000000        0.0000000000000000     
  0.90625000000000000       0.59375000000000000        0.0000000000000000     
  0.93750000000000000       0.59375000000000000        0.0000000000000000     
  0.96875000000000000       0.59375000000000000        0.0000000000000000     
   1.0000000000000000       0.59375000000000000        0.0000000000000000     
  0.87500000000000000       0.62500000000000000        0.0000000000000000     
  0.90625000000000000       0.62500000000000000        0.0000000000000000     
  0.93750000000000000       0.62500000000000000        0.0000000000000000     
  0.96875000000000000       0.62500000000000000        0.0000000000000000     
   1.0000000000000000       0.62500000000000000        0.0000000000000000     
   1.0000000000000000       0.50000000000000000        0.0000000000000000     
   1.0312500000000000       0.50000000000000000        0.0000000000000000     
   1.0625000000000000       0.50000000000000000        0.0000000000000000     
   1.0937500000000000       0.50000000000000000        0.0000000000000000     
   1.1250000000000000       0.50000000000000000        0.0000000000000000     
   1.0000000000000000       0.53125000000000000        0.0000000000000000     
   1.0312500000000000       0.53125000000000000        0.0000000000000000     
   1.0625000000000000       0.53125000000000000        0.0000000000000000     
   1.0937500000000000       0.53125000000000000        0.0000000000000000     
   1.1250000000000000       0.53125000000000000        0.0000000000000000     
   1.0000000000000000       0.56250000000000000        0.0000000000000000     
   1.0312500000000000       0.56250000000000000        0.0000000000000000     
   1.0625000000000000       0.56250000000000000        0.0000000000000000     
   1.0937500000000000       0.56250000000000000        0.0000000000000000     
   1.1250000000000000       0.56250000000000000        0.0000000000000000     
   1.0000000000000000       0.59375000000000000        0.0000000000000000     
   1.0312500000000000       0.59375000000000000        0.0000000000000000     
   1.0625000000000000       0.59375000000000000        0.0000000000000000     
   1.0937500000000000       0.59375000000000000        0.0000000000000000     
   1.1250000000000000       0.59375000000000000        0.0000000000000000     
   1.0000000000000000       0.62500000000000000        0.0000000000000000     
   1.0312500000000000       0.62500000000000000        0.0000000000000000     
   1.0625000000000000       0.62500000000000000        0.0000000000000000     
   1.0937500000000000       0.62500000000000000        0.0000000000000000     
   1.1250000000000000       0.62500000000000000        0.0000000000000000     
   1.1250000000000000       0.50000000000000000        0.0000000000000000     
   1.1562500000000000       0.50000000000000000        0.0000000000000000     
   1.1875000000000000       0.50000000000000000        0.0000000000000000     
   1.2187500000000000       0.50000000000000000        0.0000000000000000     
   1.2500000000000000       0.50000000000000000        0.0000000000000000     
   1.1250000000000000       0.53125000000000000        0.0000000000000000     
   1.1562500000000000       0.53125000000000000        0.0000000000000000     
   1.1875000000000000       0.53125000000000000        0.0000000000000000     
   1.2187500000000000       0.53125000000000000        0.0000000000000000     
   1.2500000000000000       0.53125000000000000        0.0000000000000000     
   1.1250000000000000       0.56250000000000000        0.0000000000000000     
   1.1562500000000000       0.56250000000000000        0.0000000000000000     
   1.1875000000000000       0.56250000000000000        0.0000000000000000     
   1.2187500000000000       0.56250000000000000        0.0000000000000000     
   1.2500000000000000       0.56250000000000000        0.0000000000000000     
   1.1250000000000000       0.59375000000000000        0.0000000000000000     
   1.1562500000000000       0.59375000000000000        0.0000000000000000     
   1.1875000000000000       0.59375000000000000        0.0000000000000000     
   1.2187500000000000       0.59375000000000000        0.0000000000000000     
   1.2500000000000000       0.59375000000000000        0.0000000000000000     
   1.1250000000000000       0.62500000000000000        0.0000000000000000     
   1.1562500000000000       0.62500000000000000        0.0000000000000000     
   1.1875000000000000       0.62500000000000000        0.0000000000000000     
   1.2187500000000000       0.62500000000000000        0.0000000000000000     
   1.2500000000000000       0.62500000000000000        0.0000000000000000     
   1.2500000000000000       0.50000000000000000        0.0000000000000000     
   1.2812500000000000       0.50000000000000000        0.0000000000000000     
   1.3125000000000000       0.50000000000000000        0.0000000000000000     
   1.3437500000000000       0.50000000000000000        0.0000000000000000     
   1.3750000000000000       0.50000000000000000        0.0000000000000000     
   1.2500000000000000       0.53125000000000000        0.0000000000000000     
   1.2812500000000000       0.53125000000000000        0.0000000000000000     
   1.3125000000000000       0.53125000000000000        0.0000000000000000     
   1.3437500000000000       0.53125000000000000        0.0000000000000000     
   1.3750000000000000       0.53125000000000000        0.0000000000000000     
   1.2500000000000000       0.56250000000000000        0.0000000000000000     
   1.2812500000000000       0.56250000000000000        0.0000000000000000     
   1.3125000000000000       0.56250000000000000        0.0000000000000000     
   1.3437500000000000       0.56250000000000000        0.0000000000000000     
   1.3750000000000000       0.56250000000000000        0.0000000000000000     
   1.2500000000000000       0.59375000000000000        0.0000000000000000     
   1.2812500000000000       0.59375000000000000        0.0000000000000000     
   1.3125000000000000       0.59375000000000000        0.0000000000000000     
   1.3437500000000000       0.59375000000000000        0.0000000000000000     
   1.3750000000000000       0.59375000000000000        0.0000000000000000     
   1.2500000000000000       0.62500000000000000        0.0000000000000000     
   1.2812500000000000       0.62500000000000000        0.0000000000000000     
   1.3125000000000000       0.62500000000000000        0.0000000000000000     
   1.3437500000000000       0.62500000000000000        0.0000000000000000     
   1.3750000000000000       0.62500000000000000        0.0000000000000000     
   1.3750000000000000       0.50000000000000000        0.0000000000000000     
   1.4062500000000000       0.50000000000000000        0.0000000000000000     
   1.4375000000000000       0.50000000000000000        0.0000000000000000     
   1.4687500000000000       0.50000000000000000        0.0000000000000000     
   1.5000000000000000       0.50000000000000000        0.0000000000000000     
   1.3750000000000000       0.53125000000000000        0.0000000000000000     
   1.4062500000000000       0.53125000000000000        0.0000000000000000     
   1.4375000000000000       0.53125000000000000        0.0000000000000000     
   1.4687500000000000       0.53125000000000000        0.0000000000000000     
   1.5000000000000000       0.53125000000000000        0.0000000000000000     
   1.3750000000000000       0.56250000000000000        0.0000000000000000     
   1.4062500000000000       0.56250000000000000        0.0000000000000000     
   1.4375000000000000       0.56250000000000000        0.0000000000000000     
   1.4687500000000000       0.56250000000000000        0.0000000000000000     
   1.5000000000000000       0.56250000000000000        0.0000000000000000     
   1.3750000000000000       0.59375000000000000        0.0000000000000000     
   1.4062500000000000       0.59375000000000000        0.0000000000000000     
   1.4375000000000000       0.59375000000000000        0.0000000000000000     
   1.4687500000000000       0.59375000000000000        0.0000000000000000     
   1.5000000000000000       0.59375000000000000        0.0000000000000000     
   1.3750000000000000       0.62500000000000000        0.0000000000000000     
   1.4062500000000000       0.62500000000000000        0.0000000000000000     
   1.4375000000000000       0.62500000000000000        0.0000000000000000     
   1.4687500000000000       0.62500000000000000        0.0000000000000000     
   1.5000000000000000       0.62500000000000000        0.0000000000000000     
  0.50000000000000000       0.62500000000000000        0.0000000000000000     
  0.53125000000000000       0.62500000000000000        0.0000000000000000     
  0.56250000000000000       0.62500000000000000        0.0000000000000000     
  0.59375000000000000       0.62500000000000000        0.0000000000000000     
  0.62500000000000000       0.62500000000000000        0.0000000000000000     
  0.50000000000000000       0.65625000000000000        0.0000000000000000     
  0.53125000000000000       0.65625000000000000        0.0000000000000000     
  0.56250000000000000       0.65625000000000000        0.0000000000000000     
  0.59375000000000000       0.65625000000000000        0.0000000000000000     
  0.62500000000000000       0.65625000000000000        0.0000000000000000     
  0.50000000000000000       0.68750000000000000        0.0000000000000000     
  0.53125000000000000       0.68750000000000000        0.0000000000000000     
  0.56250000000000000       0.68750000000000000        0.0000000000000000     
  0.59375000000000000       0.68750000000000000        0.0000000000000000     
  0.62500000000000000       0.68750000000000000        0.0000000000000000     
  0.50000000000000000       0.71875000000000000        0.0000000000000000     
  0.53125000000000000       0.71875000000000000        0.0000000000000000     
  0.56250000000000000       0.71875000000000000        0.0000000000000000     
  0.59375000000000000       0.71875000000000000        0.0000000000000000     
  0.62500000000000000       0.71875000000000000        0.0000000000000000     
  0.50000000000000000       0.75000000000000000        0.0000000000000000     
  0.53125000000000000       0.75000000000000000        0.0000000000000000     
  0.56250000000000000       0.75000000000000000        0.0000000000000000     
  0.59375000000000000       0.75000000000000000        0.0000000000000000     
  0.62500000000000000       0.75000000000000000        0.0000000000000000     
  0.62500000000000000       0.62500000000000000        0.0000000000000000     
  0.65625000000000000       0.62500000000000000        0.0000000000000000     
  0.68750000000000000       0.62500000000000000        0.0000000000000000     
  0.71875000000000000       0.62500000000000000        0.0000000000000000     
  0.75000000000000000       0.62500000000000000        0.0000000000000000     
  0.62500000000000000       0.65625000000000000        0.0000000000000000     
  0.65625000000000000       0.65625000000000000        0.0000000000000000     
  0.68750000000000000       0.65625000000000000        0.0000000000000000     
  0.71875000000000000       0.65625000000000000        0.0000000000000000     
  0.75000000000000000       0.65625000000000000        0.0000000000000000     
  0.62500000000000000       0.68750000000000000        0.0000000000000000     
  0.65625000000000000       0.68750000000000000        0.0000000000000000     
  0.68750000000000000       0.68750000000000000        0.0000000000000000     
  0.71875000000000000       0.68750000000000000        0.0000000000000000     
  0.75000000000000000       0.68750000000000000        0.0000000000000000     
  0.62500000000000000       0.71875000000000000        0.0000000000000000     
  0.65625000000000000       0.71875000000000000        0.0000000000000000     
  0.68750000000000000       0.71875000000000000        0.0000000000000000     
  0.71875000000000000       0.71875000000000000        0.0000000000000000     
  0.75000000000000000       0.71875000000000000        0.0000000000000000     
  0.62500000000000000       0.75000000000000000        0.0000000000000000     
  0.65625000000000000       0.75000000000000000        0.0000000000000000     
  0.68750000000000000       0.75000000000000000        0.0000000000000000     
  0.71875000000000000       0.75000000000000000        0.0000000000000000     
  0.75000000000000000       0.75000000000000000        0.0000000000000000     
  0.75000000000000000       0.62500000000000000        0.0000000000000000     
  0.78125000000000000       0.62500000000000000        0.0000000000000000     
  0.81250000000000000       0.62500000000000000        0.0000000000000000     
  0.84375000000000000       0.62500000000000000        0.0000000000000000     
  0.87500000000000000       0.62500000000000000        0.0000000000000000     
  0.75000000000000000       0.65625000000000000        0.0000000000000000     
  0.78125000000000000       0.65625000000000000        0.0000000000000000     
  0.81250000000000000       0.65625000000000000        0.0000000000000000     
  0.84375000000000000       0.65625000000000000        0.0000000000000000     
  0.87500000000000000       0.65625000000000000        0.0000000000000000     
  0.75000000000000000       0.68750000000000000        0.0000000000000000     
  0.78125000000000000       0.68750000000000000        0.0000000000000000     
  0.81250000000000000       0.68750000000000000        0.0000000000000000     
  0.84375000000000000       0.68750000000000000        0.0000000000000000     
  0.87500000000000000       0.68750000000000000        0.0000000000000000     
  0.75000000000000000       0.71875000000000000        0.0000000000000000     
  0.78125000000000000       0.71875000000000000        0.0000000000000000     
  0.81250000000000000       0.71875000000000000        0.0000000000000000     
  0.84375000000000000       0.71875000000000000        0.0000000000000000     
  0.87500000000000000       0.71875000000000000        0.0000000000000000     
  0.75000000000000000       0.75000000000000000        0.0000000000000000     
  0.78125000000000000       0.75000000000000000        0.0000000000000000     
  0.81250000000000000       0.75000000000000000        0.0000000000000000     
  0.84375000000000000       0.75000000000000000        0.0000000000000000     
  0.87500000000000000       0.75000000000000000        0.0000000000000000     
  0.87500000000000000       0.62500000000000000        0.0000000000000000     
  0.90625000000000000       0.62500000000000000        0.0000000000000000     
  0.93750000000000000       0.62500000000000000        0.0000000000000000     
  0.96875000000000000       0.62500000000000000        0.0000000000000000     
   1.0000000000000000       0.62500000000000000        0.0000000000000000     
  0.87500000000000000       0.65625000000000000        0.0000000000000000     
  0.90625000000000000       0.65625000000000000        0.0000000000000000     
  0.93750000000000000       0.65625000000000000        0.0000000000000000     
  0.96875000000000000       0.65625000000000000        0.0000000000000000     
   1.0000000000000000       0.65625000000000000        0.0000000000000000     
  0.87500000000000000       0.68750000000000000        0.0000000000000000     
  0.90625000000000000       0.68750000000000000        0.0000000000000000     
  0.93750000000000000       0.68750000000000000        0.0000000000000000     
  0.96875000000000000       0.68750000000000000        0.0000000000000000     
   1.0000000000000000       0.68750000000000000        0.0000000000000000     
  0.87500000000000000       0.71875000000000000        0.0000000000000000     
  0.90625000000000000       0.71875000000000000        0.0000000000000000     
  0.93750000000000000       0.71875000000000000        0.0000000000000000     
  0.96875000000000000       0.71875000000000000        0.0000000000000000     
   1.0000000000000000       0.71875000000000000        0.0000000000000000     
  0.87500000000000000       0.75000000000000000        0.0000000000000000     
  0.90625000000000000       0.75000000000000000        0.0000000000000000     
  0.93750000000000000       0.75000000000000000        0.0000000000000000     
  0.96875000000000000       0.75000000000000000        0.0000000000000000     
   1.0000000000000000       0.75000000000000000        0.0000000000000000     
   1.0000000000000000       0.62500000000000000        0.0000000000000000     
   1.0312500000000000       0.62500000000000000        0.0000000000000000     
   1.0625000000000000       0.62500000000000000        0.0000000000000000     
   1.0937500000000000       0.62500000000000000        0.0000000000000000     
   1.1250000000000000       0.62500000000000000        0.0000000000000000     
   1.0000000000000000       0.65625000000000000        0.0000000000000000     
   1.0312500000000000       0.65625000000000000        0.0000000000000000     
   1.0625000000000000       0.65625000000000000        0.0000000000000000     
   1.0937500000000000       0.65625000000000000        0.0000000000000000     
   1.1250000000000000       0.65625000000000000        0.0000000000000000     
   1.0000000000000000       0.68750000000000000        0.0000000000000000     
   1.0312500000000000       0.68750000000000000        0.0000000000000000     
   1.0625000000000000       0.68750000000000000        0.0000000000000000     
   1.0937500000000000       0.68750000000000000        0.0000000000000000     
   1.1250000000000000       0.68750000000000000        0.0000000000000000     
   1.0000000000000000       0.71875000000000000        0.0000000000000000     
   1.0312500000000000       0.71875000000000000        0.0000000000000000     
   1.0625000000000000       0.71875000000000000        0.0000000000000000     
   1.0937500000000000       0.71875000000000000        0.0000000000000000     
   1.1250000000000000       0.71875000000000000        0.0000000000000000     
   1.0000000000000000       0.75000000000000000        0.0000000000000000     
   1.0312500000000000       0.75000000000000000        0.0000000000000000     
   1.0625000000000000       0.75000000000000000        0.0000000000000000     
   1.0937500000000000       0.75000000000000000        0.0000000000000000     
   1.1250000000000000       0.75000000000000000        0.0000000000000000     
   1.1250000000000000       0.62500000000000000        0.0000000000000000     
   1.1562500000000000       0.62500000000000000        0.0000000000000000     
   1.1875000000000000       0.62500000000000000        0.0000000000000000     
   1.2187500000000000       0.62500000000000000        0.0000000000000000     
   1.2500000000000000       0.62500000000000000        0.0000000000000000     
   1.1250000000000000       0.65625000000000000        0.0000000000000000     
   1.1562500000000000       0.65625000000000000        0.0000000000000000     
   1.1875000000000000       0.65625000000000000        0.0000000000000000     
   1.2187500000000000       0.65625000000000000        0.0000000000000000     
   1.2500000000000000       0.65625000000000000        0.0000000000000000     
   1.1250000000000000       0.68750000000000000        0.0000000000000000     
   1.1562500000000000       0.68750000000000000        0.0000000000000000     
   1.1875000000000000       0.68750000000000000        0.0000000000000000     
   1.2187500000000000       0.68750000000000000        0.0000000000000000     
   1.2500000000000000       0.68750000000000000        0.0000000000000000     
   1.1250000000000000       0.71875000000000000        0.0000000000000000     
   1.1562500000000000       0.71875000000000000        0.0000000000000000     
   1.1875000000000000       0.71875000000000000        0.0000000000000000     
   1.2187500000000000       0.71875000000000000        0.0000000000000000     
   1.2500000000000000       0.71875000000000000        0.0000000000000000     
   1.1250000000000000       0.75000000000000000        0.0000000000000000     
   1.1562500000000000       0.75000000000000000        0.0000000000000000     
   1.1875000000000000       0.75000000000000000        0.0000000000000000     
   1.2187500000000000       0.75000000000000000        0.0000000000000000     
   1.2500000000000000       0.75000000000000000        0.0000000000000000     
   1.2500000000000000       0.62500000000000000        0.0000000000000000     
   1.2812500000000000       0.62500000000000000        0.0000000000000000     
   1.3125000000000000       0.62500000000000000        0.0000000000000000     
   1.3437500000000000       0.62500000000000000        0.0000000000000000     
   1.3750000000000000       0.62500000000000000        0.0000000000000000     
   1.2500000000000000       0.65625000000000000        0.0000000000000000     
   1.2812500000000000       0.65625000000000000        0.0000000000000000     
   1.3125000000000000       0.65625000000000000        0.0000000000000000     
   1.3437500000000000       0.65625000000000000        0.0000000000000000     
   1.3750000000000000       0.65625000000000000        0.0000000000000000     
   1.2500000000000000       0.68750000000000000        0.0000000000000000     
   1.2812500000000000       0.68750000000000000        0.0000000000000000     
   1.3125000000000000       0.68750000000000000        0.0000000000000000     
   1.3437500000000000       0.68750000000000000        0.0000000000000000     
   1.3750000000000000       0.68750000000000000        0.0000000000000000     
   1.2500000000000000       0.71875000000000000        0.0000000000000000     
   1.2812500000000000       0.71875000000000000        0.0000000000000000     
   1.3125000000000000       0.71875000000000000        0.0000000000000000     
   1.3437500000000000       0.71875000000000000        0.0000000000000000     
   1.3750000000000000       0.71875000000000000        0.0000000000000000     
   1.2500000000000000       0.75000000000000000        0.0000000000000000     
   1.2812500000000000       0.75000000000000000        0.0000000000000000     
   1.3125000000000000       0.75000000000000000        0.0000000000000000     
   1.3437500000000000       0.75000000000000000        0.0000000000000000     
   1.3750000000000000       0.75000000000000000        0.0000000000000000     
   1.3750000000000000       0.62500000000000000        0.0000000000000000     
   1.4062500000000000       0.62500000000000000        0.0000000000000000     
   1.4375000000000000       0.62500000000000000        0.0000000000000000     
   1.4687500000000000       0.62500000000000000        0.0000000000000000     
   1.5000000000000000       0.62500000000000000        0.0000000000000000     
   1.3750000000000000       0.65625000000000000        0.0000000000000000     
   1.4062500000000000       0.65625000000000000        0.0000000000000000     
   1.4375000000000000       0.65625000000000000        0.0000000000000000     
   1.4687500000000000       0.65625000000000000        0.0000000000000000     
   1.5000000000000000       0.65625000000000000        0.0000000000000000     
   1.3750000000000000       0.68750000000000000        0.0000000000000000     
   1.4062500000000000       0.68750000000000000        0.0000000000000000     
   1.4375000000000000       0.68750000000000000        0.0000000000000000     
   1.4687500000000000       0.68750000000000000        0.0000000000000000     
   1.5000000000000000       0.68750000000000000        0.0000000000000000     
   1.3750000000000000       0.71875000000000000        0.0000000000000000     
   1.4062500000000000       0.71875000000000000        0.0000000000000000     
   1.4375000000000000       0.71875000000000000        0.0000000000000000     
   1.4687500000000000       0.71875000000000000        0.0000000000000000     
   1.5000000000000000       0.71875000000000000        0.0000000000000000     
   1.3750000000000000       0.75000000000000000        0.0000000000000000     
   1.4062500000000000       0.75000000000000000        0.0000000000000000     
   1.4375000000000000       0.75000000000000000        0.0000000000000000     
   1.4687500000000000       0.75000000000000000        0.0000000000000000     
   1.5000000000000000       0.75000000000000000        0.0000000000000000     
  0.50000000000000000       0.75000000000000000        0.0000000000000000     
  0.53125000000000000       0.75000000000000000        0.0000000000000000     
  0.56250000000000000       0.75000000000000000        0.0000000000000000     
  0.59375000000000000       0.75000000000000000        0.0000000000000000     
  0.62500000000000000       0.75000000000000000        0.0000000000000000     
  0.50000000000000000       0.78125000000000000        0.0000000000000000     
  0.53125000000000000       0.78125000000000000        0.0000000000000000     
  0.56250000000000000       0.78125000000000000        0.0000000000000000     
  0.59375000000000000       0.78125000000000000        0.0000000000000000     
  0.62500000000000000       0.78125000000000000        0.0000000000000000     
  0.50000000000000000       0.81250000000000000        0.0000000000000000     
  0.53125000000000000       0.81250000000000000        0.0000000000000000     
  0.56250000000000000       0.81250000000000000        0.0000000000000000     
  0.59375000000000000       0.81250000000000000        0.0000000000000000     
  0.62500000000000000       0.81250000000000000        0.0000000000000000     
  0.50000000000000000       0.84375000000000000        0.0000000000000000     
  0.53125000000000000       0.84375000000000000        0.0000000000000000     
  0.56250000000000000       0.84375000000000000        0.0000000000000000     
  0.59375000000000000       0.84375000000000000        0.0000000000000000     
  0.62500000000000000       0.84375000000000000        0.0000000000000000     
  0.50000000000000000       0.87500000000000000        0.0000000000000000     
  0.53125000000000000       0.87500000000000000        0.0000000000000000     
  0.56250000000000000       0.87500000000000000        0.0000000000000000     
  0.59375000000000000       0.87500000000000000        0.0000000000000000     
  0.62500000000000000       0.87500000000000000        0.0000000000000000     
  0.62500000000000000       0.75000000000000000        0.0000000000000000     
  0.65625000000000000       0.75000000000000000        0.0000000000000000     
  0.68750000000000000       0.75000000000000000        0.0000000000000000     
  0.71875000000000000       0.75000000000000000        0.0000000000000000     
  0.75000000000000000       0.75000000000000000        0.0000000000000000     
  0.62500000000000000       0.78125000000000000        0.0000000000000000     
  0.65625000000000000       0.78125000000000000        0.0000000000000000     
  0.68750000000000000       0.78125000000000000        0.0000000000000000     
  0.71875000000000000       0.78125000000000000        0.0000000000000000     
  0.75000000000000000       0.78125000000000000        0.0000000000000000     
  0.62500000000000000       0.81250000000000000        0.0000000000000000     
  0.65625000000000000       0.81250000000000000        0.0000000000000000     
  0.68750000000000000       0.81250000000000000        0.0000000000000000     
  0.71875000000000000       0.81250000000000000        0.0000000000000000     
  0.75000000000000000       0.81250000000000000        0.0000000000000000     
  0.62500000000000000       0.84375000000000000        0.0000000000000000     
  0.65625000000000000       0.84375000000000000        0.0000000000000000     
  0.68750000000000000       0.84375000000000000        0.0000000000000000     
  0.71875000000000000       0.84375000000000000        0.0000000000000000     
  0.75000000000000000       0.84375000000000000        0.0000000000000000     
  0.62500000000000000       0.87500000000000000        0.0000000000000000     
  0.65625000000000000       0.87500000000000000        0.0000000000000000     
  0.68750000000000000       0.87500000000000000        0.0000000000000000     
  0.71875000000000000       0.87500000000000000        0.0000000000000000     
  0.75000000000000000       0.87500000000000000        0.0000000000000000     
  0.75000000000000000       0.75000000000000000        0.0000000000000000     
  0.78125000000000000       0.75000000000000000        0.0000000000000000     
  0.81250000000000000       0.75000000000000000        0.0000000000000000     
  0.84375000000000000       0.75000000000000000        0.0000000000000000     
  0.87500000000000000       0.75000000000000000        0.0000000000000000     
  0.75000000000000000       0.78125000000000000        0.0000000000000000     
  0.78125000000000000       0.78125000000000000        0.0000000000000000     
  0.81250000000000000       0.78125000000000000        0.0000000000000000     
  0.84375000000000000       0.78125000000000000        0.0000000000000000     
  0.87500000000000000       0.78125000000000000        0.0000000000000000     
  0.75000000000000000       0.81250000000000000        0.0000000000000000     
  0.78125000000000000       0.81250000000000000        0.0000000000000000     
  0.81250000000000000       0.81250000000000000        0.0000000000000000     
  0.84375000000000000       0.81250000000000000        0.0000000000000000     
  0.87500000000000000       0.81250000000000000        0.0000000000000000     
  0.75000000000000000       0.84375000000000000        0.0000000000000000     
  0.78125000000000000       0.84375000000000000        0.0000000000000000     
  0.81250000000000000       0.84375000000000000        0.0000000000000000     
  0.84375000000000000       0.84375000000000000        0.0000000000000000     
  0.87500000000000000       0.84375000000000000        0.0000000000000000     
  0.75000000000000000       0.87500000000000000        0.0000000000000000     
  0.78125000000000000       0.87500000000000000        0.0000000000000000     
  0.81250000000000000       0.87500000000000000        0.0000000000000000     
  0.84375000000000000       0.87500000000000000        0.0000000000000000     
  0.87500000000000000       0.87500000000000000        0.0000000000000000     
  0.87500000000000000       0.75000000000000000        0.0000000000000000     
  0.90625000000000000       0.75000000000000000        0.0000000000000000     
  0.93750000000000000       0.75000000000000000        0.0000000000000000     
  0.96875000000000000       0.75000000000000000        0.0000000000000000     
   1.0000000000000000       0.75000000000000000        0.0000000000000000     
  0.87500000000000000       0.78125000000000000        0.0000000000000000     
  0.90625000000000000       0.78125000000000000        0.0000000000000000     
  0.93750000000000000       0.78125000000000000        0.0000000000000000     
  0.96875000000000000       0.78125000000000000        0.0000000000000000     
   1.0000000000000000       0.78125000000000000        0.0000000000000000     
  0.87500000000000000       0.81250000000000000        0.0000000000000000     
  0.90625000000000000       0.81250000000000000        0.0000000000000000     
  0.93750000000000000       0.81250000000000000        0.0000000000000000     
  0.96875000000000000       0.81250000000000000        0.0000000000000000     
   1.0000000000000000       0.81250000000000000        0.0000000000000000     
  0.87500000000000000       0.84375000000000000        0.0000000000000000     
  0.90625000000000000       0.84375000000000000        0.0000000000000000     
  0.93750000000000000       0.84375000000000000        0.0000000000000000     
  0.96875000000000000       0.84375000000000000        0.0000000000000000     
   1.0000000000000000       0.84375000000000000        0.0000000000000000     
  0.87500000000000000       0.87500000000000000        0.0000000000000000     
  0.90625000000000000       0.87500000000000000        0.0000000000000000     
  0.93750000000000000       0.87500000000000000        0.0000000000000000     
  0.96875000000000000       0.87500000000000000        0.0000000000000000     
   1.0000000000000000       0.87500000000000000        0.0000000000000000     
   1.0000000000000000       0.75000000000000000        0.0000000000000000     
   1.0312500000000000       0.75000000000000000        0.0000000000000000     
   1.0625000000000000       0.75000000000000000        0.0000000000000000     
   1.0937500000000000       0.75000000000000000        0.0000000000000000     
   1.1250000000000000       0.75000000000000000        0.0000000000000000     
   1.0000000000000000       0.78125000000000000        0.0000000000000000     
   1.0312500000000000       0.78125000000000000        0.0000000000000000     
   1.0625000000000000       0.78125000000000000        0.0000000000000000     
   1.0937500000000000       0.78125000000000000        0.0000000000000000     
   1.1250000000000000       0.78125000000000000        0.0000000000000000     
   1.0000000000000000       0.81250000000000000        0.0000000000000000     
   1.0312500000000000       0.81250000000000000        0.0000000000000000     
   1.0625000000000000       0.81250000000000000        0.0000000000000000     
   1.0937500000000000       0.81250000000000000        0.0000000000000000     
   1.1250000000000000       0.81250000000000000        0.0000000000000000     
   1.0000000000000000       0.84375000000000000        0.0000000000000000     
   1.0312500000000000       0.84375000000000000        0.0000000000000000     
   1.0625000000000000       0.84375000000000000        0.0000000000000000     
   1.0937500000000000       0.84375000000000000        0.0000000000000000     
   1.1250000000000000       0.84375000000000000        0.0000000000000000     
   1.0000000000000000       0.87500000000000000        0.0000000000000000     
   1.0312500000000000       0.87500000000000000        0.0000000000000000     
   1.0625000000000000       0.87500000000000000        0.0000000000000000     
   1.0937500000000000       0.87500000000000000        0.0000000000000000     
   1.1250000000000000       0.87500000000000000        0.0000000000000000     
   1.1250000000000000       0.75000000000000000        0.0000000000000000     
   1.1562500000000000       0.75000000000000000        0.0000000000000000     
   1.1875000000000000       0.75000000000000000        0.0000000000000000     
   1.2187500000000000       0.75000000000000000        0.0000000000000000     
   1.2500000000000000       0.75000000000000000        0.0000000000000000     
   1.1250000000000000       0.78125000000000000        0.0000000000000000     
   1.1562500000000000       0.78125000000000000        0.0000000000000000     
   1.1875000000000000       0.78125000000000000        0.0000000000000000     
   1.2187500000000000       0.78125000000000000        0.0000000000000000     
   1.2500000000000000       0.78125000000000000        0.0000000000000000     
   1.1250000000000000       0.81250000000000000        0.0000000000000000     
   1.1562500000000000       0.81250000000000000        0.0000000000000000     
   1.1875000000000000       0.81250000000000000        0.0000000000000000     
   1.2187500000000000       0.81250000000000000        0.0000000000000000     
   1.2500000000000000       0.81250000000000000        0.0000000000000000     
   1.1250000000000000       0.84375000000000000        0.0000000000000000     
   1.1562500000000000       0.84375000000000000        0.0000000000000000     
   1.1875000000000000       0.84375000000000000        0.0000000000000000     
   1.2187500000000000       0.84375000000000000        0.0000000000000000     
   1.2500000000000000       0.84375000000000000        0.0000000000000000     
   1.1250000000000000       0.87500000000000000        0.0000000000000000     
   1.1562500000000000       0.87500000000000000        0.0000000000000000     
   1.1875000000000000       0.87500000000000000        0.0000000000000000     
   1.2187500000000000       0.87500000000000000        0.0000000000000000     
   1.2500000000000000       0.87500000000000000        0.0000000000000000     
   1.2500000000000000       0.75000000000000000        0.0000000000000000     
   1.2812500000000000       0.75000000000000000        0.0000000000000000     
   1.3125000000000000       0.75000000000000000        0.0000000000000000     
   1.3437500000000000       0.75000000000000000        0.0000000000000000     
   1.3750000000000000       0.75000000000000000        0.0000000000000000     
   1.2500000000000000       0.78125000000000000        0.0000000000000000     
   1.2812500000000000       0.78125000000000000        0.0000000000000000     
   1.3125000000000000       0.78125000000000000        0.0000000000000000     
   1.3437500000000000       0.78125000000000000        0.0000000000000000     
   1.3750000000000000       0.78125000000000000        0.0000000000000000     
   1.2500000000000000       0.81250000000000000        0.0000000000000000     
   1.2812500000000000       0.81250000000000000        0.0000000000000000     
   1.3125000000000000       0.81250000000000000        0.0000000000000000     
   1.3437500000000000       0.81250000000000000        0.0000000000000000     
   1.3750000000000000       0.81250000000000000        0.0000000000000000     
   1.2500000000000000       0.84375000000000000        0.0000000000000000     
   1.2812500000000000       0.84375000000000000        0.0000000000000000     
   1.3125000000000000       0.84375000000000000        0.0000000000000000     
   1.3437500000000000       0.84375000000000000        0.0000000000000000     
   1.3750000000000000       0.84375000000000000        0.0000000000000000     
   1.2500000000000000       0.87500000000000000        0.0000000000000000     
   1.2812500000000000       0.87500000000000000        0.0000000000000000     
   1.3125000000000000       0.87500000000000000        0.0000000000000000     
   1.3437500000000000       0.87500000000000000        0.0000000000000000     
   1.3750000000000000       0.87500000000000000        0.0000000000000000     
   1.3750000000000000       0.75000000000000000        0.0000000000000000     
   1.4062500000000000       0.75000000000000000        0.0000000000000000     
   1.4375000000000000       0.75000000000000000        0.0000000000000000     
   1.4687500000000000       0.75000000000000000        0.0000000000000000     
   1.5000000000000000       0.75000000000000000        0.0000000000000000     
   1.3750000000000000       0.78125000000000000        0.0000000000000000     
   1.4062500000000000       0.78125000000000000        0.0000000000000000     
   1.4375000000000000       0.78125000000000000        0.0000000000000000     
   1.4687500000000000       0.78125000000000000        0.0000000000000000     
   1.5000000000000000       0.78125000000000000        0.0000000000000000     
   1.3750000000000000       0.81250000000000000        0.0000000000000000     
   1.4062500000000000       0.81250000000000000        0.0000000000000000     
   1.4375000000000000       0.81250000000000000        0.0000000000000000     
   1.4687500000000000       0.81250000000000000        0.0000000000000000     
   1.5000000000000000       0.81250000000000000        0.0000000000000000     
   1.3750000000000000       0.84375000000000000        0.0000000000000000     
   1.4062500000000000       0.84375000000000000        0.0000000000000000     
   1.4375000000000000       0.84375000000000000        0.0000000000000000     
   1.4687500000000000       0.84375000000000000        0.0000000000000000     
   1.5000000000000000       0.84375000000000000        0.0000000000000000     
   1.3750000000000000       0.87500000000000000        0.0000000000000000     
   1.4062500000000000       0.87500000000000000        0.0000000000000000     
   1.4375000000000000       0.87500000000000000        0.0000000000000000     
   1.4687500000000000       0.87500000000000000        0.0000000000000000     
   1.5000000000000000       0.87500000000000000        0.0000000000000000     
  0.50000000000000000       0.87500000000000000        0.0000000000000000     
  0.53125000000000000       0.87500000000000000        0.0000000000000000     
  0.56250000000000000       0.87500000000000000        0.0000000000000000     
  0.59375000000000000       0.87500000000000000        0.0000000000000000     
  0.62500000000000000       0.87500000000000000        0.0000000000000000     
  0.50000000000000000       0.90625000000000000        0.0000000000000000     
  0.53125000000000000       0.90625000000000000        0.0000000000000000     
  0.56250000000000000       0.90625000000000000        0.0000000000000000     
  0.59375000000000000       0.90625000000000000        0.0000000000000000     
  0.62500000000000000       0.90625000000000000        0.0000000000000000     
  0.50000000000000000       0.93750000000000000        0.0000000000000000     
  0.53125000000000000       0.93750000000000000        0.0000000000000000     
  0.56250000000000000       0.93750000000000000        0.0000000000000000     
  0.59375000000000000       0.93750000000000000        0.0000000000000000     
  0.62500000000000000       0.93750000000000000        0.0000000000000000     
  0.50000000000000000       0.96875000000000000        0.0000000000000000     
  0.53125000000000000       0.96875000000000000        0.0000000000000000     
  0.56250000000000000       0.96875000000000000        0.0000000000000000     
  0.59375000000000000       0.96875000000000000        0.0000000000000000     
  0.62500000000000000       0.96875000000000000        0.0000000000000000     
  0.50000000000000000        1.0000000000000000        0.0000000000000000     
  0.53125000000000000        1.0000000000000000        0.0000000000000000     
  0.56250000000000000        1.0000000000000000        0.0000000000000000     
  0.59375000000000000        1.0000000000000000        0.0000000000000000     
  0.62500000000000000        1.0000000000000000        0.0000000000000000     
  0.62500000000000000       0.87500000000000000        0.0000000000000000     
  0.65625000000000000       0.87500000000000000        0.0000000000000000     
  0.68750000000000000       0.87500000000000000        0.0000000000000000     
  0.71875000000000000       0.87500000000000000        0.0000000000000000     
  0.75000000000000000       0.87500000000000000        0.0000000000000000     
  0.62500000000000000       0.90625000000000000        0.0000000000000000     
  0.65625000000000000       0.90625000000000000        0.0000000000000000     
  0.68750000000000000       0.90625000000000000        0.0000000000000000     
  0.71875000000000000       0.90625000000000000        0.0000000000000000     
  0.75000000000000000       0.90625000000000000        0.0000000000000000     
  0.62500000000000000       0.93750000000000000        0.0000000000000000     
  0.65625000000000000       0.93750000000000000        0.0000000000000000     
  0.68750000000000000       0.93750000000000000        0.0000000000000000     
  0.71875000000000000       0.93750000000000000        0.0000000000000000     
  0.75000000000000000       0.93750000000000000        0.0000000000000000     
  0.62500000000000000       0.96875000000000000        0.0000000000000000     
  0.65625000000000000       0.96875000000000000        0.0000000000000000     
  0.68750000000000000       0.96875000000000000        0.0000000000000000     
  0.71875000000000000       0.96875000000000000        0.0000000000000000     
  0.75000000000000000       0.96875000000000000        0.0000000000000000     
  0.62500000000000000        1.0000000000000000        0.0000000000000000     
  0.65625000000000000        1.0000000000000000        0.0000000000000000     
  0.68750000000000000        1.0000000000000000        0.0000000000000000     
  0.71875000000000000        1.0000000000000000        0.0000000000000000     
  0.75000000000000000        1.0000000000000000        0.0000000000000000     
  0.75000000000000000       0.87500000000000000        0.0000000000000000     
  0.78125000000000000       0.87500000000000000        0.0000000000000000     
  0.81250000000000000       0.87500000000000000        0.0000000000000000     
  0.84375000000000000       0.87500000000000000        0.0000000000000000     
  0.87500000000000000       0.87500000000000000        0.0000000000000000     
  0.75000000000000000       0.90625000000000000        0.0000000000000000     
  0.78125000000000000       0.90625000000000000        0.0000000000000000     
  0.81250000000000000       0.90625000000000000        0.0000000000000000     
  0.84375000000000000       0.90625000000000000        0.0000000000000000     
  0.87500000000000000       0.90625000000000000        0.0000000000000000     
  0.75000000000000000       0.93750000000000000        0.0000000000000000     
  0.78125000000000000       0.93750000000000000        0.0000000000000000     
  0.81250000000000000       0.93750000000000000        0.0000000000000000     
  0.84375000000000000       0.93750000000000000        0.0000000000000000     
  0.87500000000000000       0.93750000000000000        0.0000000000000000     
  0.75000000000000000       0.96875000000000000        0.0000000000000000     
  0.78125000000000000       0.96875000000000000        0.0000000000000000     
  0.81250000000000000       0.96875000000000000        0.0000000000000000     
  0.84375000000000000       0.96875000000000000        0.0000000000000000     
  0.87500000000000000       0.96875000000000000        0.0000000000000000     
  0.75000000000000000        1.0000000000000000        0.0000000000000000     
  0.78125000000000000        1.0000000000000000        0.0000000000000000     
  0.81250000000000000        1.0000000000000000        0.0000000000000000     
  0.84375000000000000        1.0000000000000000        0.0000000000000000     
  0.87500000000000000        1.0000000000000000        0.0000000000000000     
  0.87500000000000000       0.87500000000000000        0.0000000000000000     
  0.90625000000000000       0.87500000000000000        0.0000000000000000     
  0.93750000000000000       0.87500000000000000        0.0000000000000000     
  0.96875000000000000       0.87500000000000000        0.0000000000000000     
   1.0000000000000000       0.87500000000000000        0.0000000000000000     
  0.87500000000000000       0.90625000000000000        0.0000000000000000     
  0.90625000000000000       0.90625000000000000        0.0000000000000000     
  0.93750000000000000       0.90625000000000000        0.0000000000000000     
  0.96875000000000000       0.90625000000000000        0.0000000000000000     
   1.0000000000000000       0.90625000000000000        0.0000000000000000     
  0.87500000000000000       0.93750000000000000        0.0000000000000000     
  0.90625000000000000       0.93750000000000000        0.0000000000000000     
  0.93750000000000000       0.93750000000000000        0.0000000000000000     
  0.96875000000000000       0.93750000000000000        0.0000000000000000     
   1.0000000000000000       0.93750000000000000        0.0000000000000000     
  0.87500000000000000       0.96875000000000000        0.0000000000000000     
  0.90625000000000000       0.96875000000000000        0.0000000000000000     
  0.93750000000000000       0.96875000000000000        0.0000000000000000     
  0.96875000000000000       0.96875000000000000        0.0000000000000000     
   1.0000000000000000       0.96875000000000000        0.0000000000000000     
  0.87500000000000000        1.0000000000000000        0.0000000000000000     
  0.90625000000000000        1.0000000000000000        0.0000000000000000     
  0.93750000000000000        1.0000000000000000        0.0000000000000000     
  0.96875000000000000        1.0000000000000000        0.0000000000000000     
   1.0000000000000000        1.0000000000000000        0.0000000000000000     
   1.0000000000000000       0.87500000000000000        0.0000000000000000     
   1.0312500000000000       0.87500000000000000        0.0000000000000000     
   1.0625000000000000       0.87500000000000000        0.0000000000000000     
   1.0937500000000000       0.87500000000000000        0.0000000000000000     
   1.1250000000000000       0.87500000000000000        0.0000000000000000     
   1.0000000000000000       0.90625000000000000        0.0000000000000000     
   1.0312500000000000       0.90625000000000000        0.0000000000000000     
   1.0625000000000000       0.90625000000000000        0.0000000000000000     
   1.0937500000000000       0.90625000000000000        0.0000000000000000     
   1.1250000000000000       0.90625000000000000        0.0000000000000000     
   1.0000000000000000       0.93750000000000000        0.0000000000000000     
   1.0312500000000000       0.93750000000000000        0.0000000000000000     
   1.0625000000000000       0.93750000000000000        0.0000000000000000     
   1.0937500000000000       0.93750000000000000        0.0000000000000000     
   1.1250000000000000       0.93750000000000000        0.0000000000000000     
   1.0000000000000000       0.96875000000000000        0.0000000000000000     
   1.0312500000000000       0.96875000000000000        0.0000000000000000     
   1.0625000000000000       0.96875000000000000        0.0000000000000000     
   1.0937500000000000       0.96875000000000000        0.0000000000000000     
   1.1250000000000000       0.96875000000000000        0.0000000000000000     
   1.0000000000000000        1.0000000000000000        0.0000000000000000     
   1.0312500000000000        1.0000000000000000        0.0000000000000000     
   1.0625000000000000        1.0000000000000000        0.0000000000000000     
   1.0937500000000000        1.0000000000000000        0.0000000000000000     
   1.1250000000000000        1.0000000000000000        0.0000000000000000     
   1.1250000000000000       0.87500000000000000        0.0000000000000000     
   1.1562500000000000       0.87500000000000000        0.0000000000000000     
   1.1875000000000000       0.87500000000000000        0.0000000000000000     
   1.2187500000000000       0.87500000000000000        0.0000000000000000     
   1.2500000000000000       0.87500000000000000        0.0000000000000000     
   1.1250000000000000       0.90625000000000000        0.0000000000000000     
   1.1562500000000000       0.90625000000000000        0.0000000000000000     
   1.1875000000000000       0.90625000000000000        0.0000000000000000     
   1.2187500000000000       0.90625000000000000        0.0000000000000000     
   1.2500000000000000       0.90625000000000000        0.0000000000000000     
   1.1250000000000000       0.93750000000000000        0.0000000000000000     
   1.1562500000000000       0.93750000000000000        0.0000000000000000     
   1.1875000000000000       0.93750000000000000        0.0000000000000000     
   1.2187500000000000       0.93750000000000000        0.0000000000000000     
   1.2500000000000000       0.93750000000000000        0.0000000000000000     
   1.1250000000000000       0.96875000000000000        0.0000000000000000     
   1.1562500000000000       0.96875000000000000        0.0000000000000000     
   1.1875000000000000       0.96875000000000000        0.0000000000000000     
   1.2187500000000000       0.96875000000000000        0.0000000000000000     
   1.2500000000000000       0.96875000000000000        0.0000000000000000     
   1.1250000000000000        1.0000000000000000        0.0000000000000000     
   1.1562500000000000        1.0000000000000000        0.0000000000000000     
   1.1875000000000000        1.0000000000000000        0.0000000000000000     
   1.2187500000000000        1.0000000000000000        0.0000000000000000     
   1.2500000000000000        1.0000000000000000        0.0000000000000000     
   1.2500000000000000       0.87500000000000000        0.0000000000000000     
   1.2812500000000000       0.87500000000000000        0.0000000000000000     
   1.3125000000000000       0.87500000000000000        0.0000000000000000     
   1.3437500000000000       0.87500000000000000        0.0000000000000000     
   1.3750000000000000       0.87500000000000000        0.0000000000000000     
   1.2500000000000000       0.90625000000000000        0.0000000000000000     
   1.2812500000000000       0.90625000000000000        0.0000000000000000     
   1.3125000000000000       0.90625000000000000        0.0000000000000000     
   1.3437500000000000       0.90625000000000000        0.0000000000000000     
   1.3750000000000000       0.90625000000000000        0.0000000000000000     
   1.2500000000000000       0.93750000000000000        0.0000000000000000     
   1.2812500000000000       0.93750000000000000        0.0000000000000000     
   1.3125000000000000       0.93750000000000000        0.0000000000000000     
   1.3437500000000000       0.93750000000000000        0.0000000000000000     
   1.3750000000000000       0.93750000000000000        0.0000000000000000     
   1.2500000000000000       0.96875000000000000        0.0000000000000000     
   1.2812500000000000       0.96875000000000000        0.0000000000000000     
   1.3125000000000000       0.96875000000000000        0.0000000000000000     
   1.3437500000000000       0.96875000000000000        0.0000000000000000     
   1.3750000000000000       0.96875000000000000        0.0000000000000000     
   1.2500000000000000        1.0000000000000000        0.0000000000000000     
   1.2812500000000000        1.0000000000000000        0.0000000000000000     
   1.3125000000000000        1.0000000000000000        0.0000000000000000     
   1.3437500000000000        1.0000000000000000        0.0000000000000000     
   1.3750000000000000        1.0000000000000000        0.0000000000000000     
   1.3750000000000000       0.87500000000000000        0.0000000000000000     
   1.4062500000000000       0.87500000000000000        0.0000000000000000     
   1.4375000000000000       0.87500000000000000        0.0000000000000000     
   1.4687500000000000       0.87500000000000000        0.0000000000000000     
   1.5000000000000000       0.87500000000000000        0.0000000000000000     
   1.3750000000000000       0.90625000000000000        0.0000000000000000     
   1.4062500000000000       0.90625000000000000        0.0000000000000000     
   1.4375000000000000       0.90625000000000000        0.0000000000000000     
   1.4687500000000000       0.90625000000000000        0.0000000000000000     
   1.5000000000000000       0.90625000000000000        0.0000000000000000     
   1.3750000000000000       0.93750000000000000        0.0000000000000000     
   1.4062500000000000       0.93750000000000000        0.0000000000000000     
   1.4375000000000000       0.93750000000000000        0.0000000000000000     
   1.4687500000000000       0.93750000000000000        0.0000000000000000     
   1.5000000000000000       0.93750000000000000        0.0000000000000000     
   1.3750000000000000       0.96875000000000000        0.0000000000000000     
   1.4062500000000000       0.96875000000000000        0.0000000000000000     
   1.4375000000000000       0.96875000000000000        0.0000000000000000     
   1.4687500000000000       0.96875000000000000        0.0000000000000000     
   1.5000000000000000       0.96875000000000000        0.0000000000000000     
   1.3750000000000000        1.0000000000000000        0.0000000000000000     
   1.4062500000000000        1.0000000000000000        0.0000000000000000     
   1.4375000000000000        1.0000000000000000        0.0000000000000000     
   1.4687500000000000        1.0000000000000000        0.0000000000000000     
   1.5000000000000000        1.0000000000000000        0.0000000000000000     
 </DataArray>
 </Points>
 <Cells>
 <DataArray  type="Int32"  Name="connectivity"  format="ascii">
           0           1           6           5
           1           2           7           6
           2           3           8           7
           3           4           9           8
           5           6          11          10
           6           7          12          11
           7           8          13          12
           8           9          14          13
          10          11          16          15
          11          12          17          16
          12          13          18          17
          13          14          19          18
          15          16          21          20
          16          17          22          21
          17          18          23          22
          18          19          24          23
          25          26          31          30
          26          27          32          31
          27          28          33          32
          28          29          34          33
          30          31          36          35
          31          32          37          36
          32          33          38          37
          33          34          39          38
          35          36          41          40
          36          37          42          41
          37          38          43          42
          38          39          44          43
          40          41          46          45
          41          42          47          46
          42          43          48          47
          43          44          49          48
          50          51          56          55
          51          52          57          56
          52          53          58          57
          53          54          59          58
          55          56          61          60
          56          57          62          61
          57          58          63          62
          58          59          64          63
          60          61          66          65
          61          62          67          66
          62          63          68          67
          63          64          69          68
          65          66          71          70
          66          67          72          71
          67          68          73          72
          68          69          74          73
          75          76          81          80
          76          77          82          81
          77          78          83          82
          78          79          84          83
          80          81          86          85
          81          82          87          86
          82          83          88          87
          83          84          89          88
          85          86          91          90
          86          87          92          91
          87          88          93          92
          88          89          94          93
          90          91          96          95
          91          92          97          96
          92          93          98          97
          93          94          99          98
         100         101         106         105
         101         102         107         106
         102         103         108         107
         103         104         109         108
         105         106         111         110
         106         107         112         111
         107         108         113         112
         108         109         114         113
         110         111         116         115
         111         112         117         116
         112         113         118         117
         113         114         119         118
         115         116         121         120
         116         117         122         121
         117         118         123         122
         118         119         124         123
         125         126         131         130
         126         127         132         131
         127         128         133         132
         128         129         134         133
         130         131         136         135
         131         132         137         136
         132         133         138         137
         133         134         139         138
         135         136         141         140
         136         137         142         141
         137         138         143         142
         138         139         144         143
         140         141         146         145
         141         142         147         146
         142         143         148         147
         143         144         149         148
         150         151         156         155
         151         152         157         156
         152         153         158         157
         153         154         159         158
         155         156         161         160
         156         157         162         161
         157         158         163         162
         158         159         164         163
         160         161         166         165
         161         162         167         166
         162         163         168         167
         163         164         169         168
         165         166         171         170
         166         167         172         171
         167         168         173         172
         168         169         174         173
         175         176         181         180
         176         177         182         181
         177         178         183         182
         178         179         184         183
         180         181         186         185
         181         182         187         186
         182         183         188         187
         183         184         189         188
         185         186         191         190
         186         187         192         191
         187         188         193         192
         188         189         194         193
         190         191         196         195
         191         192         197         196
         192         193         198         197
         193         194         199         198
         200         201         206         205
         201         202         207         206
         202         203         208         207
         203         204         209         208
         205         206         211         210
         206         207         212         211
         207         208         213         212
         208         209         214         213
         210         211         216         215
         211         212         217         216
         212         213         218         217
         213         214         219         218
         215         216         221         220
         216         217         222         221
         217         218         223         222
         218         219         224         223
         225         226         231         230
         226         227         232         231
         227         228         233         232
         228         229         234         233
         230         231         236         235
         231         232         237         236
         232         233         238         237
         233         234         239         238
         235         236         241         240
         236         237         242         241
         237         238         243         242
         238         239         244         243
         240         241         246         245
         241         242         247         246
         242         243         248         247
         243         244         249         248
         250         251         256         255
         251         252         257         256
         252         253         258         257
         253         254         259         258
         255         256         261         260
         256         257         262         261
         257         258         263         262
         258         259         264         263
         260         261         266         265
         261         262         267         266
         262         263         268         267
         263         264         269         268
         265         266         271         270
         266         267         272         271
         267         268         273         272
         268         269         274         273
         275         276         281         280
         276         277         282         281
         277         278         283         282
         278         279         284         283
         280         281         286         285
         281         282         287         286
         282         283         288         287
         283         284         289         288
         285         286         291         290
         286         287         292         291
         287         288         293         292
         288         289         294         293
         290         291         296         295
         291         292         297         296
         292         293         298         297
         293         294         299         298
         300         301         306         305
         301         302         307         306
         302         303         308         307
         303         304         309         308
         305         306         311         310
         306         307         312         311
         307         308         313         312
         308         309         314         313
         310         311         316         315
         311         312         317         316
         312         313         318         317
         313         314         319         318
         315         316         321         320
         316         317         322         321
         317         318         323         322
         318         319         324         323
         325         326         331         330
         326         327         332         331
         327         328         333         332
         328         329         334         333
         330         331         336         335
         331         332         337         336
         332         333         338         337
         333         334         339         338
         335         336         341         340
         336         337         342         341
         337         338         343         342
         338         339         344         343
         340         341         346         345
         341         342         347         346
         342         343         348         347
         343         344         349         348
         350         351         356         355
         351         352         357         356
         352         353         358         357
         353         354         359         358
         355         356         361         360
         356         357         362         361
         357         358         363         362
         358         359         364         363
         360         361         366         365
         361         362         367         366
         362         363         368         367
         363         364         369         368
         365         366         371         370
         366         367         372         371
         367         368         373         372
         368         369         374         373
         375         376         381         380
         376         377         382         381
         377         378         383         382
         378         379         384         383
         380         381         386         385
         381         382         387         386
         382         383         388         387
         383         384         389         388
         385         386         391         390
         386         387         392         391
         387         388         393         392
         388         389         394         393
         390         391         396         395
         391         392         397         396
         392         393         398         397
         393         394         399         398
         400         401         406         405
         401         402         407         406
         402         403         408         407
         403         404         409         408
         405         406         411         410
         406         407         412         411
         407         408         413         412
         408         409         414         413
         410         411         416         415
         411         412         417         416
         412         413         418         417
         413         414         419         418
         415         416         421         420
         416         417         422         421
         417         418         423         422
         418         419         424         423
         425         426         431         430
         426         427         432         431
         427         428         433         432
         428         429         434         433
         430         431         436         435
         431         432         437         436
         432         433         438         437
         433         434         439         438
         435         436         441         440
         436         437         442         441
         437         438         443         442
         438         439         444         443
         440         441         446         445
         441         442         447         446
         442         443         448         447
         443         444         449         448
         450         451         456         455
         451         452         457         456
         452         453         458         457
         453         454         459         458
         455         456         461         460
         456         457         462         461
         457         458         463         462
         458         459         464         463
         460         461         466         465
         461         462         467         466
         462         463         468         467
         463         464         469         468
         465         466         471         470
         466         467         472         471
         467         468         473         472
         468         469         474         473
         475         476         481         480
         476         477         482         481
         477         478         483         482
         478         479         484         483
         480         481         486         485
         481         482         487         486
         482         483         488         487
         483         484         489         488
         485         486         491         490
         486         487         492         491
         487         488         493         492
         488         489         494         493
         490         491         496         495
         491         492         497         496
         492         493         498         497
         493         494         499         498
         500         501         506         505
         501         502         507         506
         502         503         508         507
         503         504         509         508
         505         506         511         510
         506         507         512         511
         507         508         513         512
         508         509         514         513
         510         511         516         515
         511         512         517         516
         512         513         518         517
         513         514         519         518
         515         516         521         520
         516         517         522         521
         517         518         523         522
         518         519         524         523
         525         526         531         530
         526         527         532         531
         527         528         533         532
         528         529         534         533
         530         531         536         535
         531         532         537         536
         532         533         538         537
         533         534         539         538
         535         536         541         540
         536         537         542         541
         537         538         543         542
         538         539         544         543
         540         541         546         545
         541         542         547         546
         542         543         548         547
         543         544         549         548
         550         551         556         555
         551         552         557         556
         552         553         558         557
         553         554         559         558
         555         556         561         560
         556         557         562         561
         557         558         563         562
         558         559         564         563
         560         561         566         565
         561         562         567         566
         562         563         568         567
         563         564         569         568
         565         566         571         570
         566         567         572         571
         567         568         573         572
         568         569         574         573
         575         576         581         580
         576         577         582         581
         577         578         583         582
         578         579         584         583
         580         581         586         585
         581         582         587         586
         582         583         588         587
         583         584         589         588
         585         586         591         590
         586         587         592         591
         587         588         593         592
         588         589         594         593
         590         591         596         595
         591         592         597         596
         592         593         598         597
         593         594         599         598
         600         601         606         605
         601         602         607         606
         602         603         608         607
         603         604         609         608
         605         606         611         610
         606         607         612         611
         607         608         613         612
         608         609         614         613
         610         611         616         615
         611         612         617         616
         612         613         618         617
         613         614         619         618
         615         616         621         620
         616         617         622         621
         617         618         623         622
         618         619         624         623
         625         626         631         630
         626         627         632         631
         627         628         633         632
         628         629         634         633
         630         631         636         635
         631         632         637         636
         632         633         638         637
         633         634         639         638
         635         636         641         640
         636         637         642         641
         637         638         643         642
         638         639         644         643
         640         641         646         645
         641         642         647         646
         642         643         648         647
         643         644         649         648
         650         651         656         655
         651         652         657         656
         652         653         658         657
         653         654         659         658
         655         656         661         660
         656         657         662         661
         657         658         663         662
         658         659         664         663
         660         661         666         665
         661         662         667         666
         662         663         668         667
         663         664         669         668
         665         666         671         670
         666         667         672         671
         667         668         673         672
         668         669         674         673
         675         676         681         680
         676         677         682         681
         677         678         683         682
         678         679         684         683
         680         681         686         685
         681         682         687         686
         682         683         688         687
         683         684         689         688
         685         686         691         690
         686         687         692         691
         687         688         693         692
         688         689         694         693
         690         691         696         695
         691         692         697         696
         692         693         698         697
         693         694         699         698
         700         701         706         705
         701         702         707         706
         702         703         708         707
         703         704         709         708
         705         706         711         710
         706         707         712         711
         707         708         713         712
         708         709         714         713
         710         711         716         715
         711         712         717         716
         712         713         718         717
         713         714         719         718
         715         716         721         720
         716         717         722         721
         717         718         723         722
         718         719         724         723
         725         726         731         730
         726         727         732         731
         727         728         733         732
         728         729         734         733
         730         731         736         735
         731         732         737         736
         732         733         738         737
         733         734         739         738
         735         736         741         740
         736         737         742         741
         737         738         743         742
         738         739         744         743
         740         741         746         745
         741         742         747         746
         742         743         748         747
         743         744         749         748
         750         751         756         755
         751         752         757         756
         752         753         758         757
         753         754         759         758
         755         756         761         760
         756         757         762         761
         757         758         763         762
         758         759         764         763
         760         761         766         765
         761         762         767         766
         762         763         768         767
         763         764         769         768
         765         766         771         770
         766         767         772         771
         767         768         773         772
         768         769         774         773
         775         776         781         780
         776         777         782         781
         777         778         783         782
         778         779         784         783
         780         781         786         785
         781         782         787         786
         782         783         788         787
         783         784         789         788
         785         786         791         790
         786         787         792         791
         787         788         793         792
         788         789         794         793
         790         791         796         795
         791         792         797         796
         792         793         798         797
         793         794         799         798
         800         801         806         805
         801         802         807         806
         802         803         808         807
         803         804         809         808
         805         806         811         810
         806         807         812         811
         807         808         813         812
         808         809         814         813
         810         811         816         815
         811         812         817         816
         812         813         818         817
         813         814         819         818
         815         816         821         820
         816         817         822         821
         817         818         823         822
         818         819         824         823
         825         826         831         830
         826         827         832         831
         827         828         833         832
         828         829         834         833
         830         831         836         835
         831         832         837         836
         832         833         838         837
         833         834         839         838
         835         836         841         840
         836         837         842         841
         837         838         843         842
         838         839         844         843
         840         841         846         845
         841         842         847         846
         842         843         848         847
         843         844         849         848
         850         851         856         855
         851         852         857         856
         852         853         858         857
         853         854         859         858
         855         856         861         860
         856         857         862         861
         857         858         863         862
         858         859         864         863
         860         861         866         865
         861         862         867         866
         862         863         868         867
         863         864         869         868
         865         866         871         870
         866         867         872         871
         867         868         873         872
         868         869         874         873
         875         876         881         880
         876         877         882         881
         877         878         883         882
         878         879         884         883
         880         881         886         885
         881         882         887         886
         882         883         888         887
         883         884         889         888
         885         886         891         890
         886         887         892         891
         887         888         893         892
         888         889         894         893
         890         891         896         895
         891         892         897         896
         892         893         898         897
         893         894         899         898
         900         901         906         905
         901         902         907         906
         902         903         908         907
         903         904         909         908
         905         906         911         910
         906         907         912         911
         907         908         913         912
         908         909         914         913
         910         911         916         915
         911         912         917         916
         912         913         918         917
         913         914         919         918
         915         916         921         920
         916         917         922         921
         917         918         923         922
         918         919         924         923
         925         926         931         930
         926         927         932         931
         927         928         933         932
         928         929         934         933
         930         931         936         935
         931         932         937         936
         932         933         938         937
         933         934         939         938
         935         936         941         940
         936         937         942         941
         937         938         943         942
         938         939         944         943
         940         941         946         945
         941         942         947         946
         942         943         948         947
         943         944         949         948
         950         951         956         955
         951         952         957         956
         952         953         958         957
         953         954         959         958
         955         956         961         960
         956         957         962         961
         957         958         963         962
         958         959         964         963
         960         961         966         965
         961         962         967         966
         962         963         968         967
         963         964         969         968
         965         966         971         970
         966         967         972         971
         967         968         973         972
         968         969         974         973
         975         976         981         980
         976         977         982         981
         977         978         983         982
         978         979         984         983
         980         981         986         985
         981         982         987         986
         982         983         988         987
         983         984         989         988
         985         986         991         990
         986         987         992         991
         987         988         993         992
         988         989         994         993
         990         991         996         995
         991         992         997         996
         992         993         998         997
         993         994         999         998
        1000        1001        1006        1005
        1001        1002        1007        1006
        1002        1003        1008        1007
        1003        1004        1009        1008
        1005        1006        1011        1010
        1006        1007        1012        1011
        1007        1008        1013        1012
        1008        1009        1014        1013
        1010        1011        1016        1015
        1011        1012        1017        1016
        1012        1013        1018        1017
        1013        1014        1019        1018
        1015        1016        1021        1020
        1016        1017        1022        1021
        1017        1018        1023        1022
        1018        1019        1024        1023
        1025        1026        1031        1030
        1026        1027        1032        1031
        1027        1028        1033        1032
        1028        1029        1034        1033
        1030        1031        1036        1035
        1031        1032        1037        1036
        1032        1033        1038        1037
        1033        1034        1039        1038
        1035        1036        1041        1040
        1036        1037        1042        1041
        1037        1038        1043        1042
        1038        1039        1044        1043
        1040        1041        1046        1045
        1041        1042        1047        1046
        1042        1043        1048        1047
        1043        1044        1049        1048
        1050        1051        1056        1055
        1051        1052        1057        1056
        1052        1053        1058        1057
        1053        1054        1059        1058
        1055        1056        1061        1060
        1056        1057        1062        1061
        1057        1058        1063        1062
        1058        1059        1064        1063
        1060        1061        1066        1065
        1061        1062        1067        1066
        1062        1063        1068        1067
        1063        1064        1069        1068
        1065        1066        1071        1070
        1066        1067        1072        1071
        1067        1068        1073        1072
        1068        1069        1074        1073
        1075        1076        1081        1080
        1076        1077        1082        1081
        1077        1078        1083        1082
        1078        1079        1084        1083
        1080        1081        1086        1085
        1081        1082        1087        1086
        1082        1083        1088        1087
        1083        1084        1089        1088
        1085        1086        1091        1090
        1086        1087        1092        1091
        1087        1088        1093        1092
        1088        1089        1094        1093
        1090        1091        1096        1095
        1091        1092        1097        1096
        1092        1093        1098        1097
        1093        1094        1099        1098
        1100        1101        1106        1105
        1101        1102        1107        1106
        1102        1103        1108        1107
        1103        1104        1109        1108
        1105        1106        1111        1110
        1106        1107        1112        1111
        1107        1108        1113        1112
        1108        1109        1114        1113
        1110        1111        1116        1115
        1111        1112        1117        1116
        1112        1113        1118        1117
        1113        1114        1119        1118
        1115        1116        1121        1120
        1116        1117        1122        1121
        1117        1118        1123        1122
        1118        1119        1124        1123
        1125        1126        1131        1130
        1126        1127        1132        1131
        1127        1128        1133        1132
        1128        1129        1134        1133
        1130        1131        1136        1135
        1131        1132        1137        1136
        1132        1133        1138        1137
        1133        1134        1139        1138
        1135        1136        1141        1140
        1136        1137        1142        1141
        1137        1138        1143        1142
        1138        1139        1144        1143
        1140        1141        1146        1145
        1141        1142        1147        1146
        1142        1143        1148        1147
        1143        1144        1149        1148
        1150        1151        1156        1155
        1151        1152        1157        1156
        1152        1153        1158        1157
        1153        1154        1159        1158
        1155        1156        1161        1160
        1156        1157        1162        1161
        1157        1158        1163        1162
        1158        1159        1164        1163
        1160        1161        1166        1165
        1161        1162        1167        1166
        1162        1163        1168        1167
        1163        1164        1169        1168
        1165        1166        1171        1170
        1166        1167        1172        1171
        1167        1168        1173        1172
        1168        1169        1174        1173
        1175        1176        1181        1180
        1176        1177        1182        1181
        1177        1178        1183        1182
        1178        1179        1184        1183
        1180        1181        1186        1185
        1181        1182        1187        1186
        1182        1183        1188        1187
        1183        1184        1189        1188
        1185        1186        1191        1190
        1186        1187        1192        1191
        1187        1188        1193        1192
        1188        1189        1194        1193
        1190        1191        1196        1195
        1191        1192        1197        1196
        1192        1193        1198        1197
        1193        1194        1199        1198
        1200        1201        1206        1205
        1201        1202        1207        1206
        1202        1203        1208        1207
        1203        1204        1209        1208
        1205        1206        1211        1210
        1206        1207        1212        1211
        1207        1208        1213        1212
        1208        1209        1214        1213
        1210        1211        1216        1215
        1211        1212        1217        1216
        1212        1213        1218        1217
        1213        1214        1219        1218
        1215        1216        1221        1220
        1216        1217        1222        1221
        1217        1218        1223        1222
        1218        1219        1224        1223
        1225        1226        1231        1230
        1226        1227        1232        1231
        1227        1228        1233        1232
        1228        1229        1234        1233
        1230        1231        1236        1235
        1231        1232        1237        1236
        1232        1233        1238        1237
        1233        1234        1239        1238
        1235        1236        1241        1240
        1236        1237        1242        1241
        1237        1238        1243        1242
        1238        1239        1244        1243
        1240        1241        1246        1245
        1241        1242        1247        1246
        1242        1243        1248        1247
        1243        1244        1249        1248
        1250        1251        1256        1255
        1251        1252        1257        1256
        1252        1253        1258        1257
        1253        1254        1259        1258
        1255        1256        1261        1260
        1256        1257        1262        1261
        1257        1258        1263        1262
        1258        1259        1264        1263
        1260        1261        1266        1265
        1261        1262        1267        1266
        1262        1263        1268        1267
        1263        1264        1269        1268
        1265        1266        1271        1270
        1266        1267        1272        1271
        1267        1268        1273        1272
        1268        1269        1274        1273
        1275        1276        1281        1280
        1276        1277        1282        1281
        1277        1278        1283        1282
        1278        1279        1284        1283
        1280        1281        1286        1285
        1281        1282        1287        1286
        1282        1283        1288        1287
        1283        1284        1289        1288
        1285        1286        1291        1290
        1286        1287        1292        1291
        1287        1288        1293        1292
        1288        1289        1294        1293
        1290        1291        1296        1295
        1291        1292        1297        1296
        1292        1293        1298        1297
        1293        1294        1299        1298
        1300        1301        1306        1305
        1301        1302        1307        1306
        1302        1303        1308        1307
        1303        1304        1309        1308
        1305        1306        1311        1310
        1306        1307        1312        1311
        1307        1308        1313        1312
        1308        1309        1314        1313
        1310        1311        1316        1315
        1311        1312        1317        1316
        1312        1313        1318        1317
        1313        1314        1319        1318
        1315        1316        1321        1320
        1316        1317        1322        1321
        1317        1318        1323        1322
        1318        1319        1324        1323
        1325        1326        1331        1330
        1326        1327        1332        1331
        1327        1328        1333        1332
        1328        1329        1334        1333
        1330        1331        1336        1335
        1331        1332        1337        1336
        1332        1333        1338        1337
        1333        1334        1339        1338
        1335        1336        1341        1340
        1336        1337        1342        1341
        1337        1338        1343        1342
        1338        1339        1344        1343
        1340        1341        1346        1345
        1341        1342        1347        1346
        1342        1343        1348        1347
        1343        1344        1349        1348
        1350        1351        1356        1355
        1351        1352        1357        1356
        1352        1353        1358        1357
        1353        1354        1359        1358
        1355        1356        1361        1360
        1356        1357        1362        1361
        1357        1358        1363        1362
        1358        1359        1364        1363
        1360        1361        1366        1365
        1361        1362        1367        1366
        1362        1363        1368        1367
        1363        1364        1369        1368
        1365        1366        1371        1370
        1366        1367        1372        1371
        1367        1368        1373        1372
        1368        1369        1374        1373
        1375        1376        1381        1380
        1376        1377        1382        1381
        1377        1378        1383        1382
        1378        1379        1384        1383
        1380        1381        1386        1385
        1381        1382        1387        1386
        1382        1383        1388        1387
        1383        1384        1389        1388
        1385        1386        1391        1390
        1386        1387        1392        1391
        1387        1388        1393        1392
        1388        1389        1394        1393
        1390        1391        1396        1395
        1391        1392        1397        1396
        1392        1393        1398        1397
        1393        1394        1399        1398
        1400        1401        1406        1405
        1401        1402        1407        1406
        1402        1403        1408        1407
        1403        1404        1409        1408
        1405        1406        1411        1410
        1406        1407        1412        1411
        1407        1408        1413        1412
        1408        1409        1414        1413
        1410        1411        1416        1415
        1411        1412        1417        1416
        1412        1413        1418        1417
        1413        1414        1419        1418
        1415        1416        1421        1420
        1416        1417        1422        1421
        1417        1418        1423        1422
        1418        1419        1424        1423
        1425        1426        1431        1430
        1426        1427        1432        1431
        1427        1428        1433        1432
        1428        1429        1434        1433
        1430        1431        1436        1435
        1431        1432        1437        1436
        1432        1433        1438        1437
        1433        1434        1439        1438
        1435        1436        1441        1440
        1436        1437        1442        1441
        1437        1438        1443        1442
        1438        1439        1444        1443
        1440        1441        1446        1445
        1441        1442        1447        1446
        1442        1443        1448        1447
        1443        1444        1449        1448
        1450        1451        1456        1455
        1451        1452        1457        1456
        1452        1453        1458        1457
        1453        1454        1459        1458
        1455        1456        1461        1460
        1456        1457        1462        1461
        1457        1458        1463        1462
        1458        1459        1464        1463
        1460        1461        1466        1465
        1461        1462        1467        1466
        1462        1463        1468        1467
        1463        1464        1469        1468
        1465        1466        1471        1470
        1466        1467        1472        1471
        1467        1468        1473        1472
        1468        1469        1474        1473
        1475        1476        1481        1480
        1476        1477        1482        1481
        1477        1478        1483        1482
        1478        1479        1484        1483
        1480        1481        1486        1485
        1481        1482        1487        1486
        1482        1483        1488        1487
        1483        1484        1489        1488
        1485        1486        1491        1490
        1486        1487        1492        1491
        1487        1488        1493        1492
        1488        1489        1494        1493
        1490        1491        1496        1495
        1491        1492        1497        1496
        1492        1493        1498        1497
        1493        1494        1499        1498
        1500        1501        1506        1505
        1501        1502        1507        1506
        1502        1503        1508        1507
        1503        1504        1509        1508
        1505        1506        1511        1510
        1506        1507        1512        1511
        1507        1508        1513        1512
        1508        1509        1514        1513
        1510        1511        1516        1515
        1511        1512        1517        1516
        1512        1513        1518        1517
        1513        1514        1519        1518
        1515        1516        1521        1520
        1516        1517        1522        1521
        1517        1518        1523        1522
        1518        1519        1524        1523
        1525        1526        1531        1530
        1526        1527        1532        1531
        1527        1528        1533        1532
        1528        1529        1534        1533
        1530        1531        1536        1535
        1531        1532        1537        1536
        1532        1533        1538        1537
        1533        1534        1539        1538
        1535        1536        1541        1540
        1536        1537        1542        1541
        1537        1538        1543        1542
        1538        1539        1544        1543
        1540        1541        1546        1545
        1541        1542        1547        1546
        1542        1543        1548        1547
        1543        1544        1549        1548
        1550        1551        1556        1555
        1551        1552        1557        1556
        1552        1553        1558        1557
        1553        1554        1559        1558
        1555        1556        1561        1560
        1556        1557        1562        1561
        1557        1558        1563        1562
        1558        1559        1564        1563
        1560        1561        1566        1565
        1561        1562        1567        1566
        1562        1563        1568        1567
        1563        1564        1569        1568
        1565        1566        1571        1570
        1566        1567        1572        1571
        1567        1568        1573        1572
        1568        1569        1574        1573
        1575        1576        1581        1580
        1576        1577        1582        1581
        1577        1578        1583        1582
        1578        1579        1584        1583
        1580        1581        1586        1585
        1581        1582        1587        1586
        1582        1583        1588        1587
        1583        1584        1589        1588
        1585        1586        1591        1590
        1586        1587        1592        1591
        1587        1588        1593        1592
        1588        1589        1594        1593
        1590        1591        1596        1595
        1591        1592        1597        1596
        1592        1593        1598        1597
        1593        1594        1599        1598
 </DataArray>
 <DataArray  type="Int32"  Name="offsets"  format="ascii"> 
           4
           8
          12
          16
          20
          24
          28
          32
          36
          40
          44
          48
          52
          56
          60
          64
          68
          72
          76
          80
          84
          88
          92
          96
         100
         104
         108
         112
         116
         120
         124
         128
         132
         136
         140
         144
         148
         152
         156
         160
         164
         168
         172
         176
         180
         184
         188
         192
         196
         200
         204
         208
         212
         216
         220
         224
         228
         232
         236
         240
         244
         248
         252
         256
         260
         264
         268
         272
         276
         280
         284
         288
         292
         296
         300
         304
         308
         312
         316
         320
         324
         328
         332
         336
         340
         344
         348
         352
         356
         360
         364
         368
         372
         376
         380
         384
         388
         392
         396
         400
         404
         408
         412
         416
         420
         424
         428
         432
         436
         440
         444
         448
         452
         456
         460
         464
         468
         472
         476
         480
         484
         488
         492
         496
         500
         504
         508
         512
         516
         520
         524
         528
         532
         536
         540
         544
         548
         552
         556
         560
         564
         568
         572
         576
         580
         584
         588
         592
         596
         600
         604
         608
         612
         616
         620
         624
         628
         632
         636
         640
         644
         648
         652
         656
         660
         664
         668
         672
         676
         680
         684
         688
         692
         696
         700
         704
         708
         712
         716
         720
         724
         728
         732
         736
         740
         744
         748
         752
         756
         760
         764
         768
         772
         776
         780
         784
         788
         792
         796
         800
         804
         808
         812
         816
         820
         824
         828
         832
         836
         840
         844
         848
         852
         856
         860
         864
         868
         872
         876
         880
         884
         888
         892
         896
         900
         904
         908
         912
         916
         920
         924
         928
         932
         936
         940
         944
         948
         952
         956
         960
         964
         968
         972
         976
         980
         984
         988
         992
         996
        1000
        1004
        1008
        1012
        1016
        1020
        1024
        1028
        1032
        1036
        1040
        1044
        1048
        1052
        1056
        1060
        1064
        1068
        1072
        1076
        1080
        1084
        1088
        1092
        1096
        1100
        1104
        1108
        1112
        1116
        1120
        1124
        1128
        1132
        1136
        1140
        1144
        1148
        1152
        1156
        1160
        1164
        1168
        1172
        1176
        1180
        1184
        1188
        1192
        1196
        1200
        1204
        1208
        1212
        1216
        1220
        1224
        1228
        1232
        1236
        1240
        1244
        1248
        1252
        1256
        1260
        1264
        1268
        1272
        1276
        1280
        1284
        1288
        1292
        1296
        1300
        1304
        1308
        1312
        1316
        1320
        1324
        1328
        1332
        1336
        1340
        1344
        1348
        1352
        1356
        1360
        1364
        1368
        1372
        1376
        1380
        1384
        1388
        1392
        1396
        1400
        1404
        1408
        1412
        1416
        1420
        1424
        1428
        1432
        1436
        1440
        1444
        1448
        1452
        1456
        1460
        1464
        1468
        1472
        1476
        1480
        1484
        1488
        1492
        1496
        1500
        1504
        1508
        1512
        1516
        1520
        1524
        1528
        1532
        1536
        1540
        1544
        1548
        1552
        1556
        1560
        1564
        1568
        1572
        1576
        1580
        1584
        1588
        1592
        1596
        1600
        1604
        1608
        1612
        1616
        1620
        1624
        1628
        1632
        1636
        1640
        1644
        1648
        1652
        1656
        1660
        1664
        1668
        1672
        1676
        1680
        1684
        1688
        1692
        1696
        1700
        1704
        1708
        1712
        1716
        1720
        1724
        1728
        1732
        1736
        1740
        1744
        1748
        1752
        1756
        1760
        1764
        1768
        1772
        1776
        1780
        1784
        1788
        1792
        1796
        1800
        1804
        1808
        1812
        1816
        1820
        1824
        1828
        1832
        1836
        1840
        1844
        1848
        1852
        1856
        1860
        1864
        1868
        1872
        1876
        1880
        1884
        1888
        1892
        1896
        1900
        1904
        1908
        1912
        1916
        1920
        1924
        1928
        1932
        1936
        1940
        1944
        1948
        1952
        1956
        1960
        1964
        1968
        1972
        1976
        1980
        1984
        1988
        1992
        1996
        2000
        2004
        2008
        2012
        2016
        2020
        2024
        2028
        2032
        2036
        2040
        2044
        2048
        2052
        2056
        2060
        2064
        2068
        2072
        2076
        2080
        2084
        2088
        2092
        2096
        2100
        2104
        2108
        2112
        2116
        2120
        2124
        2128
        2132
        2136
        2140
        2144
        2148
        2152
        2156
        2160
        2164
        2168
        2172
        2176
        2180
        2184
        2188
        2192
        2196
        2200
        2204
        2208
        2212
        2216
        2220
        2224
        2228
        2232
        2236
        2240
        2244
        2248
        2252
        2256
        2260
        2264
        2268
        2272
        2276
        2280
        2284
        2288
        2292
        2296
        2300
        2304
        2308
        2312
        2316
        2320
        2324
        2328
        2332
        2336
        2340
        2344
        2348
        2352
        2356
        2360
        2364
        2368
        2372
        2376
        2380
        2384
        2388
        2392
        2396
        2400
        2404
        2408
        2412
        2416
        2420
        2424
        2428
        2432
        2436
        2440
        2444
        2448
        2452
        2456
        2460
        2464
        2468
        2472
        2476
        2480
        2484
        2488
        2492
        2496
        2500
        2504
        2508
        2512
        2516
        2520
        2524
        2528
        2532
        2536
        2540
        2544
        2548
        2552
        2556
        2560
        2564
        2568
        2572
        2576
        2580
        2584
        2588
        2592
        2596
        2600
        2604
        2608
        2612
        2616
        2620
        2624
        2628
        2632
        2636
        2640
        2644
        2648
        2652
        2656
        2660
        2664
        2668
        2672
        2676
        2680
        2684
        2688
        2692
        2696
        2700
        2704
        2708
        2712
        2716
        2720
        2724
        2728
        2732
        2736
        2740
        2744
        2748
        2752
        2756
        2760
        2764
        2768
        2772
        2776
        2780
        2784
        2788
        2792
        2796
        2800
        2804
        2808
        2812
        2816
        2820
        2824
        2828
        2832
        2836
        2840
        2844
        2848
        2852
        2856
        2860
        2864
        2868
        2872
        2876
        2880
        2884
        2888
        2892
        2896
        2900
        2904
        2908
        2912
        2916
        2920
        2924
        2928
        2932
        2936
        2940
        2944
        2948
        2952
        2956
        2960
        2964
        2968
        2972
        2976
        2980
        2984
        2988
        2992
        2996
        3000
        3004
        3008
        3012
        3016
        3020
        3024
        3028
        3032
        3036
        3040
        3044
        3048
        3052
        3056
        3060
        3064
        3068
        3072
        3076
        3080
        3084
        3088
        3092
        3096
        3100
        3104
        3108
        3112
        3116
        3120
        3124
        3128
        3132
        3136
        3140
        3144
        3148
        3152
        3156
        3160
        3164
        3168
        3172
        3176
        3180
        3184
        3188
        3192
        3196
        3200
        3204
        3208
        3212
        3216
        3220
        3224
        3228
        3232
        3236
        3240
        3244
        3248
        3252
        3256
        3260
        3264
        3268
        3272
        3276
        3280
        3284
        3288
        3292
        3296
        3300
        3304
        3308
        3312
        3316
        3320
        3324
        3328
        3332
        3336
        3340
        3344
        3348
        3352
        3356
        3360
        3364
        3368
        3372
        3376
        3380
        3384
        3388
        3392
        3396
        3400
        3404
        3408
        3412
        3416
        3420
        3424
        3428
        3432
        3436
        3440
        3444
        3448
        3452
        3456
        3460
        3464
        3468
        3472
        3476
        3480
        3484
        3488
        3492
        3496
        3500
        3504
        3508
        3512
        3516
        3520
        3524
        3528
        3532
        3536
        3540
        3544
        3548
        3552
        3556
        3560
        3564
        3568
        3572
        3576
        3580
        3584
        3588
        3592
        3596
        3600
        3604
        3608
        3612
        3616
        3620
        3624
        3628
        3632
        3636
        3640
        3644
        3648
        3652
        3656
        3660
        3664
        3668
        3672
        3676
        3680
        3684
        3688
        3692
        3696
        3700
        3704
        3708
        3712
        3716
        3720
        3724
        3728
        3732
        3736
        3740
        3744
        3748
        3752
        3756
        3760
        3764
        3768
        3772
        3776
        3780
        3784
        3788
        3792
        3796
        3800
        3804
        3808
        3812
        3816
        3820
        3824
        3828
        3832
        3836
        3840
        3844
        3848
        3852
        3856
        3860
        3864
        3868
        3872
        3876
        3880
        3884
        3888
        3892
        3896
        3900
        3904
        3908
        3912
        3916
        3920
        3924
        3928
        3932
        3936
        3940
        3944
        3948
        3952
        3956
        3960
        3964
        3968
        3972
        3976
        3980
        3984
        3988
        3992
        3996
        4000
        4004
        4008
        4012
        4016
        4020
        4024
        4028
        4032
        4036
        4040
        4044
        4048
        4052
        4056
        4060
        4064
        4068
        4072
        4076
        4080
        4084
        4088
        4092
        4096
 </DataArray>
 <DataArray  type="UInt8"  Name="types"  format="ascii">
 9
 9
 9
 9
 9
 9
 9
 9
 9
 9
 9
 9
 9
 9
 9
 9
 9
 9
 9
 9
 9
 9
 9
 9
 9
 9
 9
 9
 9
 9
 9
 9
 9
 9
 9
 9
 9
 9
 9
 9
 9
 9
 9
 9
 9
 9
 9
 9
 9
 9
 9
 9
 9
 9
 9
 9
 9
 9
 9
 9
 9
 9
 9
 9
 9
 9
 9
 9
 9
 9
 9
 9
 9
 9
 9
 9
 9
 9
 9
 9
 9
 9
 9
 9
 9
 9
 9
 9
 9
 9
 9
 9
 9
 9
 9
 9
 9
 9
 9
 9
 9
 9
 9
 9
 9
 9
 9
 9
 9
 9
 9
 9
 9
 9
 9
 9
 9
 9
 9
 9
 9
 9
 9
 9
 9
 9
 9
 9
 9
 9
 9
 9
 9
 9
 9
 9
 9
 9
 9
 9
 9
 9
 9
 9
 9
 9
 9
 9
 9
 9
 9
 9
 9
 9
 9
 9
 9
 9
 9
 9
 9
 9
 9
 9
 9
 9
 9
 9
 9
 9
 9
 9
 9
 9
 9
 9
 9
 9
 9
 9
 9
 9
 9
 9
 9
 9
 9
 9
 9
 9
 9
 9
 9
 9
 9
 9
 9
 9
 9
 9
 9
 9
 9
 9
 9
 9
 9
 9
 9
 9
 9
 9
 9
 9
 9
 9
 9
 9
 9
 9
 9
 9
 9
 9
 9
 9
 9
 9
 9
 9
 9
 9
 9
 9
 9
 9
 9
 9
 9
 9
 9
 9
 9
 9
 9
 9
 9
 9
 9
 9
 9
 9
 9
 9
 9
 9
 9
 9
 9
 9
 9
 9
 9
 9
 9
 9
 9
 9
 9
 9
 9
 9
 9
 9
 9
 9
 9
 9
 9
 9
 9
 9
 9
 9
 9
 9
 9
 9
 9
 9
 9
 9
 9
 9
 9
 9
 9
 9
 9
 9
 9
 9
 9
 9
 9
 9
 9
 9
 9
 9
 9
 9
 9
 9
 9
 9
 9
 9
 9
 9
 9
 9
 9
 9
 9
 9
 9
 9
 9
 9
 9
 9
 9
 9
 9
 9
 9
 9
 9
 9
 9
 9
 9
 9
 9
 9
 9
 9
 9
 9
 9
 9
 9
 9
 9
 9
 9
 9
 9
 9
 9
 9
 9
 9
 9
 9
 9
 9
 9
 9
 9
 9
 9
 9
 9
 9
 9
 9
 9
 9
 9
 9
 9
 9
 9
 9
 9
 9
 9
 9
 9
 9
 9
 9
 9
 9
 9
 9
 9
 9
 9
 9
 9
 9
 9
 9
 9
 9
 9
 9
 9
 9
 9
 9
 9
 9
 9
 9
 9
 9
 9
 9
 9
 9
 9
 9
 9
 9
 9
 9
 9
 9
 9
 9
 9
 9
 9
 9
 9
 9
 9
 9
 9
 9
 9
 9
 9
 9
 9
 9
 9
 9
 9
 9
 9
 9
 9
 9
 9
 9
 9
 9
 9
 9
 9
 9
 9
 9
 9
 9
 9
 9
 9
 9
 9
 9
 9
 9
 9
 9
 9
 9
 9
 9
 9
 9
 9
 9
 9
 9
 9
 9
 9
 9
 9
 9
 9
 9
 9
 9
 9
 9
 9
 9
 9
 9
 9
 9
 9
 9
 9
 9
 9
 9
 9
 9
 9
 9
 9
 9
 9
 9
 9
 9
 9
 9
 9
 9
 9
 9
 9
 9
 9
 9
 9
 9
 9
 9
 9
 9
 9
 9
 9
 9
 9
 9
 9
 9
 9
 9
 9
 9
 9
 9
 9
 9
 9
 9
 9
 9
 9
 9
 9
 9
 9
 9
 9
 9
 9
 9
 9
 9
 9
 9
 9
 9
 9
 9
 9
 9
 9
 9
 9
 9
 9
 9
 9
 9
 9
 9
 9
 9
 9
 9
 9
 9
 9
 9
 9
 9
 9
 9
 9
 9
 9
 9
 9
 9
 9
 9
 9
 9
 9
 9
 9
 9
 9
 9
 9
 9
 9
 9
 9
 9
 9
 9
 9
 9
 9
 9
 9
 9
 9
 9
 9
 9
 9
 9
 9
 9
 9
 9
 9
 9
 9
 9
 9
 9
 9
 9
 9
 9
 9
 9
 9
 9
 9
 9
 9
 9
 9
 9
 9
 9
 9
 9
 9
 9
 9
 9
 9
 9
 9
 9
 9
 9
 9
 9
 9
 9
 9
 9
 9
 9
 9
 9
 9
 9
 9
 9
 9
 9
 9
 9
 9
 9
 9
 9
 9
 9
 9
 9
 9
 9
 9
 9
 9
 9
 9
 9
 9
 9
 9
 9
 9
 9
 9
 9
 9
 9
 9
 9
 9
 9
 9
 9
 9
 9
 9
 9
 9
 9
 9
 9
 9
 9
 9
 9
 9
 9
 9
 9
 9
 9
 9
 9
 9
 9
 9
 9
 9
 9
 9
 9
 9
 9
 9
 9
 9
 9
 9
 9
 9
 9
 9
 9
 9
 9
 9
 9
 9
 9
 9
 9
 9
 9
 9
 9
 9
 9
 9
 9
 9
 9
 9
 9
 9
 9
 9
 9
 9
 9
 9
 9
 9
 9
 9
 9
 9
 9
 9
 9
 9
 9
 9
 9
 9
 9
 9
 9
 9
 9
 9
 9
 9
 9
 9
 9
 9
 9
 9
 9
 9
 9
 9
 9
 9
 9
 9
 9
 9
 9
 9
 9
 9
 9
 9
 9
 9
 9
 9
 9
 9
 9
 9
 9
 9
 9
 9
 9
 9
 9
 9
 9
 9
 9
 9
 9
 9
 9
 9
 9
 9
 9
 9
 9
 9
 9
 9
 9
 9
 9
 9
 9
 9
 9
 9
 9
 9
 9
 9
 9
 9
 9
 9
 9
 9
 9
 9
 9
 9
 9
 9
 9
 9
 9
 9
 9
 9
 9
 9
 9
 9
 9
 9
 9
 9
 9
 9
 9
 9
 9
 9
 9
 9
 9
 9
 9
 9
 9
 9
 9
 9
 9
 9
 9
 9
 9
 9
 9
 9
 9
 9
 9
 9
 9
 9
 9
 9
 9
 9
 9
 9
 9
 9
 9
 9
 9
 9
 9
 9
 9
 9
 9
 9
 9
 9
 9
 9
 9
 9
 9
 9
 9
 9
 9
 9
 9
 9
 9
 9
 9
 9
 9
 9
 9
 9
 9
 9
 9
 9
 9
 9
 9
 9
 9
 9
 9
 9
 9
 9
 9
 9
 9
 9
 9
 9
 9
 9
 9
 9
 9
 9
 9
 9
 9
 9
 9
 9
 9
 9
 9
 9
 9
 9
 9
 9
 9
 9
 9
 9
 9
 9
 9
 </DataArray>
 </Cells> 
 <PointData>
 <DataArray  type="Float64" Name="disp" NumberOfComponents="3" format="ascii">
   6.4918664517647620E-002   6.2759208955789028E-002   0.0000000000000000     
   6.8390664699915421E-002   6.8128680156673116E-002   0.0000000000000000     
   7.1598393913075861E-002   7.3695786313319037E-002   0.0000000000000000     
   7.4541852157128927E-002   7.9460527425726818E-002   0.0000000000000000     
   7.7221039432074604E-002   8.5422903493896432E-002   0.0000000000000000     
   6.0039582819273990E-002   6.1880787817681346E-002   0.0000000000000000     
   6.3029449136284887E-002   6.7266246506860208E-002   0.0000000000000000     
   6.5879108918032891E-002   7.2852018836234031E-002   0.0000000000000000     
   6.8588562164518002E-002   7.8638104805802758E-002   0.0000000000000000     
   7.1157808875740206E-002   8.4624504415566418E-002   0.0000000000000000     
   5.5235420396629306E-002   6.1045403390060413E-002   0.0000000000000000     
   5.7857232577488225E-002   6.6454222049988271E-002   0.0000000000000000     
   6.0417370563129638E-002   7.2062781386558500E-002   0.0000000000000000     
   6.2915834353553565E-002   7.7871081399771072E-002   0.0000000000000000     
   6.5352623948759986E-002   8.3879122089626001E-002   0.0000000000000000     
   5.0506177249713569E-002   6.0253055672926228E-002   0.0000000000000000     
   5.2874015023525442E-002   6.5692606786057303E-002   0.0000000000000000     
   5.5213178848366115E-002   7.1328073964292485E-002   0.0000000000000000     
   5.7523668724235623E-002   7.7159457207631746E-002   0.0000000000000000     
   5.9805484651133937E-002   8.3186756516075155E-002   0.0000000000000000     
   4.5851853378526777E-002   5.9503744666278800E-002   0.0000000000000000     
   4.8079796474396523E-002   6.4981400715067292E-002   0.0000000000000000     
   5.0266533773742322E-002   7.0647896569435958E-002   0.0000000000000000     
   5.2412065276564161E-002   7.6503232229384821E-002   0.0000000000000000     
   5.4516390982862067E-002   8.2547407694913866E-002   0.0000000000000000     
   7.7221039432074604E-002   8.5422903493896432E-002   0.0000000000000000     
   7.9746423124925497E-002   9.1552860062619382E-002   0.0000000000000000     
   8.2228470622694200E-002   9.7820342676687197E-002   0.0000000000000000     
   8.4667181925380711E-002  0.10422535133609982        0.0000000000000000     
   8.7062557032985044E-002  0.11076788604085730        0.0000000000000000     
   7.1157808875740206E-002   8.4624504415566418E-002   0.0000000000000000     
   7.3620999359705536E-002   9.0780595948748766E-002   0.0000000000000000     
   7.6012283924419999E-002   9.7075757688573447E-002   0.0000000000000000     
   7.8331662569883595E-002  0.10350998963504053        0.0000000000000000     
   8.0579135296096338E-002  0.11008329178814998        0.0000000000000000     
   6.5352623948759986E-002   8.3879122089626001E-002   0.0000000000000000     
   6.7714726804128322E-002   9.0057790174695881E-002   0.0000000000000000     
   6.9989130375037983E-002   9.6377972373553319E-002   0.0000000000000000     
   7.2175834661488983E-002  0.10283966868619829        0.0000000000000000     
   7.4274839663481321E-002  0.10944287911263081        0.0000000000000000     
   5.9805484651133937E-002   8.3186756516075155E-002   0.0000000000000000     
   6.2027605458193864E-002   8.9384442740460757E-002   0.0000000000000000     
   6.4159009974548167E-002   9.5726986731626745E-002   0.0000000000000000     
   6.6199698200196916E-002  0.10221438848957309        0.0000000000000000     
   6.8149670135140006E-002  0.10884664801429982        0.0000000000000000     
   5.4516390982862067E-002   8.2547407694913866E-002   0.0000000000000000     
   5.6559635321902155E-002   8.8760553646043405E-002   0.0000000000000000     
   5.8521922722950571E-002   9.5122800762793780E-002   0.0000000000000000     
   6.0403253186007311E-002  0.10163414904516493        0.0000000000000000     
   6.2203626711072380E-002  0.10829459849315697        0.0000000000000000     
   8.7062557032985044E-002  0.11076788604085730        0.0000000000000000     
   8.9386207177137661E-002  0.11745211992900312        0.0000000000000000     
   9.1609743589469050E-002  0.12428222613858078        0.0000000000000000     
   9.3733166269979240E-002  0.13125820466959026        0.0000000000000000     
   9.5756475218668230E-002  0.13838005552203161        0.0000000000000000     
   8.0579135296096338E-002  0.11008329178814998        0.0000000000000000     
   8.2744217878371565E-002  0.11679836118080204        0.0000000000000000     
   8.4816426092022612E-002  0.12365789484589694        0.0000000000000000     
   8.6795759937049521E-002  0.13066189278343474        0.0000000000000000     
   8.8682219413452251E-002  0.13781035499341537        0.0000000000000000     
   7.4274839663481321E-002  0.10944287911263081        0.0000000000000000     
   7.6286820490716029E-002  0.11618818001800836        0.0000000000000000     
   7.8212452252894193E-002  0.12307614776748838        0.0000000000000000     
   8.0051734950015788E-002  0.13010678236107087        0.0000000000000000     
   8.1804668582080825E-002  0.13728008379875589        0.0000000000000000     
   6.8149670135140006E-002  0.10884664801429982        0.0000000000000000     
   7.0014015014171108E-002  0.11562157644062206        0.0000000000000000     
   7.1797822072083795E-002  0.12253698490335506        0.0000000000000000     
   7.3501091308878108E-002  0.12959287340249875        0.0000000000000000     
   7.5123822724553979E-002  0.13678924193805320        0.0000000000000000     
   6.2203626711072380E-002  0.10829459849315697        0.0000000000000000     
   6.3925801448736774E-002  0.11509855044864317        0.0000000000000000     
   6.5572535549591443E-002  0.12204040625349696        0.0000000000000000     
   6.7143829013636441E-002  0.12912016590771835        0.0000000000000000     
   6.8639681840871714E-002  0.13633782941130729        0.0000000000000000     
   9.5756475218668230E-002  0.13838005552203161        0.0000000000000000     
   9.7679557749610277E-002  0.14562797684417289        0.0000000000000000     
   9.9502301176879748E-002  0.15298216678428223        0.0000000000000000     
  0.10122470550047660       0.16044262534235962        0.0000000000000000     
  0.10284677072040088       0.16800935251840507        0.0000000000000000     
   8.8682219413452251E-002  0.13781035499341537        0.0000000000000000     
   9.0477705705388267E-002  0.14508425422657414        0.0000000000000000     
   9.2184119997015007E-002  0.15246456323364652        0.0000000000000000     
   9.3801462288332485E-002  0.15995128201463230        0.0000000000000000     
   9.5329732579340701E-002  0.16754441056953162        0.0000000000000000     
   8.1804668582080825E-002  0.13728008379875589        0.0000000000000000     
   8.3474320347446576E-002  0.14457816638642074        0.0000000000000000     
   8.5063757444470256E-002  0.15198314442994282        0.0000000000000000     
   8.6572979873151920E-002  0.15949501792932214        0.0000000000000000     
   8.8001987633491513E-002  0.16711378688455863        0.0000000000000000     
   7.5123822724553979E-002  0.13678924193805320        0.0000000000000000     
   7.6669401675785218E-002  0.14410971332371261        0.0000000000000000     
   7.8141213519245536E-002  0.15153791037317127        0.0000000000000000     
   7.9539258254934880E-002  0.15907383308642906        0.0000000000000000     
   8.0863535882853332E-002  0.16671748146348614        0.0000000000000000     
   6.8639681840871714E-002  0.13633782941130729        0.0000000000000000     
   7.0062949690404192E-002  0.14367889503844980        0.0000000000000000     
   7.1416488221340751E-002  0.15112886106333176        0.0000000000000000     
   7.2700297433681407E-002  0.15868772748595314        0.0000000000000000     
   7.3914377327426145E-002  0.16635549430631405        0.0000000000000000     
  0.10284677072040088       0.16800935251840507        0.0000000000000000     
  0.10437853885904552       0.17567395993425317        0.0000000000000000     
  0.10583005193880352       0.18342805921173855        0.0000000000000000     
  0.10720130995967488       0.19127165035086122        0.0000000000000000     
  0.10849231292165959       0.19920473335162120        0.0000000000000000     
   9.5329732579340701E-002  0.16754441056953162        0.0000000000000000     
   9.6772400226844774E-002  0.17523555960461901        0.0000000000000000     
   9.8132934587649864E-002  0.18301633982616891        0.0000000000000000     
   9.9411335661755987E-002  0.19088675123418142        0.0000000000000000     
  0.10060760344916309       0.19884679382865647        0.0000000000000000     
   8.8001987633491513E-002  0.16711378688455863        0.0000000000000000     
   8.9349873664821597E-002  0.17483079422047662        0.0000000000000000     
   9.0615730906474637E-002  0.18263738286190032        0.0000000000000000     
   9.1799559358450647E-002  0.19053355280882961        0.0000000000000000     
   9.2901359020749627E-002  0.19851930406126467        0.0000000000000000     
   8.0863535882853332E-002  0.16671748146348614        0.0000000000000000     
   8.2110959172975950E-002  0.17445966378182612        0.0000000000000000     
   8.3278440895277792E-002  0.18229118831893268        0.0000000000000000     
   8.4365981049758884E-002  0.19021205507480596        0.0000000000000000     
   8.5373579636419200E-002  0.19822226404944579        0.0000000000000000     
   7.3914377327426145E-002  0.16635549430631405        0.0000000000000000     
   7.5055656751307834E-002  0.17412216828866739        0.0000000000000000     
   7.6121064554059342E-002  0.18197775619726608        0.0000000000000000     
   7.7110600735680671E-002  0.18992225803211024        0.0000000000000000     
   7.8024265296171819E-002  0.19795567379319975        0.0000000000000000     
  0.10849231292165959       0.19920473335162120        0.0000000000000000     
  0.10970469240916217       0.20722363921299425        0.0000000000000000     
  0.11084008000658709       0.21532469893395625        0.0000000000000000     
  0.11189847571393438       0.22350791251450727        0.0000000000000000     
  0.11287987953120401       0.23177327995464719        0.0000000000000000     
  0.10060760344916309       0.19884679382865647        0.0000000000000000     
  0.10172598103578123       0.20689074315059069        0.0000000000000000     
  0.10277071150752039       0.21501287474098058        0.0000000000000000     
  0.10374179486438058       0.22321318859982617        0.0000000000000000     
  0.10463923110636179       0.23149168472712750        0.0000000000000000     
   9.2901359020749627E-002  0.19851930406126467        0.0000000000000000     
   9.3926213760833474E-002  0.20658773359838808        0.0000000000000000     
   9.4879207446164057E-002  0.21473193839938265        0.0000000000000000     
   9.5760340076741404E-002  0.22295191846424828        0.0000000000000000     
   9.6569611652565446E-002  0.23124767379298503        0.0000000000000000     
   8.5373579636419200E-002  0.19822226404944579        0.0000000000000000     
   8.6305390584318895E-002  0.20631461055638650        0.0000000000000000     
   8.7165567822518109E-002  0.21448188990916242        0.0000000000000000     
   8.7954111351016787E-002  0.22272410210777352        0.0000000000000000     
   8.8671021169814984E-002  0.23104124715221974        0.0000000000000000     
   7.8024265296171819E-002  0.19795567379319975        0.0000000000000000     
   7.8863511506237507E-002  0.20607137402458592        0.0000000000000000     
   7.9629792636582500E-002  0.21426272927031992        0.0000000000000000     
   8.0323108687206796E-002  0.22252973953040189        0.0000000000000000     
   8.0943459658110395E-002  0.23087240480483170        0.0000000000000000     
  0.11287987953120401       0.23177327995464719        0.0000000000000000     
  0.11381347268106863       0.24013703441134976        0.0000000000000000     
  0.11472843638620084       0.24861540904158858        0.0000000000000000     
  0.11562477064660062       0.25720840384536375        0.0000000000000000     
  0.11650247546226800       0.26591601882267513        0.0000000000000000     
  0.10463923110636179       0.23149168472712750        0.0000000000000000     
  0.10546832630536151       0.23987135053077169        0.0000000000000000     
  0.10623438653327720       0.24837517341864598        0.0000000000000000     
  0.10693741179010884       0.25700315339075036        0.0000000000000000     
  0.10757740207585643       0.26575529044708479        0.0000000000000000     
   9.6569611652565446E-002  0.23124767379298503        0.0000000000000000     
   9.7297710181932395E-002  0.23964513171049723        0.0000000000000000     
   9.7935323673138355E-002  0.24817021954168922        0.0000000000000000     
   9.8482452126183298E-002  0.25682293728656103        0.0000000000000000     
   9.8939095541067251E-002  0.26560328494511265        0.0000000000000000     
   8.8671021169814984E-002  0.23104124715221974        0.0000000000000000     
   8.9301624310781300E-002  0.23945837795052635        0.0000000000000000     
   8.9831247805784303E-002  0.24800054741071831        0.0000000000000000     
   9.0259891654824023E-002  0.25666775553279569        0.0000000000000000     
   9.0587555857900445E-002  0.26546000231675865        0.0000000000000000     
   8.0943459658110395E-002  0.23087240480483170        0.0000000000000000     
   8.1480068691908186E-002  0.23931108925085895        0.0000000000000000     
   8.1922158931215044E-002  0.24786615702573325        0.0000000000000000     
   8.2269730376030997E-002  0.25653760812945448        0.0000000000000000     
   8.2522783026356031E-002  0.26532544256202284        0.0000000000000000     
  0.11650247546226800       0.26591601882267513        0.0000000000000000     
  0.11730166225886476       0.27490302131111177        0.0000000000000000     
  0.11796244246205267       0.28433417864826244        0.0000000000000000     
  0.11848481607183176       0.29420949083412717        0.0000000000000000     
  0.11886878308820199       0.30452895786870599        0.0000000000000000     
  0.10757740207585643       0.26575529044708479        0.0000000000000000     
  0.10813532646656637       0.27476397642657818        0.0000000000000000     
  0.10859215403828504       0.28416160316815936        0.0000000000000000     
  0.10894788479101244       0.29394817067182838        0.0000000000000000     
  0.10920251872474859       0.30412367893758524        0.0000000000000000     
   9.8939095541067251E-002  0.26560328494511265        0.0000000000000000     
   9.9316323354672970E-002  0.27460981778425914        0.0000000000000000     
   9.9625205003883249E-002  0.28394109107091559        0.0000000000000000     
   9.9865740488698063E-002  0.29359710480508211        0.0000000000000000     
  0.10003792980911748       0.30357785898675860        0.0000000000000000     
   9.0587555857900445E-002  0.26546000231675865        0.0000000000000000     
   9.0844652923184541E-002  0.27444054538415458        0.0000000000000000     
   9.1061595358847280E-002  0.28367264235653106        0.0000000000000000     
   9.1238383164888651E-002  0.29315629323388825        0.0000000000000000     
   9.1375016341308665E-002  0.30289149801622611        0.0000000000000000     
   8.2522783026356031E-002  0.26532544256202284        0.0000000000000000     
   8.2720315172101086E-002  0.27425615922626456        0.0000000000000000     
   8.2901325103177118E-002  0.28335625702500589        0.0000000000000000     
   8.3065812819584139E-002  0.29262573595824692        0.0000000000000000     
   8.3213778321322124E-002  0.30206459602598773        0.0000000000000000     
   4.5851853378526777E-002   5.9503744666278800E-002   0.0000000000000000     
   4.8079796474396523E-002   6.4981400715067292E-002   0.0000000000000000     
   5.0266533773742322E-002   7.0647896569435958E-002   0.0000000000000000     
   5.2412065276564161E-002   7.6503232229384821E-002   0.0000000000000000     
   5.4516390982862067E-002   8.2547407694913866E-002   0.0000000000000000     
   4.1333909326678409E-002   5.8812356066808971E-002   0.0000000000000000     
   4.3458350966115222E-002   6.4326573863121281E-002   0.0000000000000000     
   4.5513862572051852E-002   7.0022507683899657E-002   0.0000000000000000     
   4.7500444144488334E-002   7.5900157529144072E-002   0.0000000000000000     
   4.9418095683424645E-002   8.1959523398854525E-002   0.0000000000000000     
   3.7013805637777973E-002   5.8193775571207598E-002   0.0000000000000000     
   3.8993452534695258E-002   6.3734096256322342E-002   0.0000000000000000     
   4.0891592476088361E-002   6.9452165789594247E-002   0.0000000000000000     
   4.2708225461957253E-002   7.5347984171023313E-002   0.0000000000000000     
   4.4443351492301962E-002   8.1421551400609554E-002   0.0000000000000000     
   3.2891542311825464E-002   5.7648003179474654E-002   0.0000000000000000     
   3.4685101180136658E-002   6.3203967894670449E-002   0.0000000000000000     
   3.6399723485851826E-002   6.8936870886519758E-002   0.0000000000000000     
   3.8035409228970946E-002   7.4846712155022574E-002   0.0000000000000000     
   3.9592158409494010E-002   8.0933491700178953E-002   0.0000000000000000     
   2.8967119348820881E-002   5.7175038891610172E-002   0.0000000000000000     
   3.0533296902439423E-002   6.2736188778165586E-002   0.0000000000000000     
   3.2038255601342255E-002   6.8476622974676160E-002   0.0000000000000000     
   3.3481995445529385E-002   7.4396341481141853E-002   0.0000000000000000     
   3.4864516435000797E-002   8.0495344297562679E-002   0.0000000000000000     
   5.4516390982862067E-002   8.2547407694913866E-002   0.0000000000000000     
   5.6559635321902155E-002   8.8760553646043405E-002   0.0000000000000000     
   5.8521922722950571E-002   9.5122800762793780E-002   0.0000000000000000     
   6.0403253186007311E-002  0.10163414904516493        0.0000000000000000     
   6.2203626711072380E-002  0.10829459849315697        0.0000000000000000     
   4.9418095683424645E-002   8.1959523398854525E-002   0.0000000000000000     
   5.1268033552592997E-002   8.8186397144981124E-002   0.0000000000000000     
   5.3051474115725597E-002   9.4566570619473905E-002   0.0000000000000000     
   5.4768417372822439E-002  0.10110004382233288        0.0000000000000000     
   5.6418863323883531E-002  0.10778681675355808        0.0000000000000000     
   4.4443351492301962E-002   8.1421551400609554E-002   0.0000000000000000     
   4.6110017307606194E-002   8.7662247490811279E-002   0.0000000000000000     
   4.7721269648353694E-002   9.4059452454086714E-002   0.0000000000000000     
   4.9277108514544463E-002  0.10061316629043594        0.0000000000000000     
   5.0777533906178493E-002  0.10732338899985894        0.0000000000000000     
   3.9592158409494010E-002   8.0933491700178953E-002   0.0000000000000000     
   4.1085586586941752E-002   8.7188104683533829E-002   0.0000000000000000     
   4.2531309320834876E-002   9.3601446266632221E-002   0.0000000000000000     
   4.3929326611173387E-002  0.10017351644947414        0.0000000000000000     
   4.5279638457957287E-002  0.10690431523205957        0.0000000000000000     
   3.4864516435000797E-002   8.0495344297562679E-002   0.0000000000000000     
   3.6194741390599659E-002   8.6763968723148802E-002   0.0000000000000000     
   3.7481593133169129E-002   9.3192552057110384E-002   0.0000000000000000     
   3.8725071662709214E-002   9.9781094299447454E-002   0.0000000000000000     
   3.9925176979219892E-002  0.10652959545015993        0.0000000000000000     
   6.2203626711072380E-002  0.10829459849315697        0.0000000000000000     
   6.3925801448736774E-002  0.11509855044864317        0.0000000000000000     
   6.5572535549591443E-002  0.12204040625349696        0.0000000000000000     
   6.7143829013636441E-002  0.12912016590771835        0.0000000000000000     
   6.8639681840871714E-002  0.13633782941130729        0.0000000000000000     
   5.6418863323883531E-002  0.10778681675355808        0.0000000000000000     
   5.8000825225582045E-002  0.11461801332689509        0.0000000000000000     
   5.9512316334591198E-002  0.12158475745608946        0.0000000000000000     
   6.0953336650910954E-002  0.12868704914114129        0.0000000000000000     
   6.2323886174541349E-002  0.13592488838205047        0.0000000000000000     
   5.0777533906178493E-002  0.10732338899985894        0.0000000000000000     
   5.2217731775875971E-002  0.11417887636020109        0.0000000000000000     
   5.3592888076257082E-002  0.12116838414930783        0.0000000000000000     
   5.4903002807321841E-002  0.12829191236717913        0.0000000000000000     
   5.6148075969070219E-002  0.13554946101381501        0.0000000000000000     
   4.5279638457957287E-002  0.10690431523205957        0.0000000000000000     
   4.6576521099618531E-002  0.11378113954856128        0.0000000000000000     
   4.7814250774589138E-002  0.12079128633315210        0.0000000000000000     
   4.8992827482869067E-002  0.12793475558583198        0.0000000000000000     
   5.0112251224458337E-002  0.13521154730660093        0.0000000000000000     
   3.9925176979219892E-002  0.10652959545015993        0.0000000000000000     
   4.1077193196809754E-002  0.11342480289197562        0.0000000000000000     
   4.2176404429587339E-002  0.12045346400762225        0.0000000000000000     
   4.3222810677552653E-002  0.12761557879709978        0.0000000000000000     
   4.4216411940705691E-002  0.13491114726040820        0.0000000000000000     
   6.8639681840871714E-002  0.13633782941130729        0.0000000000000000     
   7.0062949690404192E-002  0.14367889503844980        0.0000000000000000     
   7.1416488221340751E-002  0.15112886106333176        0.0000000000000000     
   7.2700297433681407E-002  0.15868772748595314        0.0000000000000000     
   7.3914377327426145E-002  0.16635549430631405        0.0000000000000000     
   6.2323886174541349E-002  0.13592488838205047        0.0000000000000000     
   6.3625918212586910E-002  0.14328552965232841        0.0000000000000000     
   6.4861386072152180E-002  0.15075622742548633        0.0000000000000000     
   6.6030289753237187E-002  0.15833698170152424        0.0000000000000000     
   6.7132629255841889E-002  0.16602779248044225        0.0000000000000000     
   5.6148075969070219E-002  0.13554946101381501        0.0000000000000000     
   5.7329261063616764E-002  0.14292943528704460        0.0000000000000000     
   5.8447711593076004E-002  0.15042024038469703        0.0000000000000000     
   5.9503427557447919E-002  0.15802187630677231        0.0000000000000000     
   6.0496408956732535E-002  0.16573434305327039        0.0000000000000000     
   5.0112251224458337E-002  0.13521154730660093        0.0000000000000000     
   5.1172978243493768E-002  0.14261061194259841        0.0000000000000000     
   5.2175464784112204E-002  0.15012089994096386        0.0000000000000000     
   5.3119710846313638E-002  0.15774241130169728        0.0000000000000000     
   5.4005716430098057E-002  0.16547514602479871        0.0000000000000000     
   4.4216411940705691E-002  0.13491114726040820        0.0000000000000000     
   4.5157069752217921E-002  0.14232905961898984        0.0000000000000000     
   4.6044645645260798E-002  0.14985820609428682        0.0000000000000000     
   4.6879139619834309E-002  0.15749858668629924        0.0000000000000000     
   4.7660551675938467E-002  0.16525020139502700        0.0000000000000000     
   7.3914377327426145E-002  0.16635549430631405        0.0000000000000000     
   7.5055656751307834E-002  0.17412216828866739        0.0000000000000000     
   7.6121064554059342E-002  0.18197775619726608        0.0000000000000000     
   7.7110600735680671E-002  0.18992225803211024        0.0000000000000000     
   7.8024265296171819E-002  0.19795567379319975        0.0000000000000000     
   6.7132629255841889E-002  0.16602779248044225        0.0000000000000000     
   6.8166293224355773E-002  0.17381787670746712        0.0000000000000000     
   6.9129170303168230E-002  0.18169645132782589        0.0000000000000000     
   7.0021260492279316E-002  0.18966351634151854        0.0000000000000000     
   7.0842563791688976E-002  0.19771907174854508        0.0000000000000000     
   6.0496408956732535E-002  0.16573434305327039        0.0000000000000000     
   6.1425195416658224E-002  0.17354635800469193        0.0000000000000000     
   6.2288326562953397E-002  0.18144663854153739        0.0000000000000000     
   6.3085802395618062E-002  0.18943518466380677        0.0000000000000000     
   6.3817622914652206E-002  0.19751199637150008        0.0000000000000000     
   5.4005716430098057E-002  0.16547514602479871        0.0000000000000000     
   5.4832363328215214E-002  0.17330761218034188        0.0000000000000000     
   5.5598533333414836E-002  0.18122831783840060        0.0000000000000000     
   5.6304226445696950E-002  0.18923726299897495        0.0000000000000000     
   5.6949442665061516E-002  0.19733444766206490        0.0000000000000000     
   4.7660551675938467E-002  0.16525020139502700        0.0000000000000000     
   4.8387796959026730E-002  0.17310163923441688        0.0000000000000000     
   4.9059790614552554E-002  0.18104148921841556        0.0000000000000000     
   4.9676532642515946E-002  0.18906975134702306        0.0000000000000000     
   5.0238023042916885E-002  0.19718642562023941        0.0000000000000000     
   7.8024265296171819E-002  0.19795567379319975        0.0000000000000000     
   7.8863511506237507E-002  0.20607137402458592        0.0000000000000000     
   7.9629792636582500E-002  0.21426272927031992        0.0000000000000000     
   8.0323108687206796E-002  0.22252973953040189        0.0000000000000000     
   8.0943459658110395E-002  0.23087240480483170        0.0000000000000000     
   7.0842563791688976E-002  0.19771907174854508        0.0000000000000000     
   7.1591577211242291E-002  0.20585713682982754        0.0000000000000000     
   7.2266797760784277E-002  0.21407173086628789        0.0000000000000000     
   7.2868225440314946E-002  0.22236285385792626        0.0000000000000000     
   7.3395860249834313E-002  0.23073050580474261        0.0000000000000000     
   6.3817622914652206E-002  0.19751199637150008        0.0000000000000000     
   6.4480588383986195E-002  0.20567101179895247        0.0000000000000000     
   6.5071499067550387E-002  0.21390616908049895        0.0000000000000000     
   6.5590354965344780E-002  0.22221746821613952        0.0000000000000000     
   6.6037156077369374E-002  0.23060490920587420        0.0000000000000000     
   5.6949442665061516E-002  0.19733444766206490        0.0000000000000000     
   5.7530545024469248E-002  0.20551299893196076        0.0000000000000000     
   5.8043896556880838E-002  0.21376604391295301        0.0000000000000000     
   5.8489497262296276E-002  0.22209358260504158        0.0000000000000000     
   5.8867347140715579E-002  0.23049561500822652        0.0000000000000000     
   5.0238023042916885E-002  0.19718642562023941        0.0000000000000000     
   5.0741447132691450E-002  0.20538309822885248        0.0000000000000000     
   5.1183990228775629E-002  0.21365135536365015        0.0000000000000000     
   5.1565652331169463E-002  0.22199119702463255        0.0000000000000000     
   5.1886433439872925E-002  0.23040262321179955        0.0000000000000000     
   8.0943459658110395E-002  0.23087240480483170        0.0000000000000000     
   8.1480068691908186E-002  0.23931108925085895        0.0000000000000000     
   8.1922158931215044E-002  0.24786615702573325        0.0000000000000000     
   8.2269730376030997E-002  0.25653760812945448        0.0000000000000000     
   8.2522783026356031E-002  0.26532544256202284        0.0000000000000000     
   7.3395860249834313E-002  0.23073050580474261        0.0000000000000000     
   7.3846507193176203E-002  0.23918831126560222        0.0000000000000000     
   7.4216971274174495E-002  0.24774989479937037        0.0000000000000000     
   7.4507252492829204E-002  0.25641525640604718        0.0000000000000000     
   7.4717350849140288E-002  0.26518439608563255        0.0000000000000000     
   6.6037156077369374E-002  0.23060490920587420        0.0000000000000000     
   6.6414403682448525E-002  0.23907508964886307        0.0000000000000000     
   6.6724599059406600E-002  0.24763460714426616        0.0000000000000000     
   6.6967742208243586E-002  0.25628346169208344        0.0000000000000000     
   6.7143833128959482E-002  0.26502165329231497        0.0000000000000000     
   5.8867347140715579E-002  0.23049561500822652        0.0000000000000000     
   5.9183758159725118E-002  0.23897142440064159        0.0000000000000000     
   5.9445042286911311E-002  0.24752029406042050        0.0000000000000000     
   5.9651199522274150E-002  0.25614222398756342        0.0000000000000000     
   5.9802229865813634E-002  0.26483721418207007        0.0000000000000000     
   5.1886433439872925E-002  0.23040262321179955        0.0000000000000000     
   5.2154570625006010E-002  0.23887731552093769        0.0000000000000000     
   5.2378300956688661E-002  0.24740695554783351        0.0000000000000000     
   5.2557624434920902E-002  0.25599154329248691        0.0000000000000000     
   5.2692541059702724E-002  0.26463107875489789        0.0000000000000000     
   8.2522783026356031E-002  0.26532544256202284        0.0000000000000000     
   8.2720315172101086E-002  0.27425615922626456        0.0000000000000000     
   8.2901325103177118E-002  0.28335625702500589        0.0000000000000000     
   8.3065812819584139E-002  0.29262573595824692        0.0000000000000000     
   8.3213778321322124E-002  0.30206459602598773        0.0000000000000000     
   7.4717350849140288E-002  0.26518439608563255        0.0000000000000000     
   7.4888157801993094E-002  0.27405095911369115        0.0000000000000000     
   7.5060564810272887E-002  0.28300859076578766        0.0000000000000000     
   7.5234571873979708E-002  0.29205729104192196        0.0000000000000000     
   7.5410178993113530E-002  0.30119705994209434        0.0000000000000000     
   6.7143833128959482E-002  0.26502165329231497        0.0000000000000000     
   6.7293028513430969E-002  0.27381924484953657        0.0000000000000000     
   6.7455485053534631E-002  0.28264629926832402        0.0000000000000000     
   6.7631202749270494E-002  0.29150281654867743        0.0000000000000000     
   6.7820181600638574E-002  0.30038879669059676        0.0000000000000000     
   5.9802229865813634E-002  0.26483721418207007        0.0000000000000000     
   5.9934927306414712E-002  0.27356101643380060        0.0000000000000000     
   6.0086085832962349E-002  0.28226938253261502        0.0000000000000000     
   6.0255705445456519E-002  0.29096231247851312        0.0000000000000000     
   6.0443786143897234E-002  0.29963980627149506        0.0000000000000000     
   5.2692541059702724E-002  0.26463107875489789        0.0000000000000000     
   5.2813854180944357E-002  0.27327627386648351        0.0000000000000000     
   5.2952367148556043E-002  0.28187784055866055        0.0000000000000000     
   5.3108079962537753E-002  0.29043577883142907        0.0000000000000000     
   5.3280992622889517E-002  0.29895008868478912        0.0000000000000000     
   2.8967119348820881E-002   5.7175038891610172E-002   0.0000000000000000     
   3.0533296902439423E-002   6.2736188778165586E-002   0.0000000000000000     
   3.2038255601342255E-002   6.8476622974676160E-002   0.0000000000000000     
   3.3481995445529385E-002   7.4396341481141853E-002   0.0000000000000000     
   3.4864516435000797E-002   8.0495344297562679E-002   0.0000000000000000     
   2.5155161349766409E-002   5.6755680242443825E-002   0.0000000000000000     
   2.6486727180596345E-002   6.2319537903701698E-002   0.0000000000000000     
   2.7778357804409310E-002   6.8065954519021282E-002   0.0000000000000000     
   2.9030053221205301E-002   7.3994930088402550E-002   0.0000000000000000     
   3.0241813430984327E-002   8.0106464611845535E-002   0.0000000000000000     
   2.1370292915664241E-002   5.6370724766805276E-002   0.0000000000000000     
   2.2494079493600244E-002   6.1942794268172660E-002   0.0000000000000000     
   2.3591199076902641E-002   6.7699397984512952E-002   0.0000000000000000     
   2.4661651665571438E-002   7.3640535915826172E-002   0.0000000000000000     
   2.5705437259606632E-002   7.9766208062112293E-002   0.0000000000000000     
   1.7612514046514368E-002   5.6020172464694554E-002   0.0000000000000000     
   1.8555353841451124E-002   6.1605957871578458E-002   0.0000000000000000     
   1.9476779418822254E-002   6.7376953371151169E-002   0.0000000000000000     
   2.0376790778627783E-002   7.3333158963412637E-002   0.0000000000000000     
   2.1255387920867692E-002   7.9474574648362925E-002   0.0000000000000000     
   1.3881824742316799E-002   5.5704023336111630E-002   0.0000000000000000     
   1.4670550224148978E-002   6.1309028713919134E-002   0.0000000000000000     
   1.5435098830168156E-002   6.7098620678935933E-002   0.0000000000000000     
   1.6175470560374338E-002   7.3072799231162028E-002   0.0000000000000000     
   1.6891665414767523E-002   7.9231564370597446E-002   0.0000000000000000     
   3.4864516435000797E-002   8.0495344297562679E-002   0.0000000000000000     
   3.6194741390599659E-002   8.6763968723148802E-002   0.0000000000000000     
   3.7481593133169129E-002   9.3192552057110384E-002   0.0000000000000000     
   3.8725071662709214E-002   9.9781094299447454E-002   0.0000000000000000     
   3.9925176979219892E-002  0.10652959545015993        0.0000000000000000     
   3.0241813430984327E-002   8.0106464611845535E-002   0.0000000000000000     
   3.1413369503966358E-002   8.6389391753740621E-002   0.0000000000000000     
   3.2544452510371351E-002   9.2832545178478151E-002   0.0000000000000000     
   3.3635062450199309E-002   9.9435924886058166E-002   0.0000000000000000     
   3.4685199323450239E-002  0.10619953087648068        0.0000000000000000     
   2.5705437259606632E-002   7.9766208062112293E-002   0.0000000000000000     
   2.6717358712428273E-002   8.6063925919393588E-002   0.0000000000000000     
   2.7692218877456421E-002   9.2521200983692389E-002   0.0000000000000000     
   2.8630017754691074E-002   9.9138033255008626E-002   0.0000000000000000     
   2.9530755344132235E-002  0.10591442273334233        0.0000000000000000     
   2.1255387920867692E-002   7.9474574648362925E-002   0.0000000000000000     
   2.2106709015985410E-002   8.5787571220107786E-002   0.0000000000000000     
   2.2924892234424336E-002   9.2258519472753084E-002   0.0000000000000000     
   2.3709937576184489E-002   9.8887419406298804E-002   0.0000000000000000     
   2.4461845041265862E-002  0.10567427102074491        0.0000000000000000     
   1.6891665414767523E-002   7.9231564370597446E-002   0.0000000000000000     
   1.7581420414637762E-002   8.5560327655883200E-002   0.0000000000000000     
   1.8242472581275111E-002   9.2044500645660263E-002   0.0000000000000000     
   1.8874821914679565E-002   9.8684083339928716E-002   0.0000000000000000     
   1.9478468414851131E-002  0.10547907573868846        0.0000000000000000     
   3.9925176979219892E-002  0.10652959545015993        0.0000000000000000     
   4.1077193196809754E-002  0.11342480289197562        0.0000000000000000     
   4.2176404429587339E-002  0.12045346400762225        0.0000000000000000     
   4.3222810677552653E-002  0.12761557879709978        0.0000000000000000     
   4.4216411940705691E-002  0.13491114726040820        0.0000000000000000     
   3.4685199323450239E-002  0.10619953087648068        0.0000000000000000     
   3.5691949665085813E-002  0.11311028304175072        0.0000000000000000     
   3.6652400010067726E-002  0.12015510127387348        0.0000000000000000     
   3.7566550358395956E-002  0.12733398557284892        0.0000000000000000     
   3.8434400710070517E-002  0.13464693593867699        0.0000000000000000     
   2.9530755344132235E-002  0.10591442273334233        0.0000000000000000     
   3.0392992102082964E-002  0.11283799664919322        0.0000000000000000     
   3.1215288484846341E-002  0.11989638223306104        0.0000000000000000     
   3.1997644492422365E-002  0.12708957948494579        0.0000000000000000     
   3.2740060124811031E-002  0.13441758840484744        0.0000000000000000     
   2.4461845041265862E-002  0.10567427102074491        0.0000000000000000     
   2.5180320507801179E-002  0.11260794371430308        0.0000000000000000     
   2.5865069853923183E-002  0.11967730688518489        0.0000000000000000     
   2.6516093079631868E-002  0.12688236053339036        0.0000000000000000     
   2.7133390184927237E-002  0.13422310465891946        0.0000000000000000     
   1.9478468414851131E-002  0.10547907573868846        0.0000000000000000     
   2.0053934882240471E-002  0.11242012423708032        0.0000000000000000     
   2.0601744117298249E-002  0.11949787523024508        0.0000000000000000     
   2.1121896120024471E-002  0.12671232871818267        0.0000000000000000     
   2.1614390890419131E-002  0.13406348470089313        0.0000000000000000     
   4.4216411940705691E-002  0.13491114726040820        0.0000000000000000     
   4.5157069752217921E-002  0.14232905961898984        0.0000000000000000     
   4.6044645645260798E-002  0.14985820609428682        0.0000000000000000     
   4.6879139619834309E-002  0.15749858668629924        0.0000000000000000     
   4.7660551675938467E-002  0.16525020139502700        0.0000000000000000     
   3.8434400710070517E-002  0.13464693593867699        0.0000000000000000     
   3.9255434757013187E-002  0.14208248401783177        0.0000000000000000     
   4.0029136191145752E-002  0.14962916145678717        0.0000000000000000     
   4.0755505012468198E-002  0.15728696825554325        0.0000000000000000     
   4.1434541220980538E-002  0.16505590441409992        0.0000000000000000     
   3.2740060124811031E-002  0.13441758840484744        0.0000000000000000     
   3.3441972425103529E-002  0.14186859084073716        0.0000000000000000     
   3.4102818436391014E-002  0.14943076864058621        0.0000000000000000     
   3.4722598158673512E-002  0.15710412180439451        0.0000000000000000     
   3.5301311591951011E-002  0.16488865033216205        0.0000000000000000     
   2.7133390184927237E-002  0.13422310465891946        0.0000000000000000     
   2.7716682756488937E-002  0.14168738008770604        0.0000000000000000     
   2.8265692380996611E-002  0.14926302764568389        0.0000000000000000     
   2.8780419058450264E-002  0.15695004733285303        0.0000000000000000     
   2.9260862788849894E-002  0.16474843914921344        0.0000000000000000     
   2.1614390890419131E-002  0.13406348470089313        0.0000000000000000     
   2.2079565751169421E-002  0.14153885175873837        0.0000000000000000     
   2.2517758024962531E-002  0.14912593847208022        0.0000000000000000     
   2.2928967711798448E-002  0.15682474484091882        0.0000000000000000     
   2.3313194811677186E-002  0.16463527086525398        0.0000000000000000     
   4.7660551675938467E-002  0.16525020139502700        0.0000000000000000     
   4.8387796959026730E-002  0.17310163923441688        0.0000000000000000     
   4.9059790614552554E-002  0.18104148921841556        0.0000000000000000     
   4.9676532642515946E-002  0.18906975134702306        0.0000000000000000     
   5.0238023042916885E-002  0.19718642562023941        0.0000000000000000     
   4.1434541220980538E-002  0.16505590441409992        0.0000000000000000     
   4.2065016674922101E-002  0.17292468242802275        0.0000000000000000     
   4.2645703232532237E-002  0.18088201479287716        0.0000000000000000     
   4.3176600893810937E-002  0.18892790150866315        0.0000000000000000     
   4.3657709658758190E-002  0.19706234257538069        0.0000000000000000     
   3.5301311591951011E-002  0.16488865033216205        0.0000000000000000     
   3.5837542841730650E-002  0.17277298502226518        0.0000000000000000     
   3.6329876013519578E-002  0.18074575667308027        0.0000000000000000     
   3.6778311107317788E-002  0.18880696528460711        0.0000000000000000     
   3.7182848123125278E-002  0.19695661085684582        0.0000000000000000     
   2.9260862788849894E-002  0.16474843914921344        0.0000000000000000     
   2.9705375459452371E-002  0.17264654701714430        0.0000000000000000     
   3.0112308957514575E-002  0.18063271485902482        0.0000000000000000     
   3.0481663283036500E-002  0.18870694267485497        0.0000000000000000     
   3.0813438436018140E-002  0.19686923046463481        0.0000000000000000     
   2.3313194811677186E-002  0.16463527086525398        0.0000000000000000     
   2.3668514528087270E-002  0.17254536841265997        0.0000000000000000     
   2.3993002064517231E-002  0.18054288935071089        0.0000000000000000     
   2.4286657420967063E-002  0.18862783367940678        0.0000000000000000     
   2.4549480597436779E-002  0.19680020139874754        0.0000000000000000     
   5.0238023042916885E-002  0.19718642562023941        0.0000000000000000     
   5.0741447132691450E-002  0.20538309822885248        0.0000000000000000     
   5.1183990228775629E-002  0.21365135536365015        0.0000000000000000     
   5.1565652331169463E-002  0.22199119702463255        0.0000000000000000     
   5.1886433439872925E-002  0.23040262321179955        0.0000000000000000     
   4.3657709658758190E-002  0.19706234257538069        0.0000000000000000     
   4.4087527360838895E-002  0.20527508931036384        0.0000000000000000     
   4.4464551833517919E-002  0.21355589303094655        0.0000000000000000     
   4.4788783076795263E-002  0.22190475373712876        0.0000000000000000     
   4.5060221090670927E-002  0.23032167142891061        0.0000000000000000     
   3.7182848123125278E-002  0.19695661085684582        0.0000000000000000     
   3.7543018361097739E-002  0.20518275179723125        0.0000000000000000     
   3.7858353121390860E-002  0.21347344651319833        0.0000000000000000     
   3.8128852404004640E-002  0.22182869500474689        0.0000000000000000     
   3.8354516208939073E-002  0.23024849727187710        0.0000000000000000     
   3.0813438436018140E-002  0.19686923046463481        0.0000000000000000     
   3.1107920133467970E-002  0.20510608568945476        0.0000000000000000     
   3.1365394092394451E-002  0.21340401581040547        0.0000000000000000     
   3.1585860312797580E-002  0.22176302082748683        0.0000000000000000     
   3.1769318794677363E-002  0.23018310074069892        0.0000000000000000     
   2.4549480597436779E-002  0.19680020139874754        0.0000000000000000     
   2.4782232677949583E-002  0.20504509098703430        0.0000000000000000     
   2.4985674746528685E-002  0.21334760092256802        0.0000000000000000     
   2.5159806803174090E-002  0.22170773120534859        0.0000000000000000     
   2.5304628847885795E-002  0.23012548183537618        0.0000000000000000     
   5.1886433439872925E-002  0.23040262321179955        0.0000000000000000     
   5.2154570625006010E-002  0.23887731552093769        0.0000000000000000     
   5.2378300956688661E-002  0.24740695554783351        0.0000000000000000     
   5.2557624434920902E-002  0.25599154329248691        0.0000000000000000     
   5.2692541059702724E-002  0.26463107875489789        0.0000000000000000     
   4.5060221090670927E-002  0.23032167142891061        0.0000000000000000     
   4.5287721127292631E-002  0.23879130967715764        0.0000000000000000     
   4.5480138438808097E-002  0.24729833205273549        0.0000000000000000     
   4.5637473025217319E-002  0.25584273855564416        0.0000000000000000     
   4.5759724886520303E-002  0.26442452918588366        0.0000000000000000     
   3.8354516208939073E-002  0.23024849727187710        0.0000000000000000     
   3.8544089715586448E-002  0.23871195353670749        0.0000000000000000     
   3.8706318103339035E-002  0.24719816402135694        0.0000000000000000     
   3.8841201372196869E-002  0.25570712872582529        0.0000000000000000     
   3.8948739522159909E-002  0.26423884765011257        0.0000000000000000     
   3.1769318794677363E-002  0.23018310074069892        0.0000000000000000     
   3.1923676389887447E-002  0.23863924709958736        0.0000000000000000     
   3.2056839950281517E-002  0.24710645145369778        0.0000000000000000     
   3.2168809475859532E-002  0.25558471380303022        0.0000000000000000     
   3.2259584966621541E-002  0.26407403414758457        0.0000000000000000     
   2.5304628847885795E-002  0.23012548183537618        0.0000000000000000     
   2.5426481150195648E-002  0.23857319036579719        0.0000000000000000     
   2.5531703979635501E-002  0.24702319434975809        0.0000000000000000     
   2.5620297336205352E-002  0.25547549378725898        0.0000000000000000     
   2.5692261219905199E-002  0.26393008867829970        0.0000000000000000     
   5.2692541059702724E-002  0.26463107875489789        0.0000000000000000     
   5.2813854180944357E-002  0.27327627386648351        0.0000000000000000     
   5.2952367148556043E-002  0.28187784055866055        0.0000000000000000     
   5.3108079962537753E-002  0.29043577883142907        0.0000000000000000     
   5.3280992622889517E-002  0.29895008868478912        0.0000000000000000     
   4.5759724886520303E-002  0.26442452918588366        0.0000000000000000     
   4.5871056972541145E-002  0.27299375039817941        0.0000000000000000     
   4.5995632233103947E-002  0.28150044864725682        0.0000000000000000     
   4.6133450668208703E-002  0.28994462393311599        0.0000000000000000     
   4.6284512277855419E-002  0.29832627625575669        0.0000000000000000     
   3.8948739522159909E-002  0.26423884765011257        0.0000000000000000     
   3.9047783516726338E-002  0.27274217927948280        0.0000000000000000     
   3.9157184319394314E-002  0.28116598209919996        0.0000000000000000     
   3.9276941930163844E-002  0.28951025610926417        0.0000000000000000     
   3.9407056349034922E-002  0.29777500130967516        0.0000000000000000     
   3.2259584966621541E-002  0.26407403414758457        0.0000000000000000     
   3.2344033813499942E-002  0.27252156051039361        0.0000000000000000     
   3.2437023407427150E-002  0.28087444091448999        0.0000000000000000     
   3.2538553748403191E-002  0.28913267535987358        0.0000000000000000     
   3.2648624836428046E-002  0.29729626384654467        0.0000000000000000     
   2.5692261219905199E-002  0.26393008867829970        0.0000000000000000     
   2.5759807862861930E-002  0.27233189409091180        0.0000000000000000     
   2.5835149497202441E-002  0.28062582509312672        0.0000000000000000     
   2.5918286122926720E-002  0.28881188168494448        0.0000000000000000     
   2.6009217740034771E-002  0.29689006386636507        0.0000000000000000     
   1.3881824742316799E-002   5.5704023336111630E-002   0.0000000000000000     
   1.4670550224148978E-002   6.1309028713919134E-002   0.0000000000000000     
   1.5435098830168156E-002   6.7098620678935933E-002   0.0000000000000000     
   1.6175470560374338E-002   7.3072799231162028E-002   0.0000000000000000     
   1.6891665414767523E-002   7.9231564370597446E-002   0.0000000000000000     
   1.0237251437445702E-002   5.5461837455215296E-002   0.0000000000000000     
   1.0869461431825135E-002   6.1082173246495897E-002   0.0000000000000000     
   1.1474088528482838E-002   6.6886361432067318E-002   0.0000000000000000     
   1.2051132727418810E-002   7.2874402011929587E-002   0.0000000000000000     
   1.2600594028633050E-002   7.9046294986082705E-002   0.0000000000000000     
   6.7378205662752509E-003   5.5333174896164336E-002   0.0000000000000000     
   7.1818802546109225E-003   6.0955557920610012E-002   0.0000000000000000     
   7.6016797313088079E-003   6.6762137154745424E-002   0.0000000000000000     
   7.9972189963689044E-003   7.2752912598570585E-002   0.0000000000000000     
   8.3684980497912183E-003   7.8927884252085481E-002   0.0000000000000000     
   3.3835321288054471E-003   5.5318035658958729E-002   0.0000000000000000     
   3.6078066925063373E-003   6.0929182736261495E-002   0.0000000000000000     
   3.8178724386460638E-003   6.6725947846970279E-002   0.0000000000000000     
   4.0137293672246254E-003   7.2708330991085049E-002   0.0000000000000000     
   4.1953774782420225E-003   7.8876332168605817E-002   0.0000000000000000     
   1.7438612503628895E-004   5.5416419743598490E-002   0.0000000000000000     
   1.4724074551138080E-004   6.1003047693450344E-002   0.0000000000000000     
   1.2266665049460697E-004   6.6777793508741828E-002   0.0000000000000000     
   1.0066383998596779E-004   7.2740657189472924E-002   0.0000000000000000     
   8.1232313985464457E-005   7.8891638735643685E-002   0.0000000000000000     
   1.6891665414767523E-002   7.9231564370597446E-002   0.0000000000000000     
   1.7581420414637762E-002   8.5560327655883200E-002   0.0000000000000000     
   1.8242472581275111E-002   9.2044500645660263E-002   0.0000000000000000     
   1.8874821914679565E-002   9.8684083339928716E-002   0.0000000000000000     
   1.9478468414851131E-002  0.10547907573868846        0.0000000000000000     
   1.2600594028633050E-002   7.9046294986082705E-002   0.0000000000000000     
   1.3124666203508922E-002   8.5386860517670526E-002   0.0000000000000000     
   1.3625543023429788E-002   9.1880918769836964E-002   0.0000000000000000     
   1.4103224488395643E-002   9.8528469742582003E-002   0.0000000000000000     
   1.4557710598406494E-002  0.10532951343590567        0.0000000000000000     
   8.3684980497912183E-003   7.8927884252085481E-002   0.0000000000000000     
   8.7196196777224837E-003   8.5271835096420528E-002   0.0000000000000000     
   9.0546866663094375E-003   9.1769548112706170E-002   0.0000000000000000     
   9.3736990155520779E-003   9.8421023300942406E-002   0.0000000000000000     
   9.6766567254504086E-003  0.10522626066112924        0.0000000000000000     
   4.1953774782420225E-003   7.8876332168605817E-002   0.0000000000000000     
   4.3662808372784377E-003   8.5215251392133234E-002   0.0000000000000000     
   4.5299035099140520E-003   9.1710388674267923E-002   0.0000000000000000     
   4.6862454961488637E-003   9.8361744015009925E-002   0.0000000000000000     
   4.8353067959828761E-003  0.10516931741435921        0.0000000000000000     
   8.1232313985464457E-005   7.8891638735643685E-002   0.0000000000000000     
   6.4649682176787888E-005   8.5217109404808589E-002   0.0000000000000000     
   5.1193554243635303E-005   9.1703440454522209E-002   0.0000000000000000     
   4.0863930186001770E-005   9.8350631884784531E-002   0.0000000000000000     
   3.3660810003892112E-005  0.10515868369559553        0.0000000000000000     
   1.9478468414851131E-002  0.10547907573868846        0.0000000000000000     
   2.0053934882240471E-002  0.11242012423708032        0.0000000000000000     
   2.0601744117298249E-002  0.11949787523024508        0.0000000000000000     
   2.1121896120024471E-002  0.12671232871818267        0.0000000000000000     
   2.1614390890419131E-002  0.13406348470089313        0.0000000000000000     
   1.4557710598406494E-002  0.10532951343590567        0.0000000000000000     
   1.4989922146902309E-002  0.11227607349588492        0.0000000000000000     
   1.5400779927323058E-002  0.11936017356859671        0.0000000000000000     
   1.5790283939668744E-002  0.12658181365404114        0.0000000000000000     
   1.6158434183939370E-002  0.13394099375221810        0.0000000000000000     
   9.6766567254504086E-003  0.10522626066112924        0.0000000000000000     
   9.9643692232881803E-003  0.11217732676907675        0.0000000000000000     
   1.0237645936349134E-002  0.11926628820059505        0.0000000000000000     
   1.0496486864633277E-002  0.12649314495568412        0.0000000000000000     
   1.0740892008140606E-002  0.13385789703434400        0.0000000000000000     
   4.8353067959828761E-003  0.10516931741435921        0.0000000000000000     
   4.9772761113980810E-003  0.11212388405665588        0.0000000000000000     
   5.1123421443764767E-003  0.11921621912624004        0.0000000000000000     
   5.2405048949180624E-003  0.12644632262311170        0.0000000000000000     
   5.3617643630228381E-003  0.13381419454727086        0.0000000000000000     
   3.3660810003892112E-005  0.10515868369559553        0.0000000000000000     
   2.8642811232015971E-005  0.11211574535862225        0.0000000000000000     
   2.4868551405085701E-005  0.11920996634553169        0.0000000000000000     
   2.2338030523103388E-005  0.12644134665632381        0.0000000000000000     
   2.1051248586066891E-005  0.13380988629099866        0.0000000000000000     
   2.1614390890419131E-002  0.13406348470089313        0.0000000000000000     
   2.2079565751169421E-002  0.14153885175873837        0.0000000000000000     
   2.2517758024962531E-002  0.14912593847208022        0.0000000000000000     
   2.2928967711798448E-002  0.15682474484091882        0.0000000000000000     
   2.3313194811677186E-002  0.16463527086525398        0.0000000000000000     
   1.6158434183939370E-002  0.13394099375221810        0.0000000000000000     
   1.6506075889448819E-002  0.14142494723792404        0.0000000000000000     
   1.6834054285510974E-002  0.14902090748595531        0.0000000000000000     
   1.7142369372125845E-002  0.15672887449631190        0.0000000000000000     
   1.7431021149293419E-002  0.16454884826899388        0.0000000000000000     
   1.0740892008140606E-002  0.13385789703434400        0.0000000000000000     
   1.0971667651630957E-002  0.14134760790935291        0.0000000000000000     
   1.1189620079864156E-002  0.14894934105348909        0.0000000000000000     
   1.1394749292840210E-002  0.15666309646675253        0.0000000000000000     
   1.1587055290559117E-002  0.16448887414914323        0.0000000000000000     
   5.3617643630228381E-003  0.13381419454727086        0.0000000000000000     
   5.4763410377158305E-003  0.14130683377302500        0.0000000000000000     
   5.5844554080220678E-003  0.14891123917468155        0.0000000000000000     
   5.6861074739415502E-003  0.15662741075224054        0.0000000000000000     
   5.7812972354742767E-003  0.16445534850570204        0.0000000000000000     
   2.1051248586066891E-005  0.13380988629099866        0.0000000000000000     
   2.0096047703446925E-005  0.14130262482894029        0.0000000000000000     
   1.8560269984713336E-005  0.14890660184953278        0.0000000000000000     
   1.6443915429864391E-005  0.15662181735277608        0.0000000000000000     
   1.3746984038903124E-005  0.16444827133867027        0.0000000000000000     
   2.3313194811677186E-002  0.16463527086525398        0.0000000000000000     
   2.3668514528087270E-002  0.17254536841265997        0.0000000000000000     
   2.3993002064517231E-002  0.18054288935071089        0.0000000000000000     
   2.4286657420967063E-002  0.18862783367940678        0.0000000000000000     
   2.4549480597436779E-002  0.19680020139874754        0.0000000000000000     
   1.7431021149293419E-002  0.16454884826899388        0.0000000000000000     
   1.7698016830461745E-002  0.17246826797006654        0.0000000000000000     
   1.7941363629078853E-002  0.18047457276559517        0.0000000000000000     
   1.8161061545144744E-002  0.18856776265557981        0.0000000000000000     
   1.8357110578659425E-002  0.19674783764002043        0.0000000000000000     
   1.1587055290559117E-002  0.16448887414914323        0.0000000000000000     
   1.1764939149402191E-002  0.17241406445061813        0.0000000000000000     
   1.1926801945750746E-002  0.18042605772113418        0.0000000000000000     
   1.2072643679604783E-002  0.18852485396069135        0.0000000000000000     
   1.2202464350964299E-002  0.19671045316928965        0.0000000000000000     
   5.7812972354742767E-003  0.16445534850570204        0.0000000000000000     
   5.8692814849086103E-003  0.17238275785431484        0.0000000000000000     
   5.9493170145329096E-003  0.18039734421732803        0.0000000000000000     
   6.0214038243471728E-003  0.18849910759474145        0.0000000000000000     
   6.0855419143514035E-003  0.19668804798655520        0.0000000000000000     
   1.3746984038903124E-005  0.16444827133867027        0.0000000000000000     
   1.1043836981003679E-005  0.17237434818115663        0.0000000000000000     
   8.9088354253432332E-006  0.18038843225417656        0.0000000000000000     
   7.3419793719216786E-006  0.18849052355773008        0.0000000000000000     
   6.3432688207397739E-006  0.19668062209181711        0.0000000000000000     
   2.4549480597436779E-002  0.19680020139874754        0.0000000000000000     
   2.4782232677949583E-002  0.20504509098703430        0.0000000000000000     
   2.4985674746528685E-002  0.21334760092256802        0.0000000000000000     
   2.5159806803174090E-002  0.22170773120534859        0.0000000000000000     
   2.5304628847885795E-002  0.23012548183537618        0.0000000000000000     
   1.8357110578659425E-002  0.19674783764002043        0.0000000000000000     
   1.8530460474955282E-002  0.20499864508786916        0.0000000000000000     
   1.8682060979364718E-002  0.21330403236807810        0.0000000000000000     
   1.8811912091887727E-002  0.22166399948064722        0.0000000000000000     
   1.8920013812524311E-002  0.23007854642557646        0.0000000000000000     
   1.2202464350964299E-002  0.19671045316928965        0.0000000000000000     
   1.2317108004897779E-002  0.20496562538985869        0.0000000000000000     
   1.2417418686473697E-002  0.21327314066532796        0.0000000000000000     
   1.2503396395692057E-002  0.22163299899569755        0.0000000000000000     
   1.2575041132552856E-002  0.23004520038096743        0.0000000000000000     
   6.0855419143514035E-003  0.19668804798655520        0.0000000000000000     
   6.1421752677770659E-003  0.20494603189300276        0.0000000000000000     
   6.1917478678556242E-003  0.21325492581431760        0.0000000000000000     
   6.2342597145870777E-003  0.22161472975049973        0.0000000000000000     
   6.2697108079714289E-003  0.23002544370154904        0.0000000000000000     
   6.3432688207397739E-006  0.19668062209181711        0.0000000000000000     
   5.6622635931473375E-006  0.20493986459730146        0.0000000000000000     
   5.0485235104981993E-006  0.21324938781504701        0.0000000000000000     
   4.5020485727921696E-006  0.22160919174505361        0.0000000000000000     
   4.0228387800269987E-006  0.23001927638732139        0.0000000000000000     
   2.5304628847885795E-002  0.23012548183537618        0.0000000000000000     
   2.5426481150195648E-002  0.23857319036579719        0.0000000000000000     
   2.5531703979635501E-002  0.24702319434975809        0.0000000000000000     
   2.5620297336205352E-002  0.25547549378725898        0.0000000000000000     
   2.5692261219905199E-002  0.26393008867829970        0.0000000000000000     
   1.8920013812524311E-002  0.23007854642557646        0.0000000000000000     
   1.9010862714370722E-002  0.23851834562818480        0.0000000000000000     
   1.9088955370523200E-002  0.24695406951379104        0.0000000000000000     
   1.9154291780981752E-002  0.25538571808239519        0.0000000000000000     
   1.9206871945746377E-002  0.26381329133399734        0.0000000000000000     
   1.2575041132552856E-002  0.23004520038096743        0.0000000000000000     
   1.2635179800272353E-002  0.23847927517959802        0.0000000000000000     
   1.2686639302066802E-002  0.24690475375004980        0.0000000000000000     
   1.2729419637936206E-002  0.25532163609232272        0.0000000000000000     
   1.2763520807880561E-002  0.26372992220641678        0.0000000000000000     
   6.2697108079714289E-003  0.23002544370154904        0.0000000000000000     
   6.2994324079005464E-003  0.23845597902003690        0.0000000000000000     
   6.3247557742663087E-003  0.24687524705853431        0.0000000000000000     
   6.3456809070687068E-003  0.25528324781704137        0.0000000000000000     
   6.3622078063077497E-003  0.26367998129555814        0.0000000000000000     
   4.0228387800269987E-006  0.23001927638732139        0.0000000000000000     
   3.6205372553014138E-006  0.23844845714950139        0.0000000000000000     
   3.3047871217133833E-006  0.24686554943924469        0.0000000000000000     
   3.0755883792610913E-006  0.25527055325655129        0.0000000000000000     
   2.9329410279454321E-006  0.26366346860142131        0.0000000000000000     
   2.5692261219905199E-002  0.26393008867829970        0.0000000000000000     
   2.5759807862861930E-002  0.27233189409091180        0.0000000000000000     
   2.5835149497202441E-002  0.28062582509312672        0.0000000000000000     
   2.5918286122926720E-002  0.28881188168494448        0.0000000000000000     
   2.6009217740034771E-002  0.29689006386636507        0.0000000000000000     
   1.9206871945746377E-002  0.26381329133399734        0.0000000000000000     
   1.9256648665693162E-002  0.27217951391993694        0.0000000000000000     
   1.9313574741698192E-002  0.28042711049155378        0.0000000000000000     
   1.9377650173761470E-002  0.28855608104884778        0.0000000000000000     
   1.9448874961882995E-002  0.29656642559181906        0.0000000000000000     
   1.2763520807880561E-002  0.26372992220641678        0.0000000000000000     
   1.2796099222874434E-002  0.27207075389636853        0.0000000000000000     
   1.2834311293892399E-002  0.28028527296621458        0.0000000000000000     
   1.2878157020934452E-002  0.28837347941595481        0.0000000000000000     
   1.2927636404000594E-002  0.29633537324558934        0.0000000000000000     
   6.3622078063077497E-003  0.26367998129555814        0.0000000000000000     
   6.3781595344057597E-003  0.27200561402020657        0.0000000000000000     
   6.3973591537850672E-003  0.28020031251710903        0.0000000000000000     
   6.4198066644456705E-003  0.28826407678626548        0.0000000000000000     
   6.4455020663875704E-003  0.29619690682767580        0.0000000000000000     
   2.9329410279454321E-006  0.26366346860142131        0.0000000000000000     
   2.8296002871337853E-006  0.27198409429145110        0.0000000000000000     
   2.7183213761928799E-006  0.28017222914423723        0.0000000000000000     
   2.5991042951234206E-006  0.28822787315977971        0.0000000000000000     
   2.4719490439254616E-006  0.29615102633807849        0.0000000000000000     
   1.7438612503628895E-004   5.5416419743598490E-002   0.0000000000000000     
   1.4724074551138080E-004   6.1003047693450344E-002   0.0000000000000000     
   1.2266665049460697E-004   6.6777793508741828E-002   0.0000000000000000     
   1.0066383998596779E-004   7.2740657189472924E-002   0.0000000000000000     
   8.1232313985464457E-005   7.8891638735643685E-002   0.0000000000000000     
  -3.0596952337451303E-003   5.5558810203347804E-002   0.0000000000000000     
  -3.3340205541149597E-003   6.1122000886125898E-002   0.0000000000000000     
  -3.5894360422082843E-003   6.6875423182096605E-002   0.0000000000000000     
  -3.8259416980251054E-003   7.2819077091259912E-002   0.0000000000000000     
  -4.0435375215654226E-003   7.8952962613615854E-002   0.0000000000000000     
  -6.4887897362517176E-003   5.5675690091470859E-002   0.0000000000000000     
  -6.9701801741136934E-003   6.1230890408237509E-002   0.0000000000000000     
  -7.4239340485253305E-003   6.6976585909071101E-002   0.0000000000000000     
  -7.8500513594866334E-003   7.2912776593971662E-002   0.0000000000000000     
  -8.2485321069976011E-003   7.9039462462939108E-002   0.0000000000000000     
  -1.0112897382483473E-002   5.5767059407967647E-002   0.0000000000000000     
  -1.0761238114484820E-002   6.1329716259785200E-002   0.0000000000000000     
  -1.1380827368456534E-002   6.7081281689665359E-002   0.0000000000000000     
  -1.1971665144398617E-002   7.3021755697608104E-002   0.0000000000000000     
  -1.2533751442311072E-002   7.9151138283613448E-002   0.0000000000000000     
  -1.3932018172440394E-002   5.5832918152838175E-002   0.0000000000000000     
  -1.4707194375228336E-002   6.1418478440768955E-002   0.0000000000000000     
  -1.5460116002001891E-002   6.7189510523879337E-002   0.0000000000000000     
  -1.6190783052761056E-002   7.3146014402169293E-002   0.0000000000000000     
  -1.6899195527505836E-002   7.9287990075638859E-002   0.0000000000000000     
   8.1232313985464457E-005   7.8891638735643685E-002   0.0000000000000000     
   6.4649682176787888E-005   8.5217109404808589E-002   0.0000000000000000     
   5.1193554243635303E-005   9.1703440454522209E-002   0.0000000000000000     
   4.0863930186001770E-005   9.8350631884784531E-002   0.0000000000000000     
   3.3660810003892112E-005  0.10515868369559553        0.0000000000000000     
  -4.0435375215654226E-003   7.8952962613615854E-002   0.0000000000000000     
  -4.2451554400100696E-003   8.5264509841257399E-002   0.0000000000000000     
  -4.4337273805398810E-003   9.1741148866277517E-002   0.0000000000000000     
  -4.6092533431548576E-003   9.8382879688676247E-002   0.0000000000000000     
  -4.7717333278549994E-003  0.10518970230845355        0.0000000000000000     
  -8.2485321069976011E-003   7.9039462462939108E-002   0.0000000000000000     
  -8.6230161817097417E-003   8.5344553408290391E-002   0.0000000000000000     
  -8.9771434742745657E-003   9.1815959322342419E-002   0.0000000000000000     
  -9.3109139846920715E-003   9.8453680205095165E-002   0.0000000000000000     
  -9.6243277129622589E-003  0.10525771605654859        0.0000000000000000     
  -1.2533751442311072E-002   7.9151138283613448E-002   0.0000000000000000     
  -1.3068932542922226E-002   8.5457240105907620E-002   0.0000000000000000     
  -1.3579054726960416E-002   9.1927871822716875E-002   0.0000000000000000     
  -1.4064117994425635E-002   9.8563033434041214E-002   0.0000000000000000     
  -1.4524122345317888E-002  0.10536272493988062        0.0000000000000000     
  -1.6899195527505836E-002   7.9287990075638859E-002   0.0000000000000000     
  -1.7582904523647525E-002   8.5602569934109043E-002   0.0000000000000000     
  -1.8239461138597434E-002   9.2076886367400898E-002   0.0000000000000000     
  -1.8868865372355551E-002   9.8710939375514450E-002   0.0000000000000000     
  -1.9471117224921883E-002  0.10550472895844966        0.0000000000000000     
   3.3660810003892112E-005  0.10515868369559553        0.0000000000000000     
   2.8642811232015971E-005  0.11211574535862225        0.0000000000000000     
   2.4868551405085701E-005  0.11920996634553169        0.0000000000000000     
   2.2338030523103388E-005  0.12644134665632381        0.0000000000000000     
   2.1051248586066891E-005  0.13380988629099866        0.0000000000000000     
  -4.7717333278549994E-003  0.10518970230845355        0.0000000000000000     
  -4.9230838011121523E-003  0.11214727742797484        0.0000000000000000     
  -5.0652212293981601E-003  0.11924126574960547        0.0000000000000000     
  -5.1981456127130248E-003  0.12647166727334544        0.0000000000000000     
  -5.3218569510567427E-003  0.13383848199919479        0.0000000000000000     
  -9.6243277129622589E-003  0.10525771605654859        0.0000000000000000     
  -9.9194568495365575E-003  0.11221284701771256        0.0000000000000000     
  -1.0198373584866383E-002  0.11930385322959690        0.0000000000000000     
  -1.0461077918951744E-002  0.12653073469220155        0.0000000000000000     
  -1.0707569851792633E-002  0.13389349140552656        0.0000000000000000     
  -1.4524122345317888E-002  0.10536272493988062        0.0000000000000000     
  -1.4960476334041196E-002  0.11231245412783544        0.0000000000000000     
  -1.5374588514999584E-002  0.11939772878550592        0.0000000000000000     
  -1.5766458888193054E-002  0.12661854891289209        0.0000000000000000     
  -1.6136087453621599E-002  0.13397491450999402        0.0000000000000000     
  -1.9471117224921883E-002  0.10550472895844966        0.0000000000000000     
  -2.0046142254626077E-002  0.11244609875834341        0.0000000000000000     
  -2.0593866019797766E-002  0.11952289241733259        0.0000000000000000     
  -2.1114288520436956E-002  0.12673510993541715        0.0000000000000000     
  -2.1607409756543641E-002  0.13408275131259711        0.0000000000000000     
   2.1051248586066891E-005  0.13380988629099866        0.0000000000000000     
   2.0096047703446925E-005  0.14130262482894029        0.0000000000000000     
   1.8560269984713336E-005  0.14890660184953278        0.0000000000000000     
   1.6443915429864391E-005  0.15662181735277608        0.0000000000000000     
   1.3746984038903124E-005  0.16444827133867027        0.0000000000000000     
  -5.3218569510567427E-003  0.13383848199919479        0.0000000000000000     
  -5.4382623697682327E-003  0.14132890633203313        0.0000000000000000     
  -5.5492689941863977E-003  0.14893013667674013        0.0000000000000000     
  -5.6548768243112413E-003  0.15664217303331582        0.0000000000000000     
  -5.7550858601427626E-003  0.16446501540176012        0.0000000000000000     
  -1.0707569851792633E-002  0.13389349140552656        0.0000000000000000     
  -1.0939929266061238E-002  0.14137960353723783        0.0000000000000000     
  -1.1160236044429752E-002  0.14897655125500106        0.0000000000000000     
  -1.1368490186898162E-002  0.15668433455881645        0.0000000000000000     
  -1.1564691693466477E-002  0.16450295344868382        0.0000000000000000     
  -1.6136087453621599E-002  0.13397491450999402        0.0000000000000000     
  -1.6484904641175580E-002  0.14145471644455429        0.0000000000000000     
  -1.6814340880745345E-002  0.14904584558431561        0.0000000000000000     
  -1.7124396172330896E-002  0.15674830192927794        0.0000000000000000     
  -1.7415070515932236E-002  0.16456208547944134        0.0000000000000000     
  -2.1607409756543641E-002  0.13408275131259711        0.0000000000000000     
  -2.2073188495111241E-002  0.14155424505398259        0.0000000000000000     
  -2.2511583503133179E-002  0.14913801966468365        0.0000000000000000     
  -2.2922594780609446E-002  0.15683407514470035        0.0000000000000000     
  -2.3306222327540045E-002  0.16464241149403264        0.0000000000000000     
   1.3746984038903124E-005  0.16444827133867027        0.0000000000000000     
   1.1043836981003679E-005  0.17237434818115663        0.0000000000000000     
   8.9088354253432332E-006  0.18038843225417656        0.0000000000000000     
   7.3419793719216786E-006  0.18849052355773008        0.0000000000000000     
   6.3432688207397739E-006  0.19668062209181711        0.0000000000000000     
  -5.7550858601427626E-003  0.16446501540176012        0.0000000000000000     
  -5.8481007037098900E-003  0.17238765682859922        0.0000000000000000     
  -5.9321259570415553E-003  0.18039909036035906        0.0000000000000000     
  -6.0071616201377550E-003  0.18849931599703973        0.0000000000000000     
  -6.0732076929984899E-003  0.19668833373864114        0.0000000000000000     
  -1.1564691693466477E-002  0.16450295344868382        0.0000000000000000     
  -1.1746479046493339E-002  0.17242150519409827        0.0000000000000000     
  -1.1911490728337392E-002  0.18042908706455463        0.0000000000000000     
  -1.2059726738998642E-002  0.18852569906005290        0.0000000000000000     
  -1.2191187078477082E-002  0.19671134118059316        0.0000000000000000     
  -1.7415070515932236E-002  0.16456208547944134        0.0000000000000000     
  -1.7684091191369336E-002  0.17247589327765381        0.0000000000000000     
  -1.7929185478462169E-002  0.18047842236676320        0.0000000000000000     
  -1.8150353377210729E-002  0.18856967274676967        0.0000000000000000     
  -1.8347594887615032E-002  0.19674964441767306        0.0000000000000000     
  -2.3306222327540045E-002  0.16464241149403264        0.0000000000000000     
  -2.3660937138337883E-002  0.17255082107926573        0.0000000000000000     
  -2.3985210207415879E-002  0.18054709626698481        0.0000000000000000     
  -2.4279041534774032E-002  0.18863123705718987        0.0000000000000000     
  -2.4542431120412340E-002  0.19680324344988098        0.0000000000000000     
   6.3432688207397739E-006  0.19668062209181711        0.0000000000000000     
   5.6622635931473375E-006  0.20493986459730146        0.0000000000000000     
   5.0485235104981993E-006  0.21324938781504701        0.0000000000000000     
   4.5020485727921696E-006  0.22160919174505361        0.0000000000000000     
   4.0228387800269987E-006  0.23001927638732139        0.0000000000000000     
  -6.0732076929984899E-003  0.19668833373864114        0.0000000000000000     
  -6.1311608078749727E-003  0.20494703087173632        0.0000000000000000     
  -6.1819175970184159E-003  0.21325629468289828        0.0000000000000000     
  -6.2254780604288160E-003  0.22161612517212689        0.0000000000000000     
  -6.2618421981061783E-003  0.23002652233942231        0.0000000000000000     
  -1.2191187078477082E-002  0.19671134118059316        0.0000000000000000     
  -1.2307023746848292E-002  0.20496743808528883        0.0000000000000000     
  -1.2408388744187853E-002  0.21327541443325351        0.0000000000000000     
  -1.2495282070495760E-002  0.22163527022448709        0.0000000000000000     
  -1.2567703725772022E-002  0.23004700545898971        0.0000000000000000     
  -1.8347594887615032E-002  0.19674964441767306        0.0000000000000000     
  -1.8521926553326809E-002  0.20500108623795896        0.0000000000000000     
  -1.8674364917997816E-002  0.21330674706611266        0.0000000000000000     
  -1.8804909981628037E-002  0.22166662690213418        0.0000000000000000     
  -1.8913561744217499E-002  0.23008072574602359        0.0000000000000000     
  -2.4542431120412340E-002  0.19680324344988098        0.0000000000000000     
  -2.4775869227310520E-002  0.20504797532974670        0.0000000000000000     
  -2.4979846118448293E-002  0.21335029258147581        0.0000000000000000     
  -2.5154361793825658E-002  0.22171019520506824        0.0000000000000000     
  -2.5299416253442619E-002  0.23012768320052407        0.0000000000000000     
   4.0228387800269987E-006  0.23001927638732139        0.0000000000000000     
   3.6205372553014138E-006  0.23844845714950139        0.0000000000000000     
   3.3047871217133833E-006  0.24686554943924469        0.0000000000000000     
   3.0755883792610913E-006  0.25527055325655129        0.0000000000000000     
   2.9329410279454321E-006  0.26366346860142131        0.0000000000000000     
  -6.2618421981061783E-003  0.23002652233942231        0.0000000000000000     
  -6.2923284661147915E-003  0.23845665000192720        0.0000000000000000     
  -6.3182553205189448E-003  0.24687567197678434        0.0000000000000000     
  -6.3396227613186354E-003  0.25528358826399378        0.0000000000000000     
  -6.3564307885138711E-003  0.26368039886355543        0.0000000000000000     
  -1.2567703725772022E-002  0.23004700545898971        0.0000000000000000     
  -1.2628487256661143E-002  0.23848049801125004        0.0000000000000000     
  -1.2680466209807629E-002  0.24690562575575675        0.0000000000000000     
  -1.2723640585211488E-002  0.25532238869251001        0.0000000000000000     
  -1.2758010382872715E-002  0.26373078682150974        0.0000000000000000     
  -1.8913561744217499E-002  0.23008072574602359        0.0000000000000000     
  -1.9004855834383751E-002  0.23852000117746994        0.0000000000000000     
  -1.9083327880744350E-002  0.24695541077616207        0.0000000000000000     
  -1.9148977883299292E-002  0.25538695454210014        0.0000000000000000     
  -1.9201805842048589E-002  0.26381463247528414        0.0000000000000000     
  -2.5299416253442619E-002  0.23012768320052407        0.0000000000000000     
  -2.5421434199282614E-002  0.23857515950058683        0.0000000000000000     
  -2.5526840333329096E-002  0.24702502703800017        0.0000000000000000     
  -2.5615634655582052E-002  0.25547728581276408        0.0000000000000000     
  -2.5687817166041495E-002  0.26393193582487851        0.0000000000000000     
   2.9329410279454321E-006  0.26366346860142131        0.0000000000000000     
   2.8296002871337853E-006  0.27198409429145110        0.0000000000000000     
   2.7183213761928799E-006  0.28017222914423723        0.0000000000000000     
   2.5991042951234206E-006  0.28822787315977971        0.0000000000000000     
   2.4719490439254616E-006  0.29615102633807849        0.0000000000000000     
  -6.3564307885138711E-003  0.26368039886355543        0.0000000000000000     
  -6.3725897490082249E-003  0.27200617450987374        0.0000000000000000     
  -6.3920099897052784E-003  0.28020098593735288        0.0000000000000000     
  -6.4146915106050332E-003  0.28826483314599283        0.0000000000000000     
  -6.4406343117074912E-003  0.29619771613579360        0.0000000000000000     
  -1.2758010382872715E-002  0.26373078682150974        0.0000000000000000     
  -1.2790797683007093E-002  0.27207183447524619        0.0000000000000000     
  -1.2829224565830405E-002  0.28028654598620956        0.0000000000000000     
  -1.2873291031342646E-002  0.28837492135439996        0.0000000000000000     
  -1.2922997079543821E-002  0.29633696057981734        0.0000000000000000     
  -1.9201805842048589E-002  0.26381463247528414        0.0000000000000000     
  -1.9251794201709475E-002  0.27218107418756837        0.0000000000000000     
  -1.9308925406999182E-002  0.28042890929080733        0.0000000000000000     
  -1.9373199457917715E-002  0.28855813778500106        0.0000000000000000     
  -1.9444616354465070E-002  0.29656875967014962        0.0000000000000000     
  -2.5687817166041495E-002  0.26393193582487851        0.0000000000000000     
  -2.5755579305115371E-002  0.27233389364684035        0.0000000000000000     
  -2.5831112513211619E-002  0.28062807585114630        0.0000000000000000     
  -2.5914416790330238E-002  0.28881448243779634        0.0000000000000000     
  -2.6005492136471235E-002  0.29689311340679048        0.0000000000000000     
  -1.3932018172440394E-002   5.5832918152838175E-002   0.0000000000000000     
  -1.4707194375228336E-002   6.1418478440768955E-002   0.0000000000000000     
  -1.5460116002001891E-002   6.7189510523879337E-002   0.0000000000000000     
  -1.6190783052761056E-002   7.3146014402169293E-002   0.0000000000000000     
  -1.6899195527505836E-002   7.9287990075638859E-002   0.0000000000000000     
  -1.7817467124041132E-002   5.5951098253571661E-002   0.0000000000000000     
  -1.8721132972573117E-002   6.1558928023123669E-002   0.0000000000000000     
  -1.9607886426101114E-002   6.7348550816701075E-002   0.0000000000000000     
  -2.0477727484625112E-002   7.3319966634303901E-002   0.0000000000000000     
  -2.1330656148145125E-002   7.9473175475932162E-002   0.0000000000000000     
  -2.1640559255204334E-002   5.6199431637657345E-002   0.0000000000000000     
  -2.2716137922748028E-002   6.1812816078784215E-002   0.0000000000000000     
  -2.3770225117693899E-002   6.7605680973118656E-002   0.0000000000000000     
  -2.4802820840041949E-002   7.3578026320660656E-002   0.0000000000000000     
  -2.5813925089792182E-002   7.9729852121410233E-002   0.0000000000000000     
  -2.5401294565929992E-002   5.6577918305095197E-002   0.0000000000000000     
  -2.6692209225753070E-002   6.2180142607750614E-002   0.0000000000000000     
  -2.7947132076780252E-002   6.7960900993132053E-002   0.0000000000000000     
  -2.9166063119011564E-002   7.3920193461239556E-002   0.0000000000000000     
  -3.0349002352446995E-002   8.0058020012073058E-002   0.0000000000000000     
  -2.9099673056218120E-002   5.7086558255885253E-002   0.0000000000000000     
  -3.0649346881588234E-002   6.2660907610022853E-002   0.0000000000000000     
  -3.2138607303360184E-002   6.8414210876741308E-002   0.0000000000000000     
  -3.3567454321533956E-002   7.4346468056040560E-002   0.0000000000000000     
  -3.4935887936109571E-002   8.0457679147920652E-002   0.0000000000000000     
  -1.6899195527505836E-002   7.9287990075638859E-002   0.0000000000000000     
  -1.7582904523647525E-002   8.5602569934109043E-002   0.0000000000000000     
  -1.8239461138597434E-002   9.2076886367400898E-002   0.0000000000000000     
  -1.8868865372355551E-002   9.8710939375514450E-002   0.0000000000000000     
  -1.9471117224921883E-002  0.10550472895844966        0.0000000000000000     
  -2.1330656148145125E-002   7.9473175475932162E-002   0.0000000000000000     
  -2.2160806935658018E-002   8.5794703064709585E-002   0.0000000000000000     
  -2.2962314366160655E-002   9.2271075123759844E-002   0.0000000000000000     
  -2.3735178439653035E-002   9.8902291653082952E-002   0.0000000000000000     
  -2.4479399156135170E-002  0.10568835265267897        0.0000000000000000     
  -2.5813925089792182E-002   7.9729852121410233E-002   0.0000000000000000     
  -2.6798514590726075E-002   8.6047799669524097E-002   0.0000000000000000     
  -2.7751566066625120E-002   9.2518510259158984E-002   0.0000000000000000     
  -2.8673079517489323E-002   9.9141983890314894E-002   0.0000000000000000     
  -2.9563054943318678E-002  0.10591822056299183        0.0000000000000000     
  -3.0349002352446995E-002   8.0058020012073058E-002   0.0000000000000000     
  -3.1496027488851698E-002   8.6361859748552663E-002   0.0000000000000000     
  -3.2607216239990834E-002   9.2819191773598389E-002   0.0000000000000000     
  -3.3682568605864396E-002   9.9430016087210235E-002   0.0000000000000000     
  -3.4722084586472392E-002  0.10619433268938820        0.0000000000000000     
  -3.4935887936109571E-002   8.0457679147920652E-002   0.0000000000000000     
  -3.6253345630034892E-002   8.6736883301795215E-002   0.0000000000000000     
  -3.7529264886257789E-002   9.3173119667078003E-002   0.0000000000000000     
  -3.8763645704778270E-002   9.9766388243768961E-002   0.0000000000000000     
  -3.9956488085596334E-002  0.10651668903186812        0.0000000000000000     
  -1.9471117224921883E-002  0.10550472895844966        0.0000000000000000     
  -2.0046142254626077E-002  0.11244609875834341        0.0000000000000000     
  -2.0593866019797766E-002  0.11952289241733259        0.0000000000000000     
  -2.1114288520436956E-002  0.12673510993541715        0.0000000000000000     
  -2.1607409756543641E-002  0.13408275131259711        0.0000000000000000     
  -2.4479399156135170E-002  0.10568835265267897        0.0000000000000000     
  -2.5193173487635643E-002  0.11261948193025730        0.0000000000000000     
  -2.5874698406183033E-002  0.11968590329352735        0.0000000000000000     
  -2.6523973911777361E-002  0.12688761674248916        0.0000000000000000     
  -2.7141000004418610E-002  0.13422462227714269        0.0000000000000000     
  -2.9563054943318678E-002  0.10591822056299183        0.0000000000000000     
  -3.0418288909414355E-002  0.11283830466459775        0.0000000000000000     
  -3.1235577981077525E-002  0.11989332058254069        0.0000000000000000     
  -3.2014922158308187E-002  0.12708326831682057        0.0000000000000000     
  -3.2756321441106344E-002  0.13440814786743749        0.0000000000000000     
  -3.4722084586472392E-002  0.10619433268938820        0.0000000000000000     
  -3.5721488519962215E-002  0.11310256696136481        0.0000000000000000     
  -3.6676504744481225E-002  0.12014514428437258        0.0000000000000000     
  -3.7587133260029437E-002  0.12732206465841148        0.0000000000000000     
  -3.8453374066606837E-002  0.13463332808348155        0.0000000000000000     
  -3.9956488085596334E-002  0.10651668903186812        0.0000000000000000     
  -4.1102772319279217E-002  0.11341226882055847        0.0000000000000000     
  -4.2197478696394133E-002  0.12044137439902304        0.0000000000000000     
  -4.3240607216941097E-002  0.12760400576726183        0.0000000000000000     
  -4.4232157880920123E-002  0.13490016292527487        0.0000000000000000     
  -2.1607409756543641E-002  0.13408275131259711        0.0000000000000000     
  -2.2073188495111241E-002  0.14155424505398259        0.0000000000000000     
  -2.2511583503133179E-002  0.14913801966468365        0.0000000000000000     
  -2.2922594780609446E-002  0.15683407514470035        0.0000000000000000     
  -2.3306222327540045E-002  0.16464241149403264        0.0000000000000000     
  -2.7141000004418610E-002  0.13422462227714269        0.0000000000000000     
  -2.7724271934521639E-002  0.14168584596613132        0.0000000000000000     
  -2.8272284952501312E-002  0.14926021387809840        0.0000000000000000     
  -2.8785039058357626E-002  0.15694772601304399        0.0000000000000000     
  -2.9262534252090581E-002  0.16474838237096801        0.0000000000000000     
  -3.2756321441106344E-002  0.13440814786743749        0.0000000000000000     
  -3.3457646066060165E-002  0.14185717578160906        0.0000000000000000     
  -3.4116766269757792E-002  0.14941956860655292        0.0000000000000000     
  -3.4733682052199254E-002  0.15709532634226905        0.0000000000000000     
  -3.5308393413384542E-002  0.16488444898875754        0.0000000000000000     
  -3.8453374066606837E-002  0.13463332808348155        0.0000000000000000     
  -3.9273310889726798E-002  0.14206823450041578        0.0000000000000000     
  -4.0045027454902626E-002  0.14961608385004713        0.0000000000000000     
  -4.0768523762134322E-002  0.15727687613237565        0.0000000000000000     
  -4.1443799811421905E-002  0.16505061134740126        0.0000000000000000     
  -4.4232157880920123E-002  0.13490016292527487        0.0000000000000000     
  -4.5171266405521562E-002  0.14231902212255146        0.0000000000000000     
  -4.6057068507935804E-002  0.14984975960858105        0.0000000000000000     
  -4.6889564188162848E-002  0.15749237538336364        0.0000000000000000     
  -4.7668753446202694E-002  0.16524686944689920        0.0000000000000000     
  -2.3306222327540045E-002  0.16464241149403264        0.0000000000000000     
  -2.3660937138337883E-002  0.17255082107926573        0.0000000000000000     
  -2.3985210207415879E-002  0.18054709626698481        0.0000000000000000     
  -2.4279041534774032E-002  0.18863123705718987        0.0000000000000000     
  -2.4542431120412340E-002  0.19680324344988098        0.0000000000000000     
  -2.9262534252090581E-002  0.16474838237096801        0.0000000000000000     
  -2.9704090362424121E-002  0.17264910962896185        0.0000000000000000     
  -3.0109027218082181E-002  0.18063683446411688        0.0000000000000000     
  -3.0477344819064778E-002  0.18871155687643318        0.0000000000000000     
  -3.0809043165371894E-002  0.19687327686591069        0.0000000000000000     
  -3.5308393413384542E-002  0.16488444898875754        0.0000000000000000     
  -3.5840624338653183E-002  0.17277357995676962        0.0000000000000000     
  -3.6330098813344744E-002  0.18074936265705674        0.0000000000000000     
  -3.6776816837459210E-002  0.18881179708961893        0.0000000000000000     
  -3.7180778410996582E-002  0.19696088325445615        0.0000000000000000     
  -4.1443799811421905E-002  0.16505061134740126        0.0000000000000000     
  -4.2070539067025077E-002  0.17292423206268917        0.0000000000000000     
  -4.2648424993203551E-002  0.18088468084580447        0.0000000000000000     
  -4.3177457589957328E-002  0.18893195769674720        0.0000000000000000     
  -4.3657636857286408E-002  0.19706606261551732        0.0000000000000000     
  -4.7668753446202694E-002  0.16524686944689920        0.0000000000000000     
  -4.8393834547539802E-002  0.17310106594672042        0.0000000000000000     
  -4.9064005757658610E-002  0.18104278903036000        0.0000000000000000     
  -4.9679267076559133E-002  0.18907203869781794        0.0000000000000000     
  -5.0239618504241357E-002  0.19718881494909424        0.0000000000000000     
  -2.4542431120412340E-002  0.19680324344988098        0.0000000000000000     
  -2.4775869227310520E-002  0.20504797532974670        0.0000000000000000     
  -2.4979846118448293E-002  0.21335029258147581        0.0000000000000000     
  -2.5154361793825658E-002  0.22171019520506824        0.0000000000000000     
  -2.5299416253442619E-002  0.23012768320052407        0.0000000000000000     
  -3.0809043165371894E-002  0.19687327686591069        0.0000000000000000     
  -3.1103860327390043E-002  0.20510918507642947        0.0000000000000000     
  -3.1361534375505734E-002  0.21340647215186945        0.0000000000000000     
  -3.1582065309718965E-002  0.22176513809223067        0.0000000000000000     
  -3.1765453130029736E-002  0.23018518289751314        0.0000000000000000     
  -3.7180778410996582E-002  0.19696088325445615        0.0000000000000000     
  -3.7540908412156002E-002  0.20518579519378449        0.0000000000000000     
  -3.7856131719136571E-002  0.21347570694982007        0.0000000000000000     
  -3.8126448331938317E-002  0.22183061852256297        0.0000000000000000     
  -3.8351858250561227E-002  0.23025052991201309        0.0000000000000000     
  -4.3657636857286408E-002  0.19706606261551732        0.0000000000000000     
  -4.4087013481608373E-002  0.20527780568181186        0.0000000000000000     
  -4.4463638149340810E-002  0.21355799697532782        0.0000000000000000     
  -4.4787510860483715E-002  0.22190663649606515        0.0000000000000000     
  -4.5058631615037092E-002  0.23032372424402392        0.0000000000000000     
  -5.0239618504241357E-002  0.19718881494909424        0.0000000000000000     
  -5.0742175535747169E-002  0.20538521654051151        0.0000000000000000     
  -5.1184053666118431E-002  0.21365334222839252        0.0000000000000000     
  -5.1565252895355157E-002  0.22199319201273723        0.0000000000000000     
  -5.1885773223457332E-002  0.23040476589354561        0.0000000000000000     
  -2.5299416253442619E-002  0.23012768320052407        0.0000000000000000     
  -2.5421434199282614E-002  0.23857515950058683        0.0000000000000000     
  -2.5526840333329096E-002  0.24702502703800017        0.0000000000000000     
  -2.5615634655582052E-002  0.25547728581276408        0.0000000000000000     
  -2.5687817166041495E-002  0.26393193582487851        0.0000000000000000     
  -3.1765453130029736E-002  0.23018518289751314        0.0000000000000000     
  -3.1919717463109828E-002  0.23864143098135893        0.0000000000000000     
  -3.2052877935631018E-002  0.24710870675741003        0.0000000000000000     
  -3.2164934547593303E-002  0.25558701022566654        0.0000000000000000     
  -3.2255887298996692E-002  0.26407634138612834        0.0000000000000000     
  -3.8351858250561227E-002  0.23025052991201309        0.0000000000000000     
  -3.8541200737617493E-002  0.23871427362054440        0.0000000000000000     
  -3.8703315055719271E-002  0.24720068215053079        0.0000000000000000     
  -3.8838201204866585E-002  0.25570975550197222        0.0000000000000000     
  -3.8945859185059425E-002  0.26424149367486877        0.0000000000000000     
  -4.5058631615037092E-002  0.23032372424402392        0.0000000000000000     
  -4.5285884022805596E-002  0.23879368741814325        0.0000000000000000     
  -4.5478151693593864E-002  0.24730095321736231        0.0000000000000000     
  -4.5635434627401904E-002  0.25584552164168112        0.0000000000000000     
  -4.5757732824229701E-002  0.26442739269109961        0.0000000000000000     
  -5.1885773223457332E-002  0.23040476589354561        0.0000000000000000     
  -5.2153767318674139E-002  0.23887967237415550        0.0000000000000000     
  -5.2377387849254775E-002  0.24740951995790475        0.0000000000000000     
  -5.2556634815199239E-002  0.25599430864479328        0.0000000000000000     
  -5.2691508216507525E-002  0.26463403843482114        0.0000000000000000     
  -2.5687817166041495E-002  0.26393193582487851        0.0000000000000000     
  -2.5755579305115371E-002  0.27233389364684035        0.0000000000000000     
  -2.5831112513211619E-002  0.28062807585114630        0.0000000000000000     
  -2.5914416790330238E-002  0.28881448243779634        0.0000000000000000     
  -2.6005492136471235E-002  0.29689311340679048        0.0000000000000000     
  -3.2255887298996692E-002  0.26407634138612834        0.0000000000000000     
  -3.2340540926964818E-002  0.27252395080795999        0.0000000000000000     
  -3.2433700168621349E-002  0.28087708906032582        0.0000000000000000     
  -3.2535365023966256E-002  0.28913575614322590        0.0000000000000000     
  -3.2645535492999568E-002  0.29729995205666027        0.0000000000000000     
  -3.8945859185059425E-002  0.26424149367486877        0.0000000000000000     
  -3.9045067000997871E-002  0.27274490362582487        0.0000000000000000     
  -3.9154602657382000E-002  0.28116899231144526        0.0000000000000000     
  -3.9274466154211825E-002  0.28951375973173005        0.0000000000000000     
  -3.9404657491487319E-002  0.29777920588667905        0.0000000000000000     
  -4.5757732824229701E-002  0.26442739269109961        0.0000000000000000     
  -4.5869157527214523E-002  0.27299675210043511        0.0000000000000000     
  -4.5993819979493596E-002  0.28150378560450479        0.0000000000000000     
  -4.6131720181066919E-002  0.28994849320330890        0.0000000000000000     
  -4.6282858131934480E-002  0.29833087489684701        0.0000000000000000     
  -5.2691508216507525E-002  0.26463403843482114        0.0000000000000000     
  -5.2812812505614773E-002  0.27327949623179076        0.0000000000000000     
  -5.2951352134956109E-002  0.28188146893950439        0.0000000000000000     
  -5.3107127104531547E-002  0.29043995655796218        0.0000000000000000     
  -5.3280137414341067E-002  0.29895495908716396        0.0000000000000000     
  -2.9099673056218120E-002   5.7086558255885253E-002   0.0000000000000000     
  -3.0649346881588234E-002   6.2660907610022853E-002   0.0000000000000000     
  -3.2138607303360184E-002   6.8414210876741308E-002   0.0000000000000000     
  -3.3567454321533956E-002   7.4346468056040560E-002   0.0000000000000000     
  -3.4935887936109571E-002   8.0457679147920652E-002   0.0000000000000000     
  -3.2895746929752091E-002   5.7668829585113102E-002   0.0000000000000000     
  -3.4698327755184125E-002   6.3210303039298407E-002   0.0000000000000000     
  -3.6419694704490066E-002   6.8931869391226350E-002   0.0000000000000000     
  -3.8059847777669922E-002   7.4833528640896957E-002   0.0000000000000000     
  -3.9618786974723694E-002   8.0915280788310201E-002   0.0000000000000000     
  -3.6949568390215307E-002   5.8268210387864394E-002   0.0000000000000000     
  -3.8949928711471335E-002   6.3783520849274689E-002   0.0000000000000000     
  -4.0865438187226308E-002   6.9480135303867235E-002   0.0000000000000000     
  -4.2696096817480253E-002   7.5358053751642007E-002   0.0000000000000000     
  -4.4441904602233170E-002   8.1417276192599003E-002   0.0000000000000000     
  -4.1261137437607752E-002   5.8884700664139124E-002   0.0000000000000000     
  -4.3404149750449837E-002   6.4380561039951753E-002   0.0000000000000000     
  -4.5475837751568916E-002   7.0059008614663951E-002   0.0000000000000000     
  -4.7476201440964962E-002   7.5920043388275710E-002   0.0000000000000000     
  -4.9405240818637980E-002   8.1963665360787058E-002   0.0000000000000000     
  -4.5830454071929441E-002   5.9518300413937290E-002   0.0000000000000000     
  -4.8060990872119680E-002   6.5001423611329545E-002   0.0000000000000000     
  -5.0250893397517871E-002   7.0668489323616482E-002   0.0000000000000000     
  -5.2400161648124027E-002   7.6519497550798066E-002   0.0000000000000000     
  -5.4508795623938136E-002   8.2554448292874325E-002   0.0000000000000000     
  -3.4935887936109571E-002   8.0457679147920652E-002   0.0000000000000000     
  -3.6253345630034892E-002   8.6736883301795215E-002   0.0000000000000000     
  -3.7529264886257789E-002   9.3173119667078003E-002   0.0000000000000000     
  -3.8763645704778270E-002   9.9766388243768961E-002   0.0000000000000000     
  -3.9956488085596334E-002  0.10651668903186812        0.0000000000000000     
  -3.9618786974723694E-002   8.0915280788310201E-002   0.0000000000000000     
  -4.1112690968371779E-002   8.7167320317937447E-002   0.0000000000000000     
  -4.2557738431334549E-002   9.3579841714249962E-002   0.0000000000000000     
  -4.3953929363612032E-002  0.10015284497724780        0.0000000000000000     
  -4.5301263765204207E-002  0.10688633010693091        0.0000000000000000     
  -4.4441904602233170E-002   8.1417276192599003E-002   0.0000000000000000     
  -4.6116285457958504E-002   8.7647620785664904E-002   0.0000000000000000     
  -4.7732663301129692E-002   9.4038905689766347E-002   0.0000000000000000     
  -4.9291038131746762E-002  0.10059113090490335        0.0000000000000000     
  -5.0791409949809706E-002  0.10730429643107592        0.0000000000000000     
  -4.9405240818637980E-002   8.1963665360787058E-002   0.0000000000000000     
  -5.1264129098795040E-002   8.8177784704977655E-002   0.0000000000000000     
  -5.3054039495643204E-002   9.4550311593627187E-002   0.0000000000000000     
  -5.4774972009182479E-002  0.10108124602673572        0.0000000000000000     
  -5.6426926639412851E-002  0.10777058800430320        0.0000000000000000     
  -5.4508795623938136E-002   8.2554448292874325E-002   0.0000000000000000     
  -5.6556221890881428E-002   8.8757812075875644E-002   0.0000000000000000     
  -5.8521867014875099E-002   9.5114059425832495E-002   0.0000000000000000     
  -6.0405730995919171E-002  0.10162319034274483        0.0000000000000000     
  -6.2207813834013637E-002  0.10828520482661268        0.0000000000000000     
  -3.9956488085596334E-002  0.10651668903186812        0.0000000000000000     
  -4.1102772319279217E-002  0.11341226882055847        0.0000000000000000     
  -4.2197478696394133E-002  0.12044137439902304        0.0000000000000000     
  -4.3240607216941097E-002  0.12760400576726183        0.0000000000000000     
  -4.4232157880920123E-002  0.13490016292527487        0.0000000000000000     
  -4.5301263765204207E-002  0.10688633010693091        0.0000000000000000     
  -4.6594785375757189E-002  0.11376658822395101        0.0000000000000000     
  -4.7829537934917121E-002  0.12077991044895978        0.0000000000000000     
  -4.9005521442683983E-002  0.12792629678195722        0.0000000000000000     
  -5.0122735899057788E-002  0.13520574722294329        0.0000000000000000     
  -5.0791409949809706E-002  0.10730429643107592        0.0000000000000000     
  -5.2230172757787977E-002  0.11416470315331474        0.0000000000000000     
  -5.3603720558151019E-002  0.12115865195665049        0.0000000000000000     
  -5.4912053350898861E-002  0.12828614284108319        0.0000000000000000     
  -5.6155171136031468E-002  0.13554717580661280        0.0000000000000000     
  -5.6426926639412851E-002  0.10777058800430320        0.0000000000000000     
  -5.8008934465371573E-002  0.11460661360864967        0.0000000000000000     
  -5.9520026566095861E-002  0.12157759892209519        0.0000000000000000     
  -6.0960202941585717E-002  0.12868354394463977        0.0000000000000000     
  -6.2329463591841161E-002  0.13592444867628337        0.0000000000000000     
  -6.2207813834013637E-002  0.10828520482661268        0.0000000000000000     
  -6.3931070498507978E-002  0.11509231958995578        0.0000000000000000     
  -6.5578455958751614E-002  0.12203675134529386        0.0000000000000000     
  -6.7149970214744600E-002  0.12911850009262693        0.0000000000000000     
  -6.8645613266486882E-002  0.13633756583195500        0.0000000000000000     
  -4.4232157880920123E-002  0.13490016292527487        0.0000000000000000     
  -4.5171266405521562E-002  0.14231902212255146        0.0000000000000000     
  -4.6057068507935804E-002  0.14984975960858105        0.0000000000000000     
  -4.6889564188162848E-002  0.15749237538336364        0.0000000000000000     
  -4.7668753446202694E-002  0.16524686944689920        0.0000000000000000     
  -5.0122735899057788E-002  0.13520574722294329        0.0000000000000000     
  -5.1181669395823817E-002  0.14260703893170373        0.0000000000000000     
  -5.2182810024767386E-002  0.15011894906802425        0.0000000000000000     
  -5.3126157785888473E-002  0.15774147763190483        0.0000000000000000     
  -5.4011712679187085E-002  0.16547462462334545        0.0000000000000000     
  -5.6155171136031468E-002  0.13554717580661280        0.0000000000000000     
  -5.7334676643012963E-002  0.14292978521156022        0.0000000000000000     
  -5.8452172601307431E-002  0.15042200541424622        0.0000000000000000     
  -5.9507659010914885E-002  0.15802383641467085        0.0000000000000000     
  -6.0501135871835296E-002  0.16573527821283410        0.0000000000000000     
  -6.2329463591841161E-002  0.13592444867628337        0.0000000000000000     
  -6.3630288147088973E-002  0.14328726096212085        0.0000000000000000     
  -6.4865156237555940E-002  0.15075892864724694        0.0000000000000000     
  -6.6034067863242035E-002  0.15833945173166170        0.0000000000000000     
  -6.7137023024147313E-002  0.16602883021536510        0.0000000000000000     
  -6.8645613266486882E-002  0.13633756583195500        0.0000000000000000     
  -7.0068503908051860E-002  0.14367946618338562        0.0000000000000000     
  -7.1421760933512907E-002  0.15112971876702644        0.0000000000000000     
  -7.2705384342869994E-002  0.15868832358287741        0.0000000000000000     
  -7.3919374136123150E-002  0.16635528063093852        0.0000000000000000     
  -4.7668753446202694E-002  0.16524686944689920        0.0000000000000000     
  -4.8393834547539802E-002  0.17310106594672042        0.0000000000000000     
  -4.9064005757658610E-002  0.18104278903036000        0.0000000000000000     
  -4.9679267076559133E-002  0.18907203869781794        0.0000000000000000     
  -5.0239618504241357E-002  0.19718881494909424        0.0000000000000000     
  -5.4011712679187085E-002  0.16547462462334545        0.0000000000000000     
  -5.4837994817355573E-002  0.17330726349952844        0.0000000000000000     
  -5.5603524313086246E-002  0.18122826771763606        0.0000000000000000     
  -5.6308301166379124E-002  0.18923763727766835        0.0000000000000000     
  -5.6952325377234193E-002  0.19733537217962532        0.0000000000000000     
  -6.0501135871835296E-002  0.16573527821283410        0.0000000000000000     
  -6.1430503913630634E-002  0.17354600661177816        0.0000000000000000     
  -6.2293663865862790E-002  0.18144569741454541        0.0000000000000000     
  -6.3090615728531793E-002  0.18943435062113576        0.0000000000000000     
  -6.3821359501637642E-002  0.19751196623154918        0.0000000000000000     
  -6.7137023024147313E-002  0.16602883021536510        0.0000000000000000     
  -6.8171361836364963E-002  0.17381729528346967        0.0000000000000000     
  -6.9134424415988271E-002  0.18169507812108801        0.0000000000000000     
  -7.0026210763017183E-002  0.18966217872822000        0.0000000000000000     
  -7.0846720877451724E-002  0.19771859710486578        0.0000000000000000     
  -7.3919374136123150E-002  0.16635528063093852        0.0000000000000000     
  -7.5060568585558610E-002  0.17412112951460296        0.0000000000000000     
  -7.6125805963462634E-002  0.18197640983726387        0.0000000000000000     
  -7.7115086269835237E-002  0.18992112159892119        0.0000000000000000     
  -7.8028409504676419E-002  0.19795526479957504        0.0000000000000000     
  -5.0239618504241357E-002  0.19718881494909424        0.0000000000000000     
  -5.0742175535747169E-002  0.20538521654051151        0.0000000000000000     
  -5.1184053666118431E-002  0.21365334222839252        0.0000000000000000     
  -5.1565252895355157E-002  0.22199319201273723        0.0000000000000000     
  -5.1885773223457332E-002  0.23040476589354561        0.0000000000000000     
  -5.6952325377234193E-002  0.19733537217962532        0.0000000000000000     
  -5.7532262772096679E-002  0.20551446423234676        0.0000000000000000     
  -5.8044779177411812E-002  0.21376790524467237        0.0000000000000000     
  -5.8489874593179579E-002  0.22209569521660216        0.0000000000000000     
  -5.8867549019399987E-002  0.23049783414813621        0.0000000000000000     
  -6.3821359501637642E-002  0.19751196623154918        0.0000000000000000     
  -6.4483143388181188E-002  0.20567198521978078        0.0000000000000000     
  -6.5073215591163275E-002  0.21390784855982539        0.0000000000000000     
  -6.5591576110583916E-002  0.22221955625168310        0.0000000000000000     
  -6.6038224946443097E-002  0.23060710829535389        0.0000000000000000     
  -7.0846720877451724E-002  0.19771859710486578        0.0000000000000000     
  -7.1594817384000684E-002  0.20585777950281353        0.0000000000000000     
  -7.2269362907372833E-002  0.21407317217385158        0.0000000000000000     
  -7.2870357447568160E-002  0.22236477511797992        0.0000000000000000     
  -7.3397801004586691E-002  0.23073258833519852        0.0000000000000000     
  -7.8028409504676419E-002  0.19795526479957504        0.0000000000000000     
  -7.8867284759555178E-002  0.20607184708144502        0.0000000000000000     
  -7.9633221126040460E-002  0.21426387608675090        0.0000000000000000     
  -8.0326218604132318E-002  0.22253135181549263        0.0000000000000000     
  -8.0946277193830754E-002  0.23087427426767029        0.0000000000000000     
  -5.1885773223457332E-002  0.23040476589354561        0.0000000000000000     
  -5.2153767318674139E-002  0.23887967237415550        0.0000000000000000     
  -5.2377387849254775E-002  0.24740951995790475        0.0000000000000000     
  -5.2556634815199239E-002  0.25599430864479328        0.0000000000000000     
  -5.2691508216507525E-002  0.26463403843482114        0.0000000000000000     
  -5.8867549019399987E-002  0.23049783414813621        0.0000000000000000     
  -5.9183934131830984E-002  0.23897371780083257        0.0000000000000000     
  -5.9445161606230520E-002  0.24752274193624937        0.0000000000000000     
  -5.9651231442598596E-002  0.25614490655438660        0.0000000000000000     
  -5.9802143640935224E-002  0.26484021165524430        0.0000000000000000     
  -6.6038224946443097E-002  0.23060710829535389        0.0000000000000000     
  -6.6415467968883951E-002  0.23907731301042603        0.0000000000000000     
  -6.6725611048049568E-002  0.24763697871648774        0.0000000000000000     
  -6.6968654183939949E-002  0.25628610541353919        0.0000000000000000     
  -6.7144597376555107E-002  0.26502469310158022        0.0000000000000000     
  -7.3397801004586691E-002  0.23073258833519852        0.0000000000000000     
  -7.3848368829833061E-002  0.23919045800293579        0.0000000000000000     
  -7.4218736174711933E-002  0.24775223029861992        0.0000000000000000     
  -7.4508903039223293E-002  0.25641790522225094        0.0000000000000000     
  -7.4718869423367182E-002  0.26518748277382875        0.0000000000000000     
  -8.0946277193830754E-002  0.23087427426767029        0.0000000000000000     
  -8.1482636714678314E-002  0.23931315277836193        0.0000000000000000     
  -8.1924536986217614E-002  0.24786849668264579        0.0000000000000000     
  -8.2271978008448668E-002  0.25654030598052191        0.0000000000000000     
  -8.2524959781371462E-002  0.26532858067199011        0.0000000000000000     
  -5.2691508216507525E-002  0.26463403843482114        0.0000000000000000     
  -5.2812812505614773E-002  0.27327949623179076        0.0000000000000000     
  -5.2951352134956109E-002  0.28188146893950439        0.0000000000000000     
  -5.3107127104531547E-002  0.29043995655796218        0.0000000000000000     
  -5.3280137414341067E-002  0.29895495908716396        0.0000000000000000     
  -5.9802143640935224E-002  0.26484021165524430        0.0000000000000000     
  -5.9934743217516427E-002  0.27356440911485252        0.0000000000000000     
  -6.0085875188618292E-002  0.28227325080924137        0.0000000000000000     
  -6.0255539554240789E-002  0.29096673673841084        0.0000000000000000     
  -6.0443736314383933E-002  0.29964486690236092        0.0000000000000000     
  -6.7144597376555107E-002  0.26502469310158022        0.0000000000000000     
  -6.7293660944237305E-002  0.27382276384458137        0.0000000000000000     
  -6.7456065205328847E-002  0.28265033970651315        0.0000000000000000     
  -6.7631810159829706E-002  0.29150742068737556        0.0000000000000000     
  -6.7820895807739937E-002  0.30039400678716871        0.0000000000000000     
  -7.4718869423367182E-002  0.26518748277382875        0.0000000000000000     
  -7.4889565685777384E-002  0.27405456042097709        0.0000000000000000     
  -7.5061922185087754E-002  0.28301273563131973        0.0000000000000000     
  -7.5235938921298331E-002  0.29206200840485647        0.0000000000000000     
  -7.5411615894409076E-002  0.30120237874158734        0.0000000000000000     
  -8.2524959781371462E-002  0.26532858067199011        0.0000000000000000     
  -8.2722457442136688E-002  0.27425979884404006        0.0000000000000000     
  -8.2903446127895075E-002  0.28336043858366111        0.0000000000000000     
  -8.3067925838646639E-002  0.29263049989085338        0.0000000000000000     
  -8.3215896574391351E-002  0.30206998276561681        0.0000000000000000     
  -4.5830454071929441E-002   5.9518300413937290E-002   0.0000000000000000     
  -4.8060990872119680E-002   6.5001423611329545E-002   0.0000000000000000     
  -5.0250893397517871E-002   7.0668489323616482E-002   0.0000000000000000     
  -5.2400161648124027E-002   7.6519497550798066E-002   0.0000000000000000     
  -5.4508795623938136E-002   8.2554448292874325E-002   0.0000000000000000     
  -5.0543737259401672E-002   6.0207836187997799E-002   0.0000000000000000     
  -5.2898754788977494E-002   6.5672673696132264E-002   0.0000000000000000     
  -5.5228039212721347E-002   7.1324829592211023E-002   0.0000000000000000     
  -5.7531590530633198E-002   7.7164303876234047E-002   0.0000000000000000     
  -5.9809408742713066E-002   8.3191096548201365E-002   0.0000000000000000     
  -5.5287205966245728E-002   6.0992134537059567E-002   0.0000000000000000     
  -5.7895744213519965E-002   6.6420876427084038E-002   0.0000000000000000     
  -6.0444709284827453E-002   7.2044281581933697E-002   0.0000000000000000     
  -6.2934101180168220E-002   7.7862350001608599E-002   0.0000000000000000     
  -6.5363919899542197E-002   8.3875081686108729E-002   0.0000000000000000     
  -6.0060860192461638E-002   6.1871195461122602E-002   0.0000000000000000     
  -6.3051959145747100E-002   6.7246031804184855E-002   0.0000000000000000     
  -6.5900903613836229E-002   7.2826845292784562E-002   0.0000000000000000     
  -6.8607693596729025E-002   7.8613635926921749E-002   0.0000000000000000     
  -7.1172329094425543E-002   8.4606403706596389E-002   0.0000000000000000     
  -6.4864699938049386E-002   6.2845018960186891E-002   0.0000000000000000     
  -6.8367399585658864E-002   6.8148139827434728E-002   0.0000000000000000     
  -7.1596622199747634E-002   7.3672520724763588E-002   0.0000000000000000     
  -7.4552367780315709E-002   7.9418161652173455E-002   0.0000000000000000     
  -7.7234636327363090E-002   8.5385062609664358E-002   0.0000000000000000     
  -5.4508795623938136E-002   8.2554448292874325E-002   0.0000000000000000     
  -5.6556221890881428E-002   8.8757812075875644E-002   0.0000000000000000     
  -5.8521867014875099E-002   9.5114059425832495E-002   0.0000000000000000     
  -6.0405730995919171E-002  0.10162319034274483        0.0000000000000000     
  -6.2207813834013637E-002  0.10828520482661268        0.0000000000000000     
  -5.9809408742713066E-002   8.3191096548201365E-002   0.0000000000000000     
  -6.2029537258098608E-002   8.9384741503684889E-002   0.0000000000000000     
  -6.4160019485927464E-002   9.5724772638256572E-002   0.0000000000000000     
  -6.6200855426199662E-002  0.10221118995191636        0.0000000000000000     
  -6.8152045078915188E-002  0.10884399344466435        0.0000000000000000     
  -6.5363919899542197E-002   8.3875081686108729E-002   0.0000000000000000     
  -6.7721048624327554E-002   9.0055611593731336E-002   0.0000000000000000     
  -6.9992370535902418E-002   9.6377074682773789E-002   0.0000000000000000     
  -7.2177885634266761E-002  0.10283947095323603        0.0000000000000000     
  -7.4277593919420598E-002  0.10944280040511813        0.0000000000000000     
  -7.1172329094425543E-002   8.4606403706596389E-002   0.0000000000000000     
  -7.3630755989568308E-002   9.0770422346015026E-002   0.0000000000000000     
  -7.6018920164799955E-002   9.7070965559384159E-002   0.0000000000000000     
  -7.8336821620120470E-002  0.10350803334670383        0.0000000000000000     
  -8.0584460355529880E-002  0.11008162570797400        0.0000000000000000     
  -7.7234636327363090E-002   8.5385062609664358E-002   0.0000000000000000     
  -7.9758659353820843E-002   9.1529173760535876E-002   0.0000000000000000     
  -8.2239668372620089E-002   9.7806445268087683E-002   0.0000000000000000     
  -8.4677663383760815E-002  0.10421687713231970        0.0000000000000000     
  -8.7072644387243020E-002  0.11076046935323200        0.0000000000000000     
  -6.2207813834013637E-002  0.10828520482661268        0.0000000000000000     
  -6.3931070498507978E-002  0.11509231958995578        0.0000000000000000     
  -6.5578455958751614E-002  0.12203675134529386        0.0000000000000000     
  -6.7149970214744600E-002  0.12911850009262693        0.0000000000000000     
  -6.8645613266486882E-002  0.13633756583195500        0.0000000000000000     
  -6.8152045078915188E-002  0.10884399344466435        0.0000000000000000     
  -7.0017985711906955E-002  0.11561999405644649        0.0000000000000000     
  -7.1803074593007887E-002  0.12253600272720887        0.0000000000000000     
  -7.3507311722218013E-002  0.12959201945695145        0.0000000000000000     
  -7.5130697099537277E-002  0.13678804424567428        0.0000000000000000     
  -7.4277593919420598E-002  0.10944280040511813        0.0000000000000000     
  -7.6291084960278283E-002  0.11618780996733520        0.0000000000000000     
  -7.8217948325754266E-002  0.12307524656880249        0.0000000000000000     
  -8.0058184015848508E-002  0.13010511020952004        0.0000000000000000     
  -8.1811792030561006E-002  0.13727740088948781        0.0000000000000000     
  -8.0584460355529880E-002  0.11008162570797400        0.0000000000000000     
  -8.2750368243622016E-002  0.11679576732262194        0.0000000000000000     
  -8.4823077156990737E-002  0.12365448287007483        0.0000000000000000     
  -8.6802587095636097E-002  0.13065777235033274        0.0000000000000000     
  -8.8688898059558083E-002  0.13780563576339558        0.0000000000000000     
  -8.7072644387243020E-002  0.11076046935323200        0.0000000000000000     
  -8.9395835561938058E-002  0.11744386612230667        0.0000000000000000     
  -9.1618461086717312E-002  0.12427371163102584        0.0000000000000000     
  -9.3740520961580795E-002  0.13125000587938948        0.0000000000000000     
  -9.5762015186528479E-002  0.13837274886739762        0.0000000000000000     
  -6.8645613266486882E-002  0.13633756583195500        0.0000000000000000     
  -7.0068503908051860E-002  0.14367946618338562        0.0000000000000000     
  -7.1421760933512907E-002  0.15112971876702644        0.0000000000000000     
  -7.2705384342869994E-002  0.15868832358287741        0.0000000000000000     
  -7.3919374136123150E-002  0.16635528063093852        0.0000000000000000     
  -7.5130697099537277E-002  0.13678804424567428        0.0000000000000000     
  -7.6676580755463422E-002  0.14410804244414338        0.0000000000000000     
  -7.8148312720494190E-002  0.15153597940312477        0.0000000000000000     
  -7.9545892994629566E-002  0.15907185512261848        0.0000000000000000     
  -8.0869321577869524E-002  0.16671566960262452        0.0000000000000000     
  -8.1811792030561006E-002  0.13727740088948781        0.0000000000000000     
  -8.3481775518885512E-002  0.14457463131318279        0.0000000000000000     
  -8.5071137629815718E-002  0.15197931418508204        0.0000000000000000     
  -8.6579878363351612E-002  0.15949144950518554        0.0000000000000000     
  -8.8007997719493247E-002  0.16711103727349330        0.0000000000000000     
  -8.8688898059558083E-002  0.13780563576339558        0.0000000000000000     
  -9.0484088198318061E-002  0.14507923279050394        0.0000000000000000     
  -9.2190235661477410E-002  0.15245972311289821        0.0000000000000000     
  -9.3807340449036172E-002  0.15994710673057855        0.0000000000000000     
  -9.5335402560994278E-002  0.16754138364354482        0.0000000000000000     
  -9.5762015186528479E-002  0.13837274886739762        0.0000000000000000     
  -9.7683518793761082E-002  0.14562184687610674        0.0000000000000000     
  -9.9505606815479306E-002  0.15297720618657340        0.0000000000000000     
 -0.10122827925168316       0.16043882679879753        0.0000000000000000     
 -0.10285153610237263       0.16800670871277917        0.0000000000000000     
  -7.3919374136123150E-002  0.16635528063093852        0.0000000000000000     
  -7.5060568585558610E-002  0.17412112951460296        0.0000000000000000     
  -7.6125805963462634E-002  0.18197640983726387        0.0000000000000000     
  -7.7115086269835237E-002  0.18992112159892119        0.0000000000000000     
  -7.8028409504676419E-002  0.19795526479957504        0.0000000000000000     
  -8.0869321577869524E-002  0.16671566960262452        0.0000000000000000     
  -8.2115858360616398E-002  0.17445816139258796        0.0000000000000000     
  -8.3282763233272453E-002  0.18229006904195399        0.0000000000000000     
  -8.4370036195837689E-002  0.19021139255072250        0.0000000000000000     
  -8.5377677248312106E-002  0.19822213191889357        0.0000000000000000     
  -8.8007997719493247E-002  0.16711103727349330        0.0000000000000000     
  -8.9354965360943242E-002  0.17482904300483473        0.0000000000000000     
  -9.0620250950404213E-002  0.18263643221403933        0.0000000000000000     
  -9.1803854487876202E-002  0.19053320490110706        0.0000000000000000     
  -9.2905775973359209E-002  0.19851936106603796        0.0000000000000000     
  -9.5335402560994278E-002  0.16754138364354482        0.0000000000000000     
  -9.6777889586539087E-002  0.17523377435134327        0.0000000000000000     
  -9.8138269114857957E-002  0.18301549935351993        0.0000000000000000     
  -9.9416541145950818E-002  0.19088655865007489        0.0000000000000000     
 -0.10061270567981767       0.19884695224100810        0.0000000000000000     
 -0.10285153610237263       0.16800670871277917        0.0000000000000000     
 -0.10438463103740404       0.17567235543211351        0.0000000000000000     
 -0.10583681772663366       0.18342727046039581        0.0000000000000000     
 -0.10720809617006148       0.19127145379762600        0.0000000000000000     
 -0.10849846636768753       0.19920490544380415        0.0000000000000000     
  -7.8028409504676419E-002  0.19795526479957504        0.0000000000000000     
  -7.8867284759555178E-002  0.20607184708144502        0.0000000000000000     
  -7.9633221126040460E-002  0.21426387608675090        0.0000000000000000     
  -8.0326218604132318E-002  0.22253135181549263        0.0000000000000000     
  -8.0946277193830754E-002  0.23087427426767029        0.0000000000000000     
  -8.5377677248312106E-002  0.19822213191889357        0.0000000000000000     
  -8.6309604480651253E-002  0.20631501461594343        0.0000000000000000     
  -8.7169735982810637E-002  0.21448276811134809        0.0000000000000000     
  -8.7958071754790257E-002  0.22272539240510772        0.0000000000000000     
  -8.8674611796590114E-002  0.23104288749722221        0.0000000000000000     
  -9.2905775973359209E-002  0.19851936106603796        0.0000000000000000     
  -9.3930835513095612E-002  0.20658810876657663        0.0000000000000000     
  -9.4883853213327818E-002  0.21473265606046782        0.0000000000000000     
  -9.5764829074055813E-002  0.22295300294771148        0.0000000000000000     
  -9.6573763095279638E-002  0.23124914942830765        0.0000000000000000     
 -0.10061270567981767       0.19884695224100810        0.0000000000000000     
 -0.10173097785688819       0.20689112953334482        0.0000000000000000     
 -0.10277557281759198       0.21501353993411010        0.0000000000000000     
 -0.10374649056192901       0.22321418344330404        0.0000000000000000     
 -0.10464373108989933       0.23149306006092649        0.0000000000000000     
 -0.10849846636768753       0.19920490544380415        0.0000000000000000     
 -0.10971003151202902       0.20722407691624789        0.0000000000000000     
 -0.11084489479560311       0.21532541973227490        0.0000000000000000     
 -0.11190305621840983       0.22350893389188520        0.0000000000000000     
 -0.11288451578044917       0.23177461939507882        0.0000000000000000     
  -8.0946277193830754E-002  0.23087427426767029        0.0000000000000000     
  -8.1482636714678314E-002  0.23931315277836193        0.0000000000000000     
  -8.1924536986217614E-002  0.24786849668264579        0.0000000000000000     
  -8.2271978008448668E-002  0.25654030598052191        0.0000000000000000     
  -8.2524959781371462E-002  0.26532858067199011        0.0000000000000000     
  -8.8674611796590114E-002  0.23104288749722221        0.0000000000000000     
  -8.9304826847373384E-002  0.23946035389264028        0.0000000000000000     
  -8.9834187646303243E-002  0.24800289209631052        0.0000000000000000     
  -9.0262694193379706E-002  0.25667050210823300        0.0000000000000000     
  -9.0590346488602758E-002  0.26546318392840762        0.0000000000000000     
  -9.6573763095279638E-002  0.23124914942830765        0.0000000000000000     
  -9.7301494451871945E-002  0.23964701790170675        0.0000000000000000     
  -9.7938862318705452E-002  0.24817253076735923        0.0000000000000000     
  -9.8485866695780133E-002  0.25682568802526523        0.0000000000000000     
  -9.8942507583096001E-002  0.26560648967542466        0.0000000000000000     
 -0.10464373108989933       0.23149306006092649        0.0000000000000000     
 -0.10547263952817401       0.23987314480556129        0.0000000000000000     
 -0.10623856100342421       0.24837741269579208        0.0000000000000000     
 -0.10694149551564992       0.25700586373161877        0.0000000000000000     
 -0.10758144306485114       0.26575849791304140        0.0000000000000000     
 -0.11288451578044917       0.23177461939507882        0.0000000000000000     
 -0.11381826207627958       0.24013873460420396        0.0000000000000000     
 -0.11473328370045957       0.24861753788160879        0.0000000000000000     
 -0.11562958065298912       0.25721102922729339        0.0000000000000000     
 -0.11650715293386821       0.26591920864125773        0.0000000000000000     
  -8.2524959781371462E-002  0.26532858067199011        0.0000000000000000     
  -8.2722457442136688E-002  0.27425979884404006        0.0000000000000000     
  -8.2903446127895075E-002  0.28336043858366111        0.0000000000000000     
  -8.3067925838646639E-002  0.29263049989085338        0.0000000000000000     
  -8.3215896574391351E-002  0.30206998276561681        0.0000000000000000     
  -9.0590346488602758E-002  0.26546318392840762        0.0000000000000000     
  -9.0847480254199448E-002  0.27444420525207158        0.0000000000000000     
  -9.1064431212396768E-002  0.28367683377446173        0.0000000000000000     
  -9.1241199363194719E-002  0.29316106949557841        0.0000000000000000     
  -9.1377784706593301E-002  0.30289691241542138        0.0000000000000000     
  -9.8942507583096001E-002  0.26560648967542466        0.0000000000000000     
  -9.9319778162849939E-002  0.27461350578337307        0.0000000000000000     
  -9.9628671617238818E-002  0.28394530641464599        0.0000000000000000     
  -9.9869187946262636E-002  0.29360189156924338        0.0000000000000000     
 -0.10004132714992141       0.30358326124716528        0.0000000000000000     
 -0.10758144306485114       0.26575849791304140        0.0000000000000000     
 -0.10813935116808819       0.27476770043794485        0.0000000000000000     
 -0.10859616734242127       0.28416585650421383        0.0000000000000000     
 -0.10895189158785042       0.29395296611184840        0.0000000000000000     
 -0.10920652390437570       0.30412902926084856        0.0000000000000000     
 -0.11650715293386821       0.26591920864125773        0.0000000000000000     
 -0.11730619926991412       0.27490678921578676        0.0000000000000000     
 -0.11796691838794407       0.28433848404316525        0.0000000000000000     
 -0.11848931028795807       0.29421429312339342        0.0000000000000000     
 -0.11887337496995616       0.30453421645647111        0.0000000000000000     
 </DataArray>
 <DataArray  type="Float64" Name="stress" NumberOfComponents="3" format="ascii">
   7034698167.1726074        382525622.91774654        261498377.91881949     
   6484901746.9800892        241205091.22992635        9285129.3914051838     
   5937829938.7143288        108966599.29792213       -134499456.43272525     
   5393482742.3753023       -14189852.878276587       -169855379.55358210     
   4851860157.9630146       -128264265.29868388       -96782639.971162766     
   5913808351.1906204        128889162.25770855        327640474.02257675     
   5630440791.3003407        81652454.972651005        161648823.18478969     
   5347739657.3590536        36637167.517577410        70462135.014024511     
   5065704949.3667736       -6156700.1074831486        54080409.510296553     
   4784336667.3234892       -46729147.902566433        112503646.67360325     
   5081648084.5807056       -38128433.590697765        400427473.34877831     
   4968641670.6033840       -20101630.789780378        318256203.22656900     
   4854243496.5973177       -6714028.0846838951        277266195.73514897     
   4738453562.5625019        2034374.5245950222        277457450.87451154     
   4621271868.4989433        6143577.0380511284        318829968.64465886     
   4538217367.3428783       -118527164.62748075        479859375.89741629     
   4499504384.8892298       -64057166.057376623        479107269.51675045     
   4457341456.4291105       -21086987.508891106        485912725.73063415     
   4411728581.9624863        10383371.017946482        500275744.53905308     
   4362665761.4893818        30353909.523157597        522196325.94201565     
   4283516199.4771051       -112307030.85265136        565936181.66848516     
   4223028934.1578856       -50214150.830125093        644202022.05533755     
   4157033536.8544245       -6481710.7550487518        696401725.00048411     
   4085530007.5667300        18890289.372582674        722535290.50392759     
   4008518346.2948022        25901849.552758694        722602718.56567097     
   4851860157.9630146       -128264265.29868388       -96782639.971162766     
   4778094298.3932142       -96798815.338670731       -26791221.153939974     
   4705021087.2885151       -63024537.161643267        17385130.353170242     
   4632640524.6489515       -26941430.767498255        35746414.550169155     
   4560952610.4744892        11450503.843641758        28292631.437055480     
   4784336667.3234892       -46729147.902566433        112503646.67360325     
   4648039471.4402494       -40855250.974492311        154913336.20056152     
   4513004433.4817390       -30774160.963997126        180942808.11158785     
   4379231553.4479504       -16485877.871100426        190592062.40669638     
   4246720831.3388915        2009598.3042347431        183861099.08586141     
   4621271868.4989433        6143577.0380511284        318829968.64465886     
   4449400049.7142220       -5487065.0422036648        334322356.58423877     
   4279359898.3138313       -11012149.174690723        342869376.60206038     
   4111151414.2977691       -10431675.359417200        344471028.69814008     
   3944774597.6660476       -3745643.5963497162        339127312.87246573     
   4362665761.4893818        30353909.523157597        522196325.94201565     
   4182176033.2151165        9305742.4581503868        511435839.99708378     
   4004087481.7847896       -3738501.7937376499        503164835.82458419     
   3828400107.1984019       -8778823.2324829102        497383313.42450798     
   3655113909.4559550       -5815221.8581066132        494091272.79686481     
   4008518346.2948022        25901849.552758694        722602718.56567097     
   3846367421.9429374        3523171.5265839100        686253786.43910646     
   3687187183.8946199       -8953218.8211097717        661829185.77914810     
   3530977632.1498442       -11527321.490324020        649328916.58580720     
   3377738766.7086186       -4199136.4810438156        648752978.85906672     
   4560952610.4744892        11450503.843641758        28292631.437055480     
   4369432649.0807686        13778516.187030554        16899540.583636109     
   4177144671.2426066        13546473.715591431        11116093.800452778     
   3984088676.9599819        10754376.429287672        10942291.087502928     
   3790264666.2329044        5402224.3281414509        16378132.444794247     
   4246720831.3388915        2009598.3042347431        183861099.08586141     
   4070092823.8711367        7645532.6063573360        175464506.33551109     
   3892450335.6661820        9899864.4511349201        172150252.08288530     
   3713793366.7240248        8772593.8385806084        173918336.32798216     
   3534121917.0446734        4263720.7687153816        180768759.07079208     
   3944774597.6660476       -3745643.5963497162        339127312.87246573     
   3781531956.7742076        4746236.4594881535        333439676.55032039     
   3617028370.8524137        9034966.4154899120        332307073.15337849     
   3451263839.9006767        9120546.2716770172        335729502.68163949     
   3284238363.9189873        5002976.0280160904        343706965.13510454     
   3655113909.4559550       -5815221.8581066132        494091272.79686481     
   3503750047.7899799        5080627.7464263439        490825051.22805595     
   3350878776.8013096        10951779.608650208        491586557.01192385     
   3196500096.4899426        11798233.728547215        496375790.14847666     
   3040614006.8558793        7619990.1061218977        505192750.63772547     
   3377738766.7086186       -4199136.4810438156        648752978.85906672     
   3236747096.9184628        8648706.4671840668        647620630.36870599     
   3094001553.5128574        15650304.030589223        649988703.65852380     
   2949502136.4918156        16805656.209191799        655857198.72850132     
   2803248845.8553228        12114763.002979755        665226115.57865679     
   3790264666.2329044        5402224.3281414509        16378132.444794247     
   3595571292.5735841       -1405424.3649566174       -21973.836460665607     
   3400858229.1747842       -8278705.5229613781       -7211995.8877762211     
   3206125476.0364962       -15217619.145933509       -5191933.7091479357     
   3011373033.1587472       -22222165.233787656        6038212.6994184246     
   3534121917.0446734        4263720.7687153816        180768759.07079208     
   3362064998.2281709        801460.02637362480        165773847.90181953     
   3190206463.2711167       -1999521.1844810247        158209497.47026771     
   3018546312.1734724       -4139222.8639541864        158075707.77616102     
   2847084544.9352684       -5617645.0119701624        165372478.81949556     
   3284238363.9189873        5002976.0280160904        343706965.13510454     
   3129733547.1095924        3360797.3857841492        330371668.27713132     
   2975645187.7585325        3106810.2713370323        322687408.66408420     
   2821973285.8657956        4241014.6846292019        320654186.29596251     
   2668717841.4313974        6763410.6257297993        324272001.17276978     
   3040614006.8558793        7619990.1061218977        505192750.63772547     
   2898576939.2178268        6272587.7132103443        493771487.28947514     
   2757174402.6370230        7040288.8444579840        486221737.69363922     
   2616406397.1134548        9923093.4998264313        482543501.85023183     
   2476272922.6471243        14921001.679309249        482736779.75923258     
   2803248845.8553228        12114763.002979755        665226115.57865679     
   2668595174.5528917        9536831.0087054968        655973304.93884587     
   2534794107.9066033        9800914.5349258184        648812484.55895996     
   2401845645.9164581        12907013.581609011        643743654.43897545     
   2269749788.5824523        18855128.148768902        640766814.57890201     
   3011373033.1587472       -22222165.233787656        6038212.6994184246     
   2859059907.1380386       -16300208.428321838        8424870.9247357864     
   2706894849.6498652       -9884689.8477257490        8692447.1344174128     
   2554877860.6942682       -2975609.4918864965        6840941.3284671484     
   2403008940.2712264        4427032.6391470432        2870353.5068837111     
   2847084544.9352684       -5617645.0119701624        165372478.81949556     
   2690376046.6034718       -2326271.2444280386        163666730.73724243     
   2533695855.7816749        1059460.8897665739        161306066.67085171     
   2377043972.4698801        4539551.3906261921        158290486.62031183     
   2220420396.6680880        8114000.2581825256        154619990.58562151     
   2668717841.4313974        6763410.6257297993        324272001.17276978     
   2511797302.3070650        8679200.8109370470        318334125.58996284     
   2354785309.6701703        10290145.954262972        313205500.05449647     
   2197681863.5207238        11596246.055748105        308886124.56637400     
   2040486963.8587034        12597501.115324140        305375999.12560624     
   2476272922.6471243        14921001.679309249        482736779.75923258     
   2323323674.2487984        16716207.737745762        472427055.48288029     
   2170163211.3153486        17807365.345771790        464390747.28536409     
   2016791533.8467722        18194474.503384709        458627855.16667742     
   1863208641.8430829        17877535.210598350        455138379.12683493     
   2269749788.5824523        18855128.148768902        640766814.57890201     
   2124955162.4286635        21784749.535980701        625945520.41601157     
   1979829560.7171984        23611119.064261913        614861808.36345720     
   1834372983.4480538        24334236.733616471        607515678.42121422     
   1688585430.6212220        23954102.544013917        603907130.58930099     
   2403008940.2712264        4427032.6391470432        2870353.5068837111     
   2256594455.6572051        9126847.0893191099       -6055850.9021424456     
   2107170918.9346504        3796487.8444110155       -11936541.906744689     
   1954738330.1035712       -11564045.095593452       -14771719.506943516     
   1799296689.1639576       -36954751.730713367       -14561383.702713307     
   2220420396.6680880        8114000.2581825256        154619990.58562151     
   2080706504.4136600        13742561.302167654        143114682.09061280     
   1938973891.7562280        12642054.336160660        133503835.86921677     
   1795222558.6957853        4812479.3601015806        125787451.92145331     
   1649452505.2323444       -9746163.6259510517        119965530.24729615     
   2040486963.8587034        12597501.115324140        305375999.12560624     
   1904184946.4473069        18168193.498190284        292446973.53438139     
   1766854540.3384192        20310923.556079388        280261359.08599323     
   1628495745.5320570        19025691.289053500        268819155.78040850     
   1489108562.0281973        14312496.697031260        258120363.61765537     
   1863208641.8430829        17877535.210598350        455138379.12683493     
   1727029781.7581446        22403743.677341938        441941023.42917418     
   1590812864.6812477        26803095.504236698        428336027.74354702     
   1454557890.6123722        31075590.691198707        414323392.06993669     
   1318264859.5515282        35221229.238273501        399903116.40835088     
   1688585430.6212220        23954102.544013917        603907130.58930099     
   1549241010.3461690        26449211.839672983        591596831.77499950     
   1410848864.7846744        32118570.180520177        577727841.84190142     
   1273408993.9367275        40962177.566539288        562300160.79003489     
   1136921397.8023450        52980033.997754931        545313788.61939740     
   1799296689.1639576       -36954751.730713367       -14561383.702713307     
   1769466734.3039174       -17159488.310069323       -8379292.3387739398     
   1747592511.2657721        29154881.183535099       -41249451.551309630     
   1733674020.0495079        101988356.75008279       -113171861.34029733     
   1727711260.6551187        201340938.38955820       -224146521.70573956     
   1649452505.2323444       -9746163.6259510517        119965530.24729615     
   1527122232.9596310       -14089922.930487394        135775824.87960175     
   1408909328.9960537       -4709121.2045530081        125054823.47673945     
   1294813793.3416364        18396241.551896036        87802526.038688749     
   1184835625.9963896        55226165.338912666        24018932.565493215     
   1489108562.0281973        14312496.697031260        258120363.61765537     
   1310052128.1750495       -3438038.5830671191        279080770.75347376     
   1131274699.1183398       -20258557.875052989        286030836.39540201     
   952776274.85803246       -36149061.179023743        278970560.54346758     
   774556855.39416921       -51109548.494853586        257899943.19764936     
   1318264859.5515282        35221229.238273501        399903116.40835088     
   1118256419.9502337        14796164.732332766        421535545.28283095     
   914688621.63263154       -17493428.827951431        441678587.20472676     
   707561464.59872437       -61647551.442594856        460332242.17404449     
   496874948.84850711       -117666203.11160240        477496510.19076633     
   1136921397.8023450        52980033.997754931        545313788.61939740     
   951735108.28515136        40612687.015626013        563140148.46769154     
   759151096.53893280        3586265.9367530048        591998075.90468812     
   559169362.56366706       -58099229.238944054        631887570.93040609     
   351789906.35937566       -144443798.51139870        682808633.54481888     
   1727711260.6551187        201340938.38955820       -224146521.70573956     
   1456957394.0045719        184630247.37095684       -96681023.783795610     
   1154098823.7862210        60903877.793019533        60019674.872995995     
   819135550.00014997       -169838170.34400791        245955574.26462117     
   452067572.64629543       -507595897.04028010        461126674.39111704     
   1184835625.9963896        55226165.338912666        24018932.565493215     
   977713481.53617191        11838658.682320356        155436486.23364505     
   732798647.46411729       -157524480.01372862        312722505.99907202     
   450091123.78025168       -452863250.74916971        495876991.86174721     
   129590910.48452353       -874177653.52410841        704899943.82166934     
   774556855.39416921       -51109548.494853586        257899943.19764936     
   621447191.30261254       -124059643.33585736        386633568.89396900     
   424856851.55513239       -341945323.69660938        537868926.04993939     
   184785836.15176573       -704766589.57698810        711606014.66555631     
  -98765854.907498419       -1212523440.9770117        907844834.74083495     
   496874948.84850711       -117666203.11160240        477496510.19076633     
   388158523.30388343       -223064658.68360257        596910224.19714296     
   230273436.05929431       -492358653.25549853        735458935.02557588     
   23219687.114735425       -925548186.82728982        893142642.67608321     
  -233002723.52979234       -1522633259.3989966        1069961347.1486431     
   351789906.35937566       -144443798.51139870        682808633.54481888     
   277847477.53998649       -285176387.36091155        786266452.14319003     
   149048400.97657004       -608764468.69049871        905492532.92602003     
  -34607323.330890536       -1115208042.5002580        1040486875.8933148     
  -273119695.38237280       -1804507108.7900674        1191249481.0450776     
   4283516199.4771051       -112307030.85265136        565936181.66848516     
   4223028934.1578856       -50214150.830125093        644202022.05533755     
   4157033536.8544245       -6481710.7550487518        696401725.00048411     
   4085530007.5667300        18890289.372582674        722535290.50392759     
   4008518346.2948022        25901849.552758694        722602718.56567097     
   4140472176.3717766       -15428678.356827497        741663443.96669424     
   4014869704.8790832        7048631.0685715675        784175142.42071366     
   3885757128.1799784        17825589.805949450        811806412.93618178     
   3753134446.2744689        16902197.855312109        824557255.51309800     
   3617001659.1625538        4278455.2166438103        822427670.15145969     
   3894324272.3430209        50518509.861966372        908501725.74254477     
   3735565764.6858511        42967999.692942381        917590313.50453341     
   3575295178.6001115        30377228.095323086        922984182.83112359     
   3413512514.0857916        12746195.069113255        924683333.72230613     
   3250217771.1428876       -9925099.3856998682        922687766.17809319     
   3545072487.3908339        85534533.803731918        1066451026.9960445     
   3385117113.5782051        57543955.042987347        1044447535.3068008     
   3225647688.1148257        31173204.113072038        1029935034.6853092     
   3066664211.0006928        6422281.0139864683        1022913525.1315616     
   2908166682.2358136       -16708814.254260778        1023383006.6455672     
   3092716821.5152264        89619393.468471050        1215511347.7271876     
   2963523751.5561333        50776497.118702888        1164746807.8275115     
   2836814656.7241178        20213517.859193444        1132658968.4987340     
   2712589537.0191813       -2069544.3100528717        1119247829.7408605     
   2590848392.4413199       -16072689.389054418        1124513391.5538859     
   4008518346.2948022        25901849.552758694        722602718.56567097     
   3846367421.9429374        3523171.5265839100        686253786.43910646     
   3687187183.8946199       -8953218.8211097717        661829185.77914810     
   3530977632.1498442       -11527321.490324020        649328916.58580720     
   3377738766.7086186       -4199136.4810438156        648752978.85906672     
   3617001659.1625538        4278455.2166438103        822427670.15145969     
   3485418815.7165461       -8748264.3078904152        796589245.41172397     
   3356180389.5743246       -13960259.486460686        780182253.32488334     
   3229286380.7358909       -11357530.319071412        773206693.89094841     
   3104736789.2012453       -940076.80572998524        775662567.10991466     
   3250217771.1428876       -9925099.3856998682        922687766.17809319     
   3142080440.5635653       -15736630.820336103        906629201.65879786     
   3035661258.2882724       -15821001.241535187        897509170.97869611     
   2930960224.3170123       -10178210.649302840        895327674.13778472     
   2827977338.6497812        1191740.9563628435        900084711.13606167     
   2908166682.2358136       -16708814.254260778        1023383006.6455672     
   2816352296.4840064       -17441928.010752797        1016373655.1803359     
   2725629790.0364709       -14535444.086332798        1013809938.7405796     
   2635999162.8932042       -7989362.4810165167        1015691857.3263102     
   2547460415.0542169        2196316.8052241802        1022019410.9375205     
   2590848392.4413199       -16072689.389054418        1124513391.5538859     
   2508234383.4778562       -13864155.879153609        1125822605.9763262     
   2426085984.8189101       -10103588.020862341        1129084556.6105406     
   2344403196.4644752       -4790985.8141939640        1134299243.4565258     
   2263186018.4145560        2073650.7408531904        1141466666.5142817     
   3377738766.7086186       -4199136.4810438156        648752978.85906672     
   3236747096.9184628        8648706.4671840668        647620630.36870599     
   3094001553.5128574        15650304.030589223        649988703.65852380     
   2949502136.4918156        16805656.209191799        655857198.72850132     
   2803248845.8553228        12114763.002979755        665226115.57865679     
   3104736789.2012453       -940076.80572998524        775662567.10991466     
   2972361266.8220253        8821255.1422218084        771644687.87836933     
   2838756705.8343759        14485791.728739262        771466464.33667612     
   2703923106.2383094        16053532.953867316        775127896.48483014     
   2567860468.0338063        13524478.817546725        782628984.32283115     
   2827977338.6497812        1191740.9563628435        900084711.13606167     
   2705187203.4234328        8157333.8266097307        893793608.67152822     
   2581692864.5956812        12775581.358835101        891681395.80651677     
   2457494322.1665244        15046483.553045750        893748072.54103303     
   2332591576.1359611        14970040.409228325        899993638.87507594     
   2547460415.0542169        2196316.8052241802        1022019410.9375205     
   2435224906.7226834        6656942.5203540325        1014067392.7481761     
   2322810029.7967606        10519672.920856476        1010633498.0680377     
   2210215784.2764573        13784508.006749868        1011717726.8971056     
   2097442170.1617596        16451447.778002977        1017320079.2353724     
   2263186018.4145560        2073650.7408531904        1141466666.5142817     
   2162474376.7197757        4320081.2234456539        1132466040.1083238     
   2062108201.4376278        7718066.4148200750        1128322771.1212461     
   1962087492.5681133        12267606.314964652        1129036859.5530457     
   1862412250.1112235        17968700.923867345        1134608305.4037337     
   2803248845.8553228        12114763.002979755        665226115.57865679     
   2668595174.5528917        9536831.0087054968        655973304.93884587     
   2534794107.9066033        9800914.5349258184        648812484.55895996     
   2401845645.9164581        12907013.581609011        643743654.43897545     
   2269749788.5824523        18855128.148768902        640766814.57890201     
   2567860468.0338063        13524478.817546725        782628984.32283115     
   2439731311.3205614        12438032.047200322        774517076.91633976     
   2312213102.8323846        13388079.360417724        768987847.72841179     
   2185305842.5692697        16374620.757165194        766041296.75904489     
   2059009530.5312269        21397656.237491846        765677424.00823247     
   2332591576.1359611        14970040.409228325        899993638.87507594     
   2212388899.6080389        15795668.541633964        892740702.19897282     
   2092555514.8741109        17852269.320673227        888561131.70008123     
   1973091421.9341764        21139842.746363282        887454927.37840271     
   1853996620.7882338        25658388.818684459        889422089.23393047     
   2097442170.1617596        16451447.778002977        1017320079.2353724     
   1986567939.4153137        19609740.492001891        1010644180.7867407     
   1875821344.0317807        23193484.415724993        1007532336.4739698     
   1765202384.0111682        27202679.549173474        1007984546.2970628     
   1654711059.3534710        31637325.892342806        1012000810.2560141     
   1862412250.1112235        17968700.923867345        1134608305.4037337     
   1762268430.7423973        23880247.898325682        1128227512.6796517     
   1662010590.3053987        29411724.645553768        1125901462.0500772     
   1561638728.8002570        34563131.165629268        1127630153.5150154     
   1461152846.2269456        39334467.458479166        1133413587.0744653     
   2269749788.5824523        18855128.148768902        640766814.57890201     
   2124955162.4286635        21784749.535980701        625945520.41601157     
   1979829560.7171984        23611119.064261913        614861808.36345720     
   1834372983.4480538        24334236.733616471        607515678.42121422     
   1688585430.6212220        23954102.544013917        603907130.58930099     
   2059009530.5312269        21397656.237491846        765677424.00823247     
   1924006641.3718259        24424119.795132160        752565235.47103190     
   1788798563.0293722        26766619.409243107        743225222.01063967     
   1653385295.5038645        28425155.079848230        737657383.62703633     
   1517766838.7953000        29399726.806925178        735861720.32023942     
   1853996620.7882338        25658388.818684459        889422089.23393047     
   1728884305.6702902        28811345.660847545        878165757.09282541     
   1603692587.7439206        31699626.474923432        870716192.99499142     
   1478421467.0091226        34323231.260900795        867073396.94044030     
   1353070943.4659007        36682160.018806636        867237368.92915702     
   1654711059.3534710        31637325.892342806        1012000810.2560141     
   1539588155.3240607        34946427.133154750        1002747085.2813921     
   1424511634.8608575        38410140.261326909        997334721.31652331     
   1309481497.9638536        42028465.276821971        995763718.36140680     
   1194497744.6330514        45801402.179656446        998034076.41603935     
   1461152846.2269456        39334467.458479166        1133413587.0744653     
   1356118190.3331432        42829364.212078869        1126309220.0367329     
   1251255704.3801708        46898160.768428385        1123080806.9752293     
   1146565388.3680270        51540857.127548695        1123728347.8899546     
   1042047242.2967203        56757453.289448559        1128251842.7809048     
   1688585430.6212220        23954102.544013917        603907130.58930099     
   1549241010.3461690        26449211.839672983        591596831.77499950     
   1410848864.7846744        32118570.180520177        577727841.84190142     
   1273408993.9367275        40962177.566539288        562300160.79003489     
   1136921397.8023450        52980033.997754931        545313788.61939740     
   1517766838.7953000        29399726.806925178        735861720.32023942     
   1375780537.7462204        28386424.715760052        727287136.79686999     
   1233948313.4519863        27886711.807414472        719048661.80922127     
   1092270165.9126012        27900588.081900299        711146295.35728776     
   950746095.12807548        28428053.539234817        703580037.44108462     
   1353070943.4659007        36682160.018806636        867237368.92915702     
   1213856474.9413509        33784560.530346036        861467269.74490690     
   1073997885.2129538        28739890.362392008        857928078.75087619     
   933495174.28070247        21548149.514923036        856619795.94705927     
   792348342.14459729        12209337.987948775        857542421.33345914     
   1194497744.6330514        45801402.179656446        998034076.41603935     
   1063468821.9315985        42643619.283486068        994137230.61909306     
   930997580.06759369        34678105.845471323        994366092.66685200     
   797084019.04103386        21904861.865618050        998720662.55933869     
   661728138.85192168        4323887.3439052105        1007200940.2965299     
   1042047242.2967203        56757453.289448559        1128251842.7809048     
   924617578.71693254        54963600.975138932        1125297019.4194331     
   804947398.01589274        45701358.256650120        1128362703.5571752     
   683036700.19359946        28970725.133980423        1137448895.1941323     
   558885485.25004327        4771701.6071007252        1152555594.3302956     
   1136921397.8023450        52980033.997754931        545313788.61939740     
   951735108.28515136        40612687.015626013        563140148.46769154     
   759151096.53893280        3586265.9367530048        591998075.90468812     
   559169362.56366706       -58099229.238944054        631887570.93040609     
   351789906.35937566       -144443798.51139870        682808633.54481888     
   950746095.12807548        28428053.539234817        703580037.44108462     
   791537030.76018834        10901491.312000871        721375009.90823853     
   623768265.71906447       -35157406.492688298        749311483.80425513     
   447439800.00469899       -109748639.87484765        787389459.12913394     
   262551633.61709422       -212872208.83447629        835608935.88287425     
   792348342.14459729        12209337.987948775        857542421.33345914     
   656573456.75502586       -11239353.335697412        873950364.90124083     
   511076892.24801600       -67093641.717477053        899609743.73803437     
   355858648.62356085       -155353527.15740225        934520557.84384811     
   190918725.88166511       -276019009.65546817        978682807.21867621     
   661728138.85192168        4323887.3439052105        1007200940.2965299     
   546844386.26967537       -25809846.927448750        1020866213.4467009     
   421076976.12578410       -92222439.737614155        1042892855.7060385     
   284425908.42024565       -194913891.08660328        1073280867.0745417     
   136891183.15305373       -333884200.97444314        1112030247.5522113     
   558885485.25004327        4771701.6071007252        1152555594.3302956     
   462349819.30413258       -32809989.463257790        1162122555.5446160     
   353768517.35236567       -110543800.55312049        1179160819.7082496     
   233141579.39475352       -228429731.66247576        1203670386.8212173     
   100469005.43129751       -386467782.79132152        1235651256.8834829     
   351789906.35937566       -144443798.51139870        682808633.54481888     
   277847477.53998649       -285176387.36091155        786266452.14319003     
   149048400.97657004       -608764468.69049871        905492532.92602003     
  -34607323.330890536       -1115208042.5002580        1040486875.8933148     
  -273119695.38237280       -1804507108.7900674        1191249481.0450776     
   262551633.61709422       -212872208.83447629        835608935.88287425     
   223795672.73586032       -352299099.83813810        885012192.54829776     
   140757884.81623226       -639332080.96975267        945412385.94032645     
   13438269.858229756       -1073971152.2293017        1016809516.0589756     
  -158163172.13815868       -1656216313.6167927        1099203582.9042170     
   190918725.88166511       -276019009.65546817        978682807.21867621     
   173716874.48754108       -418229910.34863591        986368792.77440858     
   122808016.76069185       -672797498.81756175        1000280389.5989002     
   38192152.701115549       -1039721775.0622394        1020417597.6921405     
  -80130717.691188157       -1519002739.0826776        1046780417.0541282     
   136891183.15305373       -333884200.97444314        1112030247.5522113     
   127611082.79504186       -482968818.89239442        1090336252.8215351     
   95198796.809946567       -709160722.23393512        1070096543.9017484     
   39654325.197783470       -1012459910.9990438        1051311120.7928482     
  -39022332.041452289       -1392866385.1877329        1033979983.4948618     
   100469005.43129751       -386467782.79132152        1235651256.8834829     
   85478297.658363163       -546515825.46938014        1196914572.6896582     
   57930224.964000076       -748421751.21886230        1154860848.8488555     
   17824787.348228872       -992185560.03971338        1109490085.3610966     
  -34838015.188969612       -1277807251.9319775        1060802282.2263824     
   3092716821.5152264        89619393.468471050        1215511347.7271876     
   2963523751.5561333        50776497.118702888        1164746807.8275115     
   2836814656.7241178        20213517.859193444        1132658968.4987340     
   2712589537.0191813       -2069544.3100528717        1119247829.7408605     
   2590848392.4413199       -16072689.389054418        1124513391.5538859     
   2597034863.7208285        6968899.3035484552        1236306437.6482782     
   2516231843.4936457       -6789176.5451297760        1207774843.4725938     
   2437090331.6676912       -15008891.056371927        1192000859.1733804     
   2359610328.2429719       -17690244.230164886        1188984484.7506385     
   2283791833.2194767       -14833236.066541433        1198725720.2043650     
   2166422312.6303248       -56160772.850204349        1261645840.4343874     
   2117097654.4366767       -49907534.507302284        1254387647.4692106     
   2068612037.9184122       -40857490.579784155        1253967973.6860733     
   2020965463.0755298       -29010641.067651510        1260386819.0849771     
   1974157929.9080391       -14366985.970896959        1273644183.6659169     
   1800879168.2437150       -99769622.992789984        1291529556.0855136     
   1766121184.3852279       -78578576.767822027        1304585219.8173606     
   1731379775.4762783       -57332280.711059093        1318560312.0368106     
   1696654941.5168669       -36030734.822501898        1333454832.7438736     
   1661946682.5069966       -14673939.102143884        1349268781.9385417     
   1500405430.5609951       -123857651.12420851        1325957584.6016669     
   1463302433.3392951       -92802303.326685131        1358367560.5170405     
   1425393544.3412914       -64433261.450186431        1385777874.2255952     
   1386678763.5669768       -38750525.494718134        1408188525.7273254     
   1347158091.0163589       -15754095.460259318        1425599515.0222356     
   2590848392.4413199       -16072689.389054418        1124513391.5538859     
   2508234383.4778562       -13864155.879153609        1125822605.9763262     
   2426085984.8189101       -10103588.020862341        1129084556.6105406     
   2344403196.4644752       -4790985.8141939640        1134299243.4565258     
   2263186018.4145560        2073650.7408531904        1141466666.5142817     
   2283791833.2194767       -14833236.066541433        1198725720.2043650     
   2207605701.9011412       -9759381.0346572399        1199519220.3549111     
   2131292438.7244503       -5109298.8639630079        1202643277.5156386     
   2054852043.6894052       -882989.55444228649        1208097891.6865380     
   1978284516.7960048        2919546.8938865662        1215883062.8676178     
   1974157929.9080391       -14366985.970896959        1273644183.6659169     
   1905479164.2302732       -6103963.0184181929        1273230437.0212200     
   1836080524.5312862       -240520.13667440414        1275525068.1851101     
   1765962010.8110776        3223342.6743286848        1280528077.1575828     
   1695123623.0696452        4287625.4145871401        1288239463.9386413     
   1661946682.5069966       -14673939.102143884        1349268781.9385417     
   1601854770.4652550       -2897901.8304151893        1346956255.9752569     
   1540450242.2394228        4502748.1610091925        1347729928.6189623     
   1477733097.8294988        7528010.8721276522        1351589799.8696609     
   1413703337.2354834        6177886.3029370904        1358535869.7273517     
   1347158091.0163589       -15754095.460259318        1425599515.0222356     
   1296732520.6060841       -141197.47066456079        1420696677.2170169     
   1244401591.8488536        9120506.0290735364        1419257858.8171940     
   1190165304.7446628        12031015.038948476        1421283059.8227684     
   1134023659.2935123        8590329.5589544177        1426772280.2337444     
   2263186018.4145560        2073650.7408531904        1141466666.5142817     
   2162474376.7197757        4320081.2234456539        1132466040.1083238     
   2062108201.4376278        7718066.4148200750        1128322771.1212461     
   1962087492.5681133        12267606.314964652        1129036859.5530457     
   1862412250.1112235        17968700.923867345        1134608305.4037337     
   1978284516.7960048        2919546.8938865662        1215883062.8676178     
   1889574133.2213752        3538246.8952997923        1207890204.0613070     
   1801293532.4220941        5589556.1478770971        1204647354.9626479     
   1713442714.3981626        9073474.6516127586        1206154515.5716603     
   1626021679.1495769        13990002.406507611        1212411685.8883274     
   1695123623.0696452        4287625.4145871401        1288239463.9386413     
   1618107789.8688202        3186582.6109047532        1281352741.8218076     
   1541606055.8060584        3799203.6007806063        1279108681.7014155     
   1465618420.8813651        6125488.3842069507        1281507283.5774627     
   1390144885.0947337        10165436.961180508        1288548547.4499495     
   1413703337.2354834        6177886.3029370904        1358535869.7273517     
   1348075346.6621118        3265088.3702684045        1352853653.3898349     
   1283045771.5895212        2347008.7735333443        1351706751.3375404     
   1218614612.0177147        3423647.5127418637        1355095163.5704615     
   1154781867.9466870        6495004.5878898501        1363018890.0886006     
   1134023659.2935123        8590329.5589544177        1426772280.2337444     
   1079476803.6012471        3773764.1733800769        1422392938.7653847     
   1025612679.7724843        1232971.6661421657        1422441563.8710248     
   972431287.80721879        967952.03723376989        1426918155.5506532     
   919932627.70545232        2978705.2866527438        1435822713.8042872     
   1862412250.1112235        17968700.923867345        1134608305.4037337     
   1762268430.7423973        23880247.898325682        1128227512.6796517     
   1662010590.3053987        29411724.645553768        1125901462.0500772     
   1561638728.8002570        34563131.165629268        1127630153.5150154     
   1461152846.2269456        39334467.458479166        1133413587.0744653     
   1626021679.1495769        13990002.406507611        1212411685.8883274     
   1536627531.5334656        18938232.337497234        1206324255.1369007     
   1447214789.6384883        23824481.338939130        1204673364.4953887     
   1357783453.4646592        28648749.410867155        1207459013.9637985     
   1268333523.0119681        33411036.553264081        1214681203.5421212     
   1390144885.0947337        10165436.961180508        1288548547.4499495     
   1312591260.7039287        14477605.290480435        1282865809.9253607     
   1235114468.8235605        19045881.987906218        1282001410.5261037     
   1157714509.4536395        23870267.053488553        1285955349.2521667     
   1080391382.5941594        28950760.487199783        1294727626.1035585     
   1154781867.9466870        6495004.5878898501        1363018890.0886006     
   1090159618.2537794        10498366.757273316        1357852177.0450444     
   1025709627.8606168        15075926.592475057        1357885600.1422169     
   961431896.76719260        20227684.093470097        1363119159.3801191     
   897326424.97351336        25953639.260287583        1373552854.7587469     
   919932627.70545232        2978705.2866527438        1435822713.8042872     
   869332604.18303180        7000516.7378999591        1431283356.4959390     
   819000266.74965763        11914615.152636677        1432325933.3437245     
   768935615.40532386        17721000.530837715        1438950444.3476522     
   719138650.15003228        24419672.872518152        1451156889.5077140     
   1461152846.2269456        39334467.458479166        1133413587.0744653     
   1356118190.3331432        42829364.212078869        1126309220.0367329     
   1251255704.3801708        46898160.768428385        1123080806.9752293     
   1146565388.3680270        51540857.127548695        1123728347.8899546     
   1042047242.2967203        56757453.289448559        1128251842.7809048     
   1268333523.0119681        33411036.553264081        1214681203.5421212     
   1173695734.0548944        36600676.550876200        1209546927.3161156     
   1079065798.9853797        39816496.173673213        1208604730.9319663     
   984443717.80342734        43058495.421684027        1211854614.3896825     
   889829490.50903320        46326674.294887155        1219296577.6892726     
   1080391382.5941594        28950760.487199783        1294727626.1035585     
   997053677.33277869        32106108.756521761        1291371738.6271124     
   913559509.90568995        34739916.473469108        1292524056.8581729     
   829908880.31288350        36852183.638029665        1298184580.7967389     
   746101788.55436945        38442910.250229418        1308353310.4428089     
   897326424.97351336        25953639.260287583        1373552854.7587469     
   826192020.16679478        29345660.829006046        1371783653.9697270     
   754736837.14109397        31668421.667782784        1374838784.7538464     
   682960875.89641070        32921921.776619762        1382718247.1111095     
   610864136.43273652        33106161.155485988        1395422041.0415106     
   719138650.15003228        24419672.872518152        1451156889.5077140     
   661110762.55693936        28319332.768328905        1450782673.3439627     
   602597780.69159162        30602011.756626248        1455548914.6189892     
   543599704.55398393        31267709.837387443        1465455613.3327994     
   484116534.14412534        30316427.010649011        1480502769.4853864     
   1042047242.2967203        56757453.289448559        1128251842.7809048     
   924617578.71693254        54963600.975138932        1125297019.4194331     
   804947398.01589274        45701358.256650120        1128362703.5571752     
   683036700.19359946        28970725.133980423        1137448895.1941323     
   558885485.25004327        4771701.6071007252        1152555594.3302956     
   889829490.50903320        46326674.294887155        1219296577.6892726     
   787767819.18949115        43997771.400510907        1216660314.0820212     
   683481031.19557905        34251812.924887240        1219948548.6942265     
   576969126.52728522        17088798.868002236        1229161281.5258794     
   468232105.18460321       -7491270.7701847255        1244298512.5769904     
   746101788.55436945        38442910.250229418        1308353310.4428089     
   659133797.26719403        35496663.107446104        1306053573.7778025     
   569956089.75251603        25184695.206318736        1309582326.0524881     
   478568666.01032519        7507006.5468168557        1318939567.2668633     
   384971526.04063535       -17536402.871021867        1334125297.4209285     
   610864136.43273652        33106161.155485988        1395422041.0415106     
   538715512.95003462        29460276.095926046        1393476798.5067708     
   464372573.68669486        18500005.100893229        1397264035.6319644     
   387835318.64273459        225348.17046566308        1406783752.4170809     
   309103747.81813312       -25363694.695432663        1422035948.8621395     
   484116534.14412534        30316427.010649011        1480502769.4853864     
   426512966.23800486        25888610.365921512        1478929988.2689304     
   366730482.99812675        14197742.608668610        1482993677.4326472     
   304769084.42449629       -4756176.2610935420        1492693836.9765346     
   240628770.51710749       -30973146.243380487        1508030466.9005971     
   558885485.25004327        4771701.6071007252        1152555594.3302956     
   462349819.30413258       -32809989.463257790        1162122555.5446160     
   353768517.35236567       -110543800.55312049        1179160819.7082496     
   233141579.39475352       -228429731.66247576        1203670386.8212173     
   100469005.43129751       -386467782.79132152        1235651256.8834829     
   468232105.18460321       -7491270.7701847255        1244298512.5769904     
   390655387.64108473       -41550888.568650022        1242897125.3188848     
   302889958.66202980       -109572877.81890041        1247795455.4351647     
   204935818.24744654       -211557238.52091223        1258993502.9258349     
   96792966.397320166       -347503970.67473692        1276491267.7909057     
   384971526.04063535       -17536402.871021867        1334125297.4209285     
   323006369.54257083       -49078163.604672074        1323921973.6891036     
   252709426.17927948       -108392547.22240466        1318846781.7567308     
   174080695.95077229       -195479553.72419220        1318899721.6238282     
   87120178.857049733       -310339183.11003369        1324080793.2903798     
   309103747.81813312       -25363694.695432663        1422035948.8621395     
   259402765.00857773       -55391814.571352869        1405197100.6552792     
   203226919.90411815       -107002808.76362555        1392314798.6729617     
   140576212.50475496       -180196677.27224511        1383389042.9151733     
   71450642.810483977       -274973420.09721571        1378419833.3819132     
   240628770.51710749       -30973146.243380487        1508030466.9005971     
   199844574.03911632       -60491841.468674168        1486722506.2174151     
   154442439.83653802       -105403662.44258873        1468199506.1838470     
   104422367.90936555       -165708609.16515043        1452461466.7998745     
   49784358.257621571       -241406681.63628674        1439508388.0655057     
   100469005.43129751       -386467782.79132152        1235651256.8834829     
   85478297.658363163       -546515825.46938014        1196914572.6896582     
   57930224.964000076       -748421751.21886230        1154860848.8488555     
   17824787.348228872       -992185560.03971338        1109490085.3610966     
  -34838015.188969612       -1277807251.9319775        1060802282.2263824     
   96792966.397320166       -347503970.67473692        1276491267.7909057     
   79837155.674837977       -488779656.81820428        1222098017.4111316     
   51519463.204626679       -667928282.12076032        1165178106.7476130     
   11839888.986690342       -884949846.58240104        1105731535.8003383     
  -39201566.978968680       -1139844350.2031178        1043758304.5693038     
   87120178.857049733       -310339183.11003369        1324080793.2903798     
   70457491.937047124       -432165044.69329482        1255425707.0939846     
   43628406.443009764       -587878901.52333164        1185034339.9770513     
   6632922.3749423325       -777480753.60013187        1112906691.9395795     
  -40528960.267153919       -1000970600.9237140        1039042762.9815526     
   71450642.810483977       -274973420.09721571        1378419833.3819132     
   57339306.444987029       -376671989.09466618        1296897641.7382107     
   34257054.679146260       -508273609.42659014        1214429548.5371597     
   2203887.5129762888       -669778281.09294438        1131015553.7787981     
  -38820195.053534448       -861186004.09376895        1046655657.4630860     
   49784358.257621571       -241406681.63628674        1439508388.0655057     
   40482599.198658377       -322300490.02231139        1346513821.3438003     
   23405407.913048476       -429112405.83048898        1253363732.4279563     
  -1447215.5992058218       -561842429.06081450        1160058121.3180025     
  -34075271.338101149       -720490559.71327972        1066596988.0139099     
   1500405430.5609951       -123857651.12420851        1325957584.6016669     
   1463302433.3392951       -92802303.326685131        1358367560.5170405     
   1425393544.3412914       -64433261.450186431        1385777874.2255952     
   1386678763.5669768       -38750525.494718134        1408188525.7273254     
   1347158091.0163589       -15754095.460259318        1425599515.0222356     
   1245624637.7104950        17672888.963743031        1444731696.8229420     
   1192927493.3215683        18546286.419723928        1453238402.7005427     
   1140106800.8824892        19007857.041872323        1461714338.4274535     
   1087162560.3932624        19057600.830190420        1470159504.0036714     
   1034094771.8538848        18695517.784672618        1478573899.4292004     
   916999436.76359415        137050106.62277099        1553298657.4380445     
   862904979.65352559        112000604.07104173        1538698160.9583900     
   809369318.21946490        88813753.772669286        1529035786.3841722     
   756392452.46141052        67489555.727651089        1524311533.7153945     
   703974382.37936664        48028009.936001360        1524525402.9520593     
   514529827.72029144        234274001.85287839        1651658466.4469819     
   473234892.33517009        187560649.62726149        1614746835.2905841     
   433181096.35221595        144984428.74219969        1587742218.0957570     
   394368439.77142501        106545339.19768004        1570644614.8624995     
   356796922.59279764        72243380.993708163        1563454025.5908139     
   38215810.580587171        309344574.65406865        1739811123.8497472     
   23917231.366503127        245226423.08839276        1681384425.6971247     
   11542135.280740939        187519881.95045564        1637833633.5622032     
   1090522.3233003989        136224951.24025804        1609158747.4449842     
  -7437607.5058157891        91341630.957808346        1595359767.3454671     
   1347158091.0163589       -15754095.460259318        1425599515.0222356     
   1296732520.6060841       -141197.47066456079        1420696677.2170169     
   1244401591.8488536        9120506.0290735364        1419257858.8171940     
   1190165304.7446628        12031015.038948476        1421283059.8227684     
   1134023659.2935123        8590329.5589544177        1426772280.2337444     
   1034094771.8538848        18695517.784672618        1478573899.4292004     
   989961733.93365324        20035663.095953345        1466888509.6020875     
   945307279.12140059        19637752.100494683        1459873222.1338384     
   900131407.41713107        17501784.798313618        1457528037.0244489     
   854434118.82084060        13627761.189394832        1459852954.2739213     
   703974382.37936664        48028009.936001360        1524525402.9520593     
   669579828.24477673        36129187.957626045        1507672059.4671552     
   636047798.67310977        27105447.855661631        1496694901.2945759     
   603378293.66436553        20956789.630105466        1491593928.4343193     
   571571313.21854329        17683213.280954331        1492369140.8863835     
   356796922.59279764        72243380.993708163        1563454025.5908139     
   335586803.53945786        48139377.114368439        1543047326.8122187     
   316623150.50398177        31523593.294575483        1529722896.2994068     
   299905963.48636889        22396029.534326240        1523480734.0523791     
   285435242.48662144        20756685.833626464        1524320840.0711358     
  -7437607.5058157891        91341630.957808346        1595359767.3454671     
  -12017340.182301272        56066230.566183776        1573014311.6372745     
  -12966665.385981761        32892188.417242873        1558957207.1483305     
  -10285583.116856292        21819504.510987800        1553188453.8786309     
  -3974093.3749300363        22848178.847403057        1555708051.8281794     
   1134023659.2935123        8590329.5589544177        1426772280.2337444     
   1079476803.6012471        3773764.1733800769        1422392938.7653847     
   1025612679.7724843        1232971.6661421657        1422441563.8710248     
   972431287.80721879        967952.03723376989        1426918155.5506532     
   919932627.70545232        2978705.2866527438        1435822713.8042872     
   854434118.82084060        13627761.189394832        1459852954.2739213     
   812550423.04930794        10679557.631355792        1455173344.1497014     
   771044237.93030310        8989722.9150730073        1455375499.2764690     
   729915563.46382666        8558257.0405546427        1460459419.6542170     
   689164399.64988041        9385160.0078007579        1470425105.2829490     
   571571313.21854329        17683213.280954331        1492369140.8863835     
   543647345.01627767        16992341.845006675        1487033170.6935101     
   515795666.25556773        16542435.214244723        1487032764.4286044     
   488016276.93641615        16333493.388676763        1492367922.0916669     
   460309177.05882341        16365516.368304849        1503038643.6827033     
   285435242.48662144        20756685.833626464        1524320840.0711358     
   272767569.50215369        22712116.814321488        1517972418.3968039     
   259866964.74827647        23891108.563647784        1517413359.3274293     
   246733428.22498173        24293661.081585005        1522643662.8630078     
   233366959.93228051        23919774.368165717        1533663329.0035512     
  -3974093.3749300363        22848178.847403057        1555708051.8281794     
  -88903.493057364598        27838882.539320201        1547991087.2595894     
   3258133.4084290992        31035742.963284019        1546517283.9729443     
   6067017.3295307513        32438760.119297415        1551286641.9682424     
   8337748.2702509090        32047934.007373888        1562299161.2454865     
   919932627.70545232        2978705.2866527438        1435822713.8042872     
   869332604.18303180        7000516.7378999591        1431283356.4959390     
   819000266.74965763        11914615.152636677        1432325933.3437245     
   768935615.40532386        17721000.530837715        1438950444.3476522     
   719138650.15003228        24419672.872518152        1451156889.5077140     
   689164399.64988041        9385160.0078007579        1470425105.2829490     
   652216559.21508896        12070872.354491562        1466590388.0118396     
   615364491.00624883        15075825.454350531        1467983746.4453578     
   578608195.02336311        18400019.307388127        1474605180.5835071     
   541947671.26642632        22043453.913597345        1486454690.4262865     
   460309177.05882341        16365516.368304849        1503038643.6827033     
   436002495.56449044        17411822.366273060        1499708000.2752292     
   411619672.43302327        18204322.907125607        1501251574.1208739     
   387160707.66441101        18743017.990827739        1507669365.2196398     
   362625601.25866407        19027907.617416337        1518961373.5715258     
   233366959.93228051        23919774.368165717        1533663329.0035512     
   220690413.23123938        23023366.773262143        1530636193.2861032     
   207765811.02997515        21300107.510947511        1532129416.3702648     
   194593153.32847628        18749996.581182584        1538142998.2560403     
   181172440.12674823        15373033.983989261        1548676938.9434285     
   8337748.2702509090        32047934.007373888        1562299161.2454865     
   6280312.2153386474        28905505.575462978        1559374967.0444601     
   3802906.7971085431        24363179.265823837        1560617273.1935322     
   905532.01555231586        18420955.078432340        1566026079.6927152     
  -2411812.1293189186        11078833.013323463        1575601386.5419941     
   719138650.15003228        24419672.872518152        1451156889.5077140     
   661110762.55693936        28319332.768328905        1450782673.3439627     
   602597780.69159162        30602011.756626248        1455548914.6189892     
   543599704.55398393        31267709.837387443        1465455613.3327994     
   484116534.14412534        30316427.010649011        1480502769.4853864     
   541947671.26642632        22043453.913597345        1486454690.4262865     
   496827735.74281353        22996517.162663072        1485101212.7690547     
   451511447.00833100        23295069.708831310        1489216455.4141994     
   405998805.06297243        22939111.552076384        1498800418.3617241     
   360289809.90674239        21928642.692420930        1513853101.6116204     
   362625601.25866407        19027907.617416337        1518961373.5715258     
   331351511.70052934        17315742.388553128        1516965498.9924273     
   300169809.99290323        15911536.661385387        1520766607.5793006     
   269080496.13578427        14815290.435908735        1530364699.3321509     
   238083570.12917641        14027003.712134585        1545759774.2509708     
   181172440.12674823        15373033.983989261        1548676938.9434285     
   164682090.43008757        11277008.446004212        1546375532.0140707     
   148572869.64530763        8451412.6142895371        1550199371.1142848     
   132844777.77242297        6896246.4888909385        1560148456.2440763     
   117497814.81142630        6611510.0697846934        1576222787.4034355     
  -2411812.1293189186        11078833.013323463        1575601386.5419941     
  -3180528.0685237395        4880315.3349777972        1573331311.8339937     
  -3279374.0344533976        914697.56755072833        1577514746.0191612     
  -2708350.0271165394       -818020.28898864705        1588151689.0974984     
  -1467456.0465029627       -317838.23460562679        1605242141.0690060     
   484116534.14412534        30316427.010649011        1480502769.4853864     
   426512966.23800486        25888610.365921512        1478929988.2689304     
   366730482.99812675        14197742.608668610        1482993677.4326472     
   304769084.42449629       -4756176.2610935420        1492693836.9765346     
   240628770.51710749       -30973146.243380487        1508030466.9005971     
   360289809.90674239        21928642.692420930        1513853101.6116204     
   317655266.69285327        19009606.719241977        1510548943.3867764     
   273350547.43958014        10523317.281447127        1512774769.0054271     
   227375652.14692402       -3530225.6209571064        1520530578.4675741     
   179730580.81489184       -23151021.987944074        1533816371.7732232     
   238083570.12917641        14027003.712134585        1545759774.2509708     
   210113804.35988641        12525474.236216202        1541317768.1944945     
   180982601.84558746        7152488.9435993060        1542299259.4448447     
   150689962.58628073       -2091952.1657084674        1548704248.0020211     
   119235886.58196592       -15207849.091714077        1560532733.8660247     
   117497814.81142630        6611510.0697846934        1576222787.4034355     
   103888579.23910967        6436212.9168616049        1571236462.6920950     
   89626646.216150224        4085257.5951276906        1571567148.7509162     
   74712015.742551968       -441355.89540223032        1577214845.5798912     
   59144687.818321019       -7143627.5547064468        1588179553.1790142     
  -1467456.0465029627       -317838.23460562679        1605242141.0690060     
  -1020408.6694917039        741822.76113298454        1600305026.8795757     
  -717319.44874259806        1321623.2359977528        1600578436.9236319     
  -558188.38426115829        1421563.1899699536        1606062371.2011700     
  -543015.47603413963        1041642.6230947785        1616756829.7121909     
   240628770.51710749       -30973146.243380487        1508030466.9005971     
   199844574.03911632       -60491841.468674168        1486722506.2174151     
   154442439.83653802       -105403662.44258873        1468199506.1838470     
   104422367.90936555       -165708609.16515043        1452461466.7998745     
   49784358.257621571       -241406681.63628674        1439508388.0655057     
   179730580.81489184       -23151021.987944074        1533816371.7732232     
   148501452.80612358       -45608142.909363411        1508020334.1383193     
   113825287.06658550       -79555389.600016892        1485159794.4523256     
   75702083.596277475       -124992762.05990207        1465234752.7152393     
   34131842.395195790       -181920260.28903425        1448245208.9270597     
   119235886.58196592       -15207849.091714077        1560532733.8660247     
   97991933.611857295       -30474363.738438047        1531614669.2721856     
   74471842.904795066       -53328004.175008103        1505782639.9265635     
   48675614.460778713       -83768770.401423156        1483036645.8291492     
   20603248.279812112       -121796662.41767582        1463376686.9799478     
   59144687.818321019       -7143627.5547064468        1588179553.1790142     
   48316016.456309274       -15090503.955915522        1557505511.6190307     
   36382107.351169407       -26721506.167547371        1530068042.6065619     
   23342960.502886161       -42036634.189659245        1505867146.1415982     
   9198575.9114763960       -61035888.022192992        1484902822.2241578     
  -543015.47603413963        1041642.6230947785        1616756829.7121909     
  -526298.66050065611        543436.43826839561        1585692861.1788402     
  -443919.59429020208        264104.42236316612        1558016002.4923091     
  -295878.27739204891        203646.57541728075        1533726253.6525931     
  -82174.709819166994        362062.89738854568        1512823614.6596940     
   49784358.257621571       -241406681.63628674        1439508388.0655057     
   40482599.198658377       -322300490.02231139        1346513821.3438003     
   23405407.913048476       -429112405.83048898        1253363732.4279563     
  -1447215.5992058218       -561842429.06081450        1160058121.3180025     
  -34075271.338101149       -720490559.71327972        1066596988.0139099     
   34131842.395195790       -181920260.28903425        1448245208.9270597     
   29919019.873940572       -241718880.79933405        1347733114.1793203     
   19870807.906449512       -320968799.46375751        1246422987.9141564     
   3987206.4927365482       -419670016.28224969        1144314830.1315634     
  -17731784.367214590       -537822531.25486803        1041408640.8315623     
   20603248.279812112       -121796662.41767582        1463376686.9799478     
   19643621.372558579       -161050817.32935929        1357610447.4499927     
   14788647.799483478       -213289461.12711129        1250403667.0793166     
   6038327.5605881363       -278512593.81092924        1141756345.8679335     
  -6607339.3441148847       -356720215.38077915        1031668483.8158106     
   9198575.9114763960       -61035888.022192992        1484902822.2241578     
   9656403.6945050955       -80296299.612397671        1376145821.1558056     
   8158927.5921386778       -106074390.82058448        1265305769.9234333     
   4706147.6043582335       -138370161.64681804        1152382668.5270467     
  -701936.26881843060       -177183612.09103784        1037376516.9666313     
  -82174.709819166994        362062.89738854568        1512823614.6596940     
  -42633.160202326486        544672.35160110600        1403339235.2967625     
  -18352.715583888115        676411.45581899257        1291129296.4465137     
  -9333.3759594140283        757280.21005769190        1176193798.1089480     
  -15575.141313669214        787278.61436590599        1058532740.2840649     
   38215810.580587171        309344574.65406865        1739811123.8497472     
   23917231.366503127        245226423.08839276        1681384425.6971247     
   11542135.280740939        187519881.95045564        1637833633.5622032     
   1090522.3233003989        136224951.24025804        1609158747.4449842     
  -7437607.5058157891        91341630.957808346        1595359767.3454671     
  -516690322.97612584        93892437.064632893        1577713436.7048209     
  -486738982.70980239        72707311.382751852        1550470914.1379931     
  -456035260.28451049        54030126.230764687        1532483263.7959692     
  -424579155.70024723        37860881.608683705        1523750485.6787632     
  -392370668.95701087        24199577.516513363        1524272579.7863708     
  -978928539.20527446       -93759325.326533526        1427705834.1149721     
  -920787376.00965762       -76829454.089960575        1430281202.6696835     
  -863064931.62442136       -61295312.221322447        1436490409.6563249     
  -805761206.04956520       -47156899.720618457        1446333455.0748878     
  -748876199.28508759       -34414216.587844402        1459810338.9253740     
  -1348498838.1068602       -253610712.51943102        1289788316.0801864     
  -1278227948.5330598       -203383873.32973388        1320815291.2922099     
  -1209546878.7389925       -158456433.40581176        1349855071.1432617     
  -1142455628.7246532       -118828392.74765494        1376907655.6333511     
  -1076954198.4900444       -84499751.355262041        1401973044.7624767     
  -1625401219.6808817       -385661724.51405942        1163960882.6004763     
  -1559060700.2800100       -306955946.33657485        1222073180.0055609     
  -1495481101.6282201       -237453237.32269317        1272577248.2567868     
  -1434662423.7255135       -177153597.47242606        1315473087.3541598     
  -1376604666.5718853       -126057026.78575170        1350760697.2976782     
  -7437607.5058157891        91341630.957808346        1595359767.3454671     
  -12017340.182301272        56066230.566183776        1573014311.6372745     
  -12966665.385981761        32892188.417242873        1558957207.1483305     
  -10285583.116856292        21819504.510987800        1553188453.8786309     
  -3974093.3749300363        22848178.847403057        1555708051.8281794     
  -392370668.95701087        24199577.516513363        1524272579.7863708     
  -371294935.83815140        10957762.591099977        1514038297.3938961     
  -348492915.47997367        3470238.4634116143        1510165963.9017792     
  -323964607.88247651        1737005.1334573776        1512655579.3100164     
  -297710013.04565907        5758062.6012346298        1521507143.6186068     
  -748876199.28508759       -34414216.587844402        1459810338.9253740     
  -707649006.99628592       -27273648.034668326        1459465756.2428861     
  -666599647.70165074       -20725856.128715605        1463556720.1418607     
  -625728121.40118361       -14770840.869989216        1472083230.6222994     
  -585034428.09488237       -9408602.2584820688        1485045287.6842031     
  -1076954198.4900444       -84499751.355262041        1401973044.7624767     
  -1021079553.6567041       -58628001.311118722        1409296688.1842396     
  -967286862.05101955       -39696095.359160125        1419129475.8685751     
  -915576123.67298377       -27704033.499365330        1431471407.8154829     
  -865947338.52259994       -22651815.731742084        1446322484.0249679     
  -1376604666.5718853       -126057026.78575170        1350760697.2976782     
  -1311586575.8194089       -83105297.238256872        1363531093.2179613     
  -1250554558.5280726       -53440479.227898240        1376884231.0819230     
  -1193508614.6978765       -37062572.754673719        1390820110.8895674     
  -1140448744.3288155       -33971577.818564713        1405338732.6408944     
  -3974093.3749300363        22848178.847403057        1555708051.8281794     
  -88903.493057364598        27838882.539320201        1547991087.2595894     
   3258133.4084290992        31035742.963284019        1546517283.9729443     
   6067017.3295307513        32438760.119297415        1551286641.9682424     
   8337748.2702509090        32047934.007373888        1562299161.2454865     
  -297710013.04565907        5758062.6012346298        1521507143.6186068     
  -278882535.89387417        9552831.9585309029        1515125088.1415420     
  -260461446.73193228        11992974.683017313        1514269923.3596849     
  -242446745.55983979        13078490.774671331        1518941649.2730329     
  -224838432.37759498        12809380.233500317        1529140265.8815908     
  -585034428.09488237       -9408602.2584820688        1485045287.6842031     
  -553311151.06385744       -7423713.4529966712        1480151867.1209557     
  -521862497.03214103       -6354234.6452069283        1480069066.6661780     
  -490688465.99973744       -6200165.8351262510        1484796886.3198702     
  -459789057.96663928       -6961507.0227327645        1494335326.0820367     
  -865947338.52259994       -22651815.731742084        1446322484.0249679     
  -823374749.00301409       -23090753.695283741        1443071424.1978283     
  -780945017.49219573       -24005885.021381617        1443914713.8924241     
  -738658143.99015343       -25397209.710069299        1448852353.1087554     
  -696514128.49688292       -27264727.761325687        1457884341.8468232     
  -1140448744.3288155       -33971577.818564713        1405338732.6408944     
  -1089073329.7113409       -37448288.768316865        1403883759.3721590     
  -1037709008.1120971       -40961976.445511162        1405806865.0384231     
  -986355779.53109622       -44512640.850179732        1411108049.6396844     
  -935013643.96832478       -48100281.982278019        1419787313.1759448     
   8337748.2702509090        32047934.007373888        1562299161.2454865     
   6280312.2153386474        28905505.575462978        1559374967.0444601     
   3802906.7971085431        24363179.265823837        1560617273.1935322     
   905532.01555231586        18420955.078432340        1566026079.6927152     
  -2411812.1293189186        11078833.013323463        1575601386.5419941     
  -224838432.37759498        12809380.233500317        1529140265.8815908     
  -215544718.03823072        9236144.5541214049        1525524688.1651659     
  -206378513.83122963        5237875.1001984030        1526573681.3051887     
  -197339819.75659394        814571.87172278017        1532287245.3016562     
  -188428635.81431291       -4033765.1312685609        1542665380.1545751     
  -459789057.96663928       -6961507.0227327645        1494335326.0820367     
  -437721134.64345235       -10538632.372732535        1490369567.2863350     
  -415488262.22166580       -13565927.394069761        1491566449.8534250     
  -393090440.70127809       -16043392.086734816        1497925973.7833035     
  -370527670.08229220       -17971026.450739518        1509448139.0759752     
  -696514128.49688292       -27264727.761325687        1457884341.8468232     
  -660248937.60031915       -30418825.205078274        1453909604.4079642     
  -623526338.37419045       -32048228.216947794        1455595578.8382394     
  -586346330.81850505       -32152936.796961963        1462942265.1376512     
  -548708914.93325925       -30732950.945108443        1475949663.3061936     
  -935013643.96832478       -48100281.982278019        1419787313.1759448     
  -883128126.90882707       -50404433.942899823        1416144799.5300515     
  -830492742.28881383       -50209027.368468761        1418661068.2596378     
  -777107490.10827541       -47514062.258955389        1427336119.3647010     
  -722972370.36721921       -42319538.614381969        1442169952.8452411     
  -2411812.1293189186        11078833.013323463        1575601386.5419941     
  -3180528.0685237395        4880315.3349777972        1573331311.8339937     
  -3279374.0344533976        914697.56755072833        1577514746.0191612     
  -2708350.0271165394       -818020.28898864705        1588151689.0974984     
  -1467456.0465029627       -317838.23460562679        1605242141.0690060     
  -188428635.81431291       -4033765.1312685609        1542665380.1545751     
  -171843157.46775040       -6282214.8163641617        1542111535.4306169     
  -154933949.87018895       -7451566.9981332421        1547542007.8810191     
  -137701013.02162659       -7541821.6765647680        1558956797.5057933     
  -120144346.92205270       -6552978.8516235240        1576355904.3049269     
  -370527670.08229220       -17971026.450739518        1509448139.0759752     
  -337928545.21798748       -16671572.473025888        1510206693.4934177     
  -305351831.82494706       -15446823.399523973        1516480373.3664174     
  -272797529.90317011       -14296779.230234280        1528269178.6949716     
  -240265639.45265123       -13221439.965139411        1545573109.4790909     
  -548708914.93325925       -30732950.945108443        1475949663.3061936     
  -501436691.31922823       -26287757.634980410        1477616786.0223887     
  -454533019.89872682       -23071071.636621177        1484329842.4753399     
  -407997900.67174894       -21082892.950006053        1496088832.6650445     
  -361831333.63830966       -20323221.575184911        1512893756.5914938     
  -722972370.36721921       -42319538.614381969        1442169952.8452411     
  -662367595.77147400       -35130770.302236438        1444341813.0175462     
  -602477514.09152591       -30324311.709414214        1451090415.2077994     
  -543302125.32737601       -27900162.835919797        1462415759.4159997     
  -484841429.47901827       -27858323.681732148        1478317845.6421452     
  -1467456.0465029627       -317838.23460562679        1605242141.0690060     
  -1020408.6694917039        741822.76113298454        1600305026.8795757     
  -717319.44874259806        1321623.2359977528        1600578436.9236319     
  -558188.38426115829        1421563.1899699536        1606062371.2011700     
  -543015.47603413963        1041642.6230947785        1616756829.7121909     
  -120144346.92205270       -6552978.8516235240        1576355904.3049269     
  -105956421.22942957       -5316377.9010048322        1571178437.1011732     
  -91262523.525520459       -2393203.5794310719        1571319519.7632837     
  -76062653.810348123        2216544.1130176522        1576779152.2912521     
  -60356812.083885849        8512865.1764359437        1587557334.6850822     
  -240265639.45265123       -13221439.965139411        1545573109.4790909     
  -212028190.78047341       -11715305.660441145        1540913541.1231444     
  -182634839.92948037       -6356164.0930270106        1541680548.2654338     
  -152085586.89966884        2855984.7371154055        1547874130.9059672     
  -120380431.69104575        15921140.829964668        1559494289.0447378     
  -361831333.63830966       -20323221.575184911        1512893756.5914938     
  -319235717.32263643       -18454960.517219841        1509510338.9454832     
  -274834268.66061980       -10567258.304777220        1511661522.4300916     
  -228626987.65223852        3339885.0622150451        1519347307.0453179     
  -180613874.29750502        23266469.583713576        1532567692.7911658     
  -484841429.47901827       -27858323.681732148        1478317845.6421452     
  -427579000.85592502       -25535342.471362889        1476968830.5681996     
  -367860809.71893442       -15026486.214668304        1481262442.2572491     
  -305686856.06804568        3668245.0883530527        1491198680.7092955     
  -241057139.90326777        30548851.437671423        1506777545.9243383     
  -543015.47603413963        1041642.6230947785        1616756829.7121909     
  -526298.66050065611        543436.43826839561        1585692861.1788402     
  -443919.59429020208        264104.42236316612        1558016002.4923091     
  -295878.27739204891        203646.57541728075        1533726253.6525931     
  -82174.709819166994        362062.89738854568        1512823614.6596940     
  -60356812.083885849        8512865.1764359437        1587557334.6850822     
  -49372339.925979748        15947525.300915461        1557061603.7337573     
  -37209389.274943814        27310447.069159038        1529784836.3583674     
  -23867960.130789362        42601630.481132872        1505727032.5589106     
  -9348052.4935113266        61821075.536853075        1484888192.3353915     
  -120380431.69104575        15921140.829964668        1559494289.0447378     
  -98908622.107560441        31144541.888745375        1530865081.2916176     
  -75145517.788510606        54005592.066074297        1505286690.8435478     
  -49091118.733896643        84504291.361948788        1482759117.7005339     
  -20745424.943722002        122640639.77636205        1463282361.8625743     
  -180613874.29750502        23266469.583713576        1532567692.7911658     
  -149135145.20524567        46134486.201753922        1507103293.8524225     
  -114252305.13498954        80349539.413112566        1484521565.9478569     
  -75965354.086723328        125911629.21784225        1464822509.0774579     
  -34274292.060444243        182820755.61594418        1448006123.2412431     
  -241057139.90326777        30548851.437671423        1506777545.9243383     
  -200051909.21904555        60917358.239901423        1485776241.4161632     
  -154529751.31437618        106342289.11028855        1467489461.6712849     
  -104490666.18926322        166823644.04882091        1451917206.6896982     
  -49934653.843698189        242361423.05552685        1439059476.4713981     
  -82174.709819166994        362062.89738854568        1512823614.6596940     
  -42633.160202326486        544672.35160110600        1403339235.2967625     
  -18352.715583888115        676411.45581899257        1291129296.4465137     
  -9333.3759594140283        757280.21005769190        1176193798.1089480     
  -15575.141313669214        787278.61436590599        1058532740.2840649     
  -9348052.4935113266        61821075.536853075        1484888192.3353915     
  -9765780.4513982646        81300842.307846546        1376108230.3396263     
  -8235649.0603391677        107273473.57532683        1265248891.9061456     
  -4757658.3203267232        139738969.33931774        1152310177.0349522     
   668191.76864605397        178697329.59984973        1037292085.7260458     
  -20745424.943722002        122640639.77636205        1463282361.8625743     
  -19774185.124530174        161971435.04950121        1357497124.4302464     
  -14891965.502444029        214338829.66562149        1250278693.6097989     
  -6098766.0774524808        279742823.62475991        1141627069.4012532     
   6605413.1504387110        358183416.92689669        1031542251.8045949     
  -34274292.060444243        182820755.61594418        1448006123.2412431     
  -30067847.179593563        242556450.57658145        1347505917.5686200     
  -19987302.041895226        321872479.72671640        1246218701.5574882     
  -4032656.6473448277        420768843.06635392        1144144475.2078729     
   17796089.004054427        539245540.59549069        1041283238.5197436     
  -49934653.843698189        242361423.05552685        1439059476.4713981     
  -40646766.616583943        323055888.88910353        1346134609.7547550     
  -23521658.678693593        429874423.75860047        1253068915.7492149     
   1440669.9700069129        562817027.66413271        1159862394.4547727     
   34240219.329494268        721883700.60561860        1066515045.8714437     
  -1625401219.6808817       -385661724.51405942        1163960882.6004763     
  -1559060700.2800100       -306955946.33657485        1222073180.0055609     
  -1495481101.6282201       -237453237.32269317        1272577248.2567868     
  -1434662423.7255135       -177153597.47242606        1315473087.3541598     
  -1376604666.5718853       -126057026.78575170        1350760697.2976782     
  -1808481807.4256294       -190691596.80128580        1227812467.3161745     
  -1763992626.6254790       -150633655.49299395        1251141790.3789766     
  -1721399606.8010857       -116896250.77056211        1274189352.1802754     
  -1680702747.9524598       -89479382.634020507        1296955152.7200711     
  -1641902050.0795934       -68383051.083344042        1319439191.9983685     
  -2093646901.6912394       -26346821.044775963        1278816364.4888582     
  -2050076294.0850799       -18656886.983650804        1268371599.6115849     
  -2007537087.6813657       -14404956.930664539        1264971541.3651595     
  -1966029282.4800959       -13591030.885823846        1268616189.7495871     
  -1925552878.4812624       -16215108.849119663        1279305544.7648664     
  -2480896502.4776959        107372602.75548136        1316972574.1185248     
  -2417311702.6588149        88974359.191451907        1273762607.7033808     
  -2353893544.2690539        70020644.197015285        1244923815.8114402     
  -2290642027.3084197        50511457.772165895        1230456198.4427042     
  -2227557151.7769046        30446799.916908622        1230359755.5971737     
  -2970230609.7850132        210466674.59948266        1342281096.2051778     
  -2865698852.3466840        172260083.03231287        1267314814.6543715     
  -2760468976.5641546        136380552.61247098        1214046175.5191190     
  -2654540982.4374294        102828083.33995044        1182475178.7994261     
  -2547914869.9665084        71602675.214751720        1172601824.4952896     
  -1376604666.5718853       -126057026.78575170        1350760697.2976782     
  -1311586575.8194089       -83105297.238256872        1363531093.2179613     
  -1250554558.5280726       -53440479.227898240        1376884231.0819230     
  -1193508614.6978765       -37062572.754673719        1390820110.8895674     
  -1140448744.3288155       -33971577.818564713        1405338732.6408944     
  -1641902050.0795934       -68383051.083344042        1319439191.9983685     
  -1580401896.1487536       -46700022.846162140        1322691537.5073669     
  -1521108750.5592256       -32373689.080012023        1327563197.6661093     
  -1464022613.3109956       -25404049.784859419        1334054172.4745991     
  -1409143484.4040802       -25791104.960755765        1342164461.9328320     
  -1925552878.4812624       -16215108.849119663        1279305544.7648664     
  -1864609025.0690243       -14912291.031336069        1275115415.8357182     
  -1804093114.8782601       -15035950.618473649        1273581174.2623796     
  -1744005147.9089727       -16586087.610525846        1274702820.0448506     
  -1684345124.1611574       -19562702.007492423        1278480353.1831312     
  -2227557151.7769046        30446799.916908622        1230359755.5971737     
  -2164207962.5802212        12257898.206210971        1220802728.2030146     
  -2099507651.4851868       -1427263.8433096409        1214938160.8707311     
  -2033456218.4917929       -10608686.231633306        1212766053.6003206     
  -1966053663.6000428       -15286368.958772063        1214286406.3917811     
  -2547914869.9665084        71602675.214751720        1172601824.4952896     
  -2479198708.6823473        34810544.866474152        1159753474.6092598     
  -2407352360.3800020        8452371.2454863787        1151634157.4911678     
  -2332375825.0594640       -7471845.6481975317        1148243873.1410117     
  -2254269102.7207398       -12962105.814595461        1149582621.5587928     
  -1140448744.3288155       -33971577.818564713        1405338732.6408944     
  -1089073329.7113409       -37448288.768316865        1403883759.3721590     
  -1037709008.1120971       -40961976.445511162        1405806865.0384231     
  -986355779.53109622       -44512640.850179732        1411108049.6396844     
  -935013643.96832478       -48100281.982278019        1419787313.1759448     
  -1409143484.4040802       -25791104.960755765        1342164461.9328320     
  -1347837339.6095660       -27833531.878718138        1338610702.5452635     
  -1286686918.2374935       -30395036.871483982        1338986898.8130820     
  -1225692220.2878652       -33475619.939059675        1343293050.7362864     
  -1164853245.7606752       -37075281.081440508        1351529158.3148825     
  -1684345124.1611574       -19562702.007492423        1278480353.1831312     
  -1611531458.5599179       -19697807.704751551        1272659072.2051530     
  -1539018146.7853351       -20834092.824183285        1271319623.6029506     
  -1466805188.8373988       -22971557.365772247        1274462007.3765242     
  -1394892584.7161081       -26110201.329521120        1282086223.5258746     
  -1966053663.6000428       -15286368.958772063        1214286406.3917811     
  -1880155686.5624020       -13041116.246430874        1206028868.3518205     
  -1794702693.7556214       -12279144.303619623        1202805039.4080255     
  -1709694685.1796908       -13000453.130310655        1204614919.5603933     
  -1625131660.8346198       -15205042.726531923        1211458508.8089273     
  -2254269102.7207398       -12962105.814595461        1149582621.5587928     
  -2153710023.6170115       -7863457.5037412643        1138720090.9852731     
  -2053740559.1483526       -4730191.3097860813        1133443146.2283080     
  -1954360709.3147516       -3562307.2326873541        1133751787.2878985     
  -1855570474.1162102       -4359805.2724564075        1139646014.1640396     
  -935013643.96832478       -48100281.982278019        1419787313.1759448     
  -883128126.90882707       -50404433.942899823        1416144799.5300515     
  -830492742.28881383       -50209027.368468761        1418661068.2596378     
  -777107490.10827541       -47514062.258955389        1427336119.3647010     
  -722972370.36721921       -42319538.614381969        1442169952.8452411     
  -1164853245.7606752       -37075281.081440508        1351529158.3148825     
  -1097570879.7834911       -38457765.413650095        1348111026.4640594     
  -1029945432.5540760       -38696645.571760595        1350165149.6448114     
  -961976904.07243502       -37791921.555786192        1357691527.8571374     
  -893665294.33856452       -35743593.365708262        1370690161.1010320     
  -1394892584.7161081       -26110201.329521120        1282086223.5258746     
  -1314174876.5181031       -27159470.042373061        1278417889.4437857     
  -1233520873.3761642       -28421088.942103624        1279535283.0493631     
  -1152930575.2902870       -29895058.028711379        1285438404.3426094     
  -1072403982.2604746       -31581377.302200615        1296127253.3235188     
  -1625131660.8346198       -15205042.726531923        1211458508.8089273     
  -1532940117.1126716       -16509547.829092264        1207065388.4692295     
  -1441219064.7550759       -19382357.479492009        1206771468.4732938     
  -1349968503.7618377       -23823471.677749455        1210576748.8211224     
  -1259188434.1329575       -29832890.423869967        1218481229.5127101     
  -1855570474.1162102       -4359805.2724564075        1139646014.1640396     
  -1753866601.5671892       -6507998.7737860680        1134053523.5403938     
  -1653040006.6908145       -11580451.183932662        1131873705.9166017     
  -1553090689.4870861       -19577162.502904534        1133106561.2926698     
  -1454018649.9560068       -30498132.730702400        1137752089.6685927     
  -722972370.36721921       -42319538.614381969        1442169952.8452411     
  -662367595.77147400       -35130770.302236438        1444341813.0175462     
  -602477514.09152591       -30324311.709414214        1451090415.2077994     
  -543302125.32737601       -27900162.835919797        1462415759.4159997     
  -484841429.47901827       -27858323.681732148        1478317845.6421452     
  -893665294.33856452       -35743593.365708262        1370690161.1010320     
  -822504055.63826513       -32902694.287752777        1369390114.2770247     
  -751726986.85089076       -31342361.586201072        1372637036.8772259     
  -681334087.97643912       -31062595.261063844        1380430928.9016461     
  -611325359.01490116       -32063395.312312424        1392771790.3502786     
  -1072403982.2604746       -31581377.302200615        1296127253.3235188     
  -990771344.00914717       -33113866.824496329        1291740909.6732173     
  -909192352.66786540       -34825179.380277544        1291871762.8533957     
  -827667008.23662519       -36715314.969531476        1296519812.8640587     
  -746195310.71542871       -38784273.592262745        1305685059.7052009     
  -1259188434.1329575       -29832890.423869967        1218481229.5127101     
  -1167169460.8841181       -35764287.912466705        1211394199.2061341     
  -1074873611.5424442       -40772765.091615200        1208794593.1363075     
  -982300886.10794699       -44858321.961353183        1210682411.3032303     
  -889451284.58060968       -48020958.521624118        1217057653.7069092     
  -1454018649.9560068       -30498132.730702400        1137752089.6685927     
  -1351698406.2631750       -40853957.551659405        1128349982.8757670     
  -1248770763.4746406       -49185118.720266521        1123405527.7259612     
  -1145235721.5903928       -55491616.236504197        1122918724.2191734     
  -1041093280.6104347       -59773450.100365400        1126889572.3554041     
  -484841429.47901827       -27858323.681732148        1478317845.6421452     
  -427579000.85592502       -25535342.471362889        1476968830.5681996     
  -367860809.71893442       -15026486.214668304        1481262442.2572491     
  -305686856.06804568        3668245.0883530527        1491198680.7092955     
  -241057139.90326777        30548851.437671423        1506777545.9243383     
  -611325359.01490116       -32063395.312312424        1392771790.3502786     
  -539230154.81935191       -29461976.969547123        1391319175.7956660     
  -464788401.04682314       -19038726.703527004        1395569507.1186268     
  -388000097.69731915       -793644.51425464451        1405522784.3191631     
  -308865244.77085090        25273269.598233759        1421179007.3972654     
  -746195310.71542871       -38784273.592262745        1305685059.7052009     
  -659094990.62006176       -35852716.018906206        1304001430.5768483     
  -569757333.88463914       -25463369.645363033        1308081066.4406447     
  -478182340.50916147       -7616234.4716394544        1317923967.2965882     
  -384370010.49363357        17688689.502256200        1333530133.1446788     
  -889451284.58060968       -48020958.521624118        1217057653.7069092     
  -787173508.25806153       -44707559.619447261        1215015594.9117413     
  -682767608.23238182       -34300415.040170848        1218797120.2232978     
  -576233584.50357139       -16799524.783784658        1228402229.6415846     
  -467571437.07162935        7795111.1496980786        1243830923.1665900     
  -1041093280.6104347       -59773450.100365400        1126889572.3554041     
  -923465707.73335266       -56026507.771192461        1124361668.8003495     
  -803819224.09005785       -45549862.887976974        1127717668.4665973     
  -682153829.68054819       -28343515.450714469        1136957571.3541458     
  -558469524.50482452       -4407465.4593998790        1152081377.4629982     
  -241057139.90326777        30548851.437671423        1506777545.9243383     
  -200051909.21904555        60917358.239901423        1485776241.4161632     
  -154529751.31437618        106342289.11028855        1467489461.6712849     
  -104490666.18926322        166823644.04882091        1451917206.6896982     
  -49934653.843698189        242361423.05552685        1439059476.4713981     
  -308865244.77085090        25273269.598233759        1421179007.3972654     
  -259190051.46092337        55792539.721020997        1404464241.8075194     
  -203098602.96188563        107699327.14083998        1391669361.9387388     
  -140590899.27373981        180993631.85768592        1382794367.7909276     
  -71666940.396471500        275675453.87160891        1377839259.3640869     
  -384370010.49363357        17688689.502256200        1333530133.1446788     
  -322580966.10750997        49391889.480711296        1323317789.1034732     
  -252476338.56359991        108813699.98511831        1318230691.7409084     
  -174056127.86191890        195954121.01542726        1318268841.0569894     
  -87320334.002447307        310813152.57171023        1323432237.0517108     
  -467571437.07162935        7795111.1496980786        1243830923.1665900     
  -390224653.15879422        41715407.519010603        1242336883.3040309     
  -302662958.11951792        109685407.64312138        1247173451.0777943     
  -204886351.95378453        211705111.52208909        1258340626.4878695     
  -96894834.661605805        347774519.15588009        1275838409.5342796     
  -558469524.50482452       -4407465.4593998790        1152081377.4629982     
  -462121112.61478579        32763093.835884362        1161521524.4091959     
  -353658461.62962353        110314450.11490811        1178497639.9493961     
  -233081571.54936481        228246603.37758988        1203009724.0835912     
  -100390442.37397119        386559553.62405455        1235057776.8117833     
  -49934653.843698189        242361423.05552685        1439059476.4713981     
  -40646766.616583943        323055888.88910353        1346134609.7547550     
  -23521658.678693593        429874423.75860047        1253068915.7492149     
   1440669.9700069129        562817027.66413271        1159862394.4547727     
   34240219.329494268        721883700.60561860        1066515045.8714437     
  -71666940.396471500        275675453.87160891        1377839259.3640869     
  -57504924.057283685        377318102.60793960        1296465222.7624478     
  -34337574.236548752        508978529.61609960        1214147147.4814398     
  -2164890.9342722595        670656734.89606595        1130885033.5210581     
   39013125.849557519        862352718.44787586        1046678880.8812816     
  -87320334.002447307        310813152.57171023        1323432237.0517108     
  -70579078.238264382        432715517.30470145        1254971828.7976336     
  -43664376.221779734        588529369.54535937        1184764170.4736974     
  -6576227.9530002475        778254709.29368103        1112809262.0799093     
   40685366.568091571        1001891536.5496875        1039107103.6162623     
  -96894834.661605805        347774519.15588009        1275838409.5342796     
  -79869229.159515709        489248132.97938377        1221654427.8602996     
  -51502064.634366065        668526943.54641914        1164919984.7259936     
  -11793341.086165905        885610950.85695648        1105635080.1313400     
   39256941.485094190        1140500154.9110265        1043799714.0763630     
  -100390442.37397119        386559553.62405455        1235057776.8117833     
  -85375376.821049333        546915949.63198125        1196513019.9504523     
  -57850639.474312484        748971251.61928594        1154614590.2383099     
  -17816230.333785474        992725459.58589625        1109362487.6753569     
   34727850.600567102        1278178573.5319202        1060756712.2615860     
  -2970230609.7850132        210466674.59948266        1342281096.2051778     
  -2865698852.3466840        172260083.03231287        1267314814.6543715     
  -2760468976.5641546        136380552.61247098        1214046175.5191190     
  -2654540982.4374294        102828083.33995044        1182475178.7994261     
  -2547914869.9665084        71602675.214751720        1172601824.4952896     
  -3514950210.8797126        79900983.436068535        1127246280.6021280     
  -3362282693.2350812        69023901.711242199        1093830637.3772883     
  -3208871413.8176899        60626025.895596027        1069438049.6242783     
  -3054716372.6275473        54707355.989127755        1054068517.3430953     
  -2899817569.6646533        51267891.991842389        1047722040.5337440     
  -3925250283.2231417       -10338849.101962805        917142063.42746222     
  -3760660110.9257140       -4750352.6505024433        925330309.19524324     
  -3595280533.4269738        3469494.4719982147        929867023.49112236     
  -3429111550.7269249        14320692.265530586        930752206.31510198     
  -3262153162.8255649        27803240.730096579        927985857.66718340     
  -4201130826.8153038       -60252823.014616013        711968444.68118846     
  -4060831105.4185877       -49062680.052914143        761813830.10823500     
  -3919696335.3920059       -35089041.658320904        795333097.11965549     
  -3777726516.7355547       -18331907.830843925        812526245.71544409     
  -3634921649.4492407        1208721.4295229912        813393275.89560866     
  -4342591841.6561899       -69840938.301884413        511725424.36329883     
  -4262795676.7136998       -63913080.496003866        603281200.11626494     
  -4182118819.7127829       -55049582.495371103        665836270.50987065     
  -4100561270.6534472       -43250444.299996853        699390635.54411948     
  -4018123029.5356855       -28515665.909877777        703944295.21901631     
  -2547914869.9665084        71602675.214751720        1172601824.4952896     
  -2479198708.6823473        34810544.866474152        1159753474.6092598     
  -2407352360.3800020        8452371.2454863787        1151634157.4911678     
  -2332375825.0594640       -7471845.6481975317        1148243873.1410117     
  -2254269102.7207398       -12962105.814595461        1149582621.5587928     
  -2899817569.6646533        51267891.991842389        1047722040.5337440     
  -2812198904.3867650        30648313.198861957        1034444713.1136546     
  -2723343389.9960375        14151564.782012463        1027246613.3311193     
  -2633251026.4924746        1777646.7412861586        1026127741.1861358     
  -2541921813.8760715       -6473440.9233154058        1031088096.6787105     
  -3262153162.8255649        27803240.730096579        927985857.66718340     
  -3151774293.9264669        24513523.380660415        912070658.49012280     
  -3042051913.8198829        19035510.056188941        903584881.82023704     
  -2932986022.5058093        11369200.756669283        902528527.65752399     
  -2824576619.9842515        1514595.4821150303        908901596.00198281     
  -3634921649.4492407        1208721.4295229912        813393275.89560866     
  -3497924877.3014560        16406175.411878109        792631310.73867142     
  -3363477931.8515315        23104207.068021297        780648962.95852530     
  -3231580813.0994716        21302816.397955775        777446232.55516696     
  -3102233521.0452709        11002003.401687980        783023119.52860582     
  -4018123029.5356855       -28515665.909877777        703944295.21901631     
  -3850650654.5117302        6326269.2925019264        676126669.85929346     
  -3687621444.0909839        26357655.817526340        658438856.74597871     
  -3529035398.2734585        31578493.665148497        650880855.87907505     
  -3374892517.0591373        21988782.835413456        653452667.25858009     
  -2254269102.7207398       -12962105.814595461        1149582621.5587928     
  -2153710023.6170115       -7863457.5037412643        1138720090.9852731     
  -2053740559.1483526       -4730191.3097860813        1133443146.2283080     
  -1954360709.3147516       -3562307.2326873541        1133751787.2878985     
  -1855570474.1162102       -4359805.2724564075        1139646014.1640396     
  -2541921813.8760715       -6473440.9233154058        1031088096.6787105     
  -2429057269.3303189       -6380221.3530645370        1021358733.6074258     
  -2316187568.8494658       -6269815.3324869871        1016664626.3074341     
  -2203312712.4335113       -6142222.8615602255        1017005774.7787442     
  -2090432700.0824521       -5997443.9402976036        1022382179.0213510     
  -2824576619.9842515        1514595.4821150303        908901596.00198281     
  -2700978981.5543437       -3869325.1555966139        900999299.43145287     
  -2576781416.6191735       -7253490.7757595778        897581928.58696449     
  -2451983925.1787395       -8637901.3783769608        898649483.46851826     
  -2326586507.2330389       -8022556.9634436369        904201964.07611215     
  -3102233521.0452709        11002003.401687980        783023119.52860582     
  -2969475160.2890892       -330768.91134655476        777641788.45735478     
  -2835522102.4574747       -7681217.6396119595        776195053.06689072     
  -2700374347.5504389       -11049342.783140182        778682913.35721099     
  -2564031895.5679708       -10435144.341889381        785105369.32831609     
  -3374892517.0591373        21988782.835413456        653452667.25858009     
  -3234545805.5345516        4235447.3796886206        651286200.68513358     
  -3092409626.3643727       -7552995.9240490198        652503999.74721861     
  -2948483979.5486069       -13376547.075836420        657106064.44482720     
  -2802768865.0872474       -13235206.075641632        665092394.77796936     
  -1855570474.1162102       -4359805.2724564075        1139646014.1640396     
  -1753866601.5671892       -6507998.7737860680        1134053523.5403938     
  -1653040006.6908145       -11580451.183932662        1131873705.9166017     
  -1553090689.4870861       -19577162.502904534        1133106561.2926698     
  -1454018649.9560068       -30498132.730702400        1137752089.6685927     
  -2090432700.0824521       -5997443.9402976036        1022382179.0213510     
  -1979968561.5897765       -7658003.0285443068        1015307670.4946048     
  -1870222046.6269274       -11710640.549535871        1011446624.0601023     
  -1761193155.1938939       -18155356.503260016        1010799039.7178465     
  -1652881887.2906835       -26992150.889719546        1013364917.4678247     
  -2326586507.2330389       -8022556.9634436369        904201964.07611215     
  -2207931276.8184648       -9366233.8451412916        895831700.81289566     
  -2089834015.7908821       -12569808.683484793        890475688.73430896     
  -1972294724.1502957       -17633281.478486896        888133927.84035313     
  -1855313401.8967104       -24556652.230141878        888806418.13102734     
  -2564031895.5679708       -10435144.341889381        785105369.32831609     
  -2437754747.2532411       -11632691.223553658        775625614.49526167     
  -2311875914.1826906       -14157955.585800052        768960899.93921971     
  -2186395396.3563008       -18010937.428591251        765111225.66020095     
  -2061313193.7740879       -23191636.751969337        764076591.65819585     
  -2802768865.0872474       -13235206.075641632        665092394.77796936     
  -2669438972.8941197       -14457375.163810134        654689411.54170513     
  -2536347741.8023386       -16475081.256449461        646902257.67484117     
  -2403495171.8119025       -19288324.353583813        641730933.17738390     
  -2270881262.9228148       -22897104.455201626        639175438.04933131     
  -1454018649.9560068       -30498132.730702400        1137752089.6685927     
  -1351698406.2631750       -40853957.551659405        1128349982.8757670     
  -1248770763.4746406       -49185118.720266521        1123405527.7259612     
  -1145235721.5903928       -55491616.236504197        1122918724.2191734     
  -1041093280.6104347       -59773450.100365400        1126889572.3554041     
  -1652881887.2906835       -26992150.889719546        1013364917.4678247     
  -1538457425.2819276       -34394189.129128516        1003190299.6429980     
  -1423578549.9090242       -40281516.154713988        997187324.28397322     
  -1308245261.1719790       -44654131.966502011        995355991.39074683     
  -1192457559.0707877       -47512036.564451993        997696300.96331418     
  -1855313401.8967104       -24556652.230141878        888806418.13102734     
  -1729601890.6497908       -29250054.611319065        877680805.92070651     
  -1603588951.7702973       -32938698.217240870        870440826.99896979     
  -1477274585.2582278       -35622583.047898412        867086481.36581016     
  -1350658791.1135683       -37301709.103276849        867617769.02122796     
  -2061313193.7740879       -23191636.751969337        764076591.65819585     
  -1925131802.3667860       -25421553.998261809        751821501.70889080     
  -1788801969.0584686       -27156664.907840967        743166035.87094879     
  -1652323693.8491330       -28396969.480691850        738110194.14436865     
  -1515696976.7387846       -29142467.716830790        736653976.52914476     
  -2270881262.9228148       -22897104.455201626        639175438.04933131     
  -2125047160.4328878       -22908687.289923191        625612387.00755525     
  -1979217601.7735205       -22935416.226491928        615362950.89991570     
  -1833392586.9446938       -22977291.264880300        608427129.72641408     
  -1687572115.9464207       -23034312.405097306        604804923.48705924     
  -1041093280.6104347       -59773450.100365400        1126889572.3554041     
  -923465707.73335266       -56026507.771192461        1124361668.8003495     
  -803819224.09005785       -45549862.887976974        1127717668.4665973     
  -682153829.68054819       -28343515.450714469        1136957571.3541458     
  -558469524.50482452       -4407465.4593998790        1152081377.4629982     
  -1192457559.0707877       -47512036.564451993        997696300.96331418     
  -1061721174.2208533       -43218420.167797685        993808693.88787818     
  -929680796.46913671       -34578160.765190244        993994729.55468369     
  -796336425.81564426       -21591258.356665790        998254407.96373284     
  -661688062.26035333       -4257712.9421550333        1006587729.1150126     
  -1350658791.1135683       -37301709.103276849        867617769.02122796     
  -1211985767.0881042       -34013070.478342950        861536387.58357608     
  -1072723668.0252892       -28760848.395566463        857718388.40910673     
  -932872493.92511356       -21545042.854922652        856163771.49781084     
  -792432244.78758192       -12365653.856430024        856872536.84970999     
  -1515696976.7387846       -29142467.716830790        736653976.52914476     
  -1374259486.3351014       -28410458.702804565        727544749.88744175     
  -1232947838.7584946       -28097925.779028177        718888645.02986133     
  -1091762034.0089583       -28204868.945488632        710685661.95640647     
  -950702072.08649552       -28731288.202205598        702935800.66706586     
  -1687572115.9464207       -23034312.405097306        604804923.48705924     
  -1548542331.9618433       -26410584.841189682        591833780.79947782     
  -1410353308.6687670       -32589392.915636539        577505499.41695178     
  -1273005046.0671866       -41570736.628394723        561820079.33949339     
  -1136497544.1571078       -53354615.979490697        544777520.56708908     
  -558469524.50482452       -4407465.4593998790        1152081377.4629982     
  -462121112.61478579        32763093.835884362        1161521524.4091959     
  -353658461.62962353        110314450.11490811        1178497639.9493961     
  -233081571.54936481        228246603.37758988        1203009724.0835912     
  -100390442.37397119        386559553.62405455        1235057776.8117833     
  -661688062.26035333       -4257712.9421550333        1006587729.1150126     
  -546799538.58396196        25695149.244498521        1020261097.0720018     
  -420986039.41207337        92064596.416132987        1042325743.2957253     
  -284247564.74472380        194850628.57263255        1072781667.7861698     
  -136584114.58188772        334053245.71410644        1111628870.5433550     
  -792432244.78758192       -12365653.856430024        856872536.84970999     
  -656559867.40272439        11102633.798273444        873391651.61790311     
  -510951778.12202597        67023294.439113677        899157354.32556438     
  -355607976.94548798        155396328.06608024        934169644.97268593     
  -190528463.87311703        276221734.67916781        978428523.55927300     
  -950702072.08649552       -28731288.202205598        702935800.66706586     
  -791402099.07109082       -11014452.502857774        720913188.04689014     
  -623555677.75948370        35190544.183836192        748992473.03891659     
  -447162808.15167701        109883701.85785386        787173655.64313483     
  -262223490.24766210        213065020.51923281        835456735.85954857     
  -1136497544.1571078       -53354615.979490697        544777520.56708908     
  -951326233.58905768       -40656109.658852577        562825706.35897398     
  -758797738.32443905       -3433654.3496689498        591831099.43578136     
  -558912058.36326265        58312749.948048890        631793699.79751682     
  -351669193.70552784        144583103.23429495        682713507.44418132     
  -100390442.37397119        386559553.62405455        1235057776.8117833     
  -85375376.821049333        546915949.63198125        1196513019.9504523     
  -57850639.474312484        748971251.61928594        1154614590.2383099     
  -17816230.333785474        992725459.58589625        1109362487.6753569     
   34727850.600567102        1278178573.5319202        1060756712.2615860     
  -136584114.58188772        334053245.71410644        1111628870.5433550     
  -127385948.67258570        483321123.67720652        1090039648.7536728     
  -95087585.007539958        709589660.82613599        1069888450.4069823     
  -39689023.586752713        1012858857.1608742        1051175275.5032804     
   38809735.589808226        1393128712.6815000        1033900124.0425621     
  -190528463.87311703        276221734.67916781        978428523.55927300     
  -173456636.76801211        418508262.84926474        986150450.46351039     
  -122694085.94521406        673097203.41167772        1000102097.1045313     
  -38240811.404731750        1039988556.3663719        1020283463.4823402     
   79903186.853449166        1519182321.7133999        1046694549.5969373     
  -262223490.24766210        213065020.51923281        835456735.85954857     
  -223587441.10732201        352477367.14815795        884845425.07996249     
  -140670142.28734750        639493879.37587547        945255530.33096433     
  -13471593.787739158        1074114557.2023559        1016687051.6125690     
   158008204.39150405        1656339400.6276305        1099139988.9247437     
  -351669193.70552784        144583103.23429495        682713507.44418132     
  -277778361.69051898        285228436.57389164        786124572.60303760     
  -149015754.03394017        608779688.71872723        905348750.08628559     
   34618629.264217079        1115236859.6688106        1040386039.8939170     
   273124788.20395273        1804599949.4241660        1191236442.0259414     
  -4342591841.6561899       -69840938.301884413        511725424.36329883     
  -4262795676.7136998       -63913080.496003866        603281200.11626494     
  -4182118819.7127829       -55049582.495371103        665836270.50987065     
  -4100561270.6534472       -43250444.299996853        699390635.54411948     
  -4018123029.5356855       -28515665.909877777        703944295.21901631     
  -4529531001.0165882        56021457.892415524        474684824.86462402     
  -4492447762.9116488        14940374.250804186        473442484.73092693     
  -4451971584.1693487       -14830907.266263247        479192969.64635003     
  -4408102464.7896891       -33292386.658797026        491936279.61089581     
  -4360840404.7726612       -40444063.926773071        511672414.62455988     
  -5040149684.6534891        84779996.803759813        423026799.56814927     
  -4942940715.0761681        27541569.207634211        331917300.22322088     
  -4839826556.2825527       -10012894.334159613        283794156.33588737     
  -4730807208.2726316       -27883393.821605682        278657367.90615338     
  -4615882671.0464058       -26069929.254702330        316506934.93401754     
  -5874447892.5668936        16434678.432157278        356751348.47386765     
  -5614274533.2072601       -26109495.625507355        178705646.59313351     
  -5345683736.0523853       -40595543.699036598        79639830.578477606     
  -5068675501.1022663       -27023465.788414717        59553900.429897502     
  -4783249828.3569107        14606738.106328964        118447856.14738989     
  -7032425624.7567959       -149014497.22239494        275858471.58178365     
  -6506449217.3049088       -146012820.24861622        13807523.840678396     
  -5969543123.4788485       -106578855.36090088       -133270007.62587586     
  -5421707343.2786036       -30712602.559250593       -165374122.81787592     
  -4862941876.7041721        81585938.156352520       -82504821.735323712     
  -4018123029.5356855       -28515665.909877777        703944295.21901631     
  -3850650654.5117302        6326269.2925019264        676126669.85929346     
  -3687621444.0909839        26357655.817526340        658438856.74597871     
  -3529035398.2734585        31578493.665148497        650880855.87907505     
  -3374892517.0591373        21988782.835413456        653452667.25858009     
  -4360840404.7726612       -40444063.926773071        511672414.62455988     
  -4178923134.4432755       -7789403.1915132999        505421300.90180200     
  -4000787964.1515598        12258257.418184996        500656588.50615209     
  -3826434893.8975129        19698917.902305126        497378277.43760377     
  -3655863923.6811342        14532578.260877609        495586367.69616413     
  -4615882671.0464058       -26069929.254702330        316506934.93401754     
  -4444215965.1810322       -3011180.9174027443        332593574.84136099     
  -4275670294.7877779        9644115.8461606503        341523205.15650332     
  -4110245659.8666596        11895961.035940647        343295825.87944728     
  -3947942060.4176679        3744354.6519777775        337911437.01018906     
  -4783249828.3569107        14606738.106328964        118447856.14738989     
  -4646529146.7249832        20660936.114867926        157643491.67796358     
  -4512268435.9996500        18515231.101423264        181038706.69703549     
  -4380467696.1808977        8169623.0660421848        188633501.20460039     
  -4251126927.2687268       -10375887.991274595        180427875.20066106     
  -4862941876.7041721        81585938.156352520       -82504821.735323712     
  -4785862679.0751467        63226947.905251980       -19428948.588383876     
  -4710582387.7871571        38871603.184018850        19203093.127745587     
  -4637101002.8402138        8519903.9926302433        33391303.413068686     
  -4565418524.2343168       -27828149.668900251        23135682.267577246     
  -3374892517.0591373        21988782.835413456        653452667.25858009     
  -3234545805.5345516        4235447.3796886206        651286200.68513358     
  -3092409626.3643727       -7552995.9240490198        652503999.74721861     
  -2948483979.5486069       -13376547.075836420        657106064.44482720     
  -2802768865.0872474       -13235206.075641632        665092394.77796936     
  -3655863923.6811342        14532578.260877609        495586367.69616413     
  -3504930884.4436574        191496.95115137100        491813472.28585458     
  -3352380599.4814420       -8758765.2761189938        492012196.98547560     
  -3198213068.7944970       -12318208.420965672        496182541.79502428     
  -3042428292.3828182       -10486832.483346224        504324506.71449900     
  -3947942060.4176679        3744354.6519777775        337911437.01018906     
  -3784744537.8261528       -6681025.8194141388        332331187.18868232     
  -3620101991.4307652       -12289660.277882338        331309911.95150584     
  -3454014421.2314992       -13081548.723428726        334847611.29865366     
  -3286481827.2283540       -9056691.1560481787        342944285.23013741     
  -4251126927.2687268       -10375887.991274595        180427875.20066106     
  -4073986765.6820378       -16382120.931984425        172839345.39362669     
  -3895573802.2123370       -18145680.929325104        170397144.64532062     
  -3715888036.8596010       -15666567.983211756        173101272.95573840     
  -3534929469.6238565       -8944782.0937330723        180951730.32488832     
  -4565418524.2343168       -27828149.668900251        23135682.267577246     
  -4372657568.0113125       -28911788.386598349        13337946.900679678     
  -4178796031.8261452       -26326827.230407000        9273895.0669165514     
  -3983833915.6788177       -20073266.200359583        10943526.766269930     
  -3787771219.5693269       -10151105.296421528        18346841.998750065     
  -2802768865.0872474       -13235206.075641632        665092394.77796936     
  -2669438972.8941197       -14457375.163810134        654689411.54170513     
  -2536347741.8023386       -16475081.256449461        646902257.67484117     
  -2403495171.8119025       -19288324.353583813        641730933.17738390     
  -2270881262.9228148       -22897104.455201626        639175438.04933131     
  -3042428292.3828182       -10486832.483346224        504324506.71449900     
  -2900113668.9418335       -10675576.077270746        492798847.98161471     
  -2758083812.3071046       -11813542.358743310        485330208.80208677     
  -2616338722.4786510       -13900731.327776432        481918589.17591625     
  -2474878399.4564562       -16937142.984357953        482563989.10310405     
  -3286481827.2283540       -9056691.1560481787        342944285.23013741     
  -3131064786.2996330       -6976703.3837503195        330242161.01155692     
  -2975978617.8821030       -5999623.9820872545        323038246.53029150     
  -2821223321.9757586       -6125452.9510567188        321332541.78633279     
  -2666798898.5806141       -7354190.2906694412        325125046.77968615     
  -3534929469.6238565       -8944782.0937330723        180951730.32488832     
  -3362292324.9675450       -3360757.0832872391        167019350.63153884     
  -3190032158.5273280        966673.87350428104        160026370.85945055     
  -3018148970.3032398        4037510.7765277624        159972791.00863114     
  -2846642760.2952652        5851753.6258578300        166858611.07907036     
  -3787771219.5693269       -10151105.296421528        18346841.998750065     
  -3593796284.9455452        172262.82418298721        3130416.8415560503     
  -3400244434.2427959        9085351.2080013752       -3705418.2104235576     
  -3207115667.4610910        16588159.855022311       -2160663.1571938847     
  -3014409984.6004143        22680688.765262365        7764682.0012630038     
  -2270881262.9228148       -22897104.455201626        639175438.04933131     
  -2125047160.4328878       -22908687.289923191        625612387.00755525     
  -1979217601.7735205       -22935416.226491928        615362950.89991570     
  -1833392586.9446938       -22977291.264880300        608427129.72641408     
  -1687572115.9464207       -23034312.405097306        604804923.48705924     
  -2474878399.4564562       -16937142.984357953        482563989.10310405     
  -2322005389.0110412       -17004666.080807090        472616368.22577643     
  -2169147557.4737396       -17122785.537667513        464782586.28662771     
  -2016304904.8445718       -17291501.354955554        459062643.28565919     
  -1863477431.1235261       -17510813.532653451        455456539.22286832     
  -2666798898.5806141       -7354190.2906694412        325125046.77968615     
  -2510314911.5967221       -8506033.0739492178        318780448.47630513     
  -2353856738.5985265       -9743922.4762133360        313349913.11513162     
  -2197424379.5860453       -11067858.497522831        308833440.69618851     
  -2041017834.5592577       -12477841.137814045        305231031.21946591     
  -2846642760.2952652        5851753.6258578300        166858611.07907036     
  -2689975728.1899261        2587211.7306714058        164104627.75912732     
  -2533345145.1478734       -798827.04214072227        161064931.38543087     
  -2376751011.1691008       -4306362.6925514936        157739521.95800576     
  -2220193326.2536082       -7935395.2205587626        154128399.47683346     
  -3014409984.6004143        22680688.765262365        7764682.0012630038     
  -2860987838.7906780        16275068.332994699        8588906.0742403939     
  -2707612777.1217804        9712500.7645775080        7927641.0975191826     
  -2554284799.5937471        2992986.0599493980        5780887.0711033726     
  -2401003906.2065725       -3883475.7808609009        2148643.9949771105     
  -1687572115.9464207       -23034312.405097306        604804923.48705924     
  -1548542331.9618433       -26410584.841189682        591833780.79947782     
  -1410353308.6687670       -32589392.915636539        577505499.41695178     
  -1273005046.0671866       -41570736.628394723        561820079.33949339     
  -1136497544.1571078       -53354615.979490697        544777520.56708908     
  -1863477431.1235261       -17510813.532653451        455456539.22286832     
  -1727135186.5941441       -22529338.251879454        442000777.44519460     
  -1590681264.5527046       -27175604.597561181        428213797.61611199     
  -1454115664.9991884       -31449612.569670141        414095599.73561525     
  -1317438387.9336009       -35351362.168206871        399646183.80369925     
  -2041017834.5592577       -12477841.137814045        305231031.21946591     
  -1904431927.6464207       -18259257.588541865        292401828.25586778     
  -1766781905.0179696       -20493621.653877258        280267327.88437635     
  -1628067766.6738777       -19180933.333745301        268827530.10500270     
  -1488289512.6141422       -14321192.628144026        258082434.91773736     
  -2220193326.2536082       -7935395.2205587626        154128399.47683346     
  -2080432555.1186798       -13600342.851215601        143036933.23146728     
  -1938655230.0645797       -12543444.084640384        133666090.22174348     
  -1794861351.0912399       -4764698.9205988646        126015870.44765380     
  -1649050918.1987228        9735892.6407070160        120086273.90920122     
  -2401003906.2065725       -3883475.7808609009        2148643.9949771105     
  -2255137069.0109100       -8552594.0398807526       -6093907.6279874751     
  -2106301239.6924953       -3325071.8897150755       -11589915.371790856     
  -1954496418.2513065        11799090.669696093       -14339379.236431913     
  -1799722604.6873407        36819893.638353467       -14342299.221902478     
  -1136497544.1571078       -53354615.979490697        544777520.56708908     
  -951326233.58905768       -40656109.658852577        562825706.35897398     
  -758797738.32443905       -3433654.3496689498        591831099.43578136     
  -558912058.36326265        58312749.948048890        631793699.79751682     
  -351669193.70552784        144583103.23429495        682713507.44418132     
  -1317438387.9336009       -35351362.168206871        399646183.80369925     
  -1117626000.2212148       -14777281.655347645        421346533.62264717     
  -914275643.70174766        17590028.214432359        441534602.99256402     
  -707387318.37521517        61750567.441100448        460210391.91345733     
  -496961024.24159896        117704336.02472261        477373900.38532162     
  -1488289512.6141422       -14321192.628144026        258082434.91773736     
  -1309463155.5687087        3440329.7335680127        278979196.89267707     
  -1130918045.6056988        20264361.820526719        285894190.68463141     
  -952654182.72509944        36150903.632792294        278827416.29361147     
  -774671566.92690325        51099955.170383692        257778873.71960452     
  -1649050918.1987228        9735892.6407070160        120086273.90920122     
  -1526837699.6315479        13996724.507864118        135723696.16906497     
  -1408724944.0362864        4589346.4686373472        124909862.51199511     
  -1294712651.4129090       -18486241.476856649        87644772.937992647     
  -1184800821.7614303       -55230039.328697085        23928427.447046276     
  -1799722604.6873407        36819893.638353467       -14342299.221902478     
  -1769749632.4097326        16891902.667556643       -8419968.5481746756     
  -1747696338.9935133       -29435017.841237307       -41418381.525350317     
  -1733562724.4386752       -102160867.88795090       -113337538.15340330     
  -1727348788.7452204       -201285647.47261006       -224177438.43235171     
  -351669193.70552784        144583103.23429495        682713507.44418132     
  -277778361.69051898        285228436.57389164        786124572.60303760     
  -149015754.03394017        608779688.71872723        905348750.08628559     
   34618629.264217079        1115236859.6688106        1040386039.8939170     
   273124788.20395273        1804599949.4241660        1191236442.0259414     
  -496961024.24159896        117704336.02472261        477373900.38532162     
  -388190919.02672011        223101386.05171630        596798446.27971971     
  -230250999.24376181        492397817.97231382        735374309.22946012     
  -23141264.892699718        925593631.78657818        893101489.23455715     
   233138284.02644449        1522688827.4944689        1069979986.2949785     
  -774671566.92690325        51099955.170383692        257778873.71960452     
  -621484460.70942736        124110040.22559249        386564612.43049127     
  -424829500.99736929        342012970.26275218        537839872.92766953     
  -184706687.79068676        704808745.28201175        711604655.21115172     
   98883978.910601974        1212497365.2832448        907858959.28092635     
  -1184800821.7614303       -55230039.328697085        23928427.447046276     
  -977658986.73865449       -11745600.904508948        155423071.05535501     
  -732751259.29475069        157625145.59010461        312745441.18090612     
  -450077639.42972636        452882200.15511608        495895537.82371736     
  -129638127.14357716        874025562.79055309        704873360.98377633     
  -1727348788.7452204       -201285647.47261006       -224177438.43235171     
  -1456714497.1143882       -184465537.33853561       -96626177.845690399     
  -1154016274.1359441       -60765656.045766532        60091013.989179626     
  -819254119.80984342        169813996.40589726        245974137.07225576     
  -452428034.13609493        507273420.01631975        461023191.40351754     
 </DataArray>
 <DataArray  type="Float64" Name="VM" NumberOfComponents="1" format="ascii">
   6866403429.8850183     
   6367746688.3825283     
   5888713210.5890303     
   5408598960.9815426     
   4920103619.9326067     
   5877887432.3412352     
   5597069084.8572817     
   5330912720.0395613     
   5069651530.1625900     
   4811818798.2141781     
   5147755122.2579079     
   5009145931.1426086     
   4881285297.8994017     
   4761749093.0502272     
   4651102872.7709837     
   4673131996.9514523     
   4607222575.1347027     
   4546500077.5254908     
   4490932613.8702803     
   4440655013.9560566     
   4450061142.4449825     
   4392441164.9103079     
   4331609471.7601900     
   4263907501.3124127     
   4187066546.6281476     
   4920103619.9326067     
   4827444697.8958120     
   4736943532.3580074     
   4646582341.2199020     
   4555501733.3567476     
   4811818798.2141781     
   4676305306.9642639     
   4539301806.4343319     
   4399899119.5480890     
   4257642818.0512037     
   4651102872.7709837     
   4489645795.8381729     
   4325834669.1168032     
   4159392003.2713652     
   3990120095.8061857     
   4440655013.9560566     
   4270417376.7750669     
   4099661496.0805483     
   3928422555.9068646     
   3756797221.5393620     
   4187066546.6281476     
   4024156572.9163456     
   3865552392.1353164     
   3711269696.2047491     
   3561735767.5279207     
   4555501733.3567476     
   4362657906.2875891     
   4170432379.6903315     
   3978767529.5669341     
   3787672675.1131020     
   4257642818.0512037     
   4077616877.6199465     
   3898928060.3923249     
   3721626162.2377687     
   3545842555.3881292     
   3990120095.8061857     
   3823036028.5659199     
   3658084212.9341640     
   3495421399.8222389     
   3335298956.4128394     
   3756797221.5393620     
   3602945552.3496757     
   3452069301.3813787     
   3304422156.0000753     
   3160360944.6041665     
   3561735767.5279207     
   3421527485.8784013     
   3285136895.9030762     
   3152891206.4529343     
   3025221895.7308750     
   3787672675.1131020     
   3596274210.9224639     
   3405028043.1106172     
   3213773888.9004059     
   3022563478.0140891     
   3545842555.3881292     
   3373904272.4848523     
   3202950342.5837464     
   3033001351.1338968     
   2864255582.9551892     
   3335298956.4128394     
   3179962466.4671087     
   3026154434.5585566     
   2874028619.1630278     
   2723877386.8376522     
   3160360944.6041665     
   3019111936.4487720     
   2879563106.2111130     
   2741945067.0759926     
   2606588986.9494462     
   3025221895.7308750     
   2896022124.5631886     
   2768267842.4146819     
   2642204784.1388092     
   2518148035.2622256     
   3022563478.0140891     
   2867281893.5613360     
   2711892498.9949551     
   2556394424.0991530     
   2400803632.8318172     
   2864255582.9551892     
   2706427095.7038898     
   2548527104.3940873     
   2390551312.0982985     
   2232495936.7788587     
   2723877386.8376522     
   2567374236.4069271     
   2411468787.4836574     
   2256255105.3410974     
   2101857324.4715095     
   2606588986.9494462     
   2455369042.3237758     
   2306134617.7827597     
   2159190402.9894199     
   2014946476.6259470     
   2518148035.2622256     
   2375929457.1267242     
   2237789470.2362027     
   2104306115.9506502     
   1976248333.1062741     
   2400803632.8318172     
   2252069329.3261838     
   2105376757.0774820     
   1960712870.2607245     
   1818230704.1285548     
   2232495936.7788587     
   2088631038.6234865     
   1946467771.0482483     
   1806010845.1723089     
   1667345067.4873679     
   2101857324.4715095     
   1961690722.2996142     
   1822619088.2948763     
   1684686418.4080317     
   1547971143.7989309     
   2014946476.6259470     
   1878929872.7801356     
   1743324561.0648377     
   1608258288.7966762     
   1473906161.7490354     
   1976248333.1062741     
   1846572906.5949857     
   1716834310.9499106     
   1587334612.7956052     
   1458514449.2428660     
   1818230704.1285548     
   1778167807.9444230     
   1734670946.3946459     
   1696359713.8754880     
   1681781899.2835915     
   1667345067.4873679     
   1552135013.0580909     
   1427794986.8855448     
   1294677305.1846850     
   1158957371.5854883     
   1547971143.7989309     
   1398002374.1828299     
   1244408199.1470077     
   1084898646.5822735     
   917428417.61757827     
   1473906161.7490354     
   1329378459.6038888     
   1199250706.9350095     
   1088016726.9516385     
   1001600813.9639587     
   1458514449.2428660     
   1349139380.1469333     
   1274749346.5720332     
   1243534845.6460660     
   1262583426.7989128     
   1681781899.2835915     
   1384144657.6151259     
   1129677550.3592176     
   1010163833.2424723     
   1152995992.8359215     
   1158957371.5854883     
   1008449549.2477328     
   985204365.95683169     
   1161541581.7812605     
   1544317857.3227453     
   917428417.61757827     
   962881339.19744289     
   1144821692.3047040     
   1476557481.0679352     
   1957743243.2951231     
   1001600813.9639587     
   1164437536.7258847     
   1425313843.6764219     
   1808806479.3714068     
   2335032434.1643991     
   1262583426.7989128     
   1446514823.2435322     
   1715603437.9651105     
   2110481247.5584948     
   2663685383.0890160     
   4450061142.4449825     
   4392441164.9103079     
   4331609471.7601900     
   4263907501.3124127     
   4187066546.6281476     
   4342559601.5747347     
   4235058565.9456186     
   4123984633.1495824     
   4007811327.6417675     
   3885409366.5711374     
   4177044931.0334411     
   4040012870.3969073     
   3902659380.2468629     
   3764815886.0593748     
   3626338503.7002230     
   3960250289.2824583     
   3813154614.5453358     
   3672535844.5811553     
   3538902639.1070123     
   3412952239.3269601     
   3705153853.4068542     
   3564334342.1315041     
   3440833183.3938060     
   3334952355.9925575     
   3247766421.5238571     
   4187066546.6281476     
   4024156572.9163456     
   3865552392.1353164     
   3711269696.2047491     
   3561735767.5279207     
   3885409366.5711374     
   3752649130.3903933     
   3624506572.0093961     
   3501234355.8683333     
   3383381054.3676734     
   3626338503.7002230     
   3519700615.7234535     
   3417613921.3874760     
   3320436461.5663414     
   3228706318.8539982     
   3412952239.3269601     
   3328710458.0611348     
   3248433321.8568139     
   3172460435.7841005     
   3101215147.1567907     
   3247766421.5238571     
   3182551823.6369305     
   3120096676.2984600     
   3060618503.6219516     
   3004356944.3227668     
   3561735767.5279207     
   3421527485.8784013     
   3285136895.9030762     
   3152891206.4529343     
   3025221895.7308750     
   3383381054.3676734     
   3255010895.6698351     
   3130991752.0588841     
   3011730421.1044521     
   2897738031.9170165     
   3228706318.8539982     
   3113300222.7998304     
   3002932861.4257293     
   2898082977.3766437     
   2799331031.3473330     
   3101215147.1567907     
   2999858586.6809263     
   2904352268.3248596     
   2815225633.1072860     
   2733102408.9527745     
   3004356944.3227668     
   2917946199.6610208     
   2838269039.8241768     
   2765870639.8584142     
   2701378380.5552754     
   3025221895.7308750     
   2896022124.5631886     
   2768267842.4146819     
   2642204784.1388092     
   2518148035.2622256     
   2897738031.9170165     
   2778799781.7668486     
   2662626430.9740734     
   2549608598.2720318     
   2440226604.4969068     
   2799331031.3473330     
   2692754327.5609627     
   2590438780.5996013     
   2492900831.2129674     
   2400751177.2564015     
   2733102408.9527745     
   2640470719.1233177     
   2553644659.3951054     
   2473208390.7796288     
   2399824138.8006668     
   2701378380.5552754     
   2623503162.2514534     
   2552885418.6456103     
   2490097245.9839592     
   2435758659.9210911     
   2518148035.2622256     
   2375929457.1267242     
   2237789470.2362027     
   2104306115.9506502     
   1976248333.1062741     
   2440226604.4969068     
   2313972606.9886556     
   2193122853.9624572     
   2078438942.6338055     
   1970871889.4854112     
   2400751177.2564015     
   2292069990.9655452     
   2190077257.2040534     
   2095617508.8622122     
   2009680311.9530814     
   2399824138.8006668     
   2309600611.9282613     
   2227110837.8481016     
   2153162519.6789427     
   2088642863.6397579     
   2435758659.9210911     
   2364006471.6751747     
   2300671680.4075589     
   2246434928.1566467     
   2201998314.7626548     
   1976248333.1062741     
   1846572906.5949857     
   1716834310.9499106     
   1587334612.7956052     
   1458514449.2428660     
   1970871889.4854112     
   1855091405.9797292     
   1743584893.8646049     
   1637236921.8857622     
   1537131431.5931439     
   2009680311.9530814     
   1913101382.9015167     
   1825254125.3745975     
   1747327929.7233136     
   1680603441.5290592     
   2088642863.6397579     
   2013047628.3071070     
   1949862972.4239371     
   1900181998.2623944     
   1865047664.3314362     
   2201998314.7626548     
   2146159010.5106614     
   2105433188.3584311     
   2080615374.2975843     
   2072404910.7395573     
   1458514449.2428660     
   1349139380.1469333     
   1274749346.5720332     
   1243534845.6460660     
   1262583426.7989128     
   1537131431.5931439     
   1476200018.3829613     
   1447983448.2159626     
   1456468169.6151221     
   1504946764.8299634     
   1680603441.5290592     
   1652259728.1247869     
   1651630778.8160794     
   1681082987.6992691     
   1743213630.8158820     
   1865047664.3314362     
   1854810604.3924932     
   1867490313.1524234     
   1905288309.3485024     
   1971232475.7384620     
   2072404910.7395573     
   2069202756.0960522     
   2085123432.3990715     
   2122795045.9480529     
   2186042425.9079399     
   1262583426.7989128     
   1446514823.2435322     
   1715603437.9651105     
   2110481247.5584948     
   2663685383.0890160     
   1504946764.8299634     
   1613313954.5085478     
   1788844057.4224627     
   2066332914.3498130     
   2476057590.3260021     
   1743213630.8158820     
   1787880753.6613426     
   1884687184.4832985     
   2060569203.8623135     
   2340794565.5663271     
   1971232475.7384620     
   1969181321.0215707     
   2003697289.5590694     
   2093456751.2981257     
   2257119942.2307682     
   2186042425.9079399     
   2156505231.2049069     
   2146615477.8370638     
   2166873358.9568038     
   2228316233.8121986     
   3705153853.4068542     
   3564334342.1315041     
   3440833183.3938060     
   3334952355.9925575     
   3247766421.5238571     
   3363316963.6235032     
   3274860629.5412469     
   3199814169.5435452     
   3138609284.9890842     
   3092027044.2865777     
   3097330834.8516922     
   3051346829.6862001     
   3013743590.9348679     
   2984878108.9130073     
   2965194287.3184657     
   2904640868.4525657     
   2893089301.5991335     
   2883752894.7676344     
   2876694857.2298226     
   2871976347.7676225     
   2779727399.3415761     
   2796632153.7863927     
   2808715383.6625237     
   2815510415.4139862     
   2816612913.1592512     
   3247766421.5238571     
   3182551823.6369305     
   3120096676.2984600     
   3060618503.6219516     
   3004356944.3227668     
   3092027044.2865777     
   3035078602.9041004     
   2982008640.6976619     
   2933041708.1432638     
   2888417789.4545746     
   2965194287.3184657     
   2916481838.6718612     
   2872721003.4142914     
   2834112979.7560821     
   2800870788.7798162     
   2871976347.7676225     
   2830805996.1610489     
   2795567714.3555202     
   2766407842.2888093     
   2743486963.9774027     
   2816612913.1592512     
   2781516760.9152727     
   2753206774.4083881     
   2731749605.9628377     
   2717237427.1617475     
   3004356944.3227668     
   2917946199.6610208     
   2838269039.8241768     
   2765870639.8584142     
   2701378380.5552754     
   2888417789.4545746     
   2817944885.8204966     
   2754659135.2108936     
   2699045670.3679605     
   2651644859.7546272     
   2800870788.7798162     
   2745673193.7213359     
   2697974026.7058740     
   2658172304.8380828     
   2626698837.8711119     
   2743486963.9774027     
   2702509063.5212078     
   2669182284.0704660     
   2643805948.6460271     
   2626694599.3601527     
   2717237427.1617475     
   2689017615.5374398     
   2668452425.2154412     
   2655742560.4737525     
   2651095113.4294782     
   2701378380.5552754     
   2623503162.2514534     
   2552885418.6456103     
   2490097245.9839592     
   2435758659.9210911     
   2651644859.7546272     
   2588075818.7690558     
   2532633581.2517734     
   2485833797.8714461     
   2448215914.4928451     
   2626698837.8711119     
   2577079024.6667690     
   2536322042.2643480     
   2504851532.7953305     
   2483095731.4114685     
   2626694599.3601527     
   2590058091.5487781     
   2562889757.7567654     
   2545504751.2521834     
   2538212314.2995396     
   2651095113.4294782     
   2625912897.6854329     
   2610712174.8651137     
   2605702371.7060852     
   2611084935.7830691     
   2435758659.9210911     
   2364006471.6751747     
   2300671680.4075589     
   2246434928.1566467     
   2201998314.7626548     
   2448215914.4928451     
   2392687722.1800013     
   2346311982.5684848     
   2309625428.8276634     
   2283149639.2134070     
   2483095731.4114685     
   2442551581.0062637     
   2411621067.1536622     
   2390684524.5778804     
   2380090033.3763795     
   2538212314.2995396     
   2510892361.5099354     
   2493446271.7396135     
   2486114293.2471876     
   2489103385.2402921     
   2611084935.7830691     
   2594890807.9379086     
   2588723197.3685975     
   2592713184.0189738     
   2606966929.6268568     
   2201998314.7626548     
   2146159010.5106614     
   2105433188.3584311     
   2080615374.2975843     
   2072404910.7395573     
   2283149639.2134070     
   2242463126.1182175     
   2215791602.7140374     
   2203596618.8627090     
   2206273202.0650845     
   2380090033.3763795     
   2351520388.6380863     
   2335839816.6065125     
   2333301620.3293686     
   2344127245.8460255     
   2489103385.2402921     
   2469928008.6557260     
   2462607073.4509778     
   2467275919.9941664     
   2484066661.0583196     
   2606966929.6268568     
   2594849404.7093148     
   2593703302.2237682     
   2603605389.5245366     
   2624648974.3182187     
   2072404910.7395573     
   2069202756.0960522     
   2085123432.3990715     
   2122795045.9480529     
   2186042425.9079399     
   2206273202.0650845     
   2192019611.9314971     
   2192696413.7469640     
   2210272546.9457812     
   2247677400.8683848     
   2344127245.8460255     
   2319677244.2752018     
   2306745178.3918753     
   2306736870.2306738     
   2321746536.7170954     
   2484066661.0583196     
   2451216741.2418394     
   2426956556.9070930     
   2412231251.8894806     
   2408419879.2821817     
   2624648974.3182187     
   2585868812.3005142     
   2553051227.0516214     
   2526776602.1234584     
   2507853094.3663712     
   2186042425.9079399     
   2156505231.2049069     
   2146615477.8370638     
   2166873358.9568038     
   2228316233.8121986     
   2247677400.8683848     
   2182858903.9098048     
   2134505519.5598788     
   2112269113.9317169     
   2127061921.0487621     
   2321746536.7170954     
   2224963205.8247752     
   2141511713.9848902     
   2079750274.0127711     
   2049840489.5829110     
   2408419879.2821817     
   2283111511.3989644     
   2168281566.0668764     
   2070669569.8741596     
   1999045054.1278822     
   2507853094.3663712     
   2357511913.3262630     
   2215285705.7619977     
   2086159254.9241955     
   1977019034.7983460     
   2779727399.3415761     
   2796632153.7863927     
   2808715383.6625237     
   2815510415.4139862     
   2816612913.1592512     
   2791348833.5529938     
   2781546540.9272251     
   2772789254.6058044     
   2765081159.0970883     
   2758425440.4609814     
   2823509515.7914882     
   2786266202.6188774     
   2757704617.4173779     
   2737921245.6084027     
   2727014712.9950790     
   2895343046.8777475     
   2827117267.2922997     
   2776443387.9315758     
   2743288861.0202713     
   2727620282.3085918     
   3027566828.3938980     
   2921643998.9104304     
   2842644821.4384713     
   2790445393.4211221     
   2764886315.3021674     
   2816612913.1592512     
   2781516760.9152727     
   2753206774.4083881     
   2731749605.9628377     
   2717237427.1617475     
   2758425440.4609814     
   2723210755.9786005     
   2696130052.0137362     
   2677303287.4599924     
   2666854195.3889618     
   2727014712.9950790     
   2691593618.2569036     
   2666146663.2095213     
   2650738957.7918835     
   2645448204.5013242     
   2727620282.3085918     
   2691052976.2521586     
   2666724446.8323069     
   2654563826.1952105     
   2654551091.6973457     
   2764886315.3021674     
   2725267634.4695907     
   2700503518.5369215     
   2690351172.2654448     
   2694682033.3872542     
   2717237427.1617475     
   2689017615.5374398     
   2668452425.2154412     
   2655742560.4737525     
   2651095113.4294782     
   2666854195.3889618     
   2646556809.9795156     
   2634769836.1701441     
   2631620853.7535305     
   2637236755.3084559     
   2645448204.5013242     
   2630666509.8646312     
   2625182971.2518239     
   2629057189.1065531     
   2642346431.5735660     
   2654551091.6973457     
   2642242162.8913827     
   2639985421.1273661     
   2647792416.4216943     
   2665674366.6018286     
   2694682033.3872542     
   2681344197.4062462     
   2678809407.7527695     
   2687073317.1956582     
   2706134769.0385036     
   2651095113.4294782     
   2625912897.6854329     
   2610712174.8651137     
   2605702371.7060852     
   2611084935.7830691     
   2637236755.3084559     
   2621129798.7444558     
   2614297697.1130390     
   2616841783.1252265     
   2628857058.4585466     
   2642346431.5735660     
   2632523885.5442772     
   2631261629.1573300     
   2638596008.9863873     
   2654560292.1619492     
   2665674366.6018286     
   2659453847.3481178     
   2661100625.3469915     
   2670621853.7986107     
   2688024441.2582798     
   2706134769.0385036     
   2701045038.2229972     
   2703163738.2656021     
   2712496362.6967053     
   2729050103.1057835     
   2611084935.7830691     
   2594890807.9379086     
   2588723197.3685975     
   2592713184.0189738     
   2606966929.6268568     
   2628857058.4585466     
   2617731492.6778488     
   2616712481.2728658     
   2625881959.0598221     
   2645305764.1344929     
   2654560292.1619492     
   2647245556.6539459     
   2650240018.0131841     
   2663585110.2257733     
   2687314790.4839563     
   2688024441.2582798     
   2683136615.7053261     
   2688911293.4335575     
   2705359269.9357109     
   2732491068.0832291     
   2729050103.1057835     
   2725098843.2730832     
   2732338359.7799244     
   2750760467.8672957     
   2780361268.3293824     
   2606966929.6268568     
   2594849404.7093148     
   2593703302.2237682     
   2603605389.5245366     
   2624648974.3182187     
   2645305764.1344929     
   2634483262.9974937     
   2633897722.5151758     
   2643587440.8083744     
   2663602445.0143118     
   2687314790.4839563     
   2677434277.6061592     
   2677232227.7424035     
   2686723212.5063081     
   2705928498.1489339     
   2732491068.0832291     
   2723328419.0117288     
   2723445131.8511353     
   2732843768.3176746     
   2751529486.0388212     
   2780361268.3293824     
   2771810037.8029795     
   2772283753.0627904     
   2781782188.8999882     
   2800305319.9207168     
   2624648974.3182187     
   2585868812.3005142     
   2553051227.0516214     
   2526776602.1234584     
   2507853094.3663712     
   2663602445.0143118     
   2617877316.4896297     
   2577875000.1158199     
   2543925087.3883915     
   2516487987.8438020     
   2705928498.1489339     
   2655380920.5302000     
   2610460772.0241470     
   2571314274.3208451     
   2538145447.3060508     
   2751529486.0388212     
   2698288629.8474989     
   2650723396.8014793     
   2608869643.6189604     
   2572776828.8412738     
   2800305319.9207168     
   2746500757.0186324     
   2698562946.4815574     
   2656491831.8527045     
   2620287395.4607925     
   2507853094.3663712     
   2357511913.3262630     
   2215285705.7619977     
   2086159254.9241955     
   1977019034.7983460     
   2516487987.8438020     
   2348554618.9625034     
   2184148466.3357315     
   2026371491.7982767     
   1879794353.0466633     
   2538145447.3060508     
   2357711865.3424449     
   2177014780.1491356     
   1997526003.9787438     
   1821525618.5343735     
   2572776828.8412738     
   2385088694.0744462     
   2194351811.3479648     
   2000944048.2004340     
   1805469542.0765326     
   2620287395.4607925     
   2430654921.9657998     
   2236301645.7335706     
   2037227560.3766673     
   1833432660.0865524     
   3027566828.3938980     
   2921643998.9104304     
   2842644821.4384713     
   2790445393.4211221     
   2764886315.3021674     
   2791386225.2121005     
   2736689759.5378985     
   2698340585.8576050     
   2676419711.9991484     
   2671002856.2871618     
   2643925124.2944207     
   2630612385.2695346     
   2624166619.7390690     
   2624713143.1415234     
   2632369007.0618138     
   2555667321.7786283     
   2578549948.7705569     
   2600534127.4411988     
   2621296046.0058618     
   2640559305.5927997     
   2495640972.1668921     
   2554744182.7637215     
   2606932967.0415578     
   2650828622.9564438     
   2685342338.4727769     
   2764886315.3021674     
   2725267634.4695907     
   2700503518.5369215     
   2690351172.2654448     
   2694682033.3872542     
   2671002856.2871618     
   2649336607.8368516     
   2639028689.4606543     
   2640056726.1684728     
   2652419763.9687524     
   2632369007.0618138     
   2621513242.3788953     
   2618580459.3809447     
   2623661266.7761297     
   2636840527.4173245     
   2640559305.5927997     
   2635247295.7967658     
   2634503283.3163600     
   2638373206.0287542     
   2646943294.0078588     
   2685342338.4727769     
   2682502035.5217009     
   2680922026.3135691     
   2680437219.9990573     
   2681038124.2452984     
   2694682033.3872542     
   2681344197.4062462     
   2678809407.7527695     
   2687073317.1956582     
   2706134769.0385036     
   2652419763.9687524     
   2639572492.1991315     
   2636313317.2267733     
   2642664093.4041348     
   2658647456.9014745     
   2636840527.4173245     
   2621955256.5217719     
   2615507241.7514248     
   2617563111.7003694     
   2628187172.9349847     
   2646943294.0078588     
   2628085276.9046316     
   2616557515.0469613     
   2612474007.4273276     
   2615944435.7796903     
   2681038124.2452984     
   2656947118.1726665     
   2639107819.4062495     
   2627670371.5875072     
   2622780542.7766256     
   2706134769.0385036     
   2701045038.2229972     
   2703163738.2656021     
   2712496362.6967053     
   2729050103.1057835     
   2658647456.9014745     
   2651454762.3179173     
   2652354072.2434840     
   2661356237.2966266     
   2678471760.2725396     
   2628187172.9349847     
   2617384613.2438827     
   2615624107.1332679     
   2622940649.2977743     
   2639366591.2882013     
   2615944435.7796903     
   2599678707.2393532     
   2593473488.6994634     
   2597418581.5673413     
   2611598125.5308480     
   2622780542.7766256     
   2598911426.3227081     
   2586182241.9124913     
   2584781479.4595456     
   2594888562.7685394     
   2729050103.1057835     
   2725098843.2730832     
   2732338359.7799244     
   2750760467.8672957     
   2780361268.3293824     
   2678471760.2725396     
   2676343390.6145296     
   2684690736.8325706     
   2703519709.7570882     
   2732834446.7559037     
   2639366591.2882013     
   2636477311.4871535     
   2643463598.7937703     
   2660365165.1239643     
   2687213135.6636434     
   2611598125.5308480     
   2605571387.3155279     
   2608898468.7890840     
   2621669388.9465113     
   2643959894.7737203     
   2594888562.7685394     
   2583614781.1893044     
   2581204986.4850254     
   2587813161.8937650     
   2603576652.7400289     
   2780361268.3293824     
   2771810037.8029795     
   2772283753.0627904     
   2781782188.8999882     
   2800305319.9207168     
   2732834446.7559037     
   2723324579.6879406     
   2723095897.2083592     
   2732152360.6674943     
   2750498881.2539802     
   2687213135.6636434     
   2676911065.1380892     
   2676298146.1837120     
   2685389266.3615952     
   2704205768.3458614     
   2643959894.7737203     
   2632911874.0233669     
   2632128981.0070753     
   2641646032.3922324     
   2661513882.4304667     
   2603576652.7400289     
   2591692161.2872248     
   2590836734.2915692     
   2601076654.0704966     
   2622506723.4389915     
   2800305319.9207168     
   2746500757.0186324     
   2698562946.4815574     
   2656491831.8527045     
   2620287395.4607925     
   2750498881.2539802     
   2697554787.5101528     
   2650258768.6642208     
   2608647749.7343855     
   2572773983.3371449     
   2704205768.3458614     
   2654143374.6305108     
   2609652428.1768918     
   2570879835.1479015     
   2538030957.8456140     
   2661513882.4304667     
   2616358341.4115167     
   2576839652.9663758     
   2543286131.0106106     
   2516153692.9578295     
   2622506723.4389915     
   2584281610.7010880     
   2551900690.5312257     
   2525939561.1300826     
   2507191913.9291544     
   2620287395.4607925     
   2430654921.9657998     
   2236301645.7335706     
   2037227560.3766673     
   1833432660.0865524     
   2572773983.3371449     
   2385062000.9613285     
   2194316104.4251122     
   2000917458.9247372     
   1805474561.2528887     
   2538030957.8456140     
   2357588587.0567098     
   2176911864.5641227     
   1997482521.8583105     
   1821595809.7136037     
   2516153692.9578295     
   2348264774.4847751     
   2183945490.2205105     
   2026316667.8318365     
   1879978281.9668374     
   2507191913.9291544     
   2356986127.8846893     
   2214949609.1220388     
   2086096011.8794541     
   1977355315.2610621     
   2495640972.1668921     
   2554744182.7637215     
   2606932967.0415578     
   2650828622.9564438     
   2685342338.4727769     
   2735813921.6560621     
   2750402000.8433475     
   2765200118.4823766     
   2780046410.9641867     
   2794816569.3137217     
   3038915011.3065324     
   2998535041.2124052     
   2966808584.5411119     
   2943959341.0360479     
   2930300632.8125358     
   3411159176.7913251     
   3306630400.6442575     
   3218702342.9061842     
   3147596438.7973323     
   3093883521.3273072     
   3859644579.4069147     
   3681549875.9524603     
   3526611299.6863203     
   3394829222.3563819     
   3287007722.0828753     
   2685342338.4727769     
   2682502035.5217009     
   2680922026.3135691     
   2680437219.9990573     
   2681038124.2452984     
   2794816569.3137217     
   2770304126.0859699     
   2748244551.7852674     
   2728720777.2081370     
   2711867161.5418191     
   2930300632.8125358     
   2885644047.9478521     
   2844974308.1937194     
   2808470165.4725976     
   2776326150.7393818     
   3093883521.3273072     
   3030107738.3205724     
   2972063604.3979726     
   2919912488.4240365     
   2873851299.1767955     
   3287007722.0828753     
   3204531890.0975795     
   3129624316.6834965     
   3062351652.2859340     
   3002881572.8220849     
   2681038124.2452984     
   2656947118.1726665     
   2639107819.4062495     
   2627670371.5875072     
   2622780542.7766256     
   2711867161.5418191     
   2674988030.7936816     
   2645002066.7453656     
   2622159394.3818669     
   2606715096.9078393     
   2776326150.7393818     
   2724823177.9280653     
   2680617023.1317992     
   2644070834.8391376     
   2615572861.3353477     
   2873851299.1767955     
   2806092129.8934503     
   2745776941.3183980     
   2693378814.0501022     
   2649428064.2676120     
   3002881572.8220849     
   2917472095.7340336     
   2839408066.9130940     
   2769251845.6058707     
   2707665041.9092374     
   2622780542.7766256     
   2598911426.3227081     
   2586182241.9124913     
   2584781479.4595456     
   2594888562.7685394     
   2606715096.9078393     
   2572185983.0641503     
   2547796574.4937129     
   2533861024.6127601     
   2530681135.0115924     
   2615572861.3353477     
   2568103940.6232824     
   2529615606.8861184     
   2500546215.0416207     
   2481333766.3845596     
   2649428064.2676120     
   2587641856.1619844     
   2533465211.2549696     
   2487430356.1899953     
   2450095876.3793664     
   2707665041.9092374     
   2631142039.3455853     
   2560653564.9914780     
   2496769970.1788301     
   2440121916.9083376     
   2594888562.7685394     
   2583614781.1893044     
   2581204986.4850254     
   2587813161.8937650     
   2603576652.7400289     
   2530681135.0115924     
   2505238664.1952128     
   2488958057.5765042     
   2482093001.4113989     
   2484871298.3230491     
   2481333766.3845596     
   2440430258.6054144     
   2408937254.3654146     
   2387233443.0102434     
   2375670735.5902343     
   2450095876.3793664     
   2392540149.6483865     
   2344513432.4809551     
   2306538235.8856974     
   2279123799.6640906     
   2440121916.9083376     
   2364964365.3968973     
   2299249137.5517359     
   2243642703.2668157     
   2198831205.8593178     
   2603576652.7400289     
   2591692161.2872248     
   2590836734.2915692     
   2601076654.0704966     
   2622506723.4389915     
   2484871298.3230491     
   2466385519.0057125     
   2459752934.5683551     
   2465100335.3325305     
   2482557517.0344372     
   2375670735.5902343     
   2348046096.4848213     
   2333236398.2780766     
   2331489901.2651048     
   2343023696.9538693     
   2279123799.6640906     
   2239472477.8561873     
   2213668487.7774158     
   2202172343.6016374     
   2205374045.3995137     
   2198831205.8593178     
   2144004853.3257253     
   2104002780.1543062     
   2079620186.9050946     
   2071550313.4860508     
   2622506723.4389915     
   2584281610.7010880     
   2551900690.5312257     
   2525939561.1300826     
   2507191913.9291544     
   2482557517.0344372     
   2449961750.9369764     
   2425892126.4868374     
   2411292463.3856134     
   2407532553.5637980     
   2343023696.9538693     
   2318607520.6340995     
   2305700344.2207913     
   2305710038.2825589     
   2320730191.7801361     
   2205374045.3995137     
   2191003566.9620857     
   2191610895.2154789     
   2209170965.8287864     
   2246625073.6204767     
   2071550313.4860508     
   2068131189.1211724     
   2083945125.5271652     
   2121631635.4835060     
   2185043832.5580721     
   2507191913.9291544     
   2356986127.8846893     
   2214949609.1220388     
   2086096011.8794541     
   1977355315.2610621     
   2407532553.5637980     
   2282507313.7188077     
   2167988742.5611949     
   2070734149.6738224     
   1999535245.7309065     
   2320730191.7801361     
   2224326338.6425629     
   2141254208.0034254     
   2079873789.6800830     
   2050343957.4846983     
   2246625073.6204767     
   2182232188.3729906     
   2134274342.0674603     
   2112386551.3764145     
   2127454510.0376289     
   2185043832.5580721     
   2155928891.9051375     
   2146401093.4742229     
   2166924841.5215740     
   2228491082.0384707     
   3859644579.4069147     
   3681549875.9524603     
   3526611299.6863203     
   3394829222.3563819     
   3287007722.0828753     
   4056372722.2839727     
   3889882192.0688648     
   3731777808.6073833     
   3582538455.5930290     
   3442877036.8259296     
   4229723726.3091278     
   4085759552.0757980     
   3941127503.8363786     
   3795657699.2003908     
   3649190042.1467924     
   4349792849.4578876     
   4246716624.7899785     
   4138281819.8681579     
   4022797218.3178754     
   3898958364.7624631     
   4398326920.6390066     
   4358314821.0386133     
   4311952945.1441154     
   4255180844.7750444     
   4185469995.3656921     
   3287007722.0828753     
   3204531890.0975795     
   3129624316.6834965     
   3062351652.2859340     
   3002881572.8220849     
   3442877036.8259296     
   3347509334.2964067     
   3258994610.4326172     
   3177657870.5633373     
   3103929996.3014898     
   3649190042.1467924     
   3536546601.3845716     
   3429540220.3178134     
   3328596581.6772752     
   3234319062.9239879     
   3898958364.7624631     
   3765358995.2673230     
   3635858427.2696018     
   3510794506.6406851     
   3390793456.4163723     
   4185469995.3656921     
   4027822309.7415333     
   3872604922.0088801     
   3719874639.1709709     
   3570097190.8289661     
   3002881572.8220849     
   2917472095.7340336     
   2839408066.9130940     
   2769251845.6058707     
   2707665041.9092374     
   3103929996.3014898     
   3002396208.0314913     
   2907071203.7202525     
   2818509115.7843118     
   2737371649.9444237     
   3234319062.9239879     
   3117731655.7531600     
   3006347348.1125627     
   2900660695.3869677     
   2801276055.6203136     
   3390793456.4163723     
   3260518498.7025309     
   3134629262.5213141     
   3013527431.7216587     
   2897720437.4549856     
   3570097190.8289661     
   3427612201.1220622     
   3288918028.2782063     
   3154308373.4318352     
   3024175414.7279525     
   2707665041.9092374     
   2631142039.3455853     
   2560653564.9914780     
   2496769970.1788301     
   2440121916.9083376     
   2737371649.9444237     
   2645320498.9091096     
   2558327376.3581085     
   2476953764.8796554     
   2401844632.7983718     
   2801276055.6203136     
   2694793416.4571781     
   2592322560.2861962     
   2494358635.9705200     
   2401491434.3321562     
   2897720437.4549856     
   2778346839.5055943     
   2661980813.3563895     
   2549010740.5209012     
   2439914716.0874972     
   3024175414.7279525     
   2893678462.0529432     
   2765319575.2863431     
   2639366866.8287592     
   2516160786.5994000     
   2440121916.9083376     
   2364964365.3968973     
   2299249137.5517359     
   2243642703.2668157     
   2198831205.8593178     
   2401844632.7983718     
   2309608743.0324888     
   2225758806.5841789     
   2151111746.7802706     
   2086564176.7084649     
   2401491434.3321562     
   2291889636.8109899     
   2189238235.4264455     
   2094397701.1487067     
   2008375085.8728077     
   2439914716.0874972     
   2313773018.4958668     
   2192911157.3232021     
   2078095033.3716660     
   1970277315.9926538     
   2516160786.5994000     
   2375255939.3619890     
   2237956401.0518370     
   2104823188.5044158     
   1976594330.9555397     
   2198831205.8593178     
   2144004853.3257253     
   2104002780.1543062     
   2079620186.9050946     
   2071550313.4860508     
   2086564176.7084649     
   2011517072.2525759     
   1948700066.1036162     
   1899199718.0567183     
   1864051638.5673862     
   2008375085.8728077     
   1911956556.1655586     
   1824213066.7772880     
   1746329210.6043332     
   1679581633.1314292     
   1970277315.9926538     
   1854269947.1297593     
   1742615632.1828654     
   1636205726.3003252     
   1536131908.7702429     
   1976594330.9555397     
   1846235260.3385189     
   1716022660.4704094     
   1586277283.6445632     
   1457457935.4605727     
   2071550313.4860508     
   2068131189.1211724     
   2083945125.5271652     
   2121631635.4835060     
   2185043832.5580721     
   1864051638.5673862     
   1853779434.1390140     
   1866491872.6100545     
   1904397747.9490552     
   1970540381.6196713     
   1679581633.1314292     
   1651339638.9244411     
   1650836562.6390879     
   1680441609.4161685     
   1742754937.5041072     
   1536131908.7702429     
   1475421707.1220615     
   1447401981.2416236     
   1456053571.1424456     
   1504656900.2985513     
   1457457935.4605727     
   1348449341.0983703     
   1274351795.7345443     
   1243328034.8339908     
   1262423906.0713367     
   2185043832.5580721     
   2155928891.9051375     
   2146401093.4742229     
   2166924841.5215740     
   2228491082.0384707     
   1970540381.6196713     
   1968744299.2755623     
   2003500983.7060113     
   2093457914.9537742     
   2257231766.6066332     
   1742754937.5041072     
   1787542318.2385333     
   1884492330.5734286     
   2060520225.7788074     
   2340858897.3766313     
   1504656900.2985513     
   1613039190.3473206     
   1788636983.4479716     
   2066236018.3626888     
   2476093240.1529045     
   1262423906.0713367     
   1446278637.7540894     
   1715373209.1151888     
   2110344300.6504555     
   2663724822.6582432     
   4398326920.6390066     
   4358314821.0386133     
   4311952945.1441154     
   4255180844.7750444     
   4185469995.3656921     
   4631362377.5332937     
   4574043323.7123260     
   4521407067.5864038     
   4473446476.8226776     
   4430307058.1803703     
   5135606622.9010105     
   4989996500.7150097     
   4859750821.8589001     
   4741555984.1763020     
   4635433815.6185169     
   5915045847.4244604     
   5609811181.1351595     
   5327288163.2401648     
   5056270208.8941164     
   4794960858.9322405     
   6975498248.0409050     
   6434729839.2524099     
   5921474458.8787632     
   5413998969.2263288     
   4906325383.9862070     
   4185469995.3656921     
   4027822309.7415333     
   3872604922.0088801     
   3719874639.1709709     
   3570097190.8289661     
   4430307058.1803703     
   4265824655.9607415     
   4099691250.1502981     
   3931860135.3604617     
   3762379419.5196438     
   4635433815.6185169     
   4479903763.7153091     
   4321180259.7583323     
   4158931628.7669787     
   3992943205.9087944     
   4794960858.9322405     
   4664891857.1503410     
   4532414366.0033178     
   4396714516.9190044     
   4257433645.8029618     
   4906325383.9862070     
   4817904852.9757280     
   4730254919.0678253     
   4641727145.3721790     
   4551744647.5746241     
   3570097190.8289661     
   3427612201.1220622     
   3288918028.2782063     
   3154308373.4318352     
   3024175414.7279525     
   3762379419.5196438     
   3607056029.4431324     
   3454764491.3812962     
   3305739502.8733077     
   3160317084.7749796     
   3992943205.9087944     
   3824968226.0992069     
   3659248339.9923415     
   3495936449.5692210     
   3335282974.7674742     
   4257433645.8029618     
   4076826745.7565827     
   3897722698.6636343     
   3720180947.6661077     
   3544350120.4934759     
   4551744647.5746241     
   4358334825.4561033     
   4165725981.3466005     
   3973880512.4683332     
   3782839358.4821739     
   3024175414.7279525     
   2893678462.0529432     
   2765319575.2863431     
   2639366866.8287592     
   2516160786.5994000     
   3160317084.7749796     
   3018006790.9662404     
   2877710786.4195685     
   2739669523.7216020     
   2604226679.9043117     
   3335282974.7674742     
   3179457581.8581233     
   3025176210.2491603     
   2872598316.8802423     
   2722017118.0852218     
   3544350120.4934759     
   3373041285.8328252     
   3202532614.3150401     
   3032853309.8417101     
   2864191419.6033988     
   3782839358.4821739     
   3593886509.5310493     
   3404802249.9781351     
   3215444016.6613078     
   3025843970.6027308     
   2516160786.5994000     
   2375255939.3619890     
   2237956401.0518370     
   2104823188.5044158     
   1976594330.9555397     
   2604226679.9043117     
   2454101047.9464035     
   2305736547.1793485     
   2159429336.1225119     
   2015575782.8573987     
   2722017118.0852218     
   2566176807.8820500     
   2410884733.1296616     
   2256237997.5692520     
   2102365322.3137131     
   2864191419.6033988     
   2706238466.0688243     
   2548262210.6695580     
   2390266519.1002493     
   2232256695.7015424     
   3025843970.6027308     
   2869198559.1896982     
   2712516823.3860431     
   2555802220.4712038     
   2399067412.2452054     
   1976594330.9555397     
   1846235260.3385189     
   1716022660.4704094     
   1586277283.6445632     
   1457457935.4605727     
   2015575782.8573987     
   1879012073.6213017     
   1742951187.8433197     
   1607524671.0991089     
   1472912624.6687799     
   2102365322.3137131     
   1961865780.8071706     
   1822465323.0608830     
   1684205873.5848475     
   1547163959.8821270     
   2232256695.7015424     
   2088412957.8461378     
   1946233258.5263371     
   1805723676.7758088     
   1666967558.3707056     
   2399067412.2452054     
   2250897705.8424768     
   2104736407.2027681     
   1960579914.5510545     
   1818581826.0155811     
   1457457935.4605727     
   1348449341.0983703     
   1274351795.7345443     
   1243328034.8339908     
   1262423906.0713367     
   1472912624.6687799     
   1328679598.1049929     
   1198811875.5862885     
   1087783219.9308362     
   1001487174.1715360     
   1547163959.8821270     
   1397389979.0632534     
   1243989576.9273088     
   1084679848.3806541     
   917421804.60984123     
   1666967558.3707056     
   1551793401.5417283     
   1427515176.1562951     
   1294501077.1743228     
   1158915207.1780400     
   1818581826.0155811     
   1778315558.0317514     
   1734650364.6763639     
   1696204729.0017877     
   1681465373.4795463     
   1262423906.0713367     
   1446278637.7540894     
   1715373209.1151888     
   2110344300.6504555     
   2663724822.6582432     
   1001487174.1715360     
   1164292706.5846543     
   1425192038.7913823     
   1808747994.3264132     
   2335060850.9677820     
   917421804.60984123     
   962847494.23619592     
   1144799267.5441105     
   1476549481.9890413     
   1957716784.4318326     
   1158915207.1780400     
   1008434853.7517709     
   985240707.33315265     
   1161568540.2153203     
   1544206310.8697979     
   1681465373.4795463     
   1383958414.4203830     
   1129669978.2797897     
   1010269642.5623069     
   1152887381.2955172     
 </DataArray>
 <DataArray  type="Float64" Name="strain" NumberOfComponents="3" format="ascii">
  0.11533234133828807       -2.8798063787233930E-002   1.1331596376482178E-002
  0.10687567032685186       -2.8404423881068341E-002   4.0235560696089134E-004
   9.8418999315415867E-002  -2.7873039705272940E-002  -5.8283097787514282E-003
   8.9962328303979766E-002  -2.7203911259847793E-002  -7.3603997806552246E-003
   8.1505657292543665E-002  -2.6397038544793139E-002  -4.1939143987503869E-003
   9.7919026708555124E-002  -2.7420889051657960E-002   1.4197753874311658E-002
   9.3432417580142424E-002  -2.6791329706957523E-002   7.0047823380075536E-003
   8.8945808451729669E-002  -2.6128078828168977E-002   3.0533591839410623E-003
   8.4459199323316969E-002  -2.5431136415291919E-002   2.3434844121128506E-003
   7.9972590194904325E-002  -2.4700502468326890E-002   4.8751580225228075E-003
   8.4884776910965243E-002  -2.6043714316081823E-002   1.7351857178447061E-002
   8.2911202664005312E-002  -2.5178235532846593E-002   1.3791102139817990E-002
   8.0937628417045382E-002  -2.4383117951064653E-002   1.2014868481856456E-002
   7.8964054170085382E-002  -2.3658361570735927E-002   1.2023156204562166E-002
   7.6990479923125466E-002  -2.3003966391860531E-002   1.3815965307935218E-002
   7.6229591945518718E-002  -2.4666539580505742E-002   2.0793906288888039E-002
   7.5312025578440717E-002  -2.3565141358735761E-002   2.0761315012392520E-002
   7.4394459211362951E-002  -2.2638157073960399E-002   2.1056218114994148E-002
   7.3476892844285047E-002  -2.1885586726179993E-002   2.1678615596692302E-002
   7.2559326477207239E-002  -2.1307430315394282E-002   2.2628507457487346E-002
   7.1953471812215009E-002  -2.3289364844929716E-002   2.4523901205634357E-002
   7.0634886323448720E-002  -2.1952047184624845E-002   2.7915420955731296E-002
   6.9316300834682321E-002  -2.0893196196856270E-002   3.0177408083354312E-002
   6.7997715345915921E-002  -2.0112811881623938E-002   3.1309862588503531E-002
   6.6679129857149577E-002  -1.9610894238928034E-002   3.1312784471179078E-002
   8.1505657292543665E-002  -2.6397038544793139E-002  -4.1939143987503869E-003
   8.0118899049913594E-002  -2.5503785080943919E-002  -1.1609529166707322E-003
   7.8732140807283468E-002  -2.4575514389136632E-002   7.5335564863737714E-004
   7.7345382564653342E-002  -2.3612226469369724E-002   1.5490112971739967E-003
   7.5958624322023272E-002  -2.2613921321645081E-002   1.2260140289390709E-003
   7.9972590194904325E-002  -2.4700502468326890E-002   4.8751580225228075E-003
   7.7671600778876609E-002  -2.3921118206776115E-002   6.7129112353576659E-003
   7.5370611362848977E-002  -2.3077924850141984E-002   7.8408550181688075E-003
   7.3069621946821345E-002  -2.2170922398424761E-002   8.2589893709568429E-003
   7.0768632530793685E-002  -2.1200110851623877E-002   7.9673142937206620E-003
   7.6990479923125466E-002  -2.3003966391860531E-002   1.3815965307935218E-002
   7.4184102820448058E-002  -2.2338451332607839E-002   1.4487302118650347E-002
   7.1377725717770651E-002  -2.1580335311147336E-002   1.4857672986089282E-002
   6.8571348615093244E-002  -2.0729618327479132E-002   1.4927077910252738E-002
   6.5764971512415865E-002  -1.9786300381602728E-002   1.4695516891140181E-002
   7.2559326477207239E-002  -2.1307430315394282E-002   2.2628507457487346E-002
   6.9656405174627858E-002  -2.0755784458439744E-002   2.2162219733206964E-002
   6.6753483872048519E-002  -2.0082745772152910E-002   2.1803809552398648E-002
   6.3850562569469110E-002  -1.9288314256533393E-002   2.1553276915062012E-002
   6.0947641266889785E-002  -1.8372489911581552E-002   2.1410621821197476E-002
   6.6679129857149577E-002  -1.9610894238928034E-002   3.1312784471179078E-002
   6.4088507841416037E-002  -1.9173117584271621E-002   2.9737664079027948E-002
   6.1497885825682552E-002  -1.8585156233158262E-002   2.8679264717096420E-002
   5.8907263809949026E-002  -1.7847010185587958E-002   2.8137586385384980E-002
   5.6316641794215527E-002  -1.6958679441560487E-002   2.8112629083892893E-002
   7.5958624322023272E-002  -2.2613921321645081E-002   1.2260140289390709E-003
   7.2754984903744324E-002  -2.1617521308953336E-002   7.3231342529089805E-004
   6.9551345485465488E-002  -2.0659948794286509E-002   4.8169739801962042E-004
   6.6347706067186596E-002  -1.9741203777645114E-002   4.7416594712512694E-004
   6.3144066648907704E-002  -1.8861286259028831E-002   7.0971907260775069E-004
   7.0768632530793685E-002  -2.1200110851623877E-002   7.9673142937206620E-003
   6.7796652734820495E-002  -2.0223038575916397E-002   7.6034619412054805E-003
   6.4824672938847361E-002  -1.9297253937478664E-002   7.4598442569250301E-003
   6.1852693142874171E-002  -1.8422756936310444E-002   7.5364612408792275E-003
   5.8880713346900981E-002  -1.7599547572411445E-002   7.8333128930676565E-003
   6.5764971512415865E-002  -1.9786300381602728E-002   1.4695516891140181E-002
   6.3001801430606019E-002  -1.8828555842879569E-002   1.4449052650513883E-002
   6.0238631348796118E-002  -1.7934559080670570E-002   1.4399973169979735E-002
   5.7475461266986230E-002  -1.7104310094975435E-002   1.4548278449537710E-002
   5.4712291185176370E-002  -1.6337808885794669E-002   1.4893968489187864E-002
   6.0947641266889785E-002  -1.8372489911581552E-002   2.1410621821197476E-002
   5.8370430991100869E-002  -1.7434073109842796E-002   2.1269085553215758E-002
   5.5793220715311911E-002  -1.6571864223862379E-002   2.1302084137183368E-002
   5.3216010439522982E-002  -1.5785863253640595E-002   2.1509617573100655E-002
   5.0638800163734045E-002  -1.5076070199177366E-002   2.1891685860968103E-002
   5.6316641794215527E-002  -1.6958679441560487E-002   2.8112629083892893E-002
   5.3902541416305128E-002  -1.6039590376805912E-002   2.8063560649310593E-002
   5.1488441038394672E-002  -1.5209169367054465E-002   2.8166177158536032E-002
   4.9074340660484300E-002  -1.4467416412305881E-002   2.8420478611568392E-002
   4.6660240282573817E-002  -1.3814331512560285E-002   2.8826465008408464E-002
   6.3144066648907704E-002  -1.8861286259028831E-002   7.0971907260775069E-004
   5.9933215331384515E-002  -1.8001280202283865E-002  -9.5219957996217630E-007
   5.6722364013861215E-002  -1.7142269571256613E-002  -3.1251982180363624E-004
   5.3511512696337943E-002  -1.6284254365948041E-002  -2.2498379406307722E-004
   5.0300661378814726E-002  -1.5427234586356864E-002   2.6165588364146508E-004
   5.8880713346900981E-002  -1.7599547572411445E-002   7.8333128930676565E-003
   5.6030409337004317E-002  -1.6796967324034628E-002   7.1835334090788461E-003
   5.3180105327107680E-002  -1.5984357669430266E-002   6.8557448903782681E-003
   5.0329801317210973E-002  -1.5161718608599932E-002   6.8499473369669772E-003
   4.7479497307314322E-002  -1.4329050141542510E-002   7.1661407488448070E-003
   5.4712291185176370E-002  -1.6337808885794669E-002   1.4893968489187864E-002
   5.2145421798230951E-002  -1.5592654445784893E-002   1.4316105625342357E-002
   4.9578552411285517E-002  -1.4826445767603710E-002   1.3983121042110316E-002
   4.7011683024340119E-002  -1.4039182851251827E-002   1.3895014739491708E-002
   4.4444813637394637E-002  -1.3230865696728156E-002   1.4051786717486692E-002
   5.0638800163734045E-002  -1.5076070199177366E-002   2.1891685860968103E-002
   4.8278252715064397E-002  -1.4388341567535629E-002   2.1396764449210591E-002
   4.5917705266394757E-002  -1.3668533865777481E-002   2.1069608633391034E-002
   4.3557157817725109E-002  -1.2916647093903498E-002   2.0910218413510047E-002
   4.1196610369055531E-002  -1.2132681251913802E-002   2.0918593789566745E-002
   4.6660240282573817E-002  -1.3814331512560285E-002   2.8826465008408464E-002
   4.4428902087504663E-002  -1.3184028689286031E-002   2.8425509880683320E-002
   4.2197563892435425E-002  -1.2510621963950919E-002   2.8115207664221598E-002
   3.9966225697366256E-002  -1.1794111336555474E-002   2.7895558359022271E-002
   3.7734887502297032E-002  -1.1034496807099448E-002   2.7766561965085756E-002
   5.0300661378814726E-002  -1.5427234586356864E-002   2.6165588364146508E-004
   4.7732499494442249E-002  -1.4566969676162222E-002   3.6507774007188409E-004
   4.5164337610069716E-002  -1.3699219079044755E-002   3.7667270915808793E-004
   4.2596175725697238E-002  -1.2823982795002783E-002   2.9644079090024311E-004
   4.0028013841324706E-002  -1.1941260824037014E-002   1.2438198529829414E-004
   4.7479497307314322E-002  -1.4329050141542510E-002   7.1661407488448070E-003
   4.4851232132946672E-002  -1.3490651420424493E-002   7.0922249986138386E-003
   4.2222966958579078E-002  -1.2650821597412265E-002   6.9899295557369068E-003
   3.9594701784211539E-002  -1.1809560672505631E-002   6.8592544202135119E-003
   3.6966436609843889E-002  -1.0966868645704064E-002   6.7001995920435986E-003
   4.4444813637394637E-002  -1.3230865696728156E-002   1.4051786717486692E-002
   4.1819892367729733E-002  -1.2414333164686375E-002   1.3794478775565056E-002
   3.9194971098064857E-002  -1.1602424115779802E-002   1.3572238335694847E-002
   3.6570049828399995E-002  -1.0795138550007820E-002   1.3385065397876206E-002
   3.3945128558735105E-002  -9.9924764673714472E-003   1.3232959962109603E-002
   4.1196610369055531E-002  -1.2132681251913802E-002   2.0918593789566745E-002
   3.8638480198791243E-002  -1.1338014908948230E-002   2.0471839070924813E-002
   3.6080350028526956E-002  -1.0554026634147215E-002   2.0123599049032444E-002
   3.3522219858262613E-002  -9.7807164275107820E-003   1.9873873723889355E-002
   3.0964089687998388E-002  -9.0180842890387747E-003   1.9722663095496182E-002
   3.7734887502297032E-002  -1.1034496807099448E-002   2.7766561965085756E-002
   3.5306995626131155E-002  -1.0261696653210306E-002   2.7124305884693833E-002
   3.2879103749965333E-002  -9.5056291525149605E-003   2.6644011695749814E-002
   3.0451211873799483E-002  -8.7662943050133280E-003   2.6325679398252616E-002
   2.8023319997633633E-002  -8.0436921107058801E-003   2.6169308992203044E-002
   4.0028013841324706E-002  -1.1941260824037014E-002   1.2438198529829414E-004
   3.7564273358840161E-002  -1.1130858160130708E-002  -2.6242020575950598E-004
   3.5100532876355450E-002  -1.0472579797266401E-002  -5.1725014929226987E-004
   3.2636792393870823E-002  -9.9664257354444147E-003  -6.4010784530088571E-004
   3.0173051911386195E-002  -9.6123959746650112E-003  -6.3099329378424329E-004
   3.6966436609843889E-002  -1.0966868645704064E-002   6.7001995920435986E-003
   3.4609728933716832E-002  -1.0174489833698841E-002   6.2016362239265543E-003
   3.2253021257589665E-002  -9.4841685531784625E-003   5.7851662209993937E-003
   2.9896313581462580E-002  -8.8959048041439004E-003   5.4507895832629771E-003
   2.7539605905335496E-002  -8.4096985865942386E-003   5.1985063107161666E-003
   3.3945128558735105E-002  -9.9924764673714472E-003   1.3232959962109603E-002
   3.1645574806630827E-002  -9.2181215072666967E-003   1.2672702186489859E-002
   2.9346021054526591E-002  -8.4957573090907734E-003   1.2144658893726373E-002
   2.7046467302422349E-002  -7.8253838728427269E-003   1.1648830083817702E-002
   2.4746913550318134E-002  -7.2070011985237992E-003   1.1185215756765066E-002
   3.0964089687998388E-002  -9.0180842890387747E-003   1.9722663095496182E-002
   2.8671810977582368E-002  -8.2617531808350242E-003   1.9150777681930881E-002
   2.6379532267166276E-002  -7.5073460650022933E-003   1.8561227868887038E-002
   2.4087253556750211E-002  -6.7548629415418830E-003   1.7954013656363923E-002
   2.1794974846334102E-002  -6.0043038104530821E-003   1.7329135044361871E-002
   2.8023319997633633E-002  -8.0436921107058801E-003   2.6169308992203044E-002
   2.5688437446571122E-002  -7.3053848544029631E-003   2.5635862710249979E-002
   2.3353554895508638E-002  -6.5189348209147013E-003   2.5034873146482395E-002
   2.1018672344446099E-002  -5.6843420102413167E-003   2.4366340300901512E-002
   1.8683789793383643E-002  -4.8016064223824761E-003   2.3630264173507221E-002
   3.0173051911386195E-002  -9.6123959746650112E-003  -6.3099329378424329E-004
   2.9576909679948971E-002  -9.1333251433540763E-003  -3.6310266801353741E-004
   2.8980767448511857E-002  -8.2520478699366073E-003  -1.7874762338900840E-003
   2.8384625217074716E-002  -6.9685641544128263E-003  -4.9041139914128840E-003
   2.7788482985637519E-002  -5.2828739967829552E-003  -9.7130159405820482E-003
   2.7539605905335496E-002  -8.4096985865942386E-003   5.1985063107161666E-003
   2.5522486830646285E-002  -7.8704432136396107E-003   5.8836190781160758E-003
   2.3505367755956991E-002  -7.1230319983894841E-003   5.4190423506587093E-003
   2.1488248681267794E-002  -6.1674649408432480E-003   3.8047761283431791E-003
   1.9471129606578597E-002  -5.0037420410000699E-003   1.0408204111713726E-003
   2.4746913550318134E-002  -7.2070011985237992E-003   1.1185215756765066E-002
   2.1851392329166164E-002  -6.6075612839263664E-003   1.2093500065983864E-002
   1.8955871108014263E-002  -5.9940161268425829E-003   1.2394669577134088E-002
   1.6060349886862328E-002  -5.3663657272738918E-003   1.2088724290216929E-002
   1.3164828665710421E-002  -4.7246100852184059E-003   1.1175664205231473E-002
   2.1794974846334102E-002  -6.0043038104530821E-003   1.7329135044361871E-002
   1.8563626175508899E-002  -5.3446793542122895E-003   1.8266540295589342E-002
   1.5332277504683616E-002  -4.8650002552956817E-003   1.9139405445538160E-002
   1.2100928833858380E-002  -4.5652665137035364E-003   1.9947730494208595E-002
   8.8695801630331306E-003  -4.4454781294359091E-003   2.0691515441599875E-002
   1.8683789793383643E-002  -4.8016064223824761E-003   2.3630264173507221E-002
   1.5659188369674393E-002  -4.0817974244986566E-003   2.4402739766933301E-002
   1.2634586945965115E-002  -3.7359843837487805E-003   2.5653249955869817E-002
   9.6099855222558372E-003  -3.7641673001340692E-003   2.7381794740317600E-002
   6.5853840985465872E-003  -4.1663461736535234E-003   2.9588374120275485E-002
   2.7788482985637519E-002  -5.2828739967829552E-003  -9.7130159405820482E-003
   2.3359471996554748E-002  -4.2076161805069123E-003  -4.1895110306311434E-003
   1.8930461007471922E-002  -4.7554294890474469E-003   2.6008525778298264E-003
   1.4501450018389206E-002  -6.9263139224008813E-003   1.0658074884800250E-002
   1.0072439029306324E-002  -1.0720269480569478E-002   1.9982155890281739E-002
   1.9471129606578597E-002  -5.0037420410000699E-003   1.0408204111713726E-003
   1.6236031398857931E-002  -4.6912564296421877E-003   6.7355810701246188E-003
   1.3000933191137265E-002  -6.2894012375493968E-003   1.3551308593293121E-002
   9.7658349834167102E-003  -9.7981764647207537E-003   2.1488002980675713E-002
   6.5307367756959334E-003  -1.5217582111157757E-002   3.0545664232272340E-002
   1.3164828665710421E-002  -4.7246100852184059E-003   1.1175664205231473E-002
   1.0977751405056163E-002  -5.1748966787773520E-003   1.6754121318738657E-002
   8.7906741444019193E-003  -7.8233729860524848E-003   2.3307653462164041E-002
   6.6035968837477033E-003  -1.2670039007041965E-002   3.0836260635507443E-002
   4.4165196230934178E-003  -1.9714894741746036E-002   3.9339942838769515E-002
   8.8695801630331306E-003  -4.4454781294359091E-003   2.0691515441599875E-002
   7.5846320151494034E-003  -5.6585369279127939E-003   2.5866109715209529E-002
   6.2996838672657318E-003  -9.3573447345547817E-003   3.1869887184441621E-002
   5.0147357193820394E-003  -1.5541901549361841E-002   3.8702847849296937E-002
   3.7297875714984441E-003  -2.4212207372334316E-002   4.6364991709774539E-002
   6.5853840985465872E-003  -4.1663461736535234E-003   2.9588374120275485E-002
   6.0566732291376657E-003  -6.1421771770484579E-003   3.4071546259538232E-002
   5.5279623597286609E-003  -1.0891316483057828E-002   3.9238009760127535E-002
   4.9992514903197810E-003  -1.8413764091683181E-002   4.5087764622043641E-002
   4.4705406209107901E-003  -2.8709520002922595E-002   5.1620810845286691E-002
   7.1953471812215009E-002  -2.3289364844929716E-002   2.4523901205634357E-002
   7.0634886323448720E-002  -2.1952047184624845E-002   2.7915420955731296E-002
   6.9316300834682321E-002  -2.0893196196856270E-002   3.0177408083354312E-002
   6.7997715345915921E-002  -2.0112811881623938E-002   3.1309862588503531E-002
   6.6679129857149577E-002  -1.9610894238928034E-002   3.1312784471179078E-002
   6.9085012997980422E-002  -2.0959505521139343E-002   3.2138749238556752E-002
   6.6879251925975186E-002  -1.9956871339919219E-002   3.3980922838230926E-002
   6.4673490853969895E-002  -1.9131692477467405E-002   3.5178277893901211E-002
   6.2467729781964590E-002  -1.8483968933783811E-002   3.5730814405567579E-002
   6.0261968709959340E-002  -1.8013700708868707E-002   3.5638532373229920E-002
   6.4652811989740516E-002  -1.8629646197348998E-002   3.9368408115510276E-002
   6.2044589412966145E-002  -1.7961695495213550E-002   3.9762246918529781E-002
   5.9436366836191912E-002  -1.7370188758078504E-002   3.9995981256015355E-002
   5.6828144259417623E-002  -1.6855125985943735E-002   4.0069611127966601E-002
   5.4219921682643293E-002  -1.6416507178809436E-002   3.9983136534384039E-002
   5.8656868787495237E-002  -1.6299786873558639E-002   4.6212877836495261E-002
   5.6130898784421818E-002  -1.5966519650507903E-002   4.5259393196628035E-002
   5.3604928781348399E-002  -1.5608685038689594E-002   4.4630518169696730E-002
   5.1078958778274945E-002  -1.5226283038103691E-002   4.4326252755701005E-002
   4.8552988775201533E-002  -1.4819313648750082E-002   4.4346596954641243E-002
   5.1097183391244749E-002  -1.3969927549768280E-002   5.2672158401511460E-002
   4.9138180040342039E-002  -1.3971343805802283E-002   5.0472361672525501E-002
   4.7179176689439328E-002  -1.3847181319300697E-002   4.9081888634945142E-002
   4.5220173338536618E-002  -1.3597440090263455E-002   4.8500739288770620E-002
   4.3261169987633935E-002  -1.3222120118690839E-002   4.8728913634001725E-002
   6.6679129857149577E-002  -1.9610894238928034E-002   3.1312784471179078E-002
   6.4088507841416037E-002  -1.9173117584271621E-002   2.9737664079027948E-002
   6.1497885825682552E-002  -1.8585156233158262E-002   2.8679264717096420E-002
   5.8907263809949026E-002  -1.7847010185587958E-002   2.8137586385384980E-002
   5.6316641794215527E-002  -1.6958679441560487E-002   2.8112629083892893E-002
   6.0261968709959340E-002  -1.8013700708868707E-002   3.5638532373229920E-002
   5.8134054916815225E-002  -1.7572898483714239E-002   3.4518867301174705E-002
   5.6006141123671041E-002  -1.7013572939312632E-002   3.3807897644078280E-002
   5.3878227330526871E-002  -1.6335724075663978E-002   3.3505623401941097E-002
   5.1750313537382742E-002  -1.5539351892768394E-002   3.3612044574762967E-002
   5.4219921682643293E-002  -1.6416507178809436E-002   3.9983136534384039E-002
   5.2446690496827764E-002  -1.5972679383156760E-002   3.9287265405214572E-002
   5.0673459311012213E-002  -1.5441989645466947E-002   3.8892064075743499E-002
   4.8900228125196718E-002  -1.4824437965740109E-002   3.8797532545970674E-002
   4.7126996939381202E-002  -1.4120024343976190E-002   3.9003670815896008E-002
   4.8552988775201533E-002  -1.4819313648750082E-002   4.4346596954641243E-002
   4.7026414581453874E-002  -1.4372460282599246E-002   4.4042858391147889E-002
   4.5499840387706179E-002  -1.3870406351621234E-002   4.3931764012091784E-002
   4.3973266193958485E-002  -1.3313151855816295E-002   4.4013313817473441E-002
   4.2446692000210826E-002  -1.2700696795184013E-002   4.4287507807292556E-002
   4.3261169987633935E-002  -1.3222120118690839E-002   4.8728913634001725E-002
   4.1873227170693375E-002  -1.2772241182041844E-002   4.8785646258974136E-002
   4.0485284353752815E-002  -1.2298823057775590E-002   4.8926997453123428E-002
   3.9097341536812227E-002  -1.1801865745892277E-002   4.9152967216449447E-002
   3.7709398719871667E-002  -1.1281369246391892E-002   4.9463555548952209E-002
   5.6316641794215527E-002  -1.6958679441560487E-002   2.8112629083892893E-002
   5.3902541416305128E-002  -1.6039590376805912E-002   2.8063560649310593E-002
   5.1488441038394672E-002  -1.5209169367054465E-002   2.8166177158536032E-002
   4.9074340660484300E-002  -1.4467416412305881E-002   2.8420478611568392E-002
   4.6660240282573817E-002  -1.3814331512560285E-002   2.8826465008408464E-002
   5.1750313537382742E-002  -1.5539351892768394E-002   3.3612044574762967E-002
   4.9495248171322642E-002  -1.4714785415073095E-002   3.3437936474729341E-002
   4.7240182805262571E-002  -1.3952353667026227E-002   3.3430213454589297E-002
   4.4985117439202485E-002  -1.3252056648627091E-002   3.3588875514342642E-002
   4.2730052073142372E-002  -1.2613894359876587E-002   3.3913922653989348E-002
   4.7126996939381202E-002  -1.4120024343976190E-002   3.9003670815896008E-002
   4.5045666721257496E-002  -1.3389980453340333E-002   3.8731056375766224E-002
   4.2964336503133846E-002  -1.2695537966997822E-002   3.8639527151615727E-002
   4.0883006285010175E-002  -1.2036696884948524E-002   3.8729083143444767E-002
   3.8801676066886545E-002  -1.1413457207192668E-002   3.8999724351253290E-002
   4.2446692000210826E-002  -1.2700696795184013E-002   4.4287507807292556E-002
   4.0553797066109620E-002  -1.2065175491607516E-002   4.3942920352420964E-002
   3.8660902132008394E-002  -1.1438722266969528E-002   4.3794118249614968E-002
   3.6768007197907210E-002  -1.0821337121269790E-002   4.3841101498874574E-002
   3.4875112263805977E-002  -1.0213020054508748E-002   4.4083870100199471E-002
   3.7709398719871667E-002  -1.1281369246391892E-002   4.9463555548952209E-002
   3.6019639205879028E-002  -1.0740370529874782E-002   4.9073528404694033E-002
   3.4329879691886361E-002  -1.0181906566941137E-002   4.8893986748587331E-002
   3.2640120177893736E-002  -9.6059773575911563E-003   4.8924930580631978E-002
   3.0950360663901055E-002  -9.0125829018249948E-003   4.9166359900828460E-002
   4.6660240282573817E-002  -1.3814331512560285E-002   2.8826465008408464E-002
   4.4428902087504663E-002  -1.3184028689286031E-002   2.8425509880683320E-002
   4.2197563892435425E-002  -1.2510621963950919E-002   2.8115207664221598E-002
   3.9966225697366256E-002  -1.1794111336555474E-002   2.7895558359022271E-002
   3.7734887502297032E-002  -1.1034496807099448E-002   2.7766561965085756E-002
   4.2730052073142372E-002  -1.2613894359876587E-002   3.3913922653989348E-002
   4.0599998361773360E-002  -1.1991356022482802E-002   3.3562406666374722E-002
   3.8469944650404320E-002  -1.1337930858154960E-002   3.3322806734897847E-002
   3.6339890939035335E-002  -1.0653618866893595E-002   3.3195122859558612E-002
   3.4209837227666323E-002  -9.9384200486979379E-003   3.3179355040356739E-002
   3.8801676066886545E-002  -1.1413457207192668E-002   3.8999724351253290E-002
   3.6794169984092476E-002  -1.0798683355679628E-002   3.8685430428622158E-002
   3.4786663901298483E-002  -1.0165239752359334E-002   3.8504315707003522E-002
   3.2779157818504462E-002  -9.5131263972314944E-003   3.8456380186397451E-002
   3.0771651735710476E-002  -8.8423432902964283E-003   3.8541623866803654E-002
   3.4875112263805977E-002  -1.0213020054508748E-002   4.4083870100199471E-002
   3.3011416954461886E-002  -9.6060106888765373E-003   4.3794581167425427E-002
   3.1147721645117719E-002  -8.9925486465634863E-003   4.3659734580538692E-002
   2.9284026335773601E-002  -8.3726339275696157E-003   4.3679330339539385E-002
   2.7420331026429469E-002  -7.7462665318949742E-003   4.3853368444427276E-002
   3.0950360663901055E-002  -9.0125829018249948E-003   4.9166359900828460E-002
   2.9251739272881661E-002  -8.4133380220732246E-003   4.8889858882784909E-002
   2.7553117881862210E-002  -7.8198575407677634E-003   4.8789063355503343E-002
   2.5854496490842802E-002  -7.2321414579074629E-003   4.8863973318983997E-002
   2.4155875099823365E-002  -6.6501897734934090E-003   4.9114588773226830E-002
   3.7734887502297032E-002  -1.1034496807099448E-002   2.7766561965085756E-002
   3.5306995626131155E-002  -1.0261696653210306E-002   2.7124305884693833E-002
   3.2879103749965333E-002  -9.5056291525149605E-003   2.6644011695749814E-002
   3.0451211873799483E-002  -8.7662943050133280E-003   2.6325679398252616E-002
   2.8023319997633633E-002  -8.0436921107058801E-003   2.6169308992203044E-002
   3.4209837227666323E-002  -9.9384200486979379E-003   3.3179355040356739E-002
   3.1944656757221440E-002  -9.2129645436069274E-003   3.2611160203744716E-002
   2.9679476286776654E-002  -8.4978824916594753E-003   3.2206426287127721E-002
   2.7414295816331834E-002  -7.7931738928551861E-003   3.1965153290504908E-002
   2.5149115345887041E-002  -7.0988387471944137E-003   3.1887341213877041E-002
   3.0771651735710476E-002  -8.8423432902964283E-003   3.8541623866803654E-002
   2.8670681699533934E-002  -8.1642324340039929E-003   3.8053849474022433E-002
   2.6569711663357393E-002  -7.4901358308042121E-003   3.7731035029782964E-002
   2.4468741627180872E-002  -6.8200534806972662E-003   3.7573180534085746E-002
   2.2367771591004310E-002  -6.1539853836827252E-003   3.7580285986930140E-002
   2.7420331026429469E-002  -7.7462665318949742E-003   4.3853368444427276E-002
   2.5485070453068574E-002  -7.1155003244010584E-003   4.3452373695526993E-002
   2.3549809879707655E-002  -6.4823891699488378E-003   4.3217837923716008E-002
   2.1614549306346785E-002  -5.8469330685389023E-003   4.3149761128994296E-002
   1.9679288732985904E-002  -5.2091320201709812E-003   4.3248143311361703E-002
   2.4155875099823365E-002  -6.6501897734934090E-003   4.9114588773226830E-002
   2.2387823017825326E-002  -6.0667682147977353E-003   4.8806732868258429E-002
   2.0619770935827370E-002  -5.4746425090937134E-003   4.8666834968926598E-002
   1.8851718853829372E-002  -4.8738126563809894E-003   4.8694895075231365E-002
   1.7083666771831429E-002  -4.2642786566594593E-003   4.8890913187172536E-002
   2.8023319997633633E-002  -8.0436921107058801E-003   2.6169308992203044E-002
   2.5688437446571122E-002  -7.3053848544029631E-003   2.5635862710249979E-002
   2.3353554895508638E-002  -6.5189348209147013E-003   2.5034873146482395E-002
   2.1018672344446099E-002  -5.6843420102413167E-003   2.4366340300901512E-002
   1.8683789793383643E-002  -4.8016064223824761E-003   2.3630264173507221E-002
   2.5149115345887041E-002  -7.0988387471944137E-003   3.1887341213877041E-002
   2.2787743505524871E-002  -6.4057956101351010E-003   3.1515775927864365E-002
   2.0426371665162701E-002  -5.7049630371363569E-003   3.1158775345066253E-002
   1.8064999824800518E-002  -4.9963410281980009E-003   3.0816339465482470E-002
   1.5703627984438417E-002  -4.2799295833197970E-003   3.0488468289113668E-002
   2.2367771591004310E-002  -6.1539853836827252E-003   3.7580285986930140E-002
   2.0062018446370788E-002  -5.5062063658676552E-003   3.7330248355612633E-002
   1.7756265301737267E-002  -4.8909912533582345E-003   3.7176883412537970E-002
   1.5450512157103760E-002  -4.3083400461547960E-003   3.7120191157705901E-002
   1.3144759012470211E-002  -3.7582527442571734E-003   3.7160171591116564E-002
   1.9679288732985904E-002  -5.2091320201709812E-003   4.3248143311361703E-002
   1.7511262269109210E-002  -4.6066171215998902E-003   4.3079279993494035E-002
   1.5343235805232537E-002  -4.0770194695801121E-003   4.3089197348896921E-002
   1.3175209341355808E-002  -3.6203390641115357E-003   4.3277895377571346E-002
   1.1007182877479170E-002  -3.2365759051945220E-003   4.3645374079516297E-002
   1.7083666771831429E-002  -4.2642786566594593E-003   4.8890913187172536E-002
   1.5135474973739849E-002  -3.7070278773323473E-003   4.8762870841508765E-002
   1.3187283175648296E-002  -3.2630476858019619E-003   4.8895717154144258E-002
   1.1239091377556756E-002  -2.9323380820683240E-003   4.9289452125079070E-002
   9.2908995794652172E-003  -2.7148990661318706E-003   4.9944075754312811E-002
   1.8683789793383643E-002  -4.8016064223824761E-003   2.3630264173507221E-002
   1.5659188369674393E-002  -4.0817974244986566E-003   2.4402739766933301E-002
   1.2634586945965115E-002  -3.7359843837487805E-003   2.5653249955869817E-002
   9.6099855222558372E-003  -3.7641673001340692E-003   2.7381794740317600E-002
   6.5853840985465872E-003  -4.1663461736535234E-003   2.9588374120275485E-002
   1.5703627984438417E-002  -4.2799295833197970E-003   3.0488468289113668E-002
   1.3137776389443134E-002  -3.7759936319342602E-003   3.1259583762690335E-002
   1.0571924794447851E-002  -3.7047981034734612E-003   3.2470164298184390E-002
   8.0060731994525541E-003  -4.0663429979376220E-003   3.4120209895595804E-002
   5.4402216044572849E-003  -4.8606283153267427E-003   3.6209720554924552E-002
   1.3144759012470211E-002  -3.7582527442571734E-003   3.7160171591116564E-002
   1.0999087712595584E-002  -3.4701898393700858E-003   3.7871182479053772E-002
   8.8534164127209852E-003  -3.6736118231980308E-003   3.8983088895314821E-002
   6.7077451128463583E-003  -4.3685186957411748E-003   4.0495890839900087E-002
   4.5620738129717592E-003  -5.5549104569994623E-003   4.2409588312809304E-002
   1.1007182877479170E-002  -3.2365759051945220E-003   4.3645374079516297E-002
   9.2431223391318332E-003  -3.1643860468058560E-003   4.4237535916023710E-002
   7.4790618007844721E-003  -3.6424255429224894E-003   4.5192023747261667E-002
   5.7150012624371110E-003  -4.6706943935446166E-003   4.6508837573230141E-002
   3.9509407240897777E-003  -6.2491925986726538E-003   4.8187977393929153E-002
   9.2908995794652172E-003  -2.7148990661318706E-003   4.9944075754312811E-002
   7.8698802690518321E-003  -2.8585822542416262E-003   5.0358644073600023E-002
   6.4488609586383638E-003  -3.6112392626471701E-003   5.1096968854024150E-002
   5.0278416482249372E-003  -4.9728700913483637E-003   5.2159050095586079E-002
   3.6068223378115660E-003  -6.9434747403451791E-003   5.3544887798284257E-002
   6.5853840985465872E-003  -4.1663461736535234E-003   2.9588374120275485E-002
   6.0566732291376657E-003  -6.1421771770484579E-003   3.4071546259538232E-002
   5.5279623597286609E-003  -1.0891316483057828E-002   3.9238009760127535E-002
   4.9992514903197810E-003  -1.8413764091683181E-002   4.5087764622043641E-002
   4.4705406209107901E-003  -2.8709520002922595E-002   5.1620810845286691E-002
   5.4402216044572849E-003  -4.8606283153267427E-003   3.6209720554924552E-002
   5.4914233781216959E-003  -6.9906300276482702E-003   3.8350528343759571E-002
   5.5426251517859682E-003  -1.1359324106910373E-002   4.0967870057414146E-002
   5.5938269254503376E-003  -1.7966710553112844E-002   4.4061745695888943E-002
   5.6450286991146514E-003  -2.6812789366255751E-002   4.7632155259182740E-002
   4.5620738129717592E-003  -5.5549104569994623E-003   4.2409588312809304E-002
   4.9864307932021984E-003  -7.8390828782483046E-003   4.2742647686891039E-002
   5.4107877734326723E-003  -1.1827331730762822E-002   4.3345483549285677E-002
   5.8351447536631219E-003  -1.7519657014542899E-002   4.4218095899992753E-002
   6.2595017338935854E-003  -2.4916058729588686E-002   4.5360484739012219E-002
   3.9509407240897777E-003  -6.2491925986726538E-003   4.8187977393929153E-002
   4.5416954743793363E-003  -8.6875357288484500E-003   4.7247904288933190E-002
   5.1324502246687855E-003  -1.2295339354615319E-002   4.6370850235742431E-002
   5.7232049749582773E-003  -1.7072603475972982E-002   4.5556815234356757E-002
   6.3139597252477933E-003  -2.3019328092921620E-002   4.4805799284777348E-002
   3.6068223378115660E-003  -6.9434747403451791E-003   5.3544887798284257E-002
   4.1572174216529534E-003  -9.5359885794481514E-003   5.1866298149885193E-002
   4.7076125054943130E-003  -1.2763346978467704E-002   5.0043970116783743E-002
   5.2580075893357142E-003  -1.6625549937403034E-002   4.8077903698980851E-002
   5.8084026731770599E-003  -2.1122597456254777E-002   4.5968098896476572E-002
   5.1097183391244749E-002  -1.3969927549768280E-002   5.2672158401511460E-002
   4.9138180040342039E-002  -1.3971343805802283E-002   5.0472361672525501E-002
   4.7179176689439328E-002  -1.3847181319300697E-002   4.9081888634945142E-002
   4.5220173338536618E-002  -1.3597440090263455E-002   4.8500739288770620E-002
   4.3261169987633935E-002  -1.3222120118690839E-002   4.8728913634001725E-002
   4.3249069898829401E-002  -1.2869025996878336E-002   5.3573278964758719E-002
   4.1971143274286415E-002  -1.2694312159887061E-002   5.2336909883812399E-002
   4.0693216649743374E-002  -1.2435599842611320E-002   5.1653370564179818E-002
   3.9415290025200354E-002  -1.2092889045050941E-002   5.1522661005861004E-002
   3.8137363400657320E-002  -1.1666179767206408E-002   5.1944781208855817E-002
   3.6387842408089774E-002  -1.1768124443988365E-002   5.4671319752156791E-002
   3.5534498579814458E-002  -1.1417280513971756E-002   5.4356798056999125E-002
   3.4681154751539121E-002  -1.1024018365921796E-002   5.4338612193063178E-002
   3.3827810923263757E-002  -1.0588337999838509E-002   5.4616762160349011E-002
   3.2974467094988469E-002  -1.0110239415721811E-002   5.5191247958856396E-002
   3.0513500919025865E-002  -1.0667222891098407E-002   5.5966280763705592E-002
   2.9828245956926243E-002  -1.0140248868056506E-002   5.6532026192085624E-002
   2.9142990994826597E-002  -9.6124368892323737E-003   5.7137613521595132E-002
   2.8457736032726961E-002  -9.0837869546260344E-003   5.7783042752234524E-002
   2.7772481070627329E-002  -8.5542990642373806E-003   5.8468313884003476E-002
   2.5626045431637628E-002  -9.5663213382084500E-003   5.7458161999405566E-002
   2.4852385405621680E-002  -8.8632172221412286E-003   5.8862594289071757E-002
   2.4078725379605787E-002  -8.2008554125428956E-003   6.0050374549775798E-002
   2.3305065353589872E-002  -7.5792359094135203E-003   6.1021502781517439E-002
   2.2531405327573945E-002  -6.9983587127527835E-003   6.1775978984296875E-002
   4.3261169987633935E-002  -1.3222120118690839E-002   4.8728913634001725E-002
   4.1873227170693375E-002  -1.2772241182041844E-002   4.8785646258974136E-002
   4.0485284353752815E-002  -1.2298823057775590E-002   4.8926997453123428E-002
   3.9097341536812227E-002  -1.1801865745892277E-002   4.9152967216449447E-002
   3.7709398719871667E-002  -1.1281369246391892E-002   4.9463555548952209E-002
   3.8137363400657320E-002  -1.1666179767206408E-002   5.1944781208855817E-002
   3.6842225270192305E-002  -1.1200684860083326E-002   5.1979166215379485E-002
   3.5547087139727318E-002  -1.0741617174688300E-002   5.2114542025677668E-002
   3.4251949009262303E-002  -1.0288976711021067E-002   5.2350908639749977E-002
   3.2956810878797316E-002  -9.8427634690819166E-003   5.2688266057596772E-002
   3.2974467094988469E-002  -1.0110239415721811E-002   5.5191247958856396E-002
   3.1788505885596646E-002  -9.6291285381250036E-003   5.5173318937586202E-002
   3.0602544676204810E-002  -9.1844112916010037E-003   5.5272752954688108E-002
   2.9416583466812984E-002  -8.7760876761499105E-003   5.5489550010161925E-002
   2.8230622257421151E-002  -8.4041576917717742E-003   5.5823710104007787E-002
   2.7772481070627329E-002  -8.5542990642373806E-003   5.8468313884003476E-002
   2.6712069016906325E-002  -8.0575722161665281E-003   5.8368104425594466E-002
   2.5651656963185332E-002  -7.6272054085136272E-003   5.8401630240155038E-002
   2.4591244909464342E-002  -7.2631986412786996E-003   5.8568891327685300E-002
   2.3530832855743370E-002  -6.9655519144617983E-003   5.8869887688185241E-002
   2.2531405327573945E-002  -6.9983587127527835E-003   6.1775978984296875E-002
   2.1612914664121394E-002  -6.4860158942081636E-003   6.1563522679404070E-002
   2.0694424000668857E-002  -6.0699995254263756E-003   6.1501173882078403E-002
   1.9775933337216306E-002  -5.7503096064075061E-003   6.1588932592319970E-002
   1.8857442673763769E-002  -5.5269461371516559E-003   6.1826798810128925E-002
   3.7709398719871667E-002  -1.1281369246391892E-002   4.9463555548952209E-002
   3.6019639205879028E-002  -1.0740370529874782E-002   4.9073528404694033E-002
   3.4329879691886361E-002  -1.0181906566941137E-002   4.8893986748587331E-002
   3.2640120177893736E-002  -9.6059773575911563E-003   4.8924930580631978E-002
   3.0950360663901055E-002  -9.0125829018249948E-003   4.9166359900828460E-002
   3.2956810878797316E-002  -9.8427634690819166E-003   5.2688266057596772E-002
   3.1475210985879756E-002  -9.3888998845185478E-003   5.2341908842656631E-002
   2.9993611092962183E-002  -8.9133083929791856E-003   5.2201385381714746E-002
   2.8512011200044644E-002  -8.4159889944639341E-003   5.2266695674771942E-002
   2.7030411307127078E-002  -7.8969416889727584E-003   5.2537839721827517E-002
   2.8230622257421151E-002  -8.4041576917717742E-003   5.5823710104007787E-002
   2.6952530251425813E-002  -8.0374292391623553E-003   5.5525285478945002E-002
   2.5674438245430406E-002  -7.6447102190172825E-003   5.5428042873728010E-002
   2.4396346239435051E-002  -7.2260006313367101E-003   5.5531982288356721E-002
   2.3118254233439661E-002  -6.7813004761206608E-003   5.5837103722831141E-002
   2.3530832855743370E-002  -6.9655519144617983E-003   5.8869887688185241E-002
   2.2451597002517188E-002  -6.6859585938060864E-003   5.8623658313559514E-002
   2.1372361149291016E-002  -6.3761120450553828E-003   5.8573959224626750E-002
   2.0293125296064869E-002  -6.0360122682095426E-003   5.8720790421386670E-002
   1.9213889442838670E-002  -5.6656592632686048E-003   5.9064151903839360E-002
   1.8857442673763769E-002  -5.5269461371516559E-003   6.1826798810128925E-002
   1.7972411239153885E-002  -5.3344879484499008E-003   6.1637027346500006E-002
   1.7087379804544028E-002  -5.1075138710933859E-003   6.1639134434411075E-002
   1.6202348369934144E-002  -4.8460239050821981E-003   6.1833120073861644E-002
   1.5317316935324274E-002  -4.5500180504163823E-003   6.2218984264852450E-002
   3.0950360663901055E-002  -9.0125829018249948E-003   4.9166359900828460E-002
   2.9251739272881661E-002  -8.4133380220732246E-003   4.8889858882784909E-002
   2.7553117881862210E-002  -7.8198575407677634E-003   4.8789063355503343E-002
   2.5854496490842802E-002  -7.2321414579074629E-003   4.8863973318983997E-002
   2.4155875099823365E-002  -6.6501897734934090E-003   4.9114588773226830E-002
   2.7030411307127078E-002  -7.8969416889727584E-003   5.2537839721827517E-002
   2.5515767697203609E-002  -7.3675004520423748E-003   5.2274051055932358E-002
   2.4001124087280112E-002  -6.8389992592101240E-003   5.2202512461466843E-002
   2.2486480477356650E-002  -6.3114381104755098E-003   5.2323223938431265E-002
   2.0971836867433147E-002  -5.7848170058387716E-003   5.2636185486825249E-002
   2.3118254233439661E-002  -6.7813004761206608E-003   5.5837103722831141E-002
   2.1804132985279744E-002  -6.3216628820116361E-003   5.5590851763432300E-002
   2.0490011737119812E-002  -5.8581409776526996E-003   5.5553394456131160E-002
   1.9175890488959884E-002  -5.3907347630433883E-003   5.5724731800927227E-002
   1.7861769240799991E-002  -4.9194442381841341E-003   5.6104863797820870E-002
   1.9213889442838670E-002  -5.6656592632686048E-003   5.9064151903839360E-002
   1.8116835137109957E-002  -5.2758253119810083E-003   5.8840261005285263E-002
   1.7019780831381240E-002  -4.8772826960951678E-003   5.8841709339496062E-002
   1.5922726525652527E-002  -4.4700314156114621E-003   5.9068496906471826E-002
   1.4825672219923786E-002  -4.0540714705294412E-003   5.9520623706212368E-002
   1.5317316935324274E-002  -4.5500180504163823E-003   6.2218984264852450E-002
   1.4453874152694363E-002  -4.2299877419501586E-003   6.2022278781490692E-002
   1.3590431370064444E-002  -3.8964244145376775E-003   6.2067457111561392E-002
   1.2726988587434544E-002  -3.5493280681793242E-003   6.2354519255064925E-002
   1.1863545804804615E-002  -3.1886987028748592E-003   6.2883465212000944E-002
   2.4155875099823365E-002  -6.6501897734934090E-003   4.9114588773226830E-002
   2.2387823017825326E-002  -6.0667682147977353E-003   4.8806732868258429E-002
   2.0619770935827370E-002  -5.4746425090937134E-003   4.8666834968926598E-002
   1.8851718853829372E-002  -4.8738126563809894E-003   4.8694895075231365E-002
   1.7083666771831429E-002  -4.2642786566594593E-003   4.8890913187172536E-002
   2.0971836867433147E-002  -5.7848170058387716E-003   5.2636185486825249E-002
   1.9378592184827195E-002  -5.2584673944265359E-003   5.2413700183698342E-002
   1.7785347502221299E-002  -4.7317207253656790E-003   5.2372871673718541E-002
   1.6192102819615369E-002  -4.2045769986557360E-003   5.2513699956886248E-002
   1.4598858137009452E-002  -3.6770362142970470E-003   5.2836185033201810E-002
   1.7861769240799991E-002  -4.9194442381841341E-003   5.6104863797820870E-002
   1.6457030745097037E-002  -4.4501665740551977E-003   5.5959442007174870E-002
   1.5052292249394153E-002  -3.9887989416372976E-003   5.6009375797187497E-002
   1.3647553753691245E-002  -3.5353413409305902E-003   5.6254665167858688E-002
   1.2242815257988343E-002  -3.0897937719346902E-003   5.6695310119188380E-002
   1.4825672219923786E-002  -4.0540714705294412E-003   5.9520623706212368E-002
   1.3623138698634882E-002  -3.6418657536838733E-003   5.9443958338688173E-002
   1.2420605177345985E-002  -3.2458771579090898E-003   5.9576347339333341E-002
   1.1218071656057080E-002  -2.8661056832050575E-003   5.9917790708148080E-002
   1.0015538134768180E-002  -2.5025513295722501E-003   6.0468288445132128E-002
   1.1863545804804615E-002  -3.1886987028748592E-003   6.2883465212000944E-002
   1.0876916045440679E-002  -2.8335649333125490E-003   6.2867249178238382E-002
   9.8902862860767299E-003  -2.5029553741808541E-003   6.3073786300156198E-002
   8.9036565267127943E-003  -2.1968700254801285E-003   6.3503076577754641E-002
   7.9170267673488448E-003  -1.9153088872098101E-003   6.4155120011033406E-002
   1.7083666771831429E-002  -4.2642786566594593E-003   4.8890913187172536E-002
   1.5135474973739849E-002  -3.7070278773323473E-003   4.8762870841508765E-002
   1.3187283175648296E-002  -3.2630476858019619E-003   4.8895717154144258E-002
   1.1239091377556756E-002  -2.9323380820683240E-003   4.9289452125079070E-002
   9.2908995794652172E-003  -2.7148990661318706E-003   4.9944075754312811E-002
   1.4598858137009452E-002  -3.6770362142970470E-003   5.2836185033201810E-002
   1.2909474796155632E-002  -3.2055429059389406E-003   5.2721946943554254E-002
   1.1220091455301881E-002  -2.8465416072297745E-003   5.2864437110083151E-002
   9.5307081144480749E-003  -2.6000323181697219E-003   5.3263655532788112E-002
   7.8413247735943103E-003  -2.4660150387594282E-003   5.3919602211669582E-002
   1.2242815257988343E-002  -3.0897937719346902E-003   5.6695310119188380E-002
   1.0808079972249335E-002  -2.7040579345452009E-003   5.6595654863704770E-002
   9.3733446865103404E-003  -2.4300355286572678E-003   5.6748567462274482E-002
   7.9386094007713355E-003  -2.2677265542713453E-003   5.7154047914897414E-002
   6.5038741150323653E-003  -2.2171310113868747E-003   5.7812096221573572E-002
   1.0015538134768180E-002  -2.5025513295722501E-003   6.0468288445132128E-002
   8.8312905020209477E-003  -2.2025729631514057E-003   6.0383994601960068E-002
   7.6470428692737812E-003  -2.0135294500852538E-003   6.0548108210718460E-002
   6.4627952365265808E-003  -1.9354207903725783E-003   6.0960629271406844E-002
   5.2785476037793821E-003  -1.9682469840145433E-003   6.1621557784026046E-002
   7.9170267673488448E-003  -1.9153088872098101E-003   6.4155120011033406E-002
   6.9791063854704738E-003  -1.7010879917579991E-003   6.4086966158320324E-002
   6.0411860035921028E-003  -1.5970233715128235E-003   6.4263059355414709E-002
   5.1032656217137387E-003  -1.6031150264740404E-003   6.4683399602316505E-002
   4.1653452398353608E-003  -1.7193629566418789E-003   6.5347986899025878E-002
   9.2908995794652172E-003  -2.7148990661318706E-003   4.9944075754312811E-002
   7.8698802690518321E-003  -2.8585822542416262E-003   5.0358644073600023E-002
   6.4488609586383638E-003  -3.6112392626471701E-003   5.1096968854024150E-002
   5.0278416482249372E-003  -4.9728700913483637E-003   5.2159050095586079E-002
   3.6068223378115660E-003  -6.9434747403451791E-003   5.3544887798284257E-002
   7.8413247735943103E-003  -2.4660150387594282E-003   5.3919602211669582E-002
   6.7186775701946616E-003  -2.6457917476829240E-003   5.3858875430485009E-002
   5.5960303667949990E-003  -3.3406644236251559E-003   5.4071136402190467E-002
   4.4733831633953364E-003  -4.5506330665857700E-003   5.4556385126786178E-002
   3.3507359599956876E-003  -6.2756976765655503E-003   5.5314621604272585E-002
   6.5038741150323653E-003  -2.2171310113868747E-003   5.7812096221573572E-002
   5.6288303103995407E-003  -2.4330012411240554E-003   5.7369952193194490E-002
   4.7537865057666814E-003  -3.0700895846031417E-003   5.7150027209458332E-002
   3.8787427011338325E-003  -4.1283960418237314E-003   5.7152321270365888E-002
   3.0036988965009975E-003  -5.6079206127858106E-003   5.7376834375916452E-002
   5.2785476037793821E-003  -1.9682469840145433E-003   6.1621557784026046E-002
   4.6003384896663932E-003  -2.2202107345654365E-003   6.0891874361728764E-002
   3.9221293755534303E-003  -2.7995147455810165E-003   6.0333641275828340E-002
   3.2439202614404751E-003  -3.7061590170611933E-003   5.9946858526324177E-002
   2.5657111473274784E-003  -4.9401435490060153E-003   5.9731526113216235E-002
   4.1653452398353608E-003  -1.7193629566418789E-003   6.5347986899025878E-002
   3.6332021079953092E-003  -2.0074202280068176E-003   6.4424641936087990E-002
   3.1010589761552437E-003  -2.5289399065591689E-003   6.3621978601300033E-002
   2.5689158443151783E-003  -3.2839219922993351E-003   6.2939996894661232E-002
   2.0367727124751267E-003  -4.2723664852262200E-003   6.2378696816171919E-002
   3.6068223378115660E-003  -6.9434747403451791E-003   5.3544887798284257E-002
   4.1572174216529534E-003  -9.5359885794481514E-003   5.1866298149885193E-002
   4.7076125054943130E-003  -1.2763346978467704E-002   5.0043970116783743E-002
   5.2580075893357142E-003  -1.6625549937403034E-002   4.8077903698980851E-002
   5.8084026731770599E-003  -2.1122597456254777E-002   4.5968098896476572E-002
   3.3507359599956876E-003  -6.2756976765655503E-003   5.5314621604272585E-002
   3.7745175453383212E-003  -8.5455133920109283E-003   5.2957580754482370E-002
   4.1982991306809131E-003  -1.1389735351369140E-002   5.0491051292396560E-002
   4.6220807160235119E-003  -1.4808363554640137E-002   4.7915033218014658E-002
   5.0458623013661108E-003  -1.8801398001823788E-002   4.5229526531336495E-002
   3.0036988965009975E-003  -5.6079206127858106E-003   5.7376834375916452E-002
   3.3351167557505931E-003  -7.5550382045734832E-003   5.4401780640739333E-002
   3.6665346150001540E-003  -1.0016123724270576E-002   5.1351488065672218E-002
   3.9979524742496976E-003  -1.2991177171876908E-002   4.8225956650715107E-002
   4.3293703334993383E-003  -1.6480198547392799E-002   4.5025186395867278E-002
   2.5657111473274784E-003  -4.9401435490060153E-003   5.9731526113216235E-002
   2.8390150528897814E-003  -6.5645630171360381E-003   5.6198897808655800E-002
   3.1123189584520549E-003  -8.6425120971722336E-003   5.2625280436610258E-002
   3.3856228640143276E-003  -1.1173990789113956E-002   4.9010673997081249E-002
   3.6589267695766037E-003  -1.4158999092961810E-002   4.5355078490067063E-002
   2.0367727124751267E-003  -4.2723664852262200E-003   6.2378696816171919E-002
   2.2862124367558634E-003  -5.5740878296984819E-003   5.8348932258231345E-002
   2.5356521610365862E-003  -7.2689004700733917E-003   5.4312428405211444E-002
   2.7850918853173090E-003  -9.3568044063508798E-003   5.0269185257113436E-002
   3.0345316095980457E-003  -1.1837799638530822E-002   4.6219202813936100E-002
   2.5626045431637628E-002  -9.5663213382084500E-003   5.7458161999405566E-002
   2.4852385405621680E-002  -8.8632172221412286E-003   5.8862594289071757E-002
   2.4078725379605787E-002  -8.2008554125428956E-003   6.0050374549775798E-002
   2.3305065353589872E-002  -7.5792359094135203E-003   6.1021502781517439E-002
   2.2531405327573945E-002  -6.9983587127527835E-003   6.1775978984296875E-002
   2.0672046183689535E-002  -5.9335750391567577E-003   6.2605040195660822E-002
   1.9789393456594181E-002  -5.6555326929457750E-003   6.2973664117023515E-002
   1.8906740729498793E-002  -5.3837363870479077E-003   6.3340954665189658E-002
   1.8024088002403422E-002  -5.1181861214631384E-003   6.3706911840159100E-002
   1.7141435275308051E-002  -4.8588818961915470E-003   6.4071535641932020E-002
   1.4598073412946048E-002  -2.3008287401051208E-003   6.7309608488981931E-002
   1.3821746640536883E-002  -2.4478481637502658E-003   6.6676920308196899E-002
   1.3045419868127735E-002  -2.5666173615528365E-003   6.6258217409980794E-002
   1.2269093095718586E-002  -2.6571363335128675E-003   6.6053499794333767E-002
   1.1492766323309436E-002  -2.7194050796301439E-003   6.6062767461255903E-002
   7.4041271194071317E-003   1.3319175589465160E-003   7.1571866879369214E-002
   6.9494449574498615E-003   7.5983636544517397E-004   6.9972362862591980E-002
   6.4947627954926009E-003   2.5050166394224860E-004   6.8802162784149468E-002
   6.0400806335353507E-003  -1.9608654556245789E-004   6.8061266644041649E-002
   5.5853984715780857E-003  -5.7992826306885181E-004   6.7749674442268606E-002
  -9.0979269692722381E-004   4.9646638579982083E-003   7.5391815366822379E-002
  -8.2751159266691160E-004   3.9675208946406970E-003   7.2859991780208744E-002
  -7.4523048840659592E-004   3.0676206894372227E-003   7.0972790787695472E-002
  -6.6294938414628371E-004   2.2649632423877991E-003   6.9730212389282648E-002
  -5.8066827988597150E-004   1.5595485534925513E-003   6.9132256584970242E-002
   2.2531405327573945E-002  -6.9983587127527835E-003   6.1775978984296875E-002
   2.1612914664121394E-002  -6.4860158942081636E-003   6.1563522679404070E-002
   2.0694424000668857E-002  -6.0699995254263756E-003   6.1501173882078403E-002
   1.9775933337216306E-002  -5.7503096064075061E-003   6.1588932592319970E-002
   1.8857442673763769E-002  -5.5269461371516559E-003   6.1826798810128925E-002
   1.7141435275308051E-002  -4.8588818961915470E-003   6.4071535641932020E-002
   1.6399183916747787E-002  -4.6158809514023763E-003   6.3565168749423792E-002
   1.5656932558187536E-002  -4.3992405272654245E-003   6.3261172959133000E-002
   1.4914681199627283E-002  -4.2089606237804278E-003   6.3159548271059449E-002
   1.4172429841067036E-002  -4.0450412409476222E-003   6.3260294685203250E-002
   1.1492766323309436E-002  -2.7194050796301439E-003   6.6062767461255903E-002
   1.0979017864291483E-002  -2.7457460085967833E-003   6.5332455910243392E-002
   1.0465269405273522E-002  -2.7284815291045220E-003   6.4856779056098296E-002
   9.9515209462555654E-003  -2.6676116411534032E-003   6.4635736898820503E-002
   9.4377724872376154E-003  -2.5631363447434774E-003   6.4669329438409959E-002
   5.5853984715780857E-003  -5.7992826306885181E-004   6.7749674442268606E-002
   5.3524165067524556E-003  -8.7561106579114867E-004   6.6865384161862815E-002
   5.1194345419268185E-003  -1.0577225309436507E-003   6.6287992172974292E-002
   4.8864525771011840E-003  -1.1262626585264073E-003   6.6017498475603092E-002
   4.6534706122755582E-003  -1.0812314485393326E-003   6.6053903069749217E-002
  -5.8066827988597150E-004   1.5595485534925513E-003   6.9132256584970242E-002
  -4.8062015586927340E-004   9.9452387701456924E-004   6.8163953504281893E-002
  -3.8057203185257703E-004   6.1303646721728999E-004   6.7554812309760986E-002
  -2.8052390783587719E-004   4.1508632410074478E-004   6.7304833001407341E-002
  -1.8047578381918256E-004   4.0067344766470114E-004   6.7414015579221109E-002
   1.8857442673763769E-002  -5.5269461371516559E-003   6.1826798810128925E-002
   1.7972411239153885E-002  -5.3344879484499008E-003   6.1637027346500006E-002
   1.7087379804544028E-002  -5.1075138710933859E-003   6.1639134434411075E-002
   1.6202348369934144E-002  -4.8460239050821981E-003   6.1833120073861644E-002
   1.5317316935324274E-002  -4.5500180504163823E-003   6.2218984264852450E-002
   1.4172429841067036E-002  -4.0450412409476222E-003   6.3260294685203250E-002
   1.3489109262665021E-002  -3.8847594880572767E-003   6.3057511579820397E-002
   1.2805788684263020E-002  -3.7053924744002986E-003   6.3066271635313656E-002
   1.2122468105861005E-002  -3.5069401999765562E-003   6.3286574851682736E-002
   1.1439147527459004E-002  -3.2894026647860564E-003   6.3718421228927791E-002
   9.4377724872376154E-003  -2.5631363447434774E-003   6.4669329438409959E-002
   8.9758273743795955E-003  -2.4350310276646109E-003   6.4438104063385432E-002
   8.5138822615215722E-003  -2.3032710777070933E-003   6.4438086458572852E-002
   8.0519371486635523E-003  -2.1678564948708016E-003   6.4669276623972233E-002
   7.5899920358055324E-003  -2.0287872791557027E-003   6.5131674559583810E-002
   4.6534706122755582E-003  -1.0812314485393326E-003   6.6053903069749217E-002
   4.4325655742976210E-003  -9.8530256727207693E-004   6.5778804797194834E-002
   4.2116605363197021E-003  -9.0114968101391926E-004   6.5754578904188607E-002
   3.9907554983417710E-003  -8.2877278976515884E-004   6.5981225390730341E-002
   3.7698504603638468E-003  -7.6817189352530735E-004   6.6458744256820551E-002
  -1.8047578381918256E-004   4.0067344766470114E-004   6.7414015579221109E-002
  -1.4067613758089043E-004   4.6442589312062355E-004   6.7079613781248881E-002
  -1.0087649134260177E-004   5.0097171567925480E-004   6.7015748972160921E-002
  -6.1076845104307900E-005   5.1031091534063655E-004   6.7222421151957173E-002
  -2.1277198866020974E-005   4.9244349210497695E-004   6.7699630320637749E-002
   1.5317316935324274E-002  -4.5500180504163823E-003   6.2218984264852450E-002
   1.4453874152694363E-002  -4.2299877419501586E-003   6.2022278781490692E-002
   1.3590431370064444E-002  -3.8964244145376775E-003   6.2067457111561392E-002
   1.2726988587434544E-002  -3.5493280681793242E-003   6.2354519255064925E-002
   1.1863545804804615E-002  -3.1886987028748592E-003   6.2883465212000944E-002
   1.1439147527459004E-002  -3.2894026647860564E-003   6.3718421228927791E-002
   1.0809921625145692E-002  -3.0599015901672522E-003   6.3552250147179717E-002
   1.0180695722832395E-002  -2.8255586974587354E-003   6.3612629012632177E-002
   9.5514698205191109E-003  -2.5863739866603466E-003   6.3899557825285308E-002
   8.9222439182057856E-003  -2.3423474577721759E-003   6.4413036585139083E-002
   7.5899920358055324E-003  -2.0287872791557027E-003   6.5131674559583810E-002
   7.1796491475768082E-003  -1.8898154383845678E-003   6.4987346678593266E-002
   6.7693062593480926E-003  -1.7546929803796893E-003   6.5054234878571204E-002
   6.3589633711193779E-003  -1.6234199051415928E-003   6.5332339159517722E-002
   5.9486204828906528E-003  -1.4959962126697146E-003   6.5821659521432790E-002
   3.7698504603638468E-003  -7.6817189352530735E-004   6.6458744256820551E-002
   3.5630567199876791E-003  -7.1972928660182789E-004   6.6327568375731144E-002
   3.3562629796115152E-003  -6.8382726330075069E-004   6.6392274709378141E-002
   3.1494692392353583E-003  -6.6046582362267164E-004   6.6652863257761749E-002
   2.9426754988591906E-003  -6.4964496756725332E-004   6.7109334020881900E-002
  -2.1277198866020974E-005   4.9244349210497695E-004   6.7699630320637749E-002
  -3.9855657621670759E-005   4.5035686518102303E-004   6.7572915238593267E-002
  -5.8434116377310136E-005   3.8703845377818791E-004   6.7626748505053069E-002
  -7.7012575132956451E-005   3.0248825789611078E-004   6.7861130120017654E-002
  -9.5591033888599297E-005   1.9670627753531900E-004   6.8276060083486412E-002
   1.1863545804804615E-002  -3.1886987028748592E-003   6.2883465212000944E-002
   1.0876916045440679E-002  -2.8335649333125490E-003   6.2867249178238382E-002
   9.8902862860767299E-003  -2.5029553741808541E-003   6.3073786300156198E-002
   8.9036565267127943E-003  -2.1968700254801285E-003   6.3503076577754641E-002
   7.9170267673488448E-003  -1.9153088872098101E-003   6.4155120011033406E-002
   8.9222439182057856E-003  -2.3423474577721759E-003   6.4413036585139083E-002
   8.1654796765669099E-003  -2.1008633926696829E-003   6.4354385886659038E-002
   7.4087154349280274E-003  -1.8693060732278000E-003   6.4532713067948638E-002
   6.6519511932891587E-003  -1.6476754994469225E-003   6.4948018129008050E-002
   5.8951869516502692E-003  -1.4359716713266968E-003   6.5600301069836886E-002
   5.9486204828906528E-003  -1.4959962126697146E-003   6.5821659521432790E-002
   5.4359464830660564E-003  -1.3681618520267613E-003   6.5735171623005184E-002
   4.9232724832414601E-003  -1.2356567722747597E-003   6.5899886328436366E-002
   4.4105984834168603E-003  -1.0984809734137756E-003   6.6315803637726545E-002
   3.8979244835922675E-003  -9.5663445544363901E-004   6.6982923550875401E-002
   2.9426754988591906E-003  -6.4964496756725332E-004   6.7109334020881900E-002
   2.6883164649381050E-003  -6.3546031138370096E-004   6.7009606387276405E-002
   2.4339574310170125E-003  -6.0200747132171245E-004   6.7175306081619007E-002
   2.1795983970959278E-003  -5.4928644738059910E-004   6.7606433103909971E-002
   1.9252393631748483E-003  -4.7729723956072001E-004   6.8302987454148867E-002
  -9.5591033888599297E-005   1.9670627753531900E-004   6.8276060083486412E-002
  -7.7410377816951315E-005   9.7241229258915318E-005   6.8177690179473061E-002
  -5.9229721745310271E-005   3.1641829631445795E-005   6.8358972327496992E-002
  -4.1049065673665758E-005  -9.1921347561418898E-008   6.8819906527558261E-002
  -2.2868409602021245E-005   2.0399763224210332E-006   6.9560492779656924E-002
   7.9170267673488448E-003  -1.9153088872098101E-003   6.4155120011033406E-002
   6.9791063854704738E-003  -1.7010879917579991E-003   6.4086966158320324E-002
   6.0411860035921028E-003  -1.5970233715128235E-003   6.4263059355414709E-002
   5.1032656217137387E-003  -1.6031150264740404E-003   6.4683399602316505E-002
   4.1653452398353608E-003  -1.7193629566418789E-003   6.5347986899025878E-002
   5.8951869516502692E-003  -1.4359716713266968E-003   6.5600301069836886E-002
   5.1992064112846778E-003  -1.2714495548102334E-003   6.5457120880093644E-002
   4.5032258709191003E-003  -1.1913641158404487E-003   6.5553573323568509E-002
   3.8072453305535194E-003  -1.1957153544172386E-003   6.5889658400261550E-002
   3.1112647901879176E-003  -1.2845032705401938E-003   6.6465376110173002E-002
   3.8979244835922675E-003  -9.5663445544363901E-004   6.6982923550875401E-002
   3.4392693681503592E-003  -8.4181111786249541E-004   6.6790436621761429E-002
   2.9806142527084613E-003  -7.8570486016794894E-004   6.6832967909276605E-002
   2.5219591372665547E-003  -7.8831568235987817E-004   6.7110517413420917E-002
   2.0633040218246690E-003  -8.4964358443839760E-004   6.7623085134194405E-002
   1.9252393631748483E-003  -4.7729723956072001E-004   6.8302987454148867E-002
   1.6992952560675196E-003  -4.1217268091452153E-004   6.8086913383324121E-002
   1.4733511489601987E-003  -3.8004560449528962E-004   6.8101243112539706E-002
   1.2474070418528774E-003  -3.8091601030279705E-004   6.8345976641795286E-002
   1.0214629347455491E-003  -4.1478389833671248E-004   6.8821113971090614E-002
  -2.2868409602021245E-005   2.0399763224210332E-006   6.9560492779656924E-002
  -2.0715924963859988E-005   1.7465756033008262E-005   6.9346551164781611E-002
  -1.8563440325698732E-005   2.5613651177008867E-005   6.9358398933357379E-002
  -1.6410955687535742E-005   2.6483661754138355E-005   6.9596036085384033E-002
  -1.4258471049376220E-005   2.0075787765083675E-005   7.0059462620861601E-002
   4.1653452398353608E-003  -1.7193629566418789E-003   6.5347986899025878E-002
   3.6332021079953092E-003  -2.0074202280068176E-003   6.4424641936087990E-002
   3.1010589761552437E-003  -2.5289399065591689E-003   6.3621978601300033E-002
   2.5689158443151783E-003  -3.2839219922993351E-003   6.2939996894661232E-002
   2.0367727124751267E-003  -4.2723664852262200E-003   6.2378696816171919E-002
   3.1112647901879176E-003  -1.2845032705401938E-003   6.6465376110173002E-002
   2.7030649279822100E-003  -1.5026429791866747E-003   6.5347547812660500E-002
   2.2948650657765093E-003  -1.8950495953332092E-003   6.4356924426267448E-002
   1.8866652035708018E-003  -2.4617231189797556E-003   6.3493505950993706E-002
   1.4784653413651011E-003  -3.2026635501265499E-003   6.2757292386839247E-002
   2.0633040218246690E-003  -8.4964358443839760E-004   6.7623085134194405E-002
   1.7855707122231453E-003  -9.9786573036658721E-004   6.6369969001794704E-002
   1.5078374026216250E-003  -1.2611592841074437E-003   6.5250581063484414E-002
   1.2301040930200943E-003  -1.6395242456609463E-003   6.4264921319263132E-002
   9.5237078341858100E-004  -2.1329606150269909E-003   6.3412989769131067E-002
   1.0214629347455491E-003  -4.1478389833671248E-004   6.8821113971090614E-002
   8.8071946071806555E-004  -4.9308848154680507E-004   6.7491905503491337E-002
   7.3997598669056034E-004  -6.2726897288163663E-004   6.6302948512951015E-002
   5.9923251266306553E-004  -8.1732537234208494E-004   6.5254242999469261E-002
   4.5848903863557160E-004  -1.0632576799272653E-003   6.4345788963046838E-002
  -1.4258471049376220E-005   2.0075787765083675E-005   7.0059462620861601E-002
  -1.1488826533019580E-005   1.1688767273643208E-005   6.8713357317749746E-002
  -8.7191820166525325E-006   6.6213383441704465E-006   6.7514026774666724E-002
  -5.9495375002872192E-006   4.8735009772482574E-006   6.6461470991612370E-002
  -3.1798929839288448E-006   6.4452551722382623E-006   6.5555689968586739E-002
   2.0367727124751267E-003  -4.2723664852262200E-003   6.2378696816171919E-002
   2.2862124367558634E-003  -5.5740878296984819E-003   5.8348932258231345E-002
   2.5356521610365862E-003  -7.2689004700733917E-003   5.4312428405211444E-002
   2.7850918853173090E-003  -9.3568044063508798E-003   5.0269185257113436E-002
   3.0345316095980457E-003  -1.1837799638530822E-002   4.6219202813936100E-002
   1.4784653413651011E-003  -3.2026635501265499E-003   6.2757292386839247E-002
   1.7072447352290132E-003  -4.1782431126919373E-003   5.8401768281103883E-002
   1.9360241290929461E-003  -5.4488340305948735E-003   5.4011662809613448E-002
   2.1648035229568582E-003  -7.0144363038345120E-003   4.9586975972367747E-002
   2.3935829168207634E-003  -8.8750499324117271E-003   4.5127707769367698E-002
   9.5237078341858100E-004  -2.1329606150269909E-003   6.3412989769131067E-002
   1.1326477761894396E-003  -2.7823983956854481E-003   5.8829786056166344E-002
   1.3129247689602809E-003  -3.6287675911159389E-003   5.4184158906770391E-002
   1.4932017617311152E-003  -4.6720682013184286E-003   4.9476108320943790E-002
   1.6734787545019808E-003  -5.9123002262924107E-003   4.4705634298685126E-002
   4.5848903863557160E-004  -1.0632576799272653E-003   6.4345788963046838E-002
   5.6242155963707324E-004  -1.3865536786791532E-003   5.9632985583418244E-002
   6.6635408063856708E-004  -1.8087011516371015E-003   5.4829916696682114E-002
   7.7028660164006092E-004  -2.3297000988020920E-003   4.9936582302838692E-002
   8.7421912264154869E-004  -2.9495505201732053E-003   4.4952982401887359E-002
  -3.1798929839288448E-006   6.4452551722382623E-006   6.5555689968586739E-002
  -3.4339144280443046E-006   9.2910383276967323E-006   6.0811366862859706E-002
  -3.6879358721597644E-006   1.1365287841569316E-005   5.5948936179348929E-002
  -3.9419573162786936E-006   1.2668003714091935E-005   5.0968397918054409E-002
  -4.1959787603906840E-006   1.3199185946000114E-005   4.5869752078976145E-002
  -9.0979269692722381E-004   4.9646638579982083E-003   7.5391815366822379E-002
  -8.2751159266691160E-004   3.9675208946406970E-003   7.2859991780208744E-002
  -7.4523048840659592E-004   3.0676206894372227E-003   7.0972790787695472E-002
  -6.6294938414628371E-004   2.2649632423877991E-003   6.9730212389282648E-002
  -5.8066827988597150E-004   1.5595485534925513E-003   6.9132256584970242E-002
  -9.0809675682585952E-003   4.1483255659578444E-003   6.8367582257208903E-002
  -8.4758529354104668E-003   3.6454834365948763E-003   6.7187072945979698E-002
  -7.8707383025623315E-003   3.1806784052686304E-003   6.6407608097825338E-002
  -7.2656236697142057E-003   2.7539104719792977E-003   6.6029187712746407E-002
  -6.6605090368660816E-003   2.3651796367269440E-003   6.6051811790742737E-002
  -1.5846679026788574E-002   3.3319872739174805E-003   6.1867252811648787E-002
  -1.4962308996377823E-002   3.3234459785489445E-003   6.1978852115686281E-002
  -1.4077938965967077E-002   3.2937361211000660E-003   6.2247917751774073E-002
  -1.3193568935556328E-002   3.2428577015708518E-003   6.2674449719911804E-002
  -1.2309198905145572E-002   3.1708107199613644E-003   6.3258448020099542E-002
  -2.1206927072517180E-002   2.5156489818771166E-003   5.5890827030141407E-002
  -2.0286879775568995E-002   3.0014085205030683E-003   5.7235329289329090E-002
  -1.9366832478620814E-002   3.4067938369314321E-003   5.8493719749541338E-002
  -1.8446785181672611E-002   3.7318049311623504E-003   5.9665998410778548E-002
  -1.7526737884724430E-002   3.9764418031958543E-003   6.0752165273040656E-002
  -2.5161711705444401E-002   1.6993106898367527E-003   5.0438304912687304E-002
  -2.4449565272983961E-002   2.6793710624571365E-003   5.2956504466907639E-002
  -2.3737418840523536E-002   3.5198515527628815E-003   5.5145014091127431E-002
  -2.3025272408063097E-002   4.2207521607538004E-003   5.7003833785346930E-002
  -2.2313125975602668E-002   4.7820728864302331E-003   5.8532963549566053E-002
  -5.8066827988597150E-004   1.5595485534925513E-003   6.9132256584970242E-002
  -4.8062015586927340E-004   9.9452387701456924E-004   6.8163953504281893E-002
  -3.8057203185257703E-004   6.1303646721728999E-004   6.7554812309760986E-002
  -2.8052390783587719E-004   4.1508632410074478E-004   6.7304833001407341E-002
  -1.8047578381918256E-004   4.0067344766470114E-004   6.7414015579221109E-002
  -6.6605090368660816E-003   2.3651796367269440E-003   6.6051811790742737E-002
  -6.2430377435913568E-003   2.0391040557090900E-003   6.5608326220402163E-002
  -5.8255664503166198E-003   1.8003018851233954E-003   6.5440525102410427E-002
  -5.4080951570418959E-003   1.6487731249700058E-003   6.5548408436767375E-002
  -4.9906238637671581E-003   1.5845177752488726E-003   6.5931976223472966E-002
  -1.2309198905145572E-002   3.1708107199613644E-003   6.3258448020099542E-002
  -1.1657781876431425E-002   3.0836842344036247E-003   6.3243516103858394E-002
  -1.1006364847717267E-002   2.9875673030296604E-003   6.3420791206147298E-002
  -1.0354947819003115E-002   2.8824599258394316E-003   6.3790273326966310E-002
  -9.7035307902889629E-003   2.7683621028330441E-003   6.4351962466315471E-002
  -1.7526737884724430E-002   3.9764418031958543E-003   6.0752165273040656E-002
  -1.6724852554389474E-002   4.1282644130982080E-003   6.1069523154650383E-002
  -1.5922967224054525E-002   4.1748327209357623E-003   6.1495610620971593E-002
  -1.5121081893719570E-002   4.1161467267088305E-003   6.2030427672004257E-002
  -1.4319196563384623E-002   3.9522064304172988E-003   6.2673974307748612E-002
  -2.2313125975602668E-002   4.7820728864302331E-003   5.8532963549566053E-002
  -2.1444249777465531E-002   5.1728445917927635E-003   5.9086347372778319E-002
  -2.0575373579328385E-002   5.3620981388420585E-003   5.9664983346883332E-002
  -1.9706497381191238E-002   5.3498335275781531E-003   6.0268871471881258E-002
  -1.8837621183054098E-002   5.1360507580013315E-003   6.0898011747772096E-002
  -1.8047578381918256E-004   4.0067344766470114E-004   6.7414015579221109E-002
  -1.4067613758089043E-004   4.6442589312062355E-004   6.7079613781248881E-002
  -1.0087649134260177E-004   5.0097171567925480E-004   6.7015748972160921E-002
  -6.1076845104307900E-005   5.1031091534063655E-004   6.7222421151957173E-002
  -2.1277198866020974E-005   4.9244349210497695E-004   6.7699630320637749E-002
  -4.9906238637671581E-003   1.5845177752488726E-003   6.5931976223472966E-002
  -4.6958064246905573E-003   1.5536265454448861E-003   6.5655420486133487E-002
  -4.4009889856139583E-003   1.5021901450432834E-003   6.5618363345586350E-002
  -4.1061715465373532E-003   1.4302085740437211E-003   6.5820804801831431E-002
  -3.8113541074607515E-003   1.3376818324463136E-003   6.6262744854868938E-002
  -9.7035307902889629E-003   2.7683621028330441E-003   6.4351962466315471E-002
  -9.1847339504659738E-003   2.6428271977693429E-003   6.4139914241908083E-002
  -8.6659371106429829E-003   2.5034085744072565E-003   6.4136326222201043E-002
  -8.1471402708199938E-003   2.3501062327465835E-003   6.4341198407194378E-002
  -7.6283434309969908E-003   2.1829201727876502E-003   6.4754530796888254E-002
  -1.4319196563384623E-002   3.9522064304172988E-003   6.2673974307748612E-002
  -1.3607458714907150E-002   3.7320278500936749E-003   6.2533095048572560E-002
  -1.2895720866429688E-002   3.5046270037712851E-003   6.2569637602005040E-002
  -1.2183983017952212E-002   3.2700038914496125E-003   6.2783601968046068E-002
  -1.1472245169474754E-002   3.0281585131289868E-003   6.3174988146695671E-002
  -1.8837621183054098E-002   5.1360507580013315E-003   6.0898011747772096E-002
  -1.7963980718014097E-002   4.8212285024180901E-003   6.0834962906126888E-002
  -1.7090340252974064E-002   4.5058454331352998E-003   6.0918297484998329E-002
  -1.6216699787934039E-002   4.1899015501524854E-003   6.1148015484386323E-002
  -1.5343059322894023E-002   3.8733968534703234E-003   6.1524116904290937E-002
  -2.1277198866020974E-005   4.9244349210497695E-004   6.7699630320637749E-002
  -3.9855657621670759E-005   4.5035686518102303E-004   6.7572915238593267E-002
  -5.8434116377310136E-005   3.8703845377818791E-004   6.7626748505053069E-002
  -7.7012575132956451E-005   3.0248825789611078E-004   6.7861130120017654E-002
  -9.5591033888599297E-005   1.9670627753531900E-004   6.8276060083486412E-002
  -3.8113541074607515E-003   1.3376818324463136E-003   6.6262744854868938E-002
  -3.6385926900744520E-003   1.2316593327598435E-003   6.6106069820490526E-002
  -3.4658312726881524E-003   1.1191904874927883E-003   6.6151526189891507E-002
  -3.2930698553018459E-003   1.0002752966450160E-003   6.6399113963071771E-002
  -3.1203084379155394E-003   8.7491376021708867E-004   6.6848833140031594E-002
  -7.6283434309969908E-003   2.1829201727876502E-003   6.4754530796888254E-002
  -7.2426590821938770E-003   2.0129618003383865E-003   6.4582681249074514E-002
  -6.8569747333907484E-003   1.8513425212071666E-003   6.4634546160315082E-002
  -6.4712903845876267E-003   1.6980623353941432E-003   6.4910125530609819E-002
  -6.0856060357845059E-003   1.5531212428991359E-003   6.5409419359958920E-002
  -1.1472245169474754E-002   3.0281585131289868E-003   6.3174988146695671E-002
  -1.0852054833979927E-002   2.7942642679169571E-003   6.3002749524345120E-002
  -1.0231864498485102E-002   2.5834945549218225E-003   6.3075808416323709E-002
  -9.6116741629902747E-003   2.3958493741431594E-003   6.3394164822631549E-002
  -8.9914838274954452E-003   2.2313287255811554E-003   6.3957818743268391E-002
  -1.5343059322894023E-002   3.8733968534703234E-003   6.1524116904290937E-002
  -1.4466779945432620E-002   3.5755667354958054E-003   6.1366274646302232E-002
  -1.3590500567971221E-002   3.3156465886362563E-003   6.1475312957917638E-002
  -1.2714221190509812E-002   3.0936364128921201E-003   6.1851231839137044E-002
  -1.1837941813048411E-002   2.9095362082630638E-003   6.2494031289960450E-002
  -9.5591033888599297E-005   1.9670627753531900E-004   6.8276060083486412E-002
  -7.7410377816951315E-005   9.7241229258915318E-005   6.8177690179473061E-002
  -5.9229721745310271E-005   3.1641829631445795E-005   6.8358972327496992E-002
  -4.1049065673665758E-005  -9.1921347561418898E-008   6.8819906527558261E-002
  -2.2868409602021245E-005   2.0399763224210332E-006   6.9560492779656924E-002
  -3.1203084379155394E-003   8.7491376021708867E-004   6.6848833140031594E-002
  -2.8326415503806858E-003   7.5451220706601596E-004   6.6824833201993394E-002
  -2.5449746628458166E-003   6.5047696604872418E-004   6.7060153674844164E-002
  -2.2573077753109527E-003   5.6280803716538680E-004   6.7554794558584375E-002
  -1.9696408877760939E-003   4.9150542041653811E-004   6.8308755853213499E-002
  -6.0856060357845059E-003   1.5531212428991359E-003   6.5409419359958920E-002
  -5.5487845579346613E-003   1.4117831848728390E-003   6.5442290051381441E-002
  -5.0119630800848315E-003   1.2693121024660026E-003   6.5714149512544756E-002
  -4.4751416022349973E-003   1.1257079956786126E-003   6.6224997743448769E-002
  -3.9383201243851571E-003   9.8097086451093274E-004   6.6974834744093936E-002
  -8.9914838274954452E-003   2.2313287255811554E-003   6.3957818743268391E-002
  -8.2258394004789022E-003   2.0690541626798009E-003   6.4030060727636839E-002
  -7.4601949734623410E-003   1.8881472388832810E-003   6.4320959840598060E-002
  -6.6945505464457850E-003   1.6886079541919771E-003   6.4830516082151929E-002
  -5.9289061194292367E-003   1.4704363086051331E-003   6.5558729452298070E-002
  -1.1837941813048411E-002   2.9095362082630638E-003   6.2494031289960450E-002
  -1.0863806078013384E-002   2.7263251404867628E-003   6.2588145230760339E-002
  -9.8896703429783607E-003   2.5069823753007259E-003   6.2880584659004646E-002
  -8.9155346079433356E-003   2.2515079127048837E-003   6.3371349574693314E-002
  -7.9413988729083104E-003   1.9599017526995555E-003   6.4060439977826289E-002
  -2.2868409602021245E-005   2.0399763224210332E-006   6.9560492779656924E-002
  -2.0715924963859988E-005   1.7465756033008262E-005   6.9346551164781611E-002
  -1.8563440325698732E-005   2.5613651177008867E-005   6.9358398933357379E-002
  -1.6410955687535742E-005   2.6483661754138355E-005   6.9596036085384033E-002
  -1.4258471049376220E-005   2.0075787765083675E-005   7.0059462620861601E-002
  -1.9696408877760939E-003   4.9150542041653811E-004   6.8308755853213499E-002
  -1.7393584643188020E-003   4.4117580779706733E-004   6.8084398941050839E-002
  -1.5090760408615188E-003   4.1642589130375107E-004   6.8090512523075630E-002
  -1.2787936174042235E-003   4.1725567093536808E-004   6.8327096599287596E-002
  -1.0485111939469438E-003   4.4366514669336166E-004   6.8794151169686901E-002
  -3.9383201243851571E-003   9.8097086451093274E-004   6.6974834744093936E-002
  -3.4752266513723516E-003   8.6488585956168151E-004   6.6772920115336254E-002
  -3.0121331783595382E-003   8.0723813143028511E-004   6.6806157091502130E-002
  -2.5490397053467245E-003   8.0802768011693435E-004   6.7074545672591912E-002
  -2.0859462323339194E-003   8.6725450562130657E-004   6.7578085858605308E-002
  -5.9289061194292367E-003   1.4704363086051331E-003   6.5558729452298070E-002
  -5.2283204861245077E-003   1.2885959113261847E-003   6.5412114687637607E-002
  -4.5277348528197777E-003   1.1980503715568122E-003   6.5505332638637309E-002
  -3.8271492195150508E-003   1.1987996892981103E-003   6.5838383305297107E-002
  -3.1265635862103183E-003   1.2908438645494180E-003   6.6411266687617182E-002
  -7.9413988729083104E-003   1.9599017526995555E-003   6.4060439977826289E-002
  -6.9986399685752695E-003   1.7123059630902437E-003   6.4001982657955314E-002
  -6.0558810642422321E-003   1.5888626116835336E-003   6.4188039164480792E-002
  -5.1131221599091930E-003   1.5895716984794458E-003   6.4618609497402807E-002
  -4.1703632555761538E-003   1.7144332234775295E-003   6.5293693656721330E-002
  -1.4258471049376220E-005   2.0075787765083675E-005   7.0059462620861601E-002
  -1.1488826533019580E-005   1.1688767273643208E-005   6.8713357317749746E-002
  -8.7191820166525325E-006   6.6213383441704465E-006   6.7514026774666724E-002
  -5.9495375002872192E-006   4.8735009772482574E-006   6.6461470991612370E-002
  -3.1798929839288448E-006   6.4452551722382623E-006   6.5555689968586739E-002
  -1.0485111939469438E-003   4.4366514669336166E-004   6.8794151169686901E-002
  -9.0260995860423979E-004   5.1265378797848982E-004   6.7472669495129478E-002
  -7.5670872326152536E-004   6.4122106419403635E-004   6.6290676242195923E-002
  -6.1080748791882047E-004   8.2936697533949472E-004   6.5248171410886124E-002
  -4.6490625257612078E-004   1.0770915214151078E-003   6.4345155001200305E-002
  -2.0859462323339194E-003   8.6725450562130657E-004   6.7578085858605308E-002
  -1.8041997445697342E-003   1.0136188086835585E-003   6.6337486855970101E-002
  -1.5224532568055482E-003   1.2758207900437912E-003   6.5229089936553741E-002
  -1.2407067690413547E-003   1.6538604497019632E-003   6.4252895100356464E-002
  -9.5896028127717692E-004   2.1477377876579773E-003   6.3408902347378227E-002
  -3.1265635862103183E-003   1.2908438645494180E-003   6.6411266687617182E-002
  -2.7162581844295307E-003   1.5145838293887937E-003   6.5307809400271644E-002
  -2.3059527826487219E-003   1.9104205158934906E-003   6.4329267857740471E-002
  -1.8956473808679334E-003   2.4783539240643207E-003   6.3475642060023180E-002
  -1.4853419790871250E-003   3.2183840539012909E-003   6.2746932007120532E-002
  -4.1703632555761538E-003   1.7144332234775295E-003   6.5293693656721330E-002
  -3.6387852781835997E-003   2.0155488500935848E-003   6.4383637128033744E-002
  -3.1072073007910456E-003   2.5450202417433565E-003   6.3591210005755683E-002
  -2.5756293233984914E-003   3.3028473984266643E-003   6.2916412289886925E-002
  -2.0440513460059373E-003   4.2890303201439384E-003   6.2359243980427248E-002
  -3.1798929839288448E-006   6.4452551722382623E-006   6.5555689968586739E-002
  -3.4339144280443046E-006   9.2910383276967323E-006   6.0811366862859706E-002
  -3.6879358721597644E-006   1.1365287841569316E-005   5.5948936179348929E-002
  -3.9419573162786936E-006   1.2668003714091935E-005   5.0968397918054409E-002
  -4.1959787603906840E-006   1.3199185946000114E-005   4.5869752078976145E-002
  -4.6490625257612078E-004   1.0770915214151078E-003   6.4345155001200305E-002
  -5.6926721906253724E-004   1.4038429407211006E-003   5.9631356648050471E-002
  -6.7362818554895371E-004   1.8290694715571432E-003   5.4827451982599640E-002
  -7.7798915203536757E-004   2.3527711139235963E-003   4.9933441004847923E-002
  -8.8235011852181439E-004   2.9749478678209318E-003   4.4949323714795320E-002
  -9.5896028127717692E-004   2.1477377876579773E-003   6.3408902347378227E-002
  -1.1394269273230090E-003   2.7983948431143379E-003   5.8824875391977338E-002
  -1.3198935733688411E-003   3.6467736552725782E-003   5.4178743389757950E-002
  -1.5003602194146740E-003   4.6928742241332602E-003   4.9470506340720977E-002
  -1.6808268654605052E-003   5.9366965496960855E-003   4.4700164244865781E-002
  -1.4853419790871250E-003   3.2183840539012909E-003   6.2746932007120532E-002
  -1.7139130392094667E-003   4.1929467455076586E-003   5.8391923094640197E-002
  -1.9424840993318357E-003   5.4644778389880827E-003   5.4002810400824490E-002
  -2.1710551594541832E-003   7.0329773343426223E-003   4.9579593925674487E-002
  -2.3996262195765464E-003   8.8984452315712392E-003   4.5122273669188889E-002
  -2.0440513460059373E-003   4.2890303201439384E-003   6.2359243980427248E-002
  -2.2927255547219166E-003   5.5874986479013122E-003   5.8332499756039380E-002
  -2.5413997634378960E-003   7.2821820227034761E-003   5.4299653015799310E-002
  -2.7900739721538823E-003   9.3730804445521787E-003   5.0260703759706815E-002
  -3.0387481808698547E-003   1.1860193913446171E-002   4.6215651987762563E-002
  -2.5161711705444401E-002   1.6993106898367527E-003   5.0438304912687304E-002
  -2.4449565272983961E-002   2.6793710624571365E-003   5.2956504466907639E-002
  -2.3737418840523536E-002   3.5198515527628815E-003   5.5145014091127431E-002
  -2.3025272408063097E-002   4.2207521607538004E-003   5.7003833785346930E-002
  -2.2313125975602668E-002   4.7820728864302331E-003   5.8532963549566053E-002
  -2.9187905473087396E-002   5.8642157571067166E-003   5.3205206917034231E-002
  -2.8646708832959680E-002   6.3094022082441636E-003   5.4216144249755654E-002
  -2.8105512192831954E-002   6.6587271878293941E-003   5.5214871927811937E-002
  -2.7564315552704229E-002   6.9121906958619569E-003   5.6201389951203079E-002
  -2.7023118912576506E-002   7.0697927323422338E-003   5.7175698319929302E-002
  -3.4762380922963444E-002   1.0029120824376597E-002   5.5415375794517191E-002
  -3.4074653799833078E-002   9.9394333540312185E-003   5.4962769316502014E-002
  -3.3386926676702774E-002   9.7976028228957540E-003   5.4815433459156918E-002
  -3.2699199553572478E-002   9.6036292309700823E-003   5.4973368222482104E-002
  -3.2011472430442112E-002   9.3575125782543178E-003   5.5436573606477538E-002
  -4.1885138055072345E-002   1.4194025891646506E-002   5.7068811545136079E-002
  -4.0733400173604176E-002   1.3569464499818273E-002   5.5196379667146502E-002
  -3.9581662292135972E-002   1.2936478457962190E-002   5.3946698685162414E-002
  -3.8429924410667823E-002   1.2295067766078195E-002   5.3319768599183845E-002
  -3.7278186529199620E-002   1.1645232424166332E-002   5.3315589409210863E-002
  -5.0556176869414299E-002   1.8358930958916442E-002   5.8165514168891042E-002
  -4.8622947954272966E-002   1.7199495645605301E-002   5.4916975301689430E-002
  -4.6689719039131605E-002   1.6075354093028627E-002   5.2608667605828496E-002
  -4.4756490123990245E-002   1.4986506301186323E-002   5.1240591081308462E-002
  -4.2823261208848898E-002   1.3932952270078403E-002   5.0812745728129216E-002
  -2.2313125975602668E-002   4.7820728864302331E-003   5.8532963549566053E-002
  -2.1444249777465531E-002   5.1728445917927635E-003   5.9086347372778319E-002
  -2.0575373579328385E-002   5.3620981388420585E-003   5.9664983346883332E-002
  -1.9706497381191238E-002   5.3498335275781531E-003   6.0268871471881258E-002
  -1.8837621183054098E-002   5.1360507580013315E-003   6.0898011747772096E-002
  -2.7023118912576506E-002   7.0697927323422338E-003   5.7175698319929302E-002
  -2.6106531488248416E-002   7.1236757666410661E-003   5.7316633291985900E-002
  -2.5189944063920364E-002   7.0659822681292603E-003   5.7527738565531408E-002
  -2.4273356639592299E-002   6.8967122368073213E-003   5.7809014140565960E-002
  -2.3356769215264223E-002   6.6158656726744702E-003   5.8160460017089383E-002
  -3.2011472430442112E-002   9.3575125782543178E-003   5.5436573606477538E-002
  -3.1002255629327059E-002   9.0745069414895213E-003   5.5255001352881118E-002
  -2.9993038828211967E-002   8.7698663974167396E-003   5.5188517551369790E-002
  -2.8983822027096918E-002   8.4435909460361010E-003   5.5237122201943524E-002
  -2.7974605225981830E-002   8.0956805873475812E-003   5.5400815304602349E-002
  -3.7278186529199620E-002   1.1645232424166332E-002   5.3315589409210863E-002
  -3.6131422200701410E-002   1.1025338116337956E-002   5.2901451555463969E-002
  -3.4984657872203236E-002   1.0473750526704108E-002   5.2647320304398351E-002
  -3.3837893543705047E-002   9.9904696552650749E-003   5.2553195656013893E-002
  -3.2691129215206852E-002   9.5754955020206783E-003   5.2619077610310511E-002
  -4.2823261208848898E-002   1.3932952270078403E-002   5.0812745728129216E-002
  -4.1494031202371495E-002   1.2976169291186307E-002   5.0255983899734596E-002
  -4.0164801195894127E-002   1.2177634655991448E-002   4.9904146824617274E-002
  -3.8835571189416745E-002   1.1537348364494028E-002   4.9757234502777178E-002
  -3.7506341182939357E-002   1.1055310416693775E-002   4.9815246934214352E-002
  -1.8837621183054098E-002   5.1360507580013315E-003   6.0898011747772096E-002
  -1.7963980718014097E-002   4.8212285024180901E-003   6.0834962906126888E-002
  -1.7090340252974064E-002   4.5058454331352998E-003   6.0918297484998329E-002
  -1.6216699787934039E-002   4.1899015501524854E-003   6.1148015484386323E-002
  -1.5343059322894023E-002   3.8733968534703234E-003   6.1524116904290937E-002
  -2.3356769215264223E-002   6.6158656726744702E-003   5.8160460017089383E-002
  -2.2324788000765844E-002   6.2752945000691951E-003   5.8006463776961420E-002
  -2.1292806786267472E-002   5.9268506433294010E-003   5.8022765615233549E-002
  -2.0260825571769121E-002   5.5705341024549979E-003   5.8209365531905748E-002
  -1.9228844357270718E-002   5.2063448774460341E-003   5.8566263526978246E-002
  -2.7974605225981830E-002   8.0956805873475812E-003   5.5400815304602349E-002
  -2.6760368604141542E-002   7.7293604977203972E-003   5.5148559795556634E-002
  -2.5546131982301334E-002   7.3478558535236202E-003   5.5090517022794529E-002
  -2.4331895360461119E-002   6.9511666547574565E-003   5.5226686986316054E-002
  -2.3117658738620865E-002   6.5392929014218559E-003   5.5557069686121230E-002
  -3.2691129215206852E-002   9.5754955020206783E-003   5.2619077610310511E-002
  -3.1270722528141212E-002   9.1834264953714953E-003   5.2261250961912219E-002
  -2.9850315841075593E-002   8.7688610637177804E-003   5.2121551707681103E-002
  -2.8429909154009961E-002   8.3317992070599430E-003   5.2199979847617047E-002
  -2.7009502466944335E-002   7.8722409253975667E-003   5.2496535381720180E-002
  -3.7506341182939357E-002   1.1055310416693775E-002   4.9815246934214352E-002
  -3.5855849772764820E-002   1.0637492493022704E-002   4.9344537276028499E-002
  -3.4205358362590282E-002   1.0189866273911996E-002   4.9115869669893342E-002
  -3.2554866952415759E-002   9.7124317593623027E-003   4.9129244115808934E-002
  -3.0904375542241222E-002   9.2051889493734440E-003   4.9384660613775055E-002
  -1.5343059322894023E-002   3.8733968534703234E-003   6.1524116904290937E-002
  -1.4466779945432620E-002   3.5755667354958054E-003   6.1366274646302232E-002
  -1.3590500567971221E-002   3.3156465886362563E-003   6.1475312957917638E-002
  -1.2714221190509812E-002   3.0936364128921201E-003   6.1851231839137044E-002
  -1.1837941813048411E-002   2.9095362082630638E-003   6.2494031289960450E-002
  -1.9228844357270718E-002   5.2063448774460341E-003   5.8566263526978246E-002
  -1.8100559169323269E-002   4.8468916420232877E-003   5.8418144480109235E-002
  -1.6972273981375796E-002   4.5047830699077029E-003   5.8507156484608497E-002
  -1.5843988793428319E-002   4.1800191610990717E-003   5.8833299540475961E-002
  -1.4715703605480867E-002   3.8725999155976853E-003   5.9396573647711393E-002
  -2.3117658738620865E-002   6.5392929014218559E-003   5.5557069686121230E-002
  -2.1767117258423185E-002   6.1182165485509643E-003   5.5398108542564051E-002
  -2.0416575778225553E-002   5.6939195511790941E-003   5.5446528932139069E-002
  -1.9066034298027893E-002   5.2664019093062453E-003   5.5702330854846410E-002
  -1.7715492817830240E-002   4.8356636229323624E-003   5.6165514310685810E-002
  -2.7009502466944335E-002   7.8722409253975667E-003   5.2496535381720180E-002
  -2.5466454212732401E-002   7.3895414550784883E-003   5.2306166833666609E-002
  -2.3923405958520473E-002   6.8830560324505130E-003   5.2293430300509397E-002
  -2.2380357704308546E-002   6.3527846575133634E-003   5.2458325782248634E-002
  -2.0837309450096611E-002   5.7987273302669562E-003   5.2800853278884105E-002
  -3.0904375542241222E-002   9.2051889493734440E-003   4.9384660613775055E-002
  -2.9198570032250890E-002   8.6608663616061787E-003   4.9142319353417063E-002
  -2.7492764522260578E-002   8.0721925137218625E-003   4.9047860589719411E-002
  -2.5786959012270242E-002   7.4391674057203531E-003   4.9101284322682362E-002
  -2.4081153502279934E-002   6.7617910376016610E-003   4.9302590552305681E-002
  -1.1837941813048411E-002   2.9095362082630638E-003   6.2494031289960450E-002
  -1.0863806078013384E-002   2.7263251404867628E-003   6.2588145230760339E-002
  -9.8896703429783607E-003   2.5069823753007259E-003   6.2880584659004646E-002
  -8.9155346079433356E-003   2.2515079127048837E-003   6.3371349574693314E-002
  -7.9413988729083104E-003   1.9599017526995555E-003   6.4060439977826289E-002
  -1.4715703605480867E-002   3.8725999155976853E-003   5.9396573647711393E-002
  -1.3543887455865655E-002   3.5641420400621127E-003   5.9340238285337743E-002
  -1.2372071306250508E-002   3.2362622411511027E-003   5.9480938264679789E-002
  -1.1200255156635332E-002   2.8889605188644647E-003   5.9818673585738003E-002
  -1.0028439007020124E-002   2.5222368732026323E-003   6.0353444248512078E-002
  -1.7715492817830240E-002   4.8356636229323624E-003   5.6165514310685810E-002
  -1.6347286399363302E-002   4.4019589396374625E-003   5.5975439419172754E-002
  -1.4979079980896370E-002   3.9655421070013686E-003   5.5981109723647143E-002
  -1.3610873562429428E-002   3.5264131250242678E-003   5.6182525224109214E-002
  -1.2242667143962499E-002   3.0845719937060978E-003   5.6579685920558703E-002
  -2.0837309450096611E-002   5.7987273302669562E-003   5.2800853278884105E-002
  -1.9274002908506303E-002   5.2397758392128124E-003   5.2493748632265816E-002
  -1.7710696366915992E-002   4.6948219728519675E-003   5.2381099035906660E-002
  -1.6147389825325684E-002   4.1638657311838488E-003   5.2462904489806644E-002
  -1.4584083283735375E-002   3.6469071142093135E-003   5.2739164993966060E-002
  -2.4081153502279934E-002   6.7617910376016610E-003   4.9302590552305681E-002
  -2.2324036983294618E-002   6.0775927387882178E-003   4.8895165924616568E-002
  -2.0566920464309343E-002   5.4241018387020945E-003   4.8680906201458318E-002
  -1.8809803945324027E-002   4.8013183373435617E-003   4.8659811382830848E-002
  -1.7052687426338753E-002   4.2092422347127512E-003   4.8831881468734184E-002
  -7.9413988729083104E-003   1.9599017526995555E-003   6.4060439977826289E-002
  -6.9986399685752695E-003   1.7123059630902437E-003   6.4001982657955314E-002
  -6.0558810642422321E-003   1.5888626116835336E-003   6.4188039164480792E-002
  -5.1131221599091930E-003   1.5895716984794458E-003   6.4618609497402807E-002
  -4.1703632555761538E-003   1.7144332234775295E-003   6.5293693656721330E-002
  -1.0028439007020124E-002   2.5222368732026323E-003   6.0353444248512078E-002
  -8.8398593621414646E-003   2.2051178246043079E-003   6.0290497617812189E-002
  -7.6512797172627513E-003   2.0066298935086657E-003   6.0474678641807167E-002
  -6.4627000723840458E-003   1.9267730799156849E-003   6.0905987320497068E-002
  -5.2741204275053508E-003   1.9655473838248172E-003   6.1584423653881504E-002
  -1.2242667143962499E-002   3.0845719937060978E-003   5.6579685920558703E-002
  -1.0805652930239832E-002   2.6979296861185387E-003   5.6506728658330091E-002
  -9.3686387165171706E-003   2.4243971753338117E-003   5.6683512879094608E-002
  -7.9316245027944935E-003   2.2639744613518163E-003   5.7110038582852150E-002
  -6.4946102890718407E-003   2.2166615441724380E-003   5.7786305769602753E-002
  -1.4584083283735375E-002   3.6469071142093135E-003   5.2739164993966060E-002
  -1.2896020672870455E-002   3.1907415476328527E-003   5.2650675779508792E-002
  -1.1207958062005509E-002   2.8421644571590618E-003   5.2814541876342908E-002
  -9.5198954511405993E-003   2.6011758427881126E-003   5.3230763284468671E-002
  -7.8318328402756463E-003   2.4677757045197812E-003   5.3899340003885562E-002
  -1.7052687426338753E-002   4.2092422347127512E-003   4.8831881468734184E-002
  -1.5110962590033250E-002   3.6835534091468891E-003   4.8722338981348479E-002
  -1.3169237753727747E-002   3.2599317389840066E-003   4.8867765633552551E-002
  -1.1227512917422230E-002   2.9383772242241660E-003   4.9268161425346318E-002
  -9.2857880811167415E-003   2.7188898648674575E-003   4.9923526356729919E-002
  -4.1703632555761538E-003   1.7144332234775295E-003   6.5293693656721330E-002
  -3.6387852781835997E-003   2.0155488500935848E-003   6.4383637128033744E-002
  -3.1072073007910456E-003   2.5450202417433565E-003   6.3591210005755683E-002
  -2.5756293233984914E-003   3.3028473984266643E-003   6.2916412289886925E-002
  -2.0440513460059373E-003   4.2890303201439384E-003   6.2359243980427248E-002
  -5.2741204275053508E-003   1.9655473838248172E-003   6.1584423653881504E-002
  -4.5987968896204941E-003   2.2258259193216334E-003   6.0860117144992509E-002
  -3.9234733517356270E-003   2.8104818004900944E-003   6.0305672350678685E-002
  -3.2481498138507599E-003   3.7195150273301308E-003   5.9921089270940198E-002
  -2.5728262759659032E-003   4.9529255998425059E-003   5.9706367905777102E-002
  -6.4946102890718407E-003   2.2166615441724380E-003   5.7786305769602753E-002
  -5.6233088825287224E-003   2.4361029885494045E-003   5.7343770861150500E-002
  -4.7520074759855903E-003   3.0759433592366381E-003   5.7123329975439369E-002
  -3.8807060694424512E-003   4.1361826562333823E-003   5.7124983112469538E-002
  -3.0094046628993398E-003   5.6168208795407404E-003   5.7348730272240800E-002
  -7.8318328402756463E-003   2.4677757045197812E-003   5.3899340003885562E-002
  -6.7123212569082900E-003   2.6463800577774810E-003   5.3834598276508008E-002
  -5.5928096735409051E-003   3.3414049179829458E-003   5.4044182880037754E-002
  -4.4732980901735211E-003   4.5528502851370743E-003   5.4528093814474349E-002
  -3.3537865068061640E-003   6.2807161592393634E-003   5.5286331079818785E-002
  -9.2857880811167415E-003   2.7188898648674575E-003   4.9923526356729919E-002
  -7.8658340127591847E-003   2.8566571270053354E-003   5.0332599391065158E-002
  -6.4458799444016002E-003   3.6068664767299197E-003   5.1068231064473835E-002
  -5.0259258760440295E-003   4.9695179140399892E-003   5.2130421376955616E-002
  -3.6059718076864589E-003   6.9446114389374314E-003   5.3519170328510612E-002
  -2.0440513460059373E-003   4.2890303201439384E-003   6.2359243980427248E-002
  -2.2927255547219166E-003   5.5874986479013122E-003   5.8332499756039380E-002
  -2.5413997634378960E-003   7.2821820227034761E-003   5.4299653015799310E-002
  -2.7900739721538823E-003   9.3730804445521787E-003   5.0260703759706815E-002
  -3.0387481808698547E-003   1.1860193913446171E-002   4.6215651987762563E-002
  -2.5728262759659032E-003   4.9529255998425059E-003   5.9706367905777102E-002
  -2.8450059139944264E-003   6.5761596637520792E-003   5.6180159653039408E-002
  -3.1171855520229774E-003   8.6546633647844040E-003   5.2613043057529063E-002
  -3.3893651900515336E-003   1.1188436702939127E-002   4.9005018119245847E-002
  -3.6615448280800864E-003   1.4177479678216809E-002   4.5356084838188870E-002
  -3.0094046628993398E-003   5.6168208795407404E-003   5.7348730272240800E-002
  -3.3398955571612467E-003   7.5648206796030126E-003   5.4382112581230796E-002
  -3.6703864514231258E-003   1.0027144706864888E-002   5.1339780720526890E-002
  -4.0008773456850760E-003   1.3003792961326352E-002   4.8221734690129400E-002
  -4.3313682399469117E-003   1.6494765442987669E-002   4.5027974490038036E-002
  -3.3537865068061640E-003   6.2807161592393634E-003   5.5286331079818785E-002
  -3.7773944842221800E-003   8.5534816954539739E-003   5.2938358540612983E-002
  -4.2010024616381970E-003   1.1399626048945483E-002   5.0479866004793053E-002
  -4.6246104390542143E-003   1.4819149219713439E-002   4.7910853472358066E-002
  -5.0482184164702300E-003   1.8812051207758307E-002   4.5231320943309061E-002
  -3.6059718076864589E-003   6.9446114389374314E-003   5.3519170328510612E-002
  -4.1575026951773952E-003   9.5421427113049351E-003   5.1848897531186267E-002
  -4.7090335826683039E-003   1.2772107391026327E-002   5.0033298910326762E-002
  -5.2605644701592402E-003   1.6634505478100532E-002   4.8072374465932127E-002
  -5.8120953576501488E-003   2.1129336972529167E-002   4.5966124198002056E-002
  -5.0556176869414299E-002   1.8358930958916442E-002   5.8165514168891042E-002
  -4.8622947954272966E-002   1.7199495645605301E-002   5.4916975301689430E-002
  -4.6689719039131605E-002   1.6075354093028627E-002   5.2608667605828496E-002
  -4.4756490123990245E-002   1.4986506301186323E-002   5.1240591081308462E-002
  -4.2823261208848898E-002   1.3932952270078403E-002   5.0812745728129216E-002
  -5.8982008431842217E-002   1.8906434111666370E-002   4.8847338826092213E-002
  -5.6383164395807567E-002   1.7961811828029445E-002   4.7399327619682491E-002
  -5.3784320359772812E-002   1.7054790834015052E-002   4.6342315483718727E-002
  -5.1185476323738099E-002   1.6185371129623202E-002   4.5676302418200795E-002
  -4.8586632287703435E-002   1.5353552714853974E-002   4.5401288423128905E-002
  -6.5369143808209212E-002   1.9453937264416327E-002   3.9742822748523365E-002
  -6.2653916752176061E-002   1.8724128010453533E-002   4.0097646731793876E-002
  -5.9938689696142883E-002   1.8034227575001505E-002   4.0294237684615306E-002
  -5.7223462640109732E-002   1.7384235958060136E-002   4.0332595606987751E-002
  -5.4508235584076567E-002   1.6774153159629435E-002   4.0212720498911281E-002
  -6.9717582998515326E-002   2.0001440417166255E-002   3.0851965936184833E-002
  -6.7435205023378561E-002   1.9486444192877705E-002   3.3011932638023517E-002
  -6.5152827048241824E-002   1.9013664315988013E-002   3.4464434208518406E-002
  -6.2870449073105031E-002   1.8583100786497043E-002   3.5209470647669244E-002
  -6.0588071097968300E-002   1.8194753604404923E-002   3.5247041955476378E-002
  -7.2027326002760406E-002   2.0548943569916212E-002   2.2174768389076283E-002
  -7.0727029209414982E-002   2.0248760375301766E-002   2.6142185338371482E-002
  -6.9426732416069531E-002   1.9993101056974397E-002   2.8852905055427730E-002
  -6.8126435622724135E-002   1.9781965614933953E-002   3.0306927540245179E-002
  -6.6826138829378712E-002   1.9615354049180467E-002   3.0504252792824038E-002
  -4.2823261208848898E-002   1.3932952270078403E-002   5.0812745728129216E-002
  -4.1494031202371495E-002   1.2976169291186307E-002   5.0255983899734596E-002
  -4.0164801195894127E-002   1.2177634655991448E-002   4.9904146824617274E-002
  -3.8835571189416745E-002   1.1537348364494028E-002   4.9757234502777178E-002
  -3.7506341182939357E-002   1.1055310416693775E-002   4.9815246934214352E-002
  -4.8586632287703435E-002   1.5353552714853974E-002   4.5401288423128905E-002
  -4.7023223305773729E-002   1.4571799741914859E-002   4.4825937568258367E-002
  -4.5459814323844022E-002   1.3852576363013729E-002   4.4514019911015168E-002
  -4.3896405341914344E-002   1.3195882578150476E-002   4.4465535451399217E-002
  -4.2332996359984616E-002   1.2601718387325100E-002   4.4680484189410785E-002
  -5.4508235584076567E-002   1.6774153159629435E-002   4.0212720498911281E-002
  -5.2652139182344418E-002   1.6167430192643342E-002   3.9523061867905322E-002
  -5.0796042780612331E-002   1.5527518070035898E-002   3.9155344878876938E-002
  -4.8939946378880168E-002   1.4854416791806869E-002   3.9109569531826038E-002
  -4.7083849977148103E-002   1.4148126357956509E-002   3.9385735826752588E-002
  -6.0588071097968300E-002   1.8194753604404923E-002   3.5247041955476378E-002
  -5.8380778832083660E-002   1.7763060643371915E-002   3.4347356798675760E-002
  -5.6173486566198964E-002   1.7202459777058011E-002   3.3828121728202765E-002
  -5.3966194300314310E-002   1.6512951005463287E-002   3.3689336744057233E-002
  -5.1758902034429621E-002   1.5694534328587820E-002   3.3931001846239588E-002
  -6.6826138829378712E-002   1.9615354049180467E-002   3.0504252792824038E-002
  -6.4209142254991344E-002   1.9358691094100350E-002   2.9298822360569382E-002
  -6.1592145680604032E-002   1.8877401484080361E-002   2.8532350458992412E-002
  -5.8975149106216720E-002   1.8171485219119769E-002   2.8204837088093251E-002
  -5.6358152531829353E-002   1.7240942299219242E-002   2.8316282247871805E-002
  -3.7506341182939357E-002   1.1055310416693775E-002   4.9815246934214352E-002
  -3.5855849772764820E-002   1.0637492493022704E-002   4.9344537276028499E-002
  -3.4205358362590282E-002   1.0189866273911996E-002   4.9115869669893342E-002
  -3.2554866952415759E-002   9.7124317593623027E-003   4.9129244115808934E-002
  -3.0904375542241222E-002   9.2051889493734440E-003   4.9384660613775055E-002
  -4.2332996359984616E-002   1.2601718387325100E-002   4.4680484189410785E-002
  -4.0452386715406657E-002   1.2038949324100517E-002   4.4258878456321787E-002
  -3.8571777070828664E-002   1.1476440922039213E-002   4.4055467139988813E-002
  -3.6691167426250719E-002   1.0914193181141552E-002   4.4070250240412251E-002
  -3.4810557781672719E-002   1.0352206101407302E-002   4.4303227757591879E-002
  -4.7083849977148103E-002   1.4148126357956509E-002   3.9385735826752588E-002
  -4.4996969733461081E-002   1.3440406155178442E-002   3.9043302975362959E-002
  -4.2910089489774095E-002   1.2763015570166542E-002   3.8895216905435126E-002
  -4.0823209246087101E-002   1.2115954602920746E-002   3.8941477616969124E-002
  -3.8736329002400094E-002   1.1499223253441132E-002   3.9182085109964862E-002
  -5.1758902034429621E-002   1.5694534328587820E-002   3.3931001846239588E-002
  -4.9489598826928091E-002   1.4841862986256338E-002   3.3697810833152042E-002
  -4.7220295619426519E-002   1.4049590218293842E-002   3.3635118966231933E-002
  -4.4950992411924948E-002   1.3317716024699857E-002   3.3742926245479143E-002
  -4.2681689204423404E-002   1.2646240405475032E-002   3.4021232670893700E-002
  -5.6358152531829353E-002   1.7240942299219242E-002   2.8316282247871805E-002
  -5.3930273995807632E-002   1.6243319817334234E-002   2.8222402029689120E-002
  -5.1502395459785966E-002   1.5336164866421045E-002   2.8275173322379471E-002
  -4.9074516923764272E-002   1.4519477446479096E-002   2.8474596125942511E-002
  -4.6646638387742578E-002   1.3793257557508876E-002   2.8820670440378671E-002
  -3.0904375542241222E-002   9.2051889493734440E-003   4.9384660613775055E-002
  -2.9198570032250890E-002   8.6608663616061787E-003   4.9142319353417063E-002
  -2.7492764522260578E-002   8.0721925137218625E-003   4.9047860589719411E-002
  -2.5786959012270242E-002   7.4391674057203531E-003   4.9101284322682362E-002
  -2.4081153502279934E-002   6.7617910376016610E-003   4.9302590552305681E-002
  -3.4810557781672719E-002   1.0352206101407302E-002   4.4303227757591879E-002
  -3.2961186011353553E-002   9.7722094241398105E-003   4.3996665721432876E-002
  -3.1111814241034444E-002   9.1559328906423709E-003   4.3829353709271102E-002
  -2.9262442470715265E-002   8.5033765009151357E-003   4.3801291721106680E-002
  -2.7413070700396128E-002   7.8145402549580911E-003   4.3912479756939071E-002
  -3.8736329002400094E-002   1.1499223253441132E-002   3.9182085109964862E-002
  -3.6752023444415374E-002   1.0883552486673304E-002   3.8819373701892146E-002
  -3.4767717886430613E-002   1.0239673267562997E-002   3.8587279845153387E-002
  -3.2783412328445831E-002   9.5675855961100311E-003   3.8485803539748634E-002
  -3.0799106770461132E-002   8.8672894723145212E-003   3.8514944785677852E-002
  -4.2681689204423404E-002   1.2646240405475032E-002   3.4021232670893700E-002
  -4.0571082331436248E-002   1.1994895549206977E-002   3.3610443294794672E-002
  -3.8460475458449182E-002   1.1323413644483454E-002   3.3321638997366190E-002
  -3.6349868585462054E-002   1.0631794691304982E-002   3.3154819778608707E-002
  -3.4239261712474954E-002   9.9200386896709514E-003   3.3109985638521820E-002
  -4.6646638387742578E-002   1.3793257557508876E-002   2.8820670440378671E-002
  -4.4418362672416278E-002   1.3106238611740428E-002   2.8369874500140557E-002
  -4.2190086957090062E-002   1.2407154021404201E-002   2.8032431165909782E-002
  -3.9961811241763789E-002   1.1696003786499782E-002   2.7808340437686638E-002
  -3.7733535526437573E-002   1.0972787907027381E-002   2.7697602315471026E-002
  -2.4081153502279934E-002   6.7617910376016610E-003   4.9302590552305681E-002
  -2.2324036983294618E-002   6.0775927387882178E-003   4.8895165924616568E-002
  -2.0566920464309343E-002   5.4241018387020945E-003   4.8680906201458318E-002
  -1.8809803945324027E-002   4.8013183373435617E-003   4.8659811382830848E-002
  -1.7052687426338753E-002   4.2092422347127512E-003   4.8831881468734184E-002
  -2.7413070700396128E-002   7.8145402549580911E-003   4.3912479756939071E-002
  -2.5468986142386484E-002   7.1190506409241627E-003   4.3471579651196579E-002
  -2.3524901584376832E-002   6.4465341469665538E-003   4.3211450718972172E-002
  -2.1580817026367140E-002   5.7969907730848619E-003   4.3132092960265697E-002
  -1.9636732468357537E-002   5.1704205192797392E-003   4.3233506375076947E-002
  -3.0799106770461132E-002   8.8672894723145212E-003   3.8514944785677852E-002
  -2.8680447904439917E-002   8.1605085430603019E-003   3.8032834923230618E-002
  -2.6561789038418750E-002   7.4689664552308049E-003   3.7719102503288693E-002
  -2.4443130172397638E-002   6.7926632088261656E-003   3.7573747525851776E-002
  -2.2324471306376423E-002   6.1315988038465608E-003   3.7596769990919876E-002
  -3.4239261712474954E-002   9.9200386896709514E-003   3.3109985638521820E-002
  -3.1958422269455125E-002   9.2019664451962330E-003   3.2578931740718603E-002
  -2.9677582826435272E-002   8.4913987634949936E-003   3.2203861554407784E-002
  -2.7396743383415426E-002   7.7883356445674675E-003   3.1984775079589307E-002
  -2.5115903940395590E-002   7.0927770884134100E-003   3.1921672316262938E-002
  -3.7733535526437573E-002   1.0972787907027381E-002   2.7697602315471026E-002
  -3.5302909237431845E-002   1.0243424347332386E-002   2.7109870103660727E-002
  -3.2872282948426215E-002   9.5138310717594043E-003   2.6665727872329681E-002
  -3.0441656659420495E-002   8.7840080803087972E-003   2.6365175621477943E-002
  -2.8011030370414858E-002   8.0539553729804814E-003   2.6208213351105902E-002
  -1.7052687426338753E-002   4.2092422347127512E-003   4.8831881468734184E-002
  -1.5110962590033250E-002   3.6835534091468891E-003   4.8722338981348479E-002
  -1.3169237753727747E-002   3.2599317389840066E-003   4.8867765633552551E-002
  -1.1227512917422230E-002   2.9383772242241660E-003   4.9268161425346318E-002
  -9.2857880811167415E-003   2.7188898648674575E-003   4.9923526356729919E-002
  -1.9636732468357537E-002   5.1704205192797392E-003   4.3233506375076947E-002
  -1.7479260802841901E-002   4.5882988683076387E-003   4.3065043401808056E-002
  -1.5321789137326326E-002   4.0721013029258457E-003   4.3073104947369628E-002
  -1.3164317471810742E-002   3.6218278231337914E-003   4.3257691011761759E-002
  -1.1006845806295115E-002   3.2374784289325165E-003   4.3618801594983880E-002
  -2.2324471306376423E-002   6.1315988038465608E-003   3.7596769990919876E-002
  -2.0029697432410024E-002   5.4930443274681384E-003   3.7333243461954962E-002
  -1.7734923558443652E-002   4.8842708668670048E-003   3.7167796831061292E-002
  -1.5440149684477281E-002   4.3052784220435243E-003   3.7100430098238470E-002
  -1.3145375810510881E-002   3.7560669929974089E-003   3.7131143263487432E-002
  -2.5115903940395590E-002   7.0927770884134100E-003   3.1921672316262938E-002
  -2.2762272478737664E-002   6.3977897866287631E-003   3.1526939161789141E-002
  -2.0408641017079770E-002   5.6964404308086705E-003   3.1151841284627325E-002
  -1.8055009555421862E-002   4.9887290209533145E-003   3.0796378684777616E-002
  -1.5701378093763898E-002   4.2746555570623845E-003   3.0460551362239519E-002
  -2.8011030370414858E-002   8.0539553729804814E-003   2.6208213351105902E-002
  -2.5676985941824770E-002   7.3025352457893877E-003   2.5646130501310704E-002
  -2.3342941513234600E-002   6.5086099947498921E-003   2.5025238308067910E-002
  -2.1008897084644471E-002   5.6721796198626884E-003   2.4345536771378046E-002
  -1.8674852656054342E-002   4.7932441211273602E-003   2.3607025891240530E-002
  -9.2857880811167415E-003   2.7188898648674575E-003   4.9923526356729919E-002
  -7.8658340127591847E-003   2.8566571270053354E-003   5.0332599391065158E-002
  -6.4458799444016002E-003   3.6068664767299197E-003   5.1068231064473835E-002
  -5.0259258760440295E-003   4.9695179140399892E-003   5.2130421376955616E-002
  -3.6059718076864589E-003   6.9446114389374314E-003   5.3519170328510612E-002
  -1.1006845806295115E-002   3.2374784289325165E-003   4.3618801594983880E-002
  -9.2418013892885259E-003   3.1622501803281189E-003   4.4211314206453411E-002
  -7.4767569722818880E-003   3.6393401373292500E-003   4.5167448876148097E-002
  -5.7117125552752258E-003   4.6687482999341612E-003   4.6487205604067355E-002
  -3.9466681382686608E-003   6.2504746681445456E-003   4.8170584390212046E-002
  -1.3145375810510881E-002   3.7560669929974089E-003   3.7131143263487432E-002
  -1.0998177625703442E-002   3.4678432336515130E-003   3.7846971570109134E-002
  -8.8509794408960021E-003   3.6718137979286913E-003   3.8963485354107791E-002
  -6.7037812560885347E-003   4.3679786858287772E-003   4.0480684615483056E-002
  -4.5565830712811228E-003   5.5563378973517152E-003   4.2398569354235166E-002
  -1.5701378093763898E-002   4.2746555570623845E-003   3.0460551362239519E-002
  -1.3134962722003891E-002   3.7734362869744908E-003   3.1239571482031908E-002
  -1.0568547350243910E-002   3.7042874585280217E-003   3.2456340498353053E-002
  -8.0021319784838868E-003   4.0672090717226161E-003   3.4110858411202510E-002
  -5.4357166067238658E-003   4.8622011265588572E-003   3.6203125220580439E-002
  -1.8674852656054342E-002   4.7932441211273602E-003   2.3607025891240530E-002
  -1.5652156678190032E-002   4.0790293402977462E-003   2.4389113942222207E-002
  -1.2629460700325640E-002   3.7367611191277128E-003   2.5646014308883858E-002
  -9.6067647224612890E-003   3.7664394576171281E-003   2.7377726991225732E-002
  -6.5840687445969381E-003   4.1680643557658881E-003   2.9584251989247856E-002
  -3.6059718076864589E-003   6.9446114389374314E-003   5.3519170328510612E-002
  -4.1575026951773952E-003   9.5421427113049351E-003   5.1848897531186267E-002
  -4.7090335826683039E-003   1.2772107391026327E-002   5.0033298910326762E-002
  -5.2605644701592402E-003   1.6634505478100532E-002   4.8072374465932127E-002
  -5.8120953576501488E-003   2.1129336972529167E-002   4.5966124198002056E-002
  -3.9466681382686608E-003   6.2504746681445456E-003   4.8170584390212046E-002
  -4.5397047629291282E-003   8.6922818046497041E-003   4.7235051445992493E-002
  -5.1327413875896788E-003   1.2301932272139965E-002   4.6361832850969231E-002
  -5.7257780122502502E-003   1.7079426070615002E-002   4.5550928605142149E-002
  -6.3188146369106968E-003   2.3024763200075959E-002   4.4802338708511025E-002
  -4.5565830712811228E-003   5.5563378973517152E-003   4.2398569354235166E-002
  -4.9834852603798593E-003   7.8424208979944732E-003   4.2733186186752120E-002
  -5.4103874494786236E-003   1.1831757153254033E-002   4.3337757541196356E-002
  -5.8372896385773879E-003   1.7524346663129856E-002   4.4212283417568075E-002
  -6.2641918276761799E-003   2.4920189427622752E-002   4.5356763815867285E-002
  -5.4357166067238658E-003   4.8622011265588572E-003   3.6203125220580439E-002
  -5.4888441875294899E-003   6.9925599913392422E-003   3.8343301753465044E-002
  -5.5419717683351695E-003   1.1361582034367997E-002   4.0961072981008456E-002
  -5.5950993491407659E-003   1.7969267255644628E-002   4.4056438903211322E-002
  -5.6482269299464177E-003   2.6815615655169656E-002   4.7629399520072224E-002
  -6.5840687445969381E-003   4.1680643557658881E-003   2.9584251989247856E-002
  -6.0557815443781082E-003   6.1426990846841223E-003   3.4065398146131631E-002
  -5.5274943441593061E-003   1.0891406915481822E-002   3.9231779170405712E-002
  -4.9992071439404345E-003   1.8414187848159090E-002   4.5083395062069737E-002
  -4.4709199437216185E-003   2.8711041882716337E-002   5.1620245821124122E-002
  -7.2027326002760406E-002   2.0548943569916212E-002   2.2174768389076283E-002
  -7.0727029209414982E-002   2.0248760375301766E-002   2.6142185338371482E-002
  -6.9426732416069531E-002   1.9993101056974397E-002   2.8852905055427730E-002
  -6.8126435622724135E-002   1.9781965614933953E-002   3.0306927540245179E-002
  -6.6826138829378712E-002   1.9615354049180467E-002   3.0504252792824038E-002
  -7.5772290639738560E-002   2.3581345969956535E-002   2.0569675744133709E-002
  -7.4948831253114828E-002   2.2711245052071644E-002   2.0515841005006835E-002
  -7.4125371866491152E-002   2.2012676133075684E-002   2.0765028684675169E-002
  -7.3301912479867504E-002   2.1485639212968494E-002   2.1317238783138820E-002
  -7.2478453093243828E-002   2.1130134291750424E-002   2.2172471300397595E-002
  -8.4426394728243620E-002   2.6613748369996776E-002   1.8331161314619801E-002
  -8.2520053097307644E-002   2.5173729728841410E-002   1.4383083009672906E-002
  -8.0613711466371751E-002   2.4032251209176771E-002   1.2297746774555120E-002
  -7.8707369835435831E-002   2.3189312811003060E-002   1.2075152609266646E-002
  -7.6801028204499924E-002   2.2644914534320326E-002   1.3715300513807427E-002
  -9.7989638268275669E-002   2.9646150770037086E-002   1.5459225100534265E-002
  -9.3440694741993457E-002   2.7636214405611176E-002   7.7439113523691191E-003
  -8.8891751215711245E-002   2.6051826285277985E-002   3.4510593250673630E-003
  -8.4342807689429034E-002   2.4892986409037754E-002   2.5806690186288917E-003
  -7.9793864163146822E-002   2.4159694776890034E-002   5.1327404330535620E-003
 -0.11646202125983462        3.2678553170077396E-002   1.1953867101877291E-002
 -0.10771075618717207        3.0098699082380942E-002   5.9832603309606380E-004
  -9.8959491114509635E-002   2.8071401361379228E-002  -5.7750336637879540E-003
  -9.0208226041847139E-002   2.6596660007072177E-002  -7.1662119887746234E-003
  -8.1456960969184644E-002   2.5674475019460075E-002  -3.5752089418640276E-003
  -6.6826138829378712E-002   1.9615354049180467E-002   3.0504252792824038E-002
  -6.4209142254991344E-002   1.9358691094100350E-002   2.9298822360569382E-002
  -6.1592145680604032E-002   1.8877401484080361E-002   2.8532350458992412E-002
  -5.8975149106216720E-002   1.8171485219119769E-002   2.8204837088093251E-002
  -5.6358152531829353E-002   1.7240942299219242E-002   2.8316282247871805E-002
  -7.2478453093243828E-002   2.1130134291750424E-002   2.2172471300397595E-002
  -6.9609771891430361E-002   2.0764792285691155E-002   2.1901589705744753E-002
  -6.6741090689616922E-002   2.0208244111060883E-002   2.1695118835266591E-002
  -6.3872409487803414E-002   1.9460489767859319E-002   2.1553058688962831E-002
  -6.1003728285989961E-002   1.8521529256086966E-002   2.1475409266833778E-002
  -7.6801028204499924E-002   2.2644914534320326E-002   1.3715300513807427E-002
  -7.4055210181763517E-002   2.2170893477281781E-002   1.4412388243125643E-002
  -7.1309392159027096E-002   2.1539086738041564E-002   1.4799338890115143E-002
  -6.8563574136290703E-002   2.0749494316598976E-002   1.4876152454776050E-002
  -6.5817756113554352E-002   1.9802116212954635E-002   1.4642828937108193E-002
  -7.9793864163146822E-002   2.4159694776890034E-002   5.1327404330535620E-003
  -7.7545457125990730E-002   2.3576994668872718E-002   6.8312179727117554E-003
  -7.5297050088834611E-002   2.2869929365021972E-002   7.8450106235382049E-003
  -7.3048643051678505E-002   2.2038498865338527E-002   8.1741183855326832E-003
  -7.0800236014522400E-002   2.1082703169822387E-002   7.8185412586953135E-003
  -8.1456960969184644E-002   2.5674475019460075E-002  -3.5752089418640276E-003
  -8.0080512724112041E-002   2.4983095860463267E-002  -8.4192110549663468E-004
  -7.8704064479039382E-002   2.4200771992002768E-002   8.3213403553564214E-004
  -7.7327616233966723E-002   2.3327503414078243E-002   1.4469564812329763E-003
  -7.5951167988894119E-002   2.2363290126689916E-002   1.0025462315950140E-003
  -5.6358152531829353E-002   1.7240942299219242E-002   2.8316282247871805E-002
  -5.3930273995807632E-002   1.6243319817334234E-002   2.8222402029689120E-002
  -5.1502395459785966E-002   1.5336164866421045E-002   2.8275173322379471E-002
  -4.9074516923764272E-002   1.4519477446479096E-002   2.8474596125942511E-002
  -4.6646638387742578E-002   1.3793257557508876E-002   2.8820670440378671E-002
  -6.1003728285989961E-002   1.8521529256086966E-002   2.1475409266833778E-002
  -5.8416472225483379E-002   1.7527846038070810E-002   2.1311917132387032E-002
  -5.5829216164976769E-002   1.6615923576138558E-002   2.1320528536037275E-002
  -5.3241960104470125E-002   1.5785761870289725E-002   2.1501243477784385E-002
  -5.0654704043963578E-002   1.5037360920524989E-002   2.1854061957628290E-002
  -6.5817756113554352E-002   1.9802116212954635E-002   1.4642828937108193E-002
  -6.3045670501338802E-002   1.8812372258807192E-002   1.4401018111509567E-002
  -6.0273584889123336E-002   1.7895682285855787E-002   1.4356762851231920E-002
  -5.7501499276907841E-002   1.7052046294100349E-002   1.4510063156274993E-002
  -5.4729413664692320E-002   1.6281464283540964E-002   1.4860919026639288E-002
  -7.0800236014522400E-002   2.1082703169822387E-002   7.8185412586953135E-003
  -6.7817868823374039E-002   2.0096898479543782E-002   7.4897049670571564E-003
  -6.4835501632225664E-002   1.9175440995572935E-002   7.3838762679638934E-003
  -6.1853134441077297E-002   1.8318330717911144E-002   7.5010551614153312E-003
  -5.8870767249928943E-002   1.7525567646557064E-002   7.8412416474118278E-003
  -7.5951167988894119E-002   2.2363290126689916E-002   1.0025462315950140E-003
  -7.2733067191588896E-002   2.1381424700279927E-002   5.7797769902945273E-004
  -6.9514966394283728E-002   2.0455199705290611E-002   4.0186878623305056E-004
  -6.6296865596978505E-002   1.9584615141721433E-002   4.7421949320503032E-004
  -6.3078764799673337E-002   1.8769671009572941E-002   7.9502981994583610E-004
  -4.6646638387742578E-002   1.3793257557508876E-002   2.8820670440378671E-002
  -4.4418362672416278E-002   1.3106238611740428E-002   2.8369874500140557E-002
  -4.2190086957090062E-002   1.2407154021404201E-002   2.8032431165909782E-002
  -3.9961811241763789E-002   1.1696003786499782E-002   2.7808340437686638E-002
  -3.7733535526437573E-002   1.0972787907027381E-002   2.7697602315471026E-002
  -5.0654704043963578E-002   1.5037360920524989E-002   2.1854061957628290E-002
  -4.8281849935310872E-002   1.4322642076754655E-002   2.1354616745869970E-002
  -4.5908995826658028E-002   1.3593526688889801E-002   2.1030975714757094E-002
  -4.3536141718005308E-002   1.2850014756930317E-002   2.0883138864289705E-002
  -4.1163287609352478E-002   1.2092106280876314E-002   2.0911106194467843E-002
  -5.4729413664692320E-002   1.6281464283540964E-002   1.4860919026639288E-002
  -5.2149529588075130E-002   1.5539045541768992E-002   1.4310493643834132E-002
  -4.9569645511457948E-002   1.4779899356375727E-002   1.3998324016312631E-002
  -4.6989761434840696E-002   1.4004025727361183E-002   1.3924410144074421E-002
  -4.4409877358223555E-002   1.3211424654725246E-002   1.4088752027119733E-002
  -5.8870767249928943E-002   1.7525567646557064E-002   7.8412416474118278E-003
  -5.6021401630709317E-002   1.6755449006782941E-002   7.2375051940333501E-003
  -5.3172036011489655E-002   1.5966272023861711E-002   6.9344760705761909E-003
  -5.0322670392269966E-002   1.5158036697791661E-002   6.9321542770406823E-003
  -4.7473304773050375E-002   1.4330743028573956E-002   7.2305398134263829E-003
  -6.3078764799673337E-002   1.8769671009572941E-002   7.9502981994583610E-004
  -5.9897466063213334E-002   1.7971852471797445E-002   1.3565139646742885E-004
  -5.6716167326753275E-002   1.7152644691347335E-002  -1.6056812245168750E-004
  -5.3534868590293300E-002   1.6312047668222494E-002  -9.3628736811735003E-005
  -5.0353569853833213E-002   1.5450061402423110E-002   3.3646955338806350E-004
  -3.7733535526437573E-002   1.0972787907027381E-002   2.7697602315471026E-002
  -3.5302909237431845E-002   1.0243424347332386E-002   2.7109870103660727E-002
  -3.2872282948426215E-002   9.5138310717594043E-003   2.6665727872329681E-002
  -3.0441656659420495E-002   8.7840080803087972E-003   2.6365175621477943E-002
  -2.8011030370414858E-002   8.0539553729804814E-003   2.6208213351105902E-002
  -4.1163287609352478E-002   1.2092106280876314E-002   2.0911106194467843E-002
  -3.8615066486446650E-002   1.1326615843708421E-002   2.0480042623116979E-002
  -3.6066845363540656E-002   1.0560358028407574E-002   2.0140578739087200E-002
  -3.3518624240634752E-002   9.7933328349735990E-003   1.9892714542378565E-002
  -3.0970403117728834E-002   9.0255402634067394E-003   1.9736450032990960E-002
  -4.4409877358223555E-002   1.3211424654725246E-002   1.4088752027119733E-002
  -4.1796051694575620E-002   1.2409807340084456E-002   1.3813819433973223E-002
  -3.9182226030927705E-002   1.1606884985055743E-002   1.3578496234989038E-002
  -3.6568400367279805E-002   1.0802657589638179E-002   1.3382782430168168E-002
  -3.3954574703631890E-002   9.9971251538327199E-003   1.3226678019510191E-002
  -4.7473304773050375E-002   1.4330743028573956E-002   7.2305398134263829E-003
  -4.4845864861818796E-002   1.3492998836460823E-002   7.1112005362288511E-003
  -4.2218424950587190E-002   1.2653411941703691E-002   6.9794803600353381E-003
  -3.9590985039355590E-002   1.1811982344302981E-002   6.8353792848469160E-003
  -3.6963545128124012E-002   1.0968710044258728E-002   6.6788973106627833E-003
  -5.0353569853833213E-002   1.5450061402423110E-002   3.3646955338806350E-004
  -4.7764505988176276E-002   1.4576190332836636E-002   3.7218592988375043E-004
  -4.5175442122519227E-002   1.3699938898351860E-002   3.4353111422583127E-004
  -4.2586378256862206E-002   1.2821307098967893E-002   2.5050510641447948E-004
  -3.9997314391205241E-002   1.1940294934685181E-002   9.3107906449008127E-005
  -2.8011030370414858E-002   8.0539553729804814E-003   2.6208213351105902E-002
  -2.5676985941824770E-002   7.3025352457893877E-003   2.5646130501310704E-002
  -2.3342941513234600E-002   6.5086099947498921E-003   2.5025238308067910E-002
  -2.1008897084644471E-002   5.6721796198626884E-003   2.4345536771378046E-002
  -1.8674852656054342E-002   4.7932441211273602E-003   2.3607025891240530E-002
  -3.0970403117728834E-002   9.0255402634067394E-003   1.9736450032990960E-002
  -2.8672939751976337E-002   8.2601869621060642E-003   1.9153367022625101E-002
  -2.6375476386223937E-002   7.5004795794708368E-003   1.8555931230031519E-002
  -2.4078013020471453E-002   6.7464181155014388E-003   1.7944142655209994E-002
  -2.1780549654718984E-002   5.9980025701978912E-003   1.7318001298160302E-002
  -3.3954574703631890E-002   9.9971251538327199E-003   1.3226678019510191E-002
  -3.1649235839497636E-002   9.2178386784230737E-003   1.2670745891087604E-002
  -2.9343896975363437E-002   8.4923491641918925E-003   1.2144917541656308E-002
  -2.7038558111229235E-002   7.8206566111403003E-003   1.1649192971216783E-002
  -2.4733219247094984E-002   7.2027610192683111E-003   1.1183572179768619E-002
  -3.6963545128124012E-002   1.0968710044258728E-002   6.6788973106627833E-003
  -3.4605874204388584E-002   1.0175490394739806E-002   6.1982671066969156E-003
  -3.2248203280653129E-002   9.4842187489122265E-003   5.7921972429422174E-003
  -2.9890532356917670E-002   8.8948951067795504E-003   5.4606877193983314E-003
  -2.7532861433182249E-002   8.4075194683387311E-003   5.2037385360653859E-003
  -3.9997314391205241E-002   1.1940294934685181E-002   9.3107906449008127E-005
  -3.7542854846649099E-002   1.1133142111056538E-002  -2.6406933054612391E-004
  -3.5088395302093012E-002   1.0476088333633893E-002  -5.0222966611093711E-004
  -3.2633935757536925E-002   9.9691336024181343E-003  -6.2137310024538289E-004
  -3.0179476212980783E-002   9.6122779174092621E-003  -6.2149963294910737E-004
  -1.8674852656054342E-002   4.7932441211273602E-003   2.3607025891240530E-002
  -1.5652156678190032E-002   4.0790293402977462E-003   2.4389113942222207E-002
  -1.2629460700325640E-002   3.7367611191277128E-003   2.5646014308883858E-002
  -9.6067647224612890E-003   3.7664394576171281E-003   2.7377726991225732E-002
  -6.5840687445969381E-003   4.1680643557658881E-003   2.9584251989247856E-002
  -2.1780549654718984E-002   5.9980025701978912E-003   1.7318001298160302E-002
  -1.8553213595410178E-002   5.3418419735169476E-003   1.8258349790314710E-002
  -1.5325877536101290E-002   4.8645453554159446E-003   1.9133166129677776E-002
  -1.2098541476792422E-002   4.5661127158944173E-003   1.9942450316249818E-002
  -8.8712054174835964E-003   4.4465440549533719E-003   2.0686202350030602E-002
  -2.4733219247094984E-002   7.2027610192683111E-003   1.1183572179768619E-002
  -2.1841587574812985E-002   6.6046546067363432E-003   1.2089098532016007E-002
  -1.8949955902530950E-002   5.9923295917039404E-003   1.2388748263000696E-002
  -1.6058324230248954E-002   5.3657859741720361E-003   1.2082521372723164E-002
  -1.3166692557966972E-002   4.7250237541409112E-003   1.1170417861182863E-002
  -2.7532861433182249E-002   8.4075194683387311E-003   5.2037385360653859E-003
  -2.5517278616398454E-002   7.8674672399554751E-003   5.8813601673261481E-003
  -2.3501695799614628E-002   7.1201138279920542E-003   5.4127607088531211E-003
  -2.1486112982830867E-002   6.1654592324502672E-003   3.7979401606463483E-003
  -1.9470530166047020E-002   5.0035034533288669E-003   1.0368985227053387E-003
  -3.0179476212980783E-002   9.6122779174092621E-003  -6.2149963294910737E-004
  -2.9580286720166660E-002   9.1302798731746071E-003  -3.6486530375423598E-004
  -2.8981097227352370E-002   8.2478980642802791E-003  -1.7947965327651805E-003
  -2.8381907734538164E-002   6.9651324907275269E-003  -4.9112933199808098E-003
  -2.7782718241723958E-002   5.2819831525159344E-003  -9.7143556654019081E-003
  -6.5840687445969381E-003   4.1680643557658881E-003   2.9584251989247856E-002
  -6.0557815443781082E-003   6.1426990846841223E-003   3.4065398146131631E-002
  -5.5274943441593061E-003   1.0891406915481822E-002   3.9231779170405712E-002
  -4.9992071439404345E-003   1.8414187848159090E-002   4.5083395062069737E-002
  -4.4709199437216185E-003   2.8711041882716337E-002   5.1620245821124122E-002
  -8.8712054174835964E-003   4.4465440549533719E-003   2.0686202350030602E-002
  -7.5853555807039175E-003   5.6593110293288729E-003   2.5861266005454520E-002
  -6.2995057439242663E-003   9.3578852957573733E-003   3.1866220066609940E-002
  -5.0136559071445527E-003   1.5542266854239803E-002   3.8701064533497476E-002
  -3.7278060703649363E-003   2.4212455704775593E-002   4.6365799406115737E-002
  -1.3166692557966972E-002   4.7250237541409112E-003   1.1170417861182863E-002
  -1.0978624546285086E-002   5.1759229739736790E-003   1.6751133205321289E-002
  -8.7905565346032485E-003   7.8243636760327168E-003   2.3306394493532348E-002
  -6.6024885229215048E-003   1.2670345860320297E-002   3.0836201725816574E-002
  -4.4144205112395252E-003   1.9713869526834404E-002   3.9340554902173475E-002
  -1.9470530166047020E-002   5.0035034533288669E-003   1.0368985227053387E-003
  -1.6235588441121697E-002   4.6925349186181242E-003   6.7349997457320510E-003
  -1.3000646716196369E-002   6.2908420563088305E-003   1.3552302451172598E-002
  -9.7657049912710202E-003   9.7984248664005676E-003   2.1488806639027754E-002
  -6.5307632663457182E-003   1.5215283348893771E-002   3.0544512309296973E-002
  -2.7782718241723958E-002   5.2819831525159344E-003  -9.7143556654019081E-003
  -2.3356247265213792E-002   4.2091468632630136E-003  -4.1871343733132504E-003
  -1.8929776288703570E-002   4.7573204365836119E-003   2.6039439395311170E-003
  -1.4503305312193543E-002   6.9265038724808381E-003   1.0658879273131083E-002
  -1.0076834335683182E-002   1.0716697170952472E-002   1.9977671627485760E-002
 </DataArray>
 </PointData>
 </Piece>
 </UnstructuredGrid>
 </VTKFile>
