 <VTKFile type="UnstructuredGrid"  version="0.1"   >
 <UnstructuredGrid>
 <Piece  NumberOfPoints="          1600 "  NumberOfCells="         1024 ">
 <Points>
 <DataArray  type="Float64" NumberOfComponents="3"  format="ascii" >
   0.0000000000000000        0.0000000000000000        0.0000000000000000     
   3.1250000000000000E-002   0.0000000000000000        0.0000000000000000     
   6.2500000000000000E-002   0.0000000000000000        0.0000000000000000     
   9.3750000000000000E-002   0.0000000000000000        0.0000000000000000     
  0.12500000000000000        0.0000000000000000        0.0000000000000000     
   0.0000000000000000        3.1250000000000000E-002   0.0000000000000000     
   3.1250000000000000E-002   3.1250000000000000E-002   0.0000000000000000     
   6.2500000000000000E-002   3.1250000000000000E-002   0.0000000000000000     
   9.3750000000000000E-002   3.1250000000000000E-002   0.0000000000000000     
  0.12500000000000000        3.1250000000000000E-002   0.0000000000000000     
   0.0000000000000000        6.2500000000000000E-002   0.0000000000000000     
   3.1250000000000000E-002   6.2500000000000000E-002   0.0000000000000000     
   6.2500000000000000E-002   6.2500000000000000E-002   0.0000000000000000     
   9.3750000000000000E-002   6.2500000000000000E-002   0.0000000000000000     
  0.12500000000000000        6.2500000000000000E-002   0.0000000000000000     
   0.0000000000000000        9.3750000000000000E-002   0.0000000000000000     
   3.1250000000000000E-002   9.3750000000000000E-002   0.0000000000000000     
   6.2500000000000000E-002   9.3750000000000000E-002   0.0000000000000000     
   9.3750000000000000E-002   9.3750000000000000E-002   0.0000000000000000     
  0.12500000000000000        9.3750000000000000E-002   0.0000000000000000     
   0.0000000000000000       0.12500000000000000        0.0000000000000000     
   3.1250000000000000E-002  0.12500000000000000        0.0000000000000000     
   6.2500000000000000E-002  0.12500000000000000        0.0000000000000000     
   9.3750000000000000E-002  0.12500000000000000        0.0000000000000000     
  0.12500000000000000       0.12500000000000000        0.0000000000000000     
  0.12500000000000000        0.0000000000000000        0.0000000000000000     
  0.15625000000000000        0.0000000000000000        0.0000000000000000     
  0.18750000000000000        0.0000000000000000        0.0000000000000000     
  0.21875000000000000        0.0000000000000000        0.0000000000000000     
  0.25000000000000000        0.0000000000000000        0.0000000000000000     
  0.12500000000000000        3.1250000000000000E-002   0.0000000000000000     
  0.15625000000000000        3.1250000000000000E-002   0.0000000000000000     
  0.18750000000000000        3.1250000000000000E-002   0.0000000000000000     
  0.21875000000000000        3.1250000000000000E-002   0.0000000000000000     
  0.25000000000000000        3.1250000000000000E-002   0.0000000000000000     
  0.12500000000000000        6.2500000000000000E-002   0.0000000000000000     
  0.15625000000000000        6.2500000000000000E-002   0.0000000000000000     
  0.18750000000000000        6.2500000000000000E-002   0.0000000000000000     
  0.21875000000000000        6.2500000000000000E-002   0.0000000000000000     
  0.25000000000000000        6.2500000000000000E-002   0.0000000000000000     
  0.12500000000000000        9.3750000000000000E-002   0.0000000000000000     
  0.15625000000000000        9.3750000000000000E-002   0.0000000000000000     
  0.18750000000000000        9.3750000000000000E-002   0.0000000000000000     
  0.21875000000000000        9.3750000000000000E-002   0.0000000000000000     
  0.25000000000000000        9.3750000000000000E-002   0.0000000000000000     
  0.12500000000000000       0.12500000000000000        0.0000000000000000     
  0.15625000000000000       0.12500000000000000        0.0000000000000000     
  0.18750000000000000       0.12500000000000000        0.0000000000000000     
  0.21875000000000000       0.12500000000000000        0.0000000000000000     
  0.25000000000000000       0.12500000000000000        0.0000000000000000     
  0.25000000000000000        0.0000000000000000        0.0000000000000000     
  0.28125000000000000        0.0000000000000000        0.0000000000000000     
  0.31250000000000000        0.0000000000000000        0.0000000000000000     
  0.34375000000000000        0.0000000000000000        0.0000000000000000     
  0.37500000000000000        0.0000000000000000        0.0000000000000000     
  0.25000000000000000        3.1250000000000000E-002   0.0000000000000000     
  0.28125000000000000        3.1250000000000000E-002   0.0000000000000000     
  0.31250000000000000        3.1250000000000000E-002   0.0000000000000000     
  0.34375000000000000        3.1250000000000000E-002   0.0000000000000000     
  0.37500000000000000        3.1250000000000000E-002   0.0000000000000000     
  0.25000000000000000        6.2500000000000000E-002   0.0000000000000000     
  0.28125000000000000        6.2500000000000000E-002   0.0000000000000000     
  0.31250000000000000        6.2500000000000000E-002   0.0000000000000000     
  0.34375000000000000        6.2500000000000000E-002   0.0000000000000000     
  0.37500000000000000        6.2500000000000000E-002   0.0000000000000000     
  0.25000000000000000        9.3750000000000000E-002   0.0000000000000000     
  0.28125000000000000        9.3750000000000000E-002   0.0000000000000000     
  0.31250000000000000        9.3750000000000000E-002   0.0000000000000000     
  0.34375000000000000        9.3750000000000000E-002   0.0000000000000000     
  0.37500000000000000        9.3750000000000000E-002   0.0000000000000000     
  0.25000000000000000       0.12500000000000000        0.0000000000000000     
  0.28125000000000000       0.12500000000000000        0.0000000000000000     
  0.31250000000000000       0.12500000000000000        0.0000000000000000     
  0.34375000000000000       0.12500000000000000        0.0000000000000000     
  0.37500000000000000       0.12500000000000000        0.0000000000000000     
  0.37500000000000000        0.0000000000000000        0.0000000000000000     
  0.40625000000000000        0.0000000000000000        0.0000000000000000     
  0.43750000000000000        0.0000000000000000        0.0000000000000000     
  0.46875000000000000        0.0000000000000000        0.0000000000000000     
  0.50000000000000000        0.0000000000000000        0.0000000000000000     
  0.37500000000000000        3.1250000000000000E-002   0.0000000000000000     
  0.40625000000000000        3.1250000000000000E-002   0.0000000000000000     
  0.43750000000000000        3.1250000000000000E-002   0.0000000000000000     
  0.46875000000000000        3.1250000000000000E-002   0.0000000000000000     
  0.50000000000000000        3.1250000000000000E-002   0.0000000000000000     
  0.37500000000000000        6.2500000000000000E-002   0.0000000000000000     
  0.40625000000000000        6.2500000000000000E-002   0.0000000000000000     
  0.43750000000000000        6.2500000000000000E-002   0.0000000000000000     
  0.46875000000000000        6.2500000000000000E-002   0.0000000000000000     
  0.50000000000000000        6.2500000000000000E-002   0.0000000000000000     
  0.37500000000000000        9.3750000000000000E-002   0.0000000000000000     
  0.40625000000000000        9.3750000000000000E-002   0.0000000000000000     
  0.43750000000000000        9.3750000000000000E-002   0.0000000000000000     
  0.46875000000000000        9.3750000000000000E-002   0.0000000000000000     
  0.50000000000000000        9.3750000000000000E-002   0.0000000000000000     
  0.37500000000000000       0.12500000000000000        0.0000000000000000     
  0.40625000000000000       0.12500000000000000        0.0000000000000000     
  0.43750000000000000       0.12500000000000000        0.0000000000000000     
  0.46875000000000000       0.12500000000000000        0.0000000000000000     
  0.50000000000000000       0.12500000000000000        0.0000000000000000     
  0.50000000000000000        0.0000000000000000        0.0000000000000000     
  0.53125000000000000        0.0000000000000000        0.0000000000000000     
  0.56250000000000000        0.0000000000000000        0.0000000000000000     
  0.59375000000000000        0.0000000000000000        0.0000000000000000     
  0.62500000000000000        0.0000000000000000        0.0000000000000000     
  0.50000000000000000        3.1250000000000000E-002   0.0000000000000000     
  0.53125000000000000        3.1250000000000000E-002   0.0000000000000000     
  0.56250000000000000        3.1250000000000000E-002   0.0000000000000000     
  0.59375000000000000        3.1250000000000000E-002   0.0000000000000000     
  0.62500000000000000        3.1250000000000000E-002   0.0000000000000000     
  0.50000000000000000        6.2500000000000000E-002   0.0000000000000000     
  0.53125000000000000        6.2500000000000000E-002   0.0000000000000000     
  0.56250000000000000        6.2500000000000000E-002   0.0000000000000000     
  0.59375000000000000        6.2500000000000000E-002   0.0000000000000000     
  0.62500000000000000        6.2500000000000000E-002   0.0000000000000000     
  0.50000000000000000        9.3750000000000000E-002   0.0000000000000000     
  0.53125000000000000        9.3750000000000000E-002   0.0000000000000000     
  0.56250000000000000        9.3750000000000000E-002   0.0000000000000000     
  0.59375000000000000        9.3750000000000000E-002   0.0000000000000000     
  0.62500000000000000        9.3750000000000000E-002   0.0000000000000000     
  0.50000000000000000       0.12500000000000000        0.0000000000000000     
  0.53125000000000000       0.12500000000000000        0.0000000000000000     
  0.56250000000000000       0.12500000000000000        0.0000000000000000     
  0.59375000000000000       0.12500000000000000        0.0000000000000000     
  0.62500000000000000       0.12500000000000000        0.0000000000000000     
  0.62500000000000000        0.0000000000000000        0.0000000000000000     
  0.65625000000000000        0.0000000000000000        0.0000000000000000     
  0.68750000000000000        0.0000000000000000        0.0000000000000000     
  0.71875000000000000        0.0000000000000000        0.0000000000000000     
  0.75000000000000000        0.0000000000000000        0.0000000000000000     
  0.62500000000000000        3.1250000000000000E-002   0.0000000000000000     
  0.65625000000000000        3.1250000000000000E-002   0.0000000000000000     
  0.68750000000000000        3.1250000000000000E-002   0.0000000000000000     
  0.71875000000000000        3.1250000000000000E-002   0.0000000000000000     
  0.75000000000000000        3.1250000000000000E-002   0.0000000000000000     
  0.62500000000000000        6.2500000000000000E-002   0.0000000000000000     
  0.65625000000000000        6.2500000000000000E-002   0.0000000000000000     
  0.68750000000000000        6.2500000000000000E-002   0.0000000000000000     
  0.71875000000000000        6.2500000000000000E-002   0.0000000000000000     
  0.75000000000000000        6.2500000000000000E-002   0.0000000000000000     
  0.62500000000000000        9.3750000000000000E-002   0.0000000000000000     
  0.65625000000000000        9.3750000000000000E-002   0.0000000000000000     
  0.68750000000000000        9.3750000000000000E-002   0.0000000000000000     
  0.71875000000000000        9.3750000000000000E-002   0.0000000000000000     
  0.75000000000000000        9.3750000000000000E-002   0.0000000000000000     
  0.62500000000000000       0.12500000000000000        0.0000000000000000     
  0.65625000000000000       0.12500000000000000        0.0000000000000000     
  0.68750000000000000       0.12500000000000000        0.0000000000000000     
  0.71875000000000000       0.12500000000000000        0.0000000000000000     
  0.75000000000000000       0.12500000000000000        0.0000000000000000     
  0.75000000000000000        0.0000000000000000        0.0000000000000000     
  0.78125000000000000        0.0000000000000000        0.0000000000000000     
  0.81250000000000000        0.0000000000000000        0.0000000000000000     
  0.84375000000000000        0.0000000000000000        0.0000000000000000     
  0.87500000000000000        0.0000000000000000        0.0000000000000000     
  0.75000000000000000        3.1250000000000000E-002   0.0000000000000000     
  0.78125000000000000        3.1250000000000000E-002   0.0000000000000000     
  0.81250000000000000        3.1250000000000000E-002   0.0000000000000000     
  0.84375000000000000        3.1250000000000000E-002   0.0000000000000000     
  0.87500000000000000        3.1250000000000000E-002   0.0000000000000000     
  0.75000000000000000        6.2500000000000000E-002   0.0000000000000000     
  0.78125000000000000        6.2500000000000000E-002   0.0000000000000000     
  0.81250000000000000        6.2500000000000000E-002   0.0000000000000000     
  0.84375000000000000        6.2500000000000000E-002   0.0000000000000000     
  0.87500000000000000        6.2500000000000000E-002   0.0000000000000000     
  0.75000000000000000        9.3750000000000000E-002   0.0000000000000000     
  0.78125000000000000        9.3750000000000000E-002   0.0000000000000000     
  0.81250000000000000        9.3750000000000000E-002   0.0000000000000000     
  0.84375000000000000        9.3750000000000000E-002   0.0000000000000000     
  0.87500000000000000        9.3750000000000000E-002   0.0000000000000000     
  0.75000000000000000       0.12500000000000000        0.0000000000000000     
  0.78125000000000000       0.12500000000000000        0.0000000000000000     
  0.81250000000000000       0.12500000000000000        0.0000000000000000     
  0.84375000000000000       0.12500000000000000        0.0000000000000000     
  0.87500000000000000       0.12500000000000000        0.0000000000000000     
  0.87500000000000000        0.0000000000000000        0.0000000000000000     
  0.90625000000000000        0.0000000000000000        0.0000000000000000     
  0.93750000000000000        0.0000000000000000        0.0000000000000000     
  0.96875000000000000        0.0000000000000000        0.0000000000000000     
   1.0000000000000000        0.0000000000000000        0.0000000000000000     
  0.87500000000000000        3.1250000000000000E-002   0.0000000000000000     
  0.90625000000000000        3.1250000000000000E-002   0.0000000000000000     
  0.93750000000000000        3.1250000000000000E-002   0.0000000000000000     
  0.96875000000000000        3.1250000000000000E-002   0.0000000000000000     
   1.0000000000000000        3.1250000000000000E-002   0.0000000000000000     
  0.87500000000000000        6.2500000000000000E-002   0.0000000000000000     
  0.90625000000000000        6.2500000000000000E-002   0.0000000000000000     
  0.93750000000000000        6.2500000000000000E-002   0.0000000000000000     
  0.96875000000000000        6.2500000000000000E-002   0.0000000000000000     
   1.0000000000000000        6.2500000000000000E-002   0.0000000000000000     
  0.87500000000000000        9.3750000000000000E-002   0.0000000000000000     
  0.90625000000000000        9.3750000000000000E-002   0.0000000000000000     
  0.93750000000000000        9.3750000000000000E-002   0.0000000000000000     
  0.96875000000000000        9.3750000000000000E-002   0.0000000000000000     
   1.0000000000000000        9.3750000000000000E-002   0.0000000000000000     
  0.87500000000000000       0.12500000000000000        0.0000000000000000     
  0.90625000000000000       0.12500000000000000        0.0000000000000000     
  0.93750000000000000       0.12500000000000000        0.0000000000000000     
  0.96875000000000000       0.12500000000000000        0.0000000000000000     
   1.0000000000000000       0.12500000000000000        0.0000000000000000     
   0.0000000000000000       0.12500000000000000        0.0000000000000000     
   3.1250000000000000E-002  0.12500000000000000        0.0000000000000000     
   6.2500000000000000E-002  0.12500000000000000        0.0000000000000000     
   9.3750000000000000E-002  0.12500000000000000        0.0000000000000000     
  0.12500000000000000       0.12500000000000000        0.0000000000000000     
   0.0000000000000000       0.15625000000000000        0.0000000000000000     
   3.1250000000000000E-002  0.15625000000000000        0.0000000000000000     
   6.2500000000000000E-002  0.15625000000000000        0.0000000000000000     
   9.3750000000000000E-002  0.15625000000000000        0.0000000000000000     
  0.12500000000000000       0.15625000000000000        0.0000000000000000     
   0.0000000000000000       0.18750000000000000        0.0000000000000000     
   3.1250000000000000E-002  0.18750000000000000        0.0000000000000000     
   6.2500000000000000E-002  0.18750000000000000        0.0000000000000000     
   9.3750000000000000E-002  0.18750000000000000        0.0000000000000000     
  0.12500000000000000       0.18750000000000000        0.0000000000000000     
   0.0000000000000000       0.21875000000000000        0.0000000000000000     
   3.1250000000000000E-002  0.21875000000000000        0.0000000000000000     
   6.2500000000000000E-002  0.21875000000000000        0.0000000000000000     
   9.3750000000000000E-002  0.21875000000000000        0.0000000000000000     
  0.12500000000000000       0.21875000000000000        0.0000000000000000     
   0.0000000000000000       0.25000000000000000        0.0000000000000000     
   3.1250000000000000E-002  0.25000000000000000        0.0000000000000000     
   6.2500000000000000E-002  0.25000000000000000        0.0000000000000000     
   9.3750000000000000E-002  0.25000000000000000        0.0000000000000000     
  0.12500000000000000       0.25000000000000000        0.0000000000000000     
  0.12500000000000000       0.12500000000000000        0.0000000000000000     
  0.15625000000000000       0.12500000000000000        0.0000000000000000     
  0.18750000000000000       0.12500000000000000        0.0000000000000000     
  0.21875000000000000       0.12500000000000000        0.0000000000000000     
  0.25000000000000000       0.12500000000000000        0.0000000000000000     
  0.12500000000000000       0.15625000000000000        0.0000000000000000     
  0.15625000000000000       0.15625000000000000        0.0000000000000000     
  0.18750000000000000       0.15625000000000000        0.0000000000000000     
  0.21875000000000000       0.15625000000000000        0.0000000000000000     
  0.25000000000000000       0.15625000000000000        0.0000000000000000     
  0.12500000000000000       0.18750000000000000        0.0000000000000000     
  0.15625000000000000       0.18750000000000000        0.0000000000000000     
  0.18750000000000000       0.18750000000000000        0.0000000000000000     
  0.21875000000000000       0.18750000000000000        0.0000000000000000     
  0.25000000000000000       0.18750000000000000        0.0000000000000000     
  0.12500000000000000       0.21875000000000000        0.0000000000000000     
  0.15625000000000000       0.21875000000000000        0.0000000000000000     
  0.18750000000000000       0.21875000000000000        0.0000000000000000     
  0.21875000000000000       0.21875000000000000        0.0000000000000000     
  0.25000000000000000       0.21875000000000000        0.0000000000000000     
  0.12500000000000000       0.25000000000000000        0.0000000000000000     
  0.15625000000000000       0.25000000000000000        0.0000000000000000     
  0.18750000000000000       0.25000000000000000        0.0000000000000000     
  0.21875000000000000       0.25000000000000000        0.0000000000000000     
  0.25000000000000000       0.25000000000000000        0.0000000000000000     
  0.25000000000000000       0.12500000000000000        0.0000000000000000     
  0.28125000000000000       0.12500000000000000        0.0000000000000000     
  0.31250000000000000       0.12500000000000000        0.0000000000000000     
  0.34375000000000000       0.12500000000000000        0.0000000000000000     
  0.37500000000000000       0.12500000000000000        0.0000000000000000     
  0.25000000000000000       0.15625000000000000        0.0000000000000000     
  0.28125000000000000       0.15625000000000000        0.0000000000000000     
  0.31250000000000000       0.15625000000000000        0.0000000000000000     
  0.34375000000000000       0.15625000000000000        0.0000000000000000     
  0.37500000000000000       0.15625000000000000        0.0000000000000000     
  0.25000000000000000       0.18750000000000000        0.0000000000000000     
  0.28125000000000000       0.18750000000000000        0.0000000000000000     
  0.31250000000000000       0.18750000000000000        0.0000000000000000     
  0.34375000000000000       0.18750000000000000        0.0000000000000000     
  0.37500000000000000       0.18750000000000000        0.0000000000000000     
  0.25000000000000000       0.21875000000000000        0.0000000000000000     
  0.28125000000000000       0.21875000000000000        0.0000000000000000     
  0.31250000000000000       0.21875000000000000        0.0000000000000000     
  0.34375000000000000       0.21875000000000000        0.0000000000000000     
  0.37500000000000000       0.21875000000000000        0.0000000000000000     
  0.25000000000000000       0.25000000000000000        0.0000000000000000     
  0.28125000000000000       0.25000000000000000        0.0000000000000000     
  0.31250000000000000       0.25000000000000000        0.0000000000000000     
  0.34375000000000000       0.25000000000000000        0.0000000000000000     
  0.37500000000000000       0.25000000000000000        0.0000000000000000     
  0.37500000000000000       0.12500000000000000        0.0000000000000000     
  0.40625000000000000       0.12500000000000000        0.0000000000000000     
  0.43750000000000000       0.12500000000000000        0.0000000000000000     
  0.46875000000000000       0.12500000000000000        0.0000000000000000     
  0.50000000000000000       0.12500000000000000        0.0000000000000000     
  0.37500000000000000       0.15625000000000000        0.0000000000000000     
  0.40625000000000000       0.15625000000000000        0.0000000000000000     
  0.43750000000000000       0.15625000000000000        0.0000000000000000     
  0.46875000000000000       0.15625000000000000        0.0000000000000000     
  0.50000000000000000       0.15625000000000000        0.0000000000000000     
  0.37500000000000000       0.18750000000000000        0.0000000000000000     
  0.40625000000000000       0.18750000000000000        0.0000000000000000     
  0.43750000000000000       0.18750000000000000        0.0000000000000000     
  0.46875000000000000       0.18750000000000000        0.0000000000000000     
  0.50000000000000000       0.18750000000000000        0.0000000000000000     
  0.37500000000000000       0.21875000000000000        0.0000000000000000     
  0.40625000000000000       0.21875000000000000        0.0000000000000000     
  0.43750000000000000       0.21875000000000000        0.0000000000000000     
  0.46875000000000000       0.21875000000000000        0.0000000000000000     
  0.50000000000000000       0.21875000000000000        0.0000000000000000     
  0.37500000000000000       0.25000000000000000        0.0000000000000000     
  0.40625000000000000       0.25000000000000000        0.0000000000000000     
  0.43750000000000000       0.25000000000000000        0.0000000000000000     
  0.46875000000000000       0.25000000000000000        0.0000000000000000     
  0.50000000000000000       0.25000000000000000        0.0000000000000000     
  0.50000000000000000       0.12500000000000000        0.0000000000000000     
  0.53125000000000000       0.12500000000000000        0.0000000000000000     
  0.56250000000000000       0.12500000000000000        0.0000000000000000     
  0.59375000000000000       0.12500000000000000        0.0000000000000000     
  0.62500000000000000       0.12500000000000000        0.0000000000000000     
  0.50000000000000000       0.15625000000000000        0.0000000000000000     
  0.53125000000000000       0.15625000000000000        0.0000000000000000     
  0.56250000000000000       0.15625000000000000        0.0000000000000000     
  0.59375000000000000       0.15625000000000000        0.0000000000000000     
  0.62500000000000000       0.15625000000000000        0.0000000000000000     
  0.50000000000000000       0.18750000000000000        0.0000000000000000     
  0.53125000000000000       0.18750000000000000        0.0000000000000000     
  0.56250000000000000       0.18750000000000000        0.0000000000000000     
  0.59375000000000000       0.18750000000000000        0.0000000000000000     
  0.62500000000000000       0.18750000000000000        0.0000000000000000     
  0.50000000000000000       0.21875000000000000        0.0000000000000000     
  0.53125000000000000       0.21875000000000000        0.0000000000000000     
  0.56250000000000000       0.21875000000000000        0.0000000000000000     
  0.59375000000000000       0.21875000000000000        0.0000000000000000     
  0.62500000000000000       0.21875000000000000        0.0000000000000000     
  0.50000000000000000       0.25000000000000000        0.0000000000000000     
  0.53125000000000000       0.25000000000000000        0.0000000000000000     
  0.56250000000000000       0.25000000000000000        0.0000000000000000     
  0.59375000000000000       0.25000000000000000        0.0000000000000000     
  0.62500000000000000       0.25000000000000000        0.0000000000000000     
  0.62500000000000000       0.12500000000000000        0.0000000000000000     
  0.65625000000000000       0.12500000000000000        0.0000000000000000     
  0.68750000000000000       0.12500000000000000        0.0000000000000000     
  0.71875000000000000       0.12500000000000000        0.0000000000000000     
  0.75000000000000000       0.12500000000000000        0.0000000000000000     
  0.62500000000000000       0.15625000000000000        0.0000000000000000     
  0.65625000000000000       0.15625000000000000        0.0000000000000000     
  0.68750000000000000       0.15625000000000000        0.0000000000000000     
  0.71875000000000000       0.15625000000000000        0.0000000000000000     
  0.75000000000000000       0.15625000000000000        0.0000000000000000     
  0.62500000000000000       0.18750000000000000        0.0000000000000000     
  0.65625000000000000       0.18750000000000000        0.0000000000000000     
  0.68750000000000000       0.18750000000000000        0.0000000000000000     
  0.71875000000000000       0.18750000000000000        0.0000000000000000     
  0.75000000000000000       0.18750000000000000        0.0000000000000000     
  0.62500000000000000       0.21875000000000000        0.0000000000000000     
  0.65625000000000000       0.21875000000000000        0.0000000000000000     
  0.68750000000000000       0.21875000000000000        0.0000000000000000     
  0.71875000000000000       0.21875000000000000        0.0000000000000000     
  0.75000000000000000       0.21875000000000000        0.0000000000000000     
  0.62500000000000000       0.25000000000000000        0.0000000000000000     
  0.65625000000000000       0.25000000000000000        0.0000000000000000     
  0.68750000000000000       0.25000000000000000        0.0000000000000000     
  0.71875000000000000       0.25000000000000000        0.0000000000000000     
  0.75000000000000000       0.25000000000000000        0.0000000000000000     
  0.75000000000000000       0.12500000000000000        0.0000000000000000     
  0.78125000000000000       0.12500000000000000        0.0000000000000000     
  0.81250000000000000       0.12500000000000000        0.0000000000000000     
  0.84375000000000000       0.12500000000000000        0.0000000000000000     
  0.87500000000000000       0.12500000000000000        0.0000000000000000     
  0.75000000000000000       0.15625000000000000        0.0000000000000000     
  0.78125000000000000       0.15625000000000000        0.0000000000000000     
  0.81250000000000000       0.15625000000000000        0.0000000000000000     
  0.84375000000000000       0.15625000000000000        0.0000000000000000     
  0.87500000000000000       0.15625000000000000        0.0000000000000000     
  0.75000000000000000       0.18750000000000000        0.0000000000000000     
  0.78125000000000000       0.18750000000000000        0.0000000000000000     
  0.81250000000000000       0.18750000000000000        0.0000000000000000     
  0.84375000000000000       0.18750000000000000        0.0000000000000000     
  0.87500000000000000       0.18750000000000000        0.0000000000000000     
  0.75000000000000000       0.21875000000000000        0.0000000000000000     
  0.78125000000000000       0.21875000000000000        0.0000000000000000     
  0.81250000000000000       0.21875000000000000        0.0000000000000000     
  0.84375000000000000       0.21875000000000000        0.0000000000000000     
  0.87500000000000000       0.21875000000000000        0.0000000000000000     
  0.75000000000000000       0.25000000000000000        0.0000000000000000     
  0.78125000000000000       0.25000000000000000        0.0000000000000000     
  0.81250000000000000       0.25000000000000000        0.0000000000000000     
  0.84375000000000000       0.25000000000000000        0.0000000000000000     
  0.87500000000000000       0.25000000000000000        0.0000000000000000     
  0.87500000000000000       0.12500000000000000        0.0000000000000000     
  0.90625000000000000       0.12500000000000000        0.0000000000000000     
  0.93750000000000000       0.12500000000000000        0.0000000000000000     
  0.96875000000000000       0.12500000000000000        0.0000000000000000     
   1.0000000000000000       0.12500000000000000        0.0000000000000000     
  0.87500000000000000       0.15625000000000000        0.0000000000000000     
  0.90625000000000000       0.15625000000000000        0.0000000000000000     
  0.93750000000000000       0.15625000000000000        0.0000000000000000     
  0.96875000000000000       0.15625000000000000        0.0000000000000000     
   1.0000000000000000       0.15625000000000000        0.0000000000000000     
  0.87500000000000000       0.18750000000000000        0.0000000000000000     
  0.90625000000000000       0.18750000000000000        0.0000000000000000     
  0.93750000000000000       0.18750000000000000        0.0000000000000000     
  0.96875000000000000       0.18750000000000000        0.0000000000000000     
   1.0000000000000000       0.18750000000000000        0.0000000000000000     
  0.87500000000000000       0.21875000000000000        0.0000000000000000     
  0.90625000000000000       0.21875000000000000        0.0000000000000000     
  0.93750000000000000       0.21875000000000000        0.0000000000000000     
  0.96875000000000000       0.21875000000000000        0.0000000000000000     
   1.0000000000000000       0.21875000000000000        0.0000000000000000     
  0.87500000000000000       0.25000000000000000        0.0000000000000000     
  0.90625000000000000       0.25000000000000000        0.0000000000000000     
  0.93750000000000000       0.25000000000000000        0.0000000000000000     
  0.96875000000000000       0.25000000000000000        0.0000000000000000     
   1.0000000000000000       0.25000000000000000        0.0000000000000000     
   0.0000000000000000       0.25000000000000000        0.0000000000000000     
   3.1250000000000000E-002  0.25000000000000000        0.0000000000000000     
   6.2500000000000000E-002  0.25000000000000000        0.0000000000000000     
   9.3750000000000000E-002  0.25000000000000000        0.0000000000000000     
  0.12500000000000000       0.25000000000000000        0.0000000000000000     
   0.0000000000000000       0.28125000000000000        0.0000000000000000     
   3.1250000000000000E-002  0.28125000000000000        0.0000000000000000     
   6.2500000000000000E-002  0.28125000000000000        0.0000000000000000     
   9.3750000000000000E-002  0.28125000000000000        0.0000000000000000     
  0.12500000000000000       0.28125000000000000        0.0000000000000000     
   0.0000000000000000       0.31250000000000000        0.0000000000000000     
   3.1250000000000000E-002  0.31250000000000000        0.0000000000000000     
   6.2500000000000000E-002  0.31250000000000000        0.0000000000000000     
   9.3750000000000000E-002  0.31250000000000000        0.0000000000000000     
  0.12500000000000000       0.31250000000000000        0.0000000000000000     
   0.0000000000000000       0.34375000000000000        0.0000000000000000     
   3.1250000000000000E-002  0.34375000000000000        0.0000000000000000     
   6.2500000000000000E-002  0.34375000000000000        0.0000000000000000     
   9.3750000000000000E-002  0.34375000000000000        0.0000000000000000     
  0.12500000000000000       0.34375000000000000        0.0000000000000000     
   0.0000000000000000       0.37500000000000000        0.0000000000000000     
   3.1250000000000000E-002  0.37500000000000000        0.0000000000000000     
   6.2500000000000000E-002  0.37500000000000000        0.0000000000000000     
   9.3750000000000000E-002  0.37500000000000000        0.0000000000000000     
  0.12500000000000000       0.37500000000000000        0.0000000000000000     
  0.12500000000000000       0.25000000000000000        0.0000000000000000     
  0.15625000000000000       0.25000000000000000        0.0000000000000000     
  0.18750000000000000       0.25000000000000000        0.0000000000000000     
  0.21875000000000000       0.25000000000000000        0.0000000000000000     
  0.25000000000000000       0.25000000000000000        0.0000000000000000     
  0.12500000000000000       0.28125000000000000        0.0000000000000000     
  0.15625000000000000       0.28125000000000000        0.0000000000000000     
  0.18750000000000000       0.28125000000000000        0.0000000000000000     
  0.21875000000000000       0.28125000000000000        0.0000000000000000     
  0.25000000000000000       0.28125000000000000        0.0000000000000000     
  0.12500000000000000       0.31250000000000000        0.0000000000000000     
  0.15625000000000000       0.31250000000000000        0.0000000000000000     
  0.18750000000000000       0.31250000000000000        0.0000000000000000     
  0.21875000000000000       0.31250000000000000        0.0000000000000000     
  0.25000000000000000       0.31250000000000000        0.0000000000000000     
  0.12500000000000000       0.34375000000000000        0.0000000000000000     
  0.15625000000000000       0.34375000000000000        0.0000000000000000     
  0.18750000000000000       0.34375000000000000        0.0000000000000000     
  0.21875000000000000       0.34375000000000000        0.0000000000000000     
  0.25000000000000000       0.34375000000000000        0.0000000000000000     
  0.12500000000000000       0.37500000000000000        0.0000000000000000     
  0.15625000000000000       0.37500000000000000        0.0000000000000000     
  0.18750000000000000       0.37500000000000000        0.0000000000000000     
  0.21875000000000000       0.37500000000000000        0.0000000000000000     
  0.25000000000000000       0.37500000000000000        0.0000000000000000     
  0.25000000000000000       0.25000000000000000        0.0000000000000000     
  0.28125000000000000       0.25000000000000000        0.0000000000000000     
  0.31250000000000000       0.25000000000000000        0.0000000000000000     
  0.34375000000000000       0.25000000000000000        0.0000000000000000     
  0.37500000000000000       0.25000000000000000        0.0000000000000000     
  0.25000000000000000       0.28125000000000000        0.0000000000000000     
  0.28125000000000000       0.28125000000000000        0.0000000000000000     
  0.31250000000000000       0.28125000000000000        0.0000000000000000     
  0.34375000000000000       0.28125000000000000        0.0000000000000000     
  0.37500000000000000       0.28125000000000000        0.0000000000000000     
  0.25000000000000000       0.31250000000000000        0.0000000000000000     
  0.28125000000000000       0.31250000000000000        0.0000000000000000     
  0.31250000000000000       0.31250000000000000        0.0000000000000000     
  0.34375000000000000       0.31250000000000000        0.0000000000000000     
  0.37500000000000000       0.31250000000000000        0.0000000000000000     
  0.25000000000000000       0.34375000000000000        0.0000000000000000     
  0.28125000000000000       0.34375000000000000        0.0000000000000000     
  0.31250000000000000       0.34375000000000000        0.0000000000000000     
  0.34375000000000000       0.34375000000000000        0.0000000000000000     
  0.37500000000000000       0.34375000000000000        0.0000000000000000     
  0.25000000000000000       0.37500000000000000        0.0000000000000000     
  0.28125000000000000       0.37500000000000000        0.0000000000000000     
  0.31250000000000000       0.37500000000000000        0.0000000000000000     
  0.34375000000000000       0.37500000000000000        0.0000000000000000     
  0.37500000000000000       0.37500000000000000        0.0000000000000000     
  0.37500000000000000       0.25000000000000000        0.0000000000000000     
  0.40625000000000000       0.25000000000000000        0.0000000000000000     
  0.43750000000000000       0.25000000000000000        0.0000000000000000     
  0.46875000000000000       0.25000000000000000        0.0000000000000000     
  0.50000000000000000       0.25000000000000000        0.0000000000000000     
  0.37500000000000000       0.28125000000000000        0.0000000000000000     
  0.40625000000000000       0.28125000000000000        0.0000000000000000     
  0.43750000000000000       0.28125000000000000        0.0000000000000000     
  0.46875000000000000       0.28125000000000000        0.0000000000000000     
  0.50000000000000000       0.28125000000000000        0.0000000000000000     
  0.37500000000000000       0.31250000000000000        0.0000000000000000     
  0.40625000000000000       0.31250000000000000        0.0000000000000000     
  0.43750000000000000       0.31250000000000000        0.0000000000000000     
  0.46875000000000000       0.31250000000000000        0.0000000000000000     
  0.50000000000000000       0.31250000000000000        0.0000000000000000     
  0.37500000000000000       0.34375000000000000        0.0000000000000000     
  0.40625000000000000       0.34375000000000000        0.0000000000000000     
  0.43750000000000000       0.34375000000000000        0.0000000000000000     
  0.46875000000000000       0.34375000000000000        0.0000000000000000     
  0.50000000000000000       0.34375000000000000        0.0000000000000000     
  0.37500000000000000       0.37500000000000000        0.0000000000000000     
  0.40625000000000000       0.37500000000000000        0.0000000000000000     
  0.43750000000000000       0.37500000000000000        0.0000000000000000     
  0.46875000000000000       0.37500000000000000        0.0000000000000000     
  0.50000000000000000       0.37500000000000000        0.0000000000000000     
  0.50000000000000000       0.25000000000000000        0.0000000000000000     
  0.53125000000000000       0.25000000000000000        0.0000000000000000     
  0.56250000000000000       0.25000000000000000        0.0000000000000000     
  0.59375000000000000       0.25000000000000000        0.0000000000000000     
  0.62500000000000000       0.25000000000000000        0.0000000000000000     
  0.50000000000000000       0.28125000000000000        0.0000000000000000     
  0.53125000000000000       0.28125000000000000        0.0000000000000000     
  0.56250000000000000       0.28125000000000000        0.0000000000000000     
  0.59375000000000000       0.28125000000000000        0.0000000000000000     
  0.62500000000000000       0.28125000000000000        0.0000000000000000     
  0.50000000000000000       0.31250000000000000        0.0000000000000000     
  0.53125000000000000       0.31250000000000000        0.0000000000000000     
  0.56250000000000000       0.31250000000000000        0.0000000000000000     
  0.59375000000000000       0.31250000000000000        0.0000000000000000     
  0.62500000000000000       0.31250000000000000        0.0000000000000000     
  0.50000000000000000       0.34375000000000000        0.0000000000000000     
  0.53125000000000000       0.34375000000000000        0.0000000000000000     
  0.56250000000000000       0.34375000000000000        0.0000000000000000     
  0.59375000000000000       0.34375000000000000        0.0000000000000000     
  0.62500000000000000       0.34375000000000000        0.0000000000000000     
  0.50000000000000000       0.37500000000000000        0.0000000000000000     
  0.53125000000000000       0.37500000000000000        0.0000000000000000     
  0.56250000000000000       0.37500000000000000        0.0000000000000000     
  0.59375000000000000       0.37500000000000000        0.0000000000000000     
  0.62500000000000000       0.37500000000000000        0.0000000000000000     
  0.62500000000000000       0.25000000000000000        0.0000000000000000     
  0.65625000000000000       0.25000000000000000        0.0000000000000000     
  0.68750000000000000       0.25000000000000000        0.0000000000000000     
  0.71875000000000000       0.25000000000000000        0.0000000000000000     
  0.75000000000000000       0.25000000000000000        0.0000000000000000     
  0.62500000000000000       0.28125000000000000        0.0000000000000000     
  0.65625000000000000       0.28125000000000000        0.0000000000000000     
  0.68750000000000000       0.28125000000000000        0.0000000000000000     
  0.71875000000000000       0.28125000000000000        0.0000000000000000     
  0.75000000000000000       0.28125000000000000        0.0000000000000000     
  0.62500000000000000       0.31250000000000000        0.0000000000000000     
  0.65625000000000000       0.31250000000000000        0.0000000000000000     
  0.68750000000000000       0.31250000000000000        0.0000000000000000     
  0.71875000000000000       0.31250000000000000        0.0000000000000000     
  0.75000000000000000       0.31250000000000000        0.0000000000000000     
  0.62500000000000000       0.34375000000000000        0.0000000000000000     
  0.65625000000000000       0.34375000000000000        0.0000000000000000     
  0.68750000000000000       0.34375000000000000        0.0000000000000000     
  0.71875000000000000       0.34375000000000000        0.0000000000000000     
  0.75000000000000000       0.34375000000000000        0.0000000000000000     
  0.62500000000000000       0.37500000000000000        0.0000000000000000     
  0.65625000000000000       0.37500000000000000        0.0000000000000000     
  0.68750000000000000       0.37500000000000000        0.0000000000000000     
  0.71875000000000000       0.37500000000000000        0.0000000000000000     
  0.75000000000000000       0.37500000000000000        0.0000000000000000     
  0.75000000000000000       0.25000000000000000        0.0000000000000000     
  0.78125000000000000       0.25000000000000000        0.0000000000000000     
  0.81250000000000000       0.25000000000000000        0.0000000000000000     
  0.84375000000000000       0.25000000000000000        0.0000000000000000     
  0.87500000000000000       0.25000000000000000        0.0000000000000000     
  0.75000000000000000       0.28125000000000000        0.0000000000000000     
  0.78125000000000000       0.28125000000000000        0.0000000000000000     
  0.81250000000000000       0.28125000000000000        0.0000000000000000     
  0.84375000000000000       0.28125000000000000        0.0000000000000000     
  0.87500000000000000       0.28125000000000000        0.0000000000000000     
  0.75000000000000000       0.31250000000000000        0.0000000000000000     
  0.78125000000000000       0.31250000000000000        0.0000000000000000     
  0.81250000000000000       0.31250000000000000        0.0000000000000000     
  0.84375000000000000       0.31250000000000000        0.0000000000000000     
  0.87500000000000000       0.31250000000000000        0.0000000000000000     
  0.75000000000000000       0.34375000000000000        0.0000000000000000     
  0.78125000000000000       0.34375000000000000        0.0000000000000000     
  0.81250000000000000       0.34375000000000000        0.0000000000000000     
  0.84375000000000000       0.34375000000000000        0.0000000000000000     
  0.87500000000000000       0.34375000000000000        0.0000000000000000     
  0.75000000000000000       0.37500000000000000        0.0000000000000000     
  0.78125000000000000       0.37500000000000000        0.0000000000000000     
  0.81250000000000000       0.37500000000000000        0.0000000000000000     
  0.84375000000000000       0.37500000000000000        0.0000000000000000     
  0.87500000000000000       0.37500000000000000        0.0000000000000000     
  0.87500000000000000       0.25000000000000000        0.0000000000000000     
  0.90625000000000000       0.25000000000000000        0.0000000000000000     
  0.93750000000000000       0.25000000000000000        0.0000000000000000     
  0.96875000000000000       0.25000000000000000        0.0000000000000000     
   1.0000000000000000       0.25000000000000000        0.0000000000000000     
  0.87500000000000000       0.28125000000000000        0.0000000000000000     
  0.90625000000000000       0.28125000000000000        0.0000000000000000     
  0.93750000000000000       0.28125000000000000        0.0000000000000000     
  0.96875000000000000       0.28125000000000000        0.0000000000000000     
   1.0000000000000000       0.28125000000000000        0.0000000000000000     
  0.87500000000000000       0.31250000000000000        0.0000000000000000     
  0.90625000000000000       0.31250000000000000        0.0000000000000000     
  0.93750000000000000       0.31250000000000000        0.0000000000000000     
  0.96875000000000000       0.31250000000000000        0.0000000000000000     
   1.0000000000000000       0.31250000000000000        0.0000000000000000     
  0.87500000000000000       0.34375000000000000        0.0000000000000000     
  0.90625000000000000       0.34375000000000000        0.0000000000000000     
  0.93750000000000000       0.34375000000000000        0.0000000000000000     
  0.96875000000000000       0.34375000000000000        0.0000000000000000     
   1.0000000000000000       0.34375000000000000        0.0000000000000000     
  0.87500000000000000       0.37500000000000000        0.0000000000000000     
  0.90625000000000000       0.37500000000000000        0.0000000000000000     
  0.93750000000000000       0.37500000000000000        0.0000000000000000     
  0.96875000000000000       0.37500000000000000        0.0000000000000000     
   1.0000000000000000       0.37500000000000000        0.0000000000000000     
   0.0000000000000000       0.37500000000000000        0.0000000000000000     
   3.1250000000000000E-002  0.37500000000000000        0.0000000000000000     
   6.2500000000000000E-002  0.37500000000000000        0.0000000000000000     
   9.3750000000000000E-002  0.37500000000000000        0.0000000000000000     
  0.12500000000000000       0.37500000000000000        0.0000000000000000     
   0.0000000000000000       0.40625000000000000        0.0000000000000000     
   3.1250000000000000E-002  0.40625000000000000        0.0000000000000000     
   6.2500000000000000E-002  0.40625000000000000        0.0000000000000000     
   9.3750000000000000E-002  0.40625000000000000        0.0000000000000000     
  0.12500000000000000       0.40625000000000000        0.0000000000000000     
   0.0000000000000000       0.43750000000000000        0.0000000000000000     
   3.1250000000000000E-002  0.43750000000000000        0.0000000000000000     
   6.2500000000000000E-002  0.43750000000000000        0.0000000000000000     
   9.3750000000000000E-002  0.43750000000000000        0.0000000000000000     
  0.12500000000000000       0.43750000000000000        0.0000000000000000     
   0.0000000000000000       0.46875000000000000        0.0000000000000000     
   3.1250000000000000E-002  0.46875000000000000        0.0000000000000000     
   6.2500000000000000E-002  0.46875000000000000        0.0000000000000000     
   9.3750000000000000E-002  0.46875000000000000        0.0000000000000000     
  0.12500000000000000       0.46875000000000000        0.0000000000000000     
   0.0000000000000000       0.50000000000000000        0.0000000000000000     
   3.1250000000000000E-002  0.50000000000000000        0.0000000000000000     
   6.2500000000000000E-002  0.50000000000000000        0.0000000000000000     
   9.3750000000000000E-002  0.50000000000000000        0.0000000000000000     
  0.12500000000000000       0.50000000000000000        0.0000000000000000     
  0.12500000000000000       0.37500000000000000        0.0000000000000000     
  0.15625000000000000       0.37500000000000000        0.0000000000000000     
  0.18750000000000000       0.37500000000000000        0.0000000000000000     
  0.21875000000000000       0.37500000000000000        0.0000000000000000     
  0.25000000000000000       0.37500000000000000        0.0000000000000000     
  0.12500000000000000       0.40625000000000000        0.0000000000000000     
  0.15625000000000000       0.40625000000000000        0.0000000000000000     
  0.18750000000000000       0.40625000000000000        0.0000000000000000     
  0.21875000000000000       0.40625000000000000        0.0000000000000000     
  0.25000000000000000       0.40625000000000000        0.0000000000000000     
  0.12500000000000000       0.43750000000000000        0.0000000000000000     
  0.15625000000000000       0.43750000000000000        0.0000000000000000     
  0.18750000000000000       0.43750000000000000        0.0000000000000000     
  0.21875000000000000       0.43750000000000000        0.0000000000000000     
  0.25000000000000000       0.43750000000000000        0.0000000000000000     
  0.12500000000000000       0.46875000000000000        0.0000000000000000     
  0.15625000000000000       0.46875000000000000        0.0000000000000000     
  0.18750000000000000       0.46875000000000000        0.0000000000000000     
  0.21875000000000000       0.46875000000000000        0.0000000000000000     
  0.25000000000000000       0.46875000000000000        0.0000000000000000     
  0.12500000000000000       0.50000000000000000        0.0000000000000000     
  0.15625000000000000       0.50000000000000000        0.0000000000000000     
  0.18750000000000000       0.50000000000000000        0.0000000000000000     
  0.21875000000000000       0.50000000000000000        0.0000000000000000     
  0.25000000000000000       0.50000000000000000        0.0000000000000000     
  0.25000000000000000       0.37500000000000000        0.0000000000000000     
  0.28125000000000000       0.37500000000000000        0.0000000000000000     
  0.31250000000000000       0.37500000000000000        0.0000000000000000     
  0.34375000000000000       0.37500000000000000        0.0000000000000000     
  0.37500000000000000       0.37500000000000000        0.0000000000000000     
  0.25000000000000000       0.40625000000000000        0.0000000000000000     
  0.28125000000000000       0.40625000000000000        0.0000000000000000     
  0.31250000000000000       0.40625000000000000        0.0000000000000000     
  0.34375000000000000       0.40625000000000000        0.0000000000000000     
  0.37500000000000000       0.40625000000000000        0.0000000000000000     
  0.25000000000000000       0.43750000000000000        0.0000000000000000     
  0.28125000000000000       0.43750000000000000        0.0000000000000000     
  0.31250000000000000       0.43750000000000000        0.0000000000000000     
  0.34375000000000000       0.43750000000000000        0.0000000000000000     
  0.37500000000000000       0.43750000000000000        0.0000000000000000     
  0.25000000000000000       0.46875000000000000        0.0000000000000000     
  0.28125000000000000       0.46875000000000000        0.0000000000000000     
  0.31250000000000000       0.46875000000000000        0.0000000000000000     
  0.34375000000000000       0.46875000000000000        0.0000000000000000     
  0.37500000000000000       0.46875000000000000        0.0000000000000000     
  0.25000000000000000       0.50000000000000000        0.0000000000000000     
  0.28125000000000000       0.50000000000000000        0.0000000000000000     
  0.31250000000000000       0.50000000000000000        0.0000000000000000     
  0.34375000000000000       0.50000000000000000        0.0000000000000000     
  0.37500000000000000       0.50000000000000000        0.0000000000000000     
  0.37500000000000000       0.37500000000000000        0.0000000000000000     
  0.40625000000000000       0.37500000000000000        0.0000000000000000     
  0.43750000000000000       0.37500000000000000        0.0000000000000000     
  0.46875000000000000       0.37500000000000000        0.0000000000000000     
  0.50000000000000000       0.37500000000000000        0.0000000000000000     
  0.37500000000000000       0.40625000000000000        0.0000000000000000     
  0.40625000000000000       0.40625000000000000        0.0000000000000000     
  0.43750000000000000       0.40625000000000000        0.0000000000000000     
  0.46875000000000000       0.40625000000000000        0.0000000000000000     
  0.50000000000000000       0.40625000000000000        0.0000000000000000     
  0.37500000000000000       0.43750000000000000        0.0000000000000000     
  0.40625000000000000       0.43750000000000000        0.0000000000000000     
  0.43750000000000000       0.43750000000000000        0.0000000000000000     
  0.46875000000000000       0.43750000000000000        0.0000000000000000     
  0.50000000000000000       0.43750000000000000        0.0000000000000000     
  0.37500000000000000       0.46875000000000000        0.0000000000000000     
  0.40625000000000000       0.46875000000000000        0.0000000000000000     
  0.43750000000000000       0.46875000000000000        0.0000000000000000     
  0.46875000000000000       0.46875000000000000        0.0000000000000000     
  0.50000000000000000       0.46875000000000000        0.0000000000000000     
  0.37500000000000000       0.50000000000000000        0.0000000000000000     
  0.40625000000000000       0.50000000000000000        0.0000000000000000     
  0.43750000000000000       0.50000000000000000        0.0000000000000000     
  0.46875000000000000       0.50000000000000000        0.0000000000000000     
  0.50000000000000000       0.50000000000000000        0.0000000000000000     
  0.50000000000000000       0.37500000000000000        0.0000000000000000     
  0.53125000000000000       0.37500000000000000        0.0000000000000000     
  0.56250000000000000       0.37500000000000000        0.0000000000000000     
  0.59375000000000000       0.37500000000000000        0.0000000000000000     
  0.62500000000000000       0.37500000000000000        0.0000000000000000     
  0.50000000000000000       0.40625000000000000        0.0000000000000000     
  0.53125000000000000       0.40625000000000000        0.0000000000000000     
  0.56250000000000000       0.40625000000000000        0.0000000000000000     
  0.59375000000000000       0.40625000000000000        0.0000000000000000     
  0.62500000000000000       0.40625000000000000        0.0000000000000000     
  0.50000000000000000       0.43750000000000000        0.0000000000000000     
  0.53125000000000000       0.43750000000000000        0.0000000000000000     
  0.56250000000000000       0.43750000000000000        0.0000000000000000     
  0.59375000000000000       0.43750000000000000        0.0000000000000000     
  0.62500000000000000       0.43750000000000000        0.0000000000000000     
  0.50000000000000000       0.46875000000000000        0.0000000000000000     
  0.53125000000000000       0.46875000000000000        0.0000000000000000     
  0.56250000000000000       0.46875000000000000        0.0000000000000000     
  0.59375000000000000       0.46875000000000000        0.0000000000000000     
  0.62500000000000000       0.46875000000000000        0.0000000000000000     
  0.50000000000000000       0.50000000000000000        0.0000000000000000     
  0.53125000000000000       0.50000000000000000        0.0000000000000000     
  0.56250000000000000       0.50000000000000000        0.0000000000000000     
  0.59375000000000000       0.50000000000000000        0.0000000000000000     
  0.62500000000000000       0.50000000000000000        0.0000000000000000     
  0.62500000000000000       0.37500000000000000        0.0000000000000000     
  0.65625000000000000       0.37500000000000000        0.0000000000000000     
  0.68750000000000000       0.37500000000000000        0.0000000000000000     
  0.71875000000000000       0.37500000000000000        0.0000000000000000     
  0.75000000000000000       0.37500000000000000        0.0000000000000000     
  0.62500000000000000       0.40625000000000000        0.0000000000000000     
  0.65625000000000000       0.40625000000000000        0.0000000000000000     
  0.68750000000000000       0.40625000000000000        0.0000000000000000     
  0.71875000000000000       0.40625000000000000        0.0000000000000000     
  0.75000000000000000       0.40625000000000000        0.0000000000000000     
  0.62500000000000000       0.43750000000000000        0.0000000000000000     
  0.65625000000000000       0.43750000000000000        0.0000000000000000     
  0.68750000000000000       0.43750000000000000        0.0000000000000000     
  0.71875000000000000       0.43750000000000000        0.0000000000000000     
  0.75000000000000000       0.43750000000000000        0.0000000000000000     
  0.62500000000000000       0.46875000000000000        0.0000000000000000     
  0.65625000000000000       0.46875000000000000        0.0000000000000000     
  0.68750000000000000       0.46875000000000000        0.0000000000000000     
  0.71875000000000000       0.46875000000000000        0.0000000000000000     
  0.75000000000000000       0.46875000000000000        0.0000000000000000     
  0.62500000000000000       0.50000000000000000        0.0000000000000000     
  0.65625000000000000       0.50000000000000000        0.0000000000000000     
  0.68750000000000000       0.50000000000000000        0.0000000000000000     
  0.71875000000000000       0.50000000000000000        0.0000000000000000     
  0.75000000000000000       0.50000000000000000        0.0000000000000000     
  0.75000000000000000       0.37500000000000000        0.0000000000000000     
  0.78125000000000000       0.37500000000000000        0.0000000000000000     
  0.81250000000000000       0.37500000000000000        0.0000000000000000     
  0.84375000000000000       0.37500000000000000        0.0000000000000000     
  0.87500000000000000       0.37500000000000000        0.0000000000000000     
  0.75000000000000000       0.40625000000000000        0.0000000000000000     
  0.78125000000000000       0.40625000000000000        0.0000000000000000     
  0.81250000000000000       0.40625000000000000        0.0000000000000000     
  0.84375000000000000       0.40625000000000000        0.0000000000000000     
  0.87500000000000000       0.40625000000000000        0.0000000000000000     
  0.75000000000000000       0.43750000000000000        0.0000000000000000     
  0.78125000000000000       0.43750000000000000        0.0000000000000000     
  0.81250000000000000       0.43750000000000000        0.0000000000000000     
  0.84375000000000000       0.43750000000000000        0.0000000000000000     
  0.87500000000000000       0.43750000000000000        0.0000000000000000     
  0.75000000000000000       0.46875000000000000        0.0000000000000000     
  0.78125000000000000       0.46875000000000000        0.0000000000000000     
  0.81250000000000000       0.46875000000000000        0.0000000000000000     
  0.84375000000000000       0.46875000000000000        0.0000000000000000     
  0.87500000000000000       0.46875000000000000        0.0000000000000000     
  0.75000000000000000       0.50000000000000000        0.0000000000000000     
  0.78125000000000000       0.50000000000000000        0.0000000000000000     
  0.81250000000000000       0.50000000000000000        0.0000000000000000     
  0.84375000000000000       0.50000000000000000        0.0000000000000000     
  0.87500000000000000       0.50000000000000000        0.0000000000000000     
  0.87500000000000000       0.37500000000000000        0.0000000000000000     
  0.90625000000000000       0.37500000000000000        0.0000000000000000     
  0.93750000000000000       0.37500000000000000        0.0000000000000000     
  0.96875000000000000       0.37500000000000000        0.0000000000000000     
   1.0000000000000000       0.37500000000000000        0.0000000000000000     
  0.87500000000000000       0.40625000000000000        0.0000000000000000     
  0.90625000000000000       0.40625000000000000        0.0000000000000000     
  0.93750000000000000       0.40625000000000000        0.0000000000000000     
  0.96875000000000000       0.40625000000000000        0.0000000000000000     
   1.0000000000000000       0.40625000000000000        0.0000000000000000     
  0.87500000000000000       0.43750000000000000        0.0000000000000000     
  0.90625000000000000       0.43750000000000000        0.0000000000000000     
  0.93750000000000000       0.43750000000000000        0.0000000000000000     
  0.96875000000000000       0.43750000000000000        0.0000000000000000     
   1.0000000000000000       0.43750000000000000        0.0000000000000000     
  0.87500000000000000       0.46875000000000000        0.0000000000000000     
  0.90625000000000000       0.46875000000000000        0.0000000000000000     
  0.93750000000000000       0.46875000000000000        0.0000000000000000     
  0.96875000000000000       0.46875000000000000        0.0000000000000000     
   1.0000000000000000       0.46875000000000000        0.0000000000000000     
  0.87500000000000000       0.50000000000000000        0.0000000000000000     
  0.90625000000000000       0.50000000000000000        0.0000000000000000     
  0.93750000000000000       0.50000000000000000        0.0000000000000000     
  0.96875000000000000       0.50000000000000000        0.0000000000000000     
   1.0000000000000000       0.50000000000000000        0.0000000000000000     
   0.0000000000000000       0.50000000000000000        0.0000000000000000     
   3.1250000000000000E-002  0.50000000000000000        0.0000000000000000     
   6.2500000000000000E-002  0.50000000000000000        0.0000000000000000     
   9.3750000000000000E-002  0.50000000000000000        0.0000000000000000     
  0.12500000000000000       0.50000000000000000        0.0000000000000000     
   0.0000000000000000       0.53125000000000000        0.0000000000000000     
   3.1250000000000000E-002  0.53125000000000000        0.0000000000000000     
   6.2500000000000000E-002  0.53125000000000000        0.0000000000000000     
   9.3750000000000000E-002  0.53125000000000000        0.0000000000000000     
  0.12500000000000000       0.53125000000000000        0.0000000000000000     
   0.0000000000000000       0.56250000000000000        0.0000000000000000     
   3.1250000000000000E-002  0.56250000000000000        0.0000000000000000     
   6.2500000000000000E-002  0.56250000000000000        0.0000000000000000     
   9.3750000000000000E-002  0.56250000000000000        0.0000000000000000     
  0.12500000000000000       0.56250000000000000        0.0000000000000000     
   0.0000000000000000       0.59375000000000000        0.0000000000000000     
   3.1250000000000000E-002  0.59375000000000000        0.0000000000000000     
   6.2500000000000000E-002  0.59375000000000000        0.0000000000000000     
   9.3750000000000000E-002  0.59375000000000000        0.0000000000000000     
  0.12500000000000000       0.59375000000000000        0.0000000000000000     
   0.0000000000000000       0.62500000000000000        0.0000000000000000     
   3.1250000000000000E-002  0.62500000000000000        0.0000000000000000     
   6.2500000000000000E-002  0.62500000000000000        0.0000000000000000     
   9.3750000000000000E-002  0.62500000000000000        0.0000000000000000     
  0.12500000000000000       0.62500000000000000        0.0000000000000000     
  0.12500000000000000       0.50000000000000000        0.0000000000000000     
  0.15625000000000000       0.50000000000000000        0.0000000000000000     
  0.18750000000000000       0.50000000000000000        0.0000000000000000     
  0.21875000000000000       0.50000000000000000        0.0000000000000000     
  0.25000000000000000       0.50000000000000000        0.0000000000000000     
  0.12500000000000000       0.53125000000000000        0.0000000000000000     
  0.15625000000000000       0.53125000000000000        0.0000000000000000     
  0.18750000000000000       0.53125000000000000        0.0000000000000000     
  0.21875000000000000       0.53125000000000000        0.0000000000000000     
  0.25000000000000000       0.53125000000000000        0.0000000000000000     
  0.12500000000000000       0.56250000000000000        0.0000000000000000     
  0.15625000000000000       0.56250000000000000        0.0000000000000000     
  0.18750000000000000       0.56250000000000000        0.0000000000000000     
  0.21875000000000000       0.56250000000000000        0.0000000000000000     
  0.25000000000000000       0.56250000000000000        0.0000000000000000     
  0.12500000000000000       0.59375000000000000        0.0000000000000000     
  0.15625000000000000       0.59375000000000000        0.0000000000000000     
  0.18750000000000000       0.59375000000000000        0.0000000000000000     
  0.21875000000000000       0.59375000000000000        0.0000000000000000     
  0.25000000000000000       0.59375000000000000        0.0000000000000000     
  0.12500000000000000       0.62500000000000000        0.0000000000000000     
  0.15625000000000000       0.62500000000000000        0.0000000000000000     
  0.18750000000000000       0.62500000000000000        0.0000000000000000     
  0.21875000000000000       0.62500000000000000        0.0000000000000000     
  0.25000000000000000       0.62500000000000000        0.0000000000000000     
  0.25000000000000000       0.50000000000000000        0.0000000000000000     
  0.28125000000000000       0.50000000000000000        0.0000000000000000     
  0.31250000000000000       0.50000000000000000        0.0000000000000000     
  0.34375000000000000       0.50000000000000000        0.0000000000000000     
  0.37500000000000000       0.50000000000000000        0.0000000000000000     
  0.25000000000000000       0.53125000000000000        0.0000000000000000     
  0.28125000000000000       0.53125000000000000        0.0000000000000000     
  0.31250000000000000       0.53125000000000000        0.0000000000000000     
  0.34375000000000000       0.53125000000000000        0.0000000000000000     
  0.37500000000000000       0.53125000000000000        0.0000000000000000     
  0.25000000000000000       0.56250000000000000        0.0000000000000000     
  0.28125000000000000       0.56250000000000000        0.0000000000000000     
  0.31250000000000000       0.56250000000000000        0.0000000000000000     
  0.34375000000000000       0.56250000000000000        0.0000000000000000     
  0.37500000000000000       0.56250000000000000        0.0000000000000000     
  0.25000000000000000       0.59375000000000000        0.0000000000000000     
  0.28125000000000000       0.59375000000000000        0.0000000000000000     
  0.31250000000000000       0.59375000000000000        0.0000000000000000     
  0.34375000000000000       0.59375000000000000        0.0000000000000000     
  0.37500000000000000       0.59375000000000000        0.0000000000000000     
  0.25000000000000000       0.62500000000000000        0.0000000000000000     
  0.28125000000000000       0.62500000000000000        0.0000000000000000     
  0.31250000000000000       0.62500000000000000        0.0000000000000000     
  0.34375000000000000       0.62500000000000000        0.0000000000000000     
  0.37500000000000000       0.62500000000000000        0.0000000000000000     
  0.37500000000000000       0.50000000000000000        0.0000000000000000     
  0.40625000000000000       0.50000000000000000        0.0000000000000000     
  0.43750000000000000       0.50000000000000000        0.0000000000000000     
  0.46875000000000000       0.50000000000000000        0.0000000000000000     
  0.50000000000000000       0.50000000000000000        0.0000000000000000     
  0.37500000000000000       0.53125000000000000        0.0000000000000000     
  0.40625000000000000       0.53125000000000000        0.0000000000000000     
  0.43750000000000000       0.53125000000000000        0.0000000000000000     
  0.46875000000000000       0.53125000000000000        0.0000000000000000     
  0.50000000000000000       0.53125000000000000        0.0000000000000000     
  0.37500000000000000       0.56250000000000000        0.0000000000000000     
  0.40625000000000000       0.56250000000000000        0.0000000000000000     
  0.43750000000000000       0.56250000000000000        0.0000000000000000     
  0.46875000000000000       0.56250000000000000        0.0000000000000000     
  0.50000000000000000       0.56250000000000000        0.0000000000000000     
  0.37500000000000000       0.59375000000000000        0.0000000000000000     
  0.40625000000000000       0.59375000000000000        0.0000000000000000     
  0.43750000000000000       0.59375000000000000        0.0000000000000000     
  0.46875000000000000       0.59375000000000000        0.0000000000000000     
  0.50000000000000000       0.59375000000000000        0.0000000000000000     
  0.37500000000000000       0.62500000000000000        0.0000000000000000     
  0.40625000000000000       0.62500000000000000        0.0000000000000000     
  0.43750000000000000       0.62500000000000000        0.0000000000000000     
  0.46875000000000000       0.62500000000000000        0.0000000000000000     
  0.50000000000000000       0.62500000000000000        0.0000000000000000     
  0.50000000000000000       0.50000000000000000        0.0000000000000000     
  0.53125000000000000       0.50000000000000000        0.0000000000000000     
  0.56250000000000000       0.50000000000000000        0.0000000000000000     
  0.59375000000000000       0.50000000000000000        0.0000000000000000     
  0.62500000000000000       0.50000000000000000        0.0000000000000000     
  0.50000000000000000       0.53125000000000000        0.0000000000000000     
  0.53125000000000000       0.53125000000000000        0.0000000000000000     
  0.56250000000000000       0.53125000000000000        0.0000000000000000     
  0.59375000000000000       0.53125000000000000        0.0000000000000000     
  0.62500000000000000       0.53125000000000000        0.0000000000000000     
  0.50000000000000000       0.56250000000000000        0.0000000000000000     
  0.53125000000000000       0.56250000000000000        0.0000000000000000     
  0.56250000000000000       0.56250000000000000        0.0000000000000000     
  0.59375000000000000       0.56250000000000000        0.0000000000000000     
  0.62500000000000000       0.56250000000000000        0.0000000000000000     
  0.50000000000000000       0.59375000000000000        0.0000000000000000     
  0.53125000000000000       0.59375000000000000        0.0000000000000000     
  0.56250000000000000       0.59375000000000000        0.0000000000000000     
  0.59375000000000000       0.59375000000000000        0.0000000000000000     
  0.62500000000000000       0.59375000000000000        0.0000000000000000     
  0.50000000000000000       0.62500000000000000        0.0000000000000000     
  0.53125000000000000       0.62500000000000000        0.0000000000000000     
  0.56250000000000000       0.62500000000000000        0.0000000000000000     
  0.59375000000000000       0.62500000000000000        0.0000000000000000     
  0.62500000000000000       0.62500000000000000        0.0000000000000000     
  0.62500000000000000       0.50000000000000000        0.0000000000000000     
  0.65625000000000000       0.50000000000000000        0.0000000000000000     
  0.68750000000000000       0.50000000000000000        0.0000000000000000     
  0.71875000000000000       0.50000000000000000        0.0000000000000000     
  0.75000000000000000       0.50000000000000000        0.0000000000000000     
  0.62500000000000000       0.53125000000000000        0.0000000000000000     
  0.65625000000000000       0.53125000000000000        0.0000000000000000     
  0.68750000000000000       0.53125000000000000        0.0000000000000000     
  0.71875000000000000       0.53125000000000000        0.0000000000000000     
  0.75000000000000000       0.53125000000000000        0.0000000000000000     
  0.62500000000000000       0.56250000000000000        0.0000000000000000     
  0.65625000000000000       0.56250000000000000        0.0000000000000000     
  0.68750000000000000       0.56250000000000000        0.0000000000000000     
  0.71875000000000000       0.56250000000000000        0.0000000000000000     
  0.75000000000000000       0.56250000000000000        0.0000000000000000     
  0.62500000000000000       0.59375000000000000        0.0000000000000000     
  0.65625000000000000       0.59375000000000000        0.0000000000000000     
  0.68750000000000000       0.59375000000000000        0.0000000000000000     
  0.71875000000000000       0.59375000000000000        0.0000000000000000     
  0.75000000000000000       0.59375000000000000        0.0000000000000000     
  0.62500000000000000       0.62500000000000000        0.0000000000000000     
  0.65625000000000000       0.62500000000000000        0.0000000000000000     
  0.68750000000000000       0.62500000000000000        0.0000000000000000     
  0.71875000000000000       0.62500000000000000        0.0000000000000000     
  0.75000000000000000       0.62500000000000000        0.0000000000000000     
  0.75000000000000000       0.50000000000000000        0.0000000000000000     
  0.78125000000000000       0.50000000000000000        0.0000000000000000     
  0.81250000000000000       0.50000000000000000        0.0000000000000000     
  0.84375000000000000       0.50000000000000000        0.0000000000000000     
  0.87500000000000000       0.50000000000000000        0.0000000000000000     
  0.75000000000000000       0.53125000000000000        0.0000000000000000     
  0.78125000000000000       0.53125000000000000        0.0000000000000000     
  0.81250000000000000       0.53125000000000000        0.0000000000000000     
  0.84375000000000000       0.53125000000000000        0.0000000000000000     
  0.87500000000000000       0.53125000000000000        0.0000000000000000     
  0.75000000000000000       0.56250000000000000        0.0000000000000000     
  0.78125000000000000       0.56250000000000000        0.0000000000000000     
  0.81250000000000000       0.56250000000000000        0.0000000000000000     
  0.84375000000000000       0.56250000000000000        0.0000000000000000     
  0.87500000000000000       0.56250000000000000        0.0000000000000000     
  0.75000000000000000       0.59375000000000000        0.0000000000000000     
  0.78125000000000000       0.59375000000000000        0.0000000000000000     
  0.81250000000000000       0.59375000000000000        0.0000000000000000     
  0.84375000000000000       0.59375000000000000        0.0000000000000000     
  0.87500000000000000       0.59375000000000000        0.0000000000000000     
  0.75000000000000000       0.62500000000000000        0.0000000000000000     
  0.78125000000000000       0.62500000000000000        0.0000000000000000     
  0.81250000000000000       0.62500000000000000        0.0000000000000000     
  0.84375000000000000       0.62500000000000000        0.0000000000000000     
  0.87500000000000000       0.62500000000000000        0.0000000000000000     
  0.87500000000000000       0.50000000000000000        0.0000000000000000     
  0.90625000000000000       0.50000000000000000        0.0000000000000000     
  0.93750000000000000       0.50000000000000000        0.0000000000000000     
  0.96875000000000000       0.50000000000000000        0.0000000000000000     
   1.0000000000000000       0.50000000000000000        0.0000000000000000     
  0.87500000000000000       0.53125000000000000        0.0000000000000000     
  0.90625000000000000       0.53125000000000000        0.0000000000000000     
  0.93750000000000000       0.53125000000000000        0.0000000000000000     
  0.96875000000000000       0.53125000000000000        0.0000000000000000     
   1.0000000000000000       0.53125000000000000        0.0000000000000000     
  0.87500000000000000       0.56250000000000000        0.0000000000000000     
  0.90625000000000000       0.56250000000000000        0.0000000000000000     
  0.93750000000000000       0.56250000000000000        0.0000000000000000     
  0.96875000000000000       0.56250000000000000        0.0000000000000000     
   1.0000000000000000       0.56250000000000000        0.0000000000000000     
  0.87500000000000000       0.59375000000000000        0.0000000000000000     
  0.90625000000000000       0.59375000000000000        0.0000000000000000     
  0.93750000000000000       0.59375000000000000        0.0000000000000000     
  0.96875000000000000       0.59375000000000000        0.0000000000000000     
   1.0000000000000000       0.59375000000000000        0.0000000000000000     
  0.87500000000000000       0.62500000000000000        0.0000000000000000     
  0.90625000000000000       0.62500000000000000        0.0000000000000000     
  0.93750000000000000       0.62500000000000000        0.0000000000000000     
  0.96875000000000000       0.62500000000000000        0.0000000000000000     
   1.0000000000000000       0.62500000000000000        0.0000000000000000     
   0.0000000000000000       0.62500000000000000        0.0000000000000000     
   3.1250000000000000E-002  0.62500000000000000        0.0000000000000000     
   6.2500000000000000E-002  0.62500000000000000        0.0000000000000000     
   9.3750000000000000E-002  0.62500000000000000        0.0000000000000000     
  0.12500000000000000       0.62500000000000000        0.0000000000000000     
   0.0000000000000000       0.65625000000000000        0.0000000000000000     
   3.1250000000000000E-002  0.65625000000000000        0.0000000000000000     
   6.2500000000000000E-002  0.65625000000000000        0.0000000000000000     
   9.3750000000000000E-002  0.65625000000000000        0.0000000000000000     
  0.12500000000000000       0.65625000000000000        0.0000000000000000     
   0.0000000000000000       0.68750000000000000        0.0000000000000000     
   3.1250000000000000E-002  0.68750000000000000        0.0000000000000000     
   6.2500000000000000E-002  0.68750000000000000        0.0000000000000000     
   9.3750000000000000E-002  0.68750000000000000        0.0000000000000000     
  0.12500000000000000       0.68750000000000000        0.0000000000000000     
   0.0000000000000000       0.71875000000000000        0.0000000000000000     
   3.1250000000000000E-002  0.71875000000000000        0.0000000000000000     
   6.2500000000000000E-002  0.71875000000000000        0.0000000000000000     
   9.3750000000000000E-002  0.71875000000000000        0.0000000000000000     
  0.12500000000000000       0.71875000000000000        0.0000000000000000     
   0.0000000000000000       0.75000000000000000        0.0000000000000000     
   3.1250000000000000E-002  0.75000000000000000        0.0000000000000000     
   6.2500000000000000E-002  0.75000000000000000        0.0000000000000000     
   9.3750000000000000E-002  0.75000000000000000        0.0000000000000000     
  0.12500000000000000       0.75000000000000000        0.0000000000000000     
  0.12500000000000000       0.62500000000000000        0.0000000000000000     
  0.15625000000000000       0.62500000000000000        0.0000000000000000     
  0.18750000000000000       0.62500000000000000        0.0000000000000000     
  0.21875000000000000       0.62500000000000000        0.0000000000000000     
  0.25000000000000000       0.62500000000000000        0.0000000000000000     
  0.12500000000000000       0.65625000000000000        0.0000000000000000     
  0.15625000000000000       0.65625000000000000        0.0000000000000000     
  0.18750000000000000       0.65625000000000000        0.0000000000000000     
  0.21875000000000000       0.65625000000000000        0.0000000000000000     
  0.25000000000000000       0.65625000000000000        0.0000000000000000     
  0.12500000000000000       0.68750000000000000        0.0000000000000000     
  0.15625000000000000       0.68750000000000000        0.0000000000000000     
  0.18750000000000000       0.68750000000000000        0.0000000000000000     
  0.21875000000000000       0.68750000000000000        0.0000000000000000     
  0.25000000000000000       0.68750000000000000        0.0000000000000000     
  0.12500000000000000       0.71875000000000000        0.0000000000000000     
  0.15625000000000000       0.71875000000000000        0.0000000000000000     
  0.18750000000000000       0.71875000000000000        0.0000000000000000     
  0.21875000000000000       0.71875000000000000        0.0000000000000000     
  0.25000000000000000       0.71875000000000000        0.0000000000000000     
  0.12500000000000000       0.75000000000000000        0.0000000000000000     
  0.15625000000000000       0.75000000000000000        0.0000000000000000     
  0.18750000000000000       0.75000000000000000        0.0000000000000000     
  0.21875000000000000       0.75000000000000000        0.0000000000000000     
  0.25000000000000000       0.75000000000000000        0.0000000000000000     
  0.25000000000000000       0.62500000000000000        0.0000000000000000     
  0.28125000000000000       0.62500000000000000        0.0000000000000000     
  0.31250000000000000       0.62500000000000000        0.0000000000000000     
  0.34375000000000000       0.62500000000000000        0.0000000000000000     
  0.37500000000000000       0.62500000000000000        0.0000000000000000     
  0.25000000000000000       0.65625000000000000        0.0000000000000000     
  0.28125000000000000       0.65625000000000000        0.0000000000000000     
  0.31250000000000000       0.65625000000000000        0.0000000000000000     
  0.34375000000000000       0.65625000000000000        0.0000000000000000     
  0.37500000000000000       0.65625000000000000        0.0000000000000000     
  0.25000000000000000       0.68750000000000000        0.0000000000000000     
  0.28125000000000000       0.68750000000000000        0.0000000000000000     
  0.31250000000000000       0.68750000000000000        0.0000000000000000     
  0.34375000000000000       0.68750000000000000        0.0000000000000000     
  0.37500000000000000       0.68750000000000000        0.0000000000000000     
  0.25000000000000000       0.71875000000000000        0.0000000000000000     
  0.28125000000000000       0.71875000000000000        0.0000000000000000     
  0.31250000000000000       0.71875000000000000        0.0000000000000000     
  0.34375000000000000       0.71875000000000000        0.0000000000000000     
  0.37500000000000000       0.71875000000000000        0.0000000000000000     
  0.25000000000000000       0.75000000000000000        0.0000000000000000     
  0.28125000000000000       0.75000000000000000        0.0000000000000000     
  0.31250000000000000       0.75000000000000000        0.0000000000000000     
  0.34375000000000000       0.75000000000000000        0.0000000000000000     
  0.37500000000000000       0.75000000000000000        0.0000000000000000     
  0.37500000000000000       0.62500000000000000        0.0000000000000000     
  0.40625000000000000       0.62500000000000000        0.0000000000000000     
  0.43750000000000000       0.62500000000000000        0.0000000000000000     
  0.46875000000000000       0.62500000000000000        0.0000000000000000     
  0.50000000000000000       0.62500000000000000        0.0000000000000000     
  0.37500000000000000       0.65625000000000000        0.0000000000000000     
  0.40625000000000000       0.65625000000000000        0.0000000000000000     
  0.43750000000000000       0.65625000000000000        0.0000000000000000     
  0.46875000000000000       0.65625000000000000        0.0000000000000000     
  0.50000000000000000       0.65625000000000000        0.0000000000000000     
  0.37500000000000000       0.68750000000000000        0.0000000000000000     
  0.40625000000000000       0.68750000000000000        0.0000000000000000     
  0.43750000000000000       0.68750000000000000        0.0000000000000000     
  0.46875000000000000       0.68750000000000000        0.0000000000000000     
  0.50000000000000000       0.68750000000000000        0.0000000000000000     
  0.37500000000000000       0.71875000000000000        0.0000000000000000     
  0.40625000000000000       0.71875000000000000        0.0000000000000000     
  0.43750000000000000       0.71875000000000000        0.0000000000000000     
  0.46875000000000000       0.71875000000000000        0.0000000000000000     
  0.50000000000000000       0.71875000000000000        0.0000000000000000     
  0.37500000000000000       0.75000000000000000        0.0000000000000000     
  0.40625000000000000       0.75000000000000000        0.0000000000000000     
  0.43750000000000000       0.75000000000000000        0.0000000000000000     
  0.46875000000000000       0.75000000000000000        0.0000000000000000     
  0.50000000000000000       0.75000000000000000        0.0000000000000000     
  0.50000000000000000       0.62500000000000000        0.0000000000000000     
  0.53125000000000000       0.62500000000000000        0.0000000000000000     
  0.56250000000000000       0.62500000000000000        0.0000000000000000     
  0.59375000000000000       0.62500000000000000        0.0000000000000000     
  0.62500000000000000       0.62500000000000000        0.0000000000000000     
  0.50000000000000000       0.65625000000000000        0.0000000000000000     
  0.53125000000000000       0.65625000000000000        0.0000000000000000     
  0.56250000000000000       0.65625000000000000        0.0000000000000000     
  0.59375000000000000       0.65625000000000000        0.0000000000000000     
  0.62500000000000000       0.65625000000000000        0.0000000000000000     
  0.50000000000000000       0.68750000000000000        0.0000000000000000     
  0.53125000000000000       0.68750000000000000        0.0000000000000000     
  0.56250000000000000       0.68750000000000000        0.0000000000000000     
  0.59375000000000000       0.68750000000000000        0.0000000000000000     
  0.62500000000000000       0.68750000000000000        0.0000000000000000     
  0.50000000000000000       0.71875000000000000        0.0000000000000000     
  0.53125000000000000       0.71875000000000000        0.0000000000000000     
  0.56250000000000000       0.71875000000000000        0.0000000000000000     
  0.59375000000000000       0.71875000000000000        0.0000000000000000     
  0.62500000000000000       0.71875000000000000        0.0000000000000000     
  0.50000000000000000       0.75000000000000000        0.0000000000000000     
  0.53125000000000000       0.75000000000000000        0.0000000000000000     
  0.56250000000000000       0.75000000000000000        0.0000000000000000     
  0.59375000000000000       0.75000000000000000        0.0000000000000000     
  0.62500000000000000       0.75000000000000000        0.0000000000000000     
  0.62500000000000000       0.62500000000000000        0.0000000000000000     
  0.65625000000000000       0.62500000000000000        0.0000000000000000     
  0.68750000000000000       0.62500000000000000        0.0000000000000000     
  0.71875000000000000       0.62500000000000000        0.0000000000000000     
  0.75000000000000000       0.62500000000000000        0.0000000000000000     
  0.62500000000000000       0.65625000000000000        0.0000000000000000     
  0.65625000000000000       0.65625000000000000        0.0000000000000000     
  0.68750000000000000       0.65625000000000000        0.0000000000000000     
  0.71875000000000000       0.65625000000000000        0.0000000000000000     
  0.75000000000000000       0.65625000000000000        0.0000000000000000     
  0.62500000000000000       0.68750000000000000        0.0000000000000000     
  0.65625000000000000       0.68750000000000000        0.0000000000000000     
  0.68750000000000000       0.68750000000000000        0.0000000000000000     
  0.71875000000000000       0.68750000000000000        0.0000000000000000     
  0.75000000000000000       0.68750000000000000        0.0000000000000000     
  0.62500000000000000       0.71875000000000000        0.0000000000000000     
  0.65625000000000000       0.71875000000000000        0.0000000000000000     
  0.68750000000000000       0.71875000000000000        0.0000000000000000     
  0.71875000000000000       0.71875000000000000        0.0000000000000000     
  0.75000000000000000       0.71875000000000000        0.0000000000000000     
  0.62500000000000000       0.75000000000000000        0.0000000000000000     
  0.65625000000000000       0.75000000000000000        0.0000000000000000     
  0.68750000000000000       0.75000000000000000        0.0000000000000000     
  0.71875000000000000       0.75000000000000000        0.0000000000000000     
  0.75000000000000000       0.75000000000000000        0.0000000000000000     
  0.75000000000000000       0.62500000000000000        0.0000000000000000     
  0.78125000000000000       0.62500000000000000        0.0000000000000000     
  0.81250000000000000       0.62500000000000000        0.0000000000000000     
  0.84375000000000000       0.62500000000000000        0.0000000000000000     
  0.87500000000000000       0.62500000000000000        0.0000000000000000     
  0.75000000000000000       0.65625000000000000        0.0000000000000000     
  0.78125000000000000       0.65625000000000000        0.0000000000000000     
  0.81250000000000000       0.65625000000000000        0.0000000000000000     
  0.84375000000000000       0.65625000000000000        0.0000000000000000     
  0.87500000000000000       0.65625000000000000        0.0000000000000000     
  0.75000000000000000       0.68750000000000000        0.0000000000000000     
  0.78125000000000000       0.68750000000000000        0.0000000000000000     
  0.81250000000000000       0.68750000000000000        0.0000000000000000     
  0.84375000000000000       0.68750000000000000        0.0000000000000000     
  0.87500000000000000       0.68750000000000000        0.0000000000000000     
  0.75000000000000000       0.71875000000000000        0.0000000000000000     
  0.78125000000000000       0.71875000000000000        0.0000000000000000     
  0.81250000000000000       0.71875000000000000        0.0000000000000000     
  0.84375000000000000       0.71875000000000000        0.0000000000000000     
  0.87500000000000000       0.71875000000000000        0.0000000000000000     
  0.75000000000000000       0.75000000000000000        0.0000000000000000     
  0.78125000000000000       0.75000000000000000        0.0000000000000000     
  0.81250000000000000       0.75000000000000000        0.0000000000000000     
  0.84375000000000000       0.75000000000000000        0.0000000000000000     
  0.87500000000000000       0.75000000000000000        0.0000000000000000     
  0.87500000000000000       0.62500000000000000        0.0000000000000000     
  0.90625000000000000       0.62500000000000000        0.0000000000000000     
  0.93750000000000000       0.62500000000000000        0.0000000000000000     
  0.96875000000000000       0.62500000000000000        0.0000000000000000     
   1.0000000000000000       0.62500000000000000        0.0000000000000000     
  0.87500000000000000       0.65625000000000000        0.0000000000000000     
  0.90625000000000000       0.65625000000000000        0.0000000000000000     
  0.93750000000000000       0.65625000000000000        0.0000000000000000     
  0.96875000000000000       0.65625000000000000        0.0000000000000000     
   1.0000000000000000       0.65625000000000000        0.0000000000000000     
  0.87500000000000000       0.68750000000000000        0.0000000000000000     
  0.90625000000000000       0.68750000000000000        0.0000000000000000     
  0.93750000000000000       0.68750000000000000        0.0000000000000000     
  0.96875000000000000       0.68750000000000000        0.0000000000000000     
   1.0000000000000000       0.68750000000000000        0.0000000000000000     
  0.87500000000000000       0.71875000000000000        0.0000000000000000     
  0.90625000000000000       0.71875000000000000        0.0000000000000000     
  0.93750000000000000       0.71875000000000000        0.0000000000000000     
  0.96875000000000000       0.71875000000000000        0.0000000000000000     
   1.0000000000000000       0.71875000000000000        0.0000000000000000     
  0.87500000000000000       0.75000000000000000        0.0000000000000000     
  0.90625000000000000       0.75000000000000000        0.0000000000000000     
  0.93750000000000000       0.75000000000000000        0.0000000000000000     
  0.96875000000000000       0.75000000000000000        0.0000000000000000     
   1.0000000000000000       0.75000000000000000        0.0000000000000000     
   0.0000000000000000       0.75000000000000000        0.0000000000000000     
   3.1250000000000000E-002  0.75000000000000000        0.0000000000000000     
   6.2500000000000000E-002  0.75000000000000000        0.0000000000000000     
   9.3750000000000000E-002  0.75000000000000000        0.0000000000000000     
  0.12500000000000000       0.75000000000000000        0.0000000000000000     
   0.0000000000000000       0.78125000000000000        0.0000000000000000     
   3.1250000000000000E-002  0.78125000000000000        0.0000000000000000     
   6.2500000000000000E-002  0.78125000000000000        0.0000000000000000     
   9.3750000000000000E-002  0.78125000000000000        0.0000000000000000     
  0.12500000000000000       0.78125000000000000        0.0000000000000000     
   0.0000000000000000       0.81250000000000000        0.0000000000000000     
   3.1250000000000000E-002  0.81250000000000000        0.0000000000000000     
   6.2500000000000000E-002  0.81250000000000000        0.0000000000000000     
   9.3750000000000000E-002  0.81250000000000000        0.0000000000000000     
  0.12500000000000000       0.81250000000000000        0.0000000000000000     
   0.0000000000000000       0.84375000000000000        0.0000000000000000     
   3.1250000000000000E-002  0.84375000000000000        0.0000000000000000     
   6.2500000000000000E-002  0.84375000000000000        0.0000000000000000     
   9.3750000000000000E-002  0.84375000000000000        0.0000000000000000     
  0.12500000000000000       0.84375000000000000        0.0000000000000000     
   0.0000000000000000       0.87500000000000000        0.0000000000000000     
   3.1250000000000000E-002  0.87500000000000000        0.0000000000000000     
   6.2500000000000000E-002  0.87500000000000000        0.0000000000000000     
   9.3750000000000000E-002  0.87500000000000000        0.0000000000000000     
  0.12500000000000000       0.87500000000000000        0.0000000000000000     
  0.12500000000000000       0.75000000000000000        0.0000000000000000     
  0.15625000000000000       0.75000000000000000        0.0000000000000000     
  0.18750000000000000       0.75000000000000000        0.0000000000000000     
  0.21875000000000000       0.75000000000000000        0.0000000000000000     
  0.25000000000000000       0.75000000000000000        0.0000000000000000     
  0.12500000000000000       0.78125000000000000        0.0000000000000000     
  0.15625000000000000       0.78125000000000000        0.0000000000000000     
  0.18750000000000000       0.78125000000000000        0.0000000000000000     
  0.21875000000000000       0.78125000000000000        0.0000000000000000     
  0.25000000000000000       0.78125000000000000        0.0000000000000000     
  0.12500000000000000       0.81250000000000000        0.0000000000000000     
  0.15625000000000000       0.81250000000000000        0.0000000000000000     
  0.18750000000000000       0.81250000000000000        0.0000000000000000     
  0.21875000000000000       0.81250000000000000        0.0000000000000000     
  0.25000000000000000       0.81250000000000000        0.0000000000000000     
  0.12500000000000000       0.84375000000000000        0.0000000000000000     
  0.15625000000000000       0.84375000000000000        0.0000000000000000     
  0.18750000000000000       0.84375000000000000        0.0000000000000000     
  0.21875000000000000       0.84375000000000000        0.0000000000000000     
  0.25000000000000000       0.84375000000000000        0.0000000000000000     
  0.12500000000000000       0.87500000000000000        0.0000000000000000     
  0.15625000000000000       0.87500000000000000        0.0000000000000000     
  0.18750000000000000       0.87500000000000000        0.0000000000000000     
  0.21875000000000000       0.87500000000000000        0.0000000000000000     
  0.25000000000000000       0.87500000000000000        0.0000000000000000     
  0.25000000000000000       0.75000000000000000        0.0000000000000000     
  0.28125000000000000       0.75000000000000000        0.0000000000000000     
  0.31250000000000000       0.75000000000000000        0.0000000000000000     
  0.34375000000000000       0.75000000000000000        0.0000000000000000     
  0.37500000000000000       0.75000000000000000        0.0000000000000000     
  0.25000000000000000       0.78125000000000000        0.0000000000000000     
  0.28125000000000000       0.78125000000000000        0.0000000000000000     
  0.31250000000000000       0.78125000000000000        0.0000000000000000     
  0.34375000000000000       0.78125000000000000        0.0000000000000000     
  0.37500000000000000       0.78125000000000000        0.0000000000000000     
  0.25000000000000000       0.81250000000000000        0.0000000000000000     
  0.28125000000000000       0.81250000000000000        0.0000000000000000     
  0.31250000000000000       0.81250000000000000        0.0000000000000000     
  0.34375000000000000       0.81250000000000000        0.0000000000000000     
  0.37500000000000000       0.81250000000000000        0.0000000000000000     
  0.25000000000000000       0.84375000000000000        0.0000000000000000     
  0.28125000000000000       0.84375000000000000        0.0000000000000000     
  0.31250000000000000       0.84375000000000000        0.0000000000000000     
  0.34375000000000000       0.84375000000000000        0.0000000000000000     
  0.37500000000000000       0.84375000000000000        0.0000000000000000     
  0.25000000000000000       0.87500000000000000        0.0000000000000000     
  0.28125000000000000       0.87500000000000000        0.0000000000000000     
  0.31250000000000000       0.87500000000000000        0.0000000000000000     
  0.34375000000000000       0.87500000000000000        0.0000000000000000     
  0.37500000000000000       0.87500000000000000        0.0000000000000000     
  0.37500000000000000       0.75000000000000000        0.0000000000000000     
  0.40625000000000000       0.75000000000000000        0.0000000000000000     
  0.43750000000000000       0.75000000000000000        0.0000000000000000     
  0.46875000000000000       0.75000000000000000        0.0000000000000000     
  0.50000000000000000       0.75000000000000000        0.0000000000000000     
  0.37500000000000000       0.78125000000000000        0.0000000000000000     
  0.40625000000000000       0.78125000000000000        0.0000000000000000     
  0.43750000000000000       0.78125000000000000        0.0000000000000000     
  0.46875000000000000       0.78125000000000000        0.0000000000000000     
  0.50000000000000000       0.78125000000000000        0.0000000000000000     
  0.37500000000000000       0.81250000000000000        0.0000000000000000     
  0.40625000000000000       0.81250000000000000        0.0000000000000000     
  0.43750000000000000       0.81250000000000000        0.0000000000000000     
  0.46875000000000000       0.81250000000000000        0.0000000000000000     
  0.50000000000000000       0.81250000000000000        0.0000000000000000     
  0.37500000000000000       0.84375000000000000        0.0000000000000000     
  0.40625000000000000       0.84375000000000000        0.0000000000000000     
  0.43750000000000000       0.84375000000000000        0.0000000000000000     
  0.46875000000000000       0.84375000000000000        0.0000000000000000     
  0.50000000000000000       0.84375000000000000        0.0000000000000000     
  0.37500000000000000       0.87500000000000000        0.0000000000000000     
  0.40625000000000000       0.87500000000000000        0.0000000000000000     
  0.43750000000000000       0.87500000000000000        0.0000000000000000     
  0.46875000000000000       0.87500000000000000        0.0000000000000000     
  0.50000000000000000       0.87500000000000000        0.0000000000000000     
  0.50000000000000000       0.75000000000000000        0.0000000000000000     
  0.53125000000000000       0.75000000000000000        0.0000000000000000     
  0.56250000000000000       0.75000000000000000        0.0000000000000000     
  0.59375000000000000       0.75000000000000000        0.0000000000000000     
  0.62500000000000000       0.75000000000000000        0.0000000000000000     
  0.50000000000000000       0.78125000000000000        0.0000000000000000     
  0.53125000000000000       0.78125000000000000        0.0000000000000000     
  0.56250000000000000       0.78125000000000000        0.0000000000000000     
  0.59375000000000000       0.78125000000000000        0.0000000000000000     
  0.62500000000000000       0.78125000000000000        0.0000000000000000     
  0.50000000000000000       0.81250000000000000        0.0000000000000000     
  0.53125000000000000       0.81250000000000000        0.0000000000000000     
  0.56250000000000000       0.81250000000000000        0.0000000000000000     
  0.59375000000000000       0.81250000000000000        0.0000000000000000     
  0.62500000000000000       0.81250000000000000        0.0000000000000000     
  0.50000000000000000       0.84375000000000000        0.0000000000000000     
  0.53125000000000000       0.84375000000000000        0.0000000000000000     
  0.56250000000000000       0.84375000000000000        0.0000000000000000     
  0.59375000000000000       0.84375000000000000        0.0000000000000000     
  0.62500000000000000       0.84375000000000000        0.0000000000000000     
  0.50000000000000000       0.87500000000000000        0.0000000000000000     
  0.53125000000000000       0.87500000000000000        0.0000000000000000     
  0.56250000000000000       0.87500000000000000        0.0000000000000000     
  0.59375000000000000       0.87500000000000000        0.0000000000000000     
  0.62500000000000000       0.87500000000000000        0.0000000000000000     
  0.62500000000000000       0.75000000000000000        0.0000000000000000     
  0.65625000000000000       0.75000000000000000        0.0000000000000000     
  0.68750000000000000       0.75000000000000000        0.0000000000000000     
  0.71875000000000000       0.75000000000000000        0.0000000000000000     
  0.75000000000000000       0.75000000000000000        0.0000000000000000     
  0.62500000000000000       0.78125000000000000        0.0000000000000000     
  0.65625000000000000       0.78125000000000000        0.0000000000000000     
  0.68750000000000000       0.78125000000000000        0.0000000000000000     
  0.71875000000000000       0.78125000000000000        0.0000000000000000     
  0.75000000000000000       0.78125000000000000        0.0000000000000000     
  0.62500000000000000       0.81250000000000000        0.0000000000000000     
  0.65625000000000000       0.81250000000000000        0.0000000000000000     
  0.68750000000000000       0.81250000000000000        0.0000000000000000     
  0.71875000000000000       0.81250000000000000        0.0000000000000000     
  0.75000000000000000       0.81250000000000000        0.0000000000000000     
  0.62500000000000000       0.84375000000000000        0.0000000000000000     
  0.65625000000000000       0.84375000000000000        0.0000000000000000     
  0.68750000000000000       0.84375000000000000        0.0000000000000000     
  0.71875000000000000       0.84375000000000000        0.0000000000000000     
  0.75000000000000000       0.84375000000000000        0.0000000000000000     
  0.62500000000000000       0.87500000000000000        0.0000000000000000     
  0.65625000000000000       0.87500000000000000        0.0000000000000000     
  0.68750000000000000       0.87500000000000000        0.0000000000000000     
  0.71875000000000000       0.87500000000000000        0.0000000000000000     
  0.75000000000000000       0.87500000000000000        0.0000000000000000     
  0.75000000000000000       0.75000000000000000        0.0000000000000000     
  0.78125000000000000       0.75000000000000000        0.0000000000000000     
  0.81250000000000000       0.75000000000000000        0.0000000000000000     
  0.84375000000000000       0.75000000000000000        0.0000000000000000     
  0.87500000000000000       0.75000000000000000        0.0000000000000000     
  0.75000000000000000       0.78125000000000000        0.0000000000000000     
  0.78125000000000000       0.78125000000000000        0.0000000000000000     
  0.81250000000000000       0.78125000000000000        0.0000000000000000     
  0.84375000000000000       0.78125000000000000        0.0000000000000000     
  0.87500000000000000       0.78125000000000000        0.0000000000000000     
  0.75000000000000000       0.81250000000000000        0.0000000000000000     
  0.78125000000000000       0.81250000000000000        0.0000000000000000     
  0.81250000000000000       0.81250000000000000        0.0000000000000000     
  0.84375000000000000       0.81250000000000000        0.0000000000000000     
  0.87500000000000000       0.81250000000000000        0.0000000000000000     
  0.75000000000000000       0.84375000000000000        0.0000000000000000     
  0.78125000000000000       0.84375000000000000        0.0000000000000000     
  0.81250000000000000       0.84375000000000000        0.0000000000000000     
  0.84375000000000000       0.84375000000000000        0.0000000000000000     
  0.87500000000000000       0.84375000000000000        0.0000000000000000     
  0.75000000000000000       0.87500000000000000        0.0000000000000000     
  0.78125000000000000       0.87500000000000000        0.0000000000000000     
  0.81250000000000000       0.87500000000000000        0.0000000000000000     
  0.84375000000000000       0.87500000000000000        0.0000000000000000     
  0.87500000000000000       0.87500000000000000        0.0000000000000000     
  0.87500000000000000       0.75000000000000000        0.0000000000000000     
  0.90625000000000000       0.75000000000000000        0.0000000000000000     
  0.93750000000000000       0.75000000000000000        0.0000000000000000     
  0.96875000000000000       0.75000000000000000        0.0000000000000000     
   1.0000000000000000       0.75000000000000000        0.0000000000000000     
  0.87500000000000000       0.78125000000000000        0.0000000000000000     
  0.90625000000000000       0.78125000000000000        0.0000000000000000     
  0.93750000000000000       0.78125000000000000        0.0000000000000000     
  0.96875000000000000       0.78125000000000000        0.0000000000000000     
   1.0000000000000000       0.78125000000000000        0.0000000000000000     
  0.87500000000000000       0.81250000000000000        0.0000000000000000     
  0.90625000000000000       0.81250000000000000        0.0000000000000000     
  0.93750000000000000       0.81250000000000000        0.0000000000000000     
  0.96875000000000000       0.81250000000000000        0.0000000000000000     
   1.0000000000000000       0.81250000000000000        0.0000000000000000     
  0.87500000000000000       0.84375000000000000        0.0000000000000000     
  0.90625000000000000       0.84375000000000000        0.0000000000000000     
  0.93750000000000000       0.84375000000000000        0.0000000000000000     
  0.96875000000000000       0.84375000000000000        0.0000000000000000     
   1.0000000000000000       0.84375000000000000        0.0000000000000000     
  0.87500000000000000       0.87500000000000000        0.0000000000000000     
  0.90625000000000000       0.87500000000000000        0.0000000000000000     
  0.93750000000000000       0.87500000000000000        0.0000000000000000     
  0.96875000000000000       0.87500000000000000        0.0000000000000000     
   1.0000000000000000       0.87500000000000000        0.0000000000000000     
   0.0000000000000000       0.87500000000000000        0.0000000000000000     
   3.1250000000000000E-002  0.87500000000000000        0.0000000000000000     
   6.2500000000000000E-002  0.87500000000000000        0.0000000000000000     
   9.3750000000000000E-002  0.87500000000000000        0.0000000000000000     
  0.12500000000000000       0.87500000000000000        0.0000000000000000     
   0.0000000000000000       0.90625000000000000        0.0000000000000000     
   3.1250000000000000E-002  0.90625000000000000        0.0000000000000000     
   6.2500000000000000E-002  0.90625000000000000        0.0000000000000000     
   9.3750000000000000E-002  0.90625000000000000        0.0000000000000000     
  0.12500000000000000       0.90625000000000000        0.0000000000000000     
   0.0000000000000000       0.93750000000000000        0.0000000000000000     
   3.1250000000000000E-002  0.93750000000000000        0.0000000000000000     
   6.2500000000000000E-002  0.93750000000000000        0.0000000000000000     
   9.3750000000000000E-002  0.93750000000000000        0.0000000000000000     
  0.12500000000000000       0.93750000000000000        0.0000000000000000     
   0.0000000000000000       0.96875000000000000        0.0000000000000000     
   3.1250000000000000E-002  0.96875000000000000        0.0000000000000000     
   6.2500000000000000E-002  0.96875000000000000        0.0000000000000000     
   9.3750000000000000E-002  0.96875000000000000        0.0000000000000000     
  0.12500000000000000       0.96875000000000000        0.0000000000000000     
   0.0000000000000000        1.0000000000000000        0.0000000000000000     
   3.1250000000000000E-002   1.0000000000000000        0.0000000000000000     
   6.2500000000000000E-002   1.0000000000000000        0.0000000000000000     
   9.3750000000000000E-002   1.0000000000000000        0.0000000000000000     
  0.12500000000000000        1.0000000000000000        0.0000000000000000     
  0.12500000000000000       0.87500000000000000        0.0000000000000000     
  0.15625000000000000       0.87500000000000000        0.0000000000000000     
  0.18750000000000000       0.87500000000000000        0.0000000000000000     
  0.21875000000000000       0.87500000000000000        0.0000000000000000     
  0.25000000000000000       0.87500000000000000        0.0000000000000000     
  0.12500000000000000       0.90625000000000000        0.0000000000000000     
  0.15625000000000000       0.90625000000000000        0.0000000000000000     
  0.18750000000000000       0.90625000000000000        0.0000000000000000     
  0.21875000000000000       0.90625000000000000        0.0000000000000000     
  0.25000000000000000       0.90625000000000000        0.0000000000000000     
  0.12500000000000000       0.93750000000000000        0.0000000000000000     
  0.15625000000000000       0.93750000000000000        0.0000000000000000     
  0.18750000000000000       0.93750000000000000        0.0000000000000000     
  0.21875000000000000       0.93750000000000000        0.0000000000000000     
  0.25000000000000000       0.93750000000000000        0.0000000000000000     
  0.12500000000000000       0.96875000000000000        0.0000000000000000     
  0.15625000000000000       0.96875000000000000        0.0000000000000000     
  0.18750000000000000       0.96875000000000000        0.0000000000000000     
  0.21875000000000000       0.96875000000000000        0.0000000000000000     
  0.25000000000000000       0.96875000000000000        0.0000000000000000     
  0.12500000000000000        1.0000000000000000        0.0000000000000000     
  0.15625000000000000        1.0000000000000000        0.0000000000000000     
  0.18750000000000000        1.0000000000000000        0.0000000000000000     
  0.21875000000000000        1.0000000000000000        0.0000000000000000     
  0.25000000000000000        1.0000000000000000        0.0000000000000000     
  0.25000000000000000       0.87500000000000000        0.0000000000000000     
  0.28125000000000000       0.87500000000000000        0.0000000000000000     
  0.31250000000000000       0.87500000000000000        0.0000000000000000     
  0.34375000000000000       0.87500000000000000        0.0000000000000000     
  0.37500000000000000       0.87500000000000000        0.0000000000000000     
  0.25000000000000000       0.90625000000000000        0.0000000000000000     
  0.28125000000000000       0.90625000000000000        0.0000000000000000     
  0.31250000000000000       0.90625000000000000        0.0000000000000000     
  0.34375000000000000       0.90625000000000000        0.0000000000000000     
  0.37500000000000000       0.90625000000000000        0.0000000000000000     
  0.25000000000000000       0.93750000000000000        0.0000000000000000     
  0.28125000000000000       0.93750000000000000        0.0000000000000000     
  0.31250000000000000       0.93750000000000000        0.0000000000000000     
  0.34375000000000000       0.93750000000000000        0.0000000000000000     
  0.37500000000000000       0.93750000000000000        0.0000000000000000     
  0.25000000000000000       0.96875000000000000        0.0000000000000000     
  0.28125000000000000       0.96875000000000000        0.0000000000000000     
  0.31250000000000000       0.96875000000000000        0.0000000000000000     
  0.34375000000000000       0.96875000000000000        0.0000000000000000     
  0.37500000000000000       0.96875000000000000        0.0000000000000000     
  0.25000000000000000        1.0000000000000000        0.0000000000000000     
  0.28125000000000000        1.0000000000000000        0.0000000000000000     
  0.31250000000000000        1.0000000000000000        0.0000000000000000     
  0.34375000000000000        1.0000000000000000        0.0000000000000000     
  0.37500000000000000        1.0000000000000000        0.0000000000000000     
  0.37500000000000000       0.87500000000000000        0.0000000000000000     
  0.40625000000000000       0.87500000000000000        0.0000000000000000     
  0.43750000000000000       0.87500000000000000        0.0000000000000000     
  0.46875000000000000       0.87500000000000000        0.0000000000000000     
  0.50000000000000000       0.87500000000000000        0.0000000000000000     
  0.37500000000000000       0.90625000000000000        0.0000000000000000     
  0.40625000000000000       0.90625000000000000        0.0000000000000000     
  0.43750000000000000       0.90625000000000000        0.0000000000000000     
  0.46875000000000000       0.90625000000000000        0.0000000000000000     
  0.50000000000000000       0.90625000000000000        0.0000000000000000     
  0.37500000000000000       0.93750000000000000        0.0000000000000000     
  0.40625000000000000       0.93750000000000000        0.0000000000000000     
  0.43750000000000000       0.93750000000000000        0.0000000000000000     
  0.46875000000000000       0.93750000000000000        0.0000000000000000     
  0.50000000000000000       0.93750000000000000        0.0000000000000000     
  0.37500000000000000       0.96875000000000000        0.0000000000000000     
  0.40625000000000000       0.96875000000000000        0.0000000000000000     
  0.43750000000000000       0.96875000000000000        0.0000000000000000     
  0.46875000000000000       0.96875000000000000        0.0000000000000000     
  0.50000000000000000       0.96875000000000000        0.0000000000000000     
  0.37500000000000000        1.0000000000000000        0.0000000000000000     
  0.40625000000000000        1.0000000000000000        0.0000000000000000     
  0.43750000000000000        1.0000000000000000        0.0000000000000000     
  0.46875000000000000        1.0000000000000000        0.0000000000000000     
  0.50000000000000000        1.0000000000000000        0.0000000000000000     
  0.50000000000000000       0.87500000000000000        0.0000000000000000     
  0.53125000000000000       0.87500000000000000        0.0000000000000000     
  0.56250000000000000       0.87500000000000000        0.0000000000000000     
  0.59375000000000000       0.87500000000000000        0.0000000000000000     
  0.62500000000000000       0.87500000000000000        0.0000000000000000     
  0.50000000000000000       0.90625000000000000        0.0000000000000000     
  0.53125000000000000       0.90625000000000000        0.0000000000000000     
  0.56250000000000000       0.90625000000000000        0.0000000000000000     
  0.59375000000000000       0.90625000000000000        0.0000000000000000     
  0.62500000000000000       0.90625000000000000        0.0000000000000000     
  0.50000000000000000       0.93750000000000000        0.0000000000000000     
  0.53125000000000000       0.93750000000000000        0.0000000000000000     
  0.56250000000000000       0.93750000000000000        0.0000000000000000     
  0.59375000000000000       0.93750000000000000        0.0000000000000000     
  0.62500000000000000       0.93750000000000000        0.0000000000000000     
  0.50000000000000000       0.96875000000000000        0.0000000000000000     
  0.53125000000000000       0.96875000000000000        0.0000000000000000     
  0.56250000000000000       0.96875000000000000        0.0000000000000000     
  0.59375000000000000       0.96875000000000000        0.0000000000000000     
  0.62500000000000000       0.96875000000000000        0.0000000000000000     
  0.50000000000000000        1.0000000000000000        0.0000000000000000     
  0.53125000000000000        1.0000000000000000        0.0000000000000000     
  0.56250000000000000        1.0000000000000000        0.0000000000000000     
  0.59375000000000000        1.0000000000000000        0.0000000000000000     
  0.62500000000000000        1.0000000000000000        0.0000000000000000     
  0.62500000000000000       0.87500000000000000        0.0000000000000000     
  0.65625000000000000       0.87500000000000000        0.0000000000000000     
  0.68750000000000000       0.87500000000000000        0.0000000000000000     
  0.71875000000000000       0.87500000000000000        0.0000000000000000     
  0.75000000000000000       0.87500000000000000        0.0000000000000000     
  0.62500000000000000       0.90625000000000000        0.0000000000000000     
  0.65625000000000000       0.90625000000000000        0.0000000000000000     
  0.68750000000000000       0.90625000000000000        0.0000000000000000     
  0.71875000000000000       0.90625000000000000        0.0000000000000000     
  0.75000000000000000       0.90625000000000000        0.0000000000000000     
  0.62500000000000000       0.93750000000000000        0.0000000000000000     
  0.65625000000000000       0.93750000000000000        0.0000000000000000     
  0.68750000000000000       0.93750000000000000        0.0000000000000000     
  0.71875000000000000       0.93750000000000000        0.0000000000000000     
  0.75000000000000000       0.93750000000000000        0.0000000000000000     
  0.62500000000000000       0.96875000000000000        0.0000000000000000     
  0.65625000000000000       0.96875000000000000        0.0000000000000000     
  0.68750000000000000       0.96875000000000000        0.0000000000000000     
  0.71875000000000000       0.96875000000000000        0.0000000000000000     
  0.75000000000000000       0.96875000000000000        0.0000000000000000     
  0.62500000000000000        1.0000000000000000        0.0000000000000000     
  0.65625000000000000        1.0000000000000000        0.0000000000000000     
  0.68750000000000000        1.0000000000000000        0.0000000000000000     
  0.71875000000000000        1.0000000000000000        0.0000000000000000     
  0.75000000000000000        1.0000000000000000        0.0000000000000000     
  0.75000000000000000       0.87500000000000000        0.0000000000000000     
  0.78125000000000000       0.87500000000000000        0.0000000000000000     
  0.81250000000000000       0.87500000000000000        0.0000000000000000     
  0.84375000000000000       0.87500000000000000        0.0000000000000000     
  0.87500000000000000       0.87500000000000000        0.0000000000000000     
  0.75000000000000000       0.90625000000000000        0.0000000000000000     
  0.78125000000000000       0.90625000000000000        0.0000000000000000     
  0.81250000000000000       0.90625000000000000        0.0000000000000000     
  0.84375000000000000       0.90625000000000000        0.0000000000000000     
  0.87500000000000000       0.90625000000000000        0.0000000000000000     
  0.75000000000000000       0.93750000000000000        0.0000000000000000     
  0.78125000000000000       0.93750000000000000        0.0000000000000000     
  0.81250000000000000       0.93750000000000000        0.0000000000000000     
  0.84375000000000000       0.93750000000000000        0.0000000000000000     
  0.87500000000000000       0.93750000000000000        0.0000000000000000     
  0.75000000000000000       0.96875000000000000        0.0000000000000000     
  0.78125000000000000       0.96875000000000000        0.0000000000000000     
  0.81250000000000000       0.96875000000000000        0.0000000000000000     
  0.84375000000000000       0.96875000000000000        0.0000000000000000     
  0.87500000000000000       0.96875000000000000        0.0000000000000000     
  0.75000000000000000        1.0000000000000000        0.0000000000000000     
  0.78125000000000000        1.0000000000000000        0.0000000000000000     
  0.81250000000000000        1.0000000000000000        0.0000000000000000     
  0.84375000000000000        1.0000000000000000        0.0000000000000000     
  0.87500000000000000        1.0000000000000000        0.0000000000000000     
  0.87500000000000000       0.87500000000000000        0.0000000000000000     
  0.90625000000000000       0.87500000000000000        0.0000000000000000     
  0.93750000000000000       0.87500000000000000        0.0000000000000000     
  0.96875000000000000       0.87500000000000000        0.0000000000000000     
   1.0000000000000000       0.87500000000000000        0.0000000000000000     
  0.87500000000000000       0.90625000000000000        0.0000000000000000     
  0.90625000000000000       0.90625000000000000        0.0000000000000000     
  0.93750000000000000       0.90625000000000000        0.0000000000000000     
  0.96875000000000000       0.90625000000000000        0.0000000000000000     
   1.0000000000000000       0.90625000000000000        0.0000000000000000     
  0.87500000000000000       0.93750000000000000        0.0000000000000000     
  0.90625000000000000       0.93750000000000000        0.0000000000000000     
  0.93750000000000000       0.93750000000000000        0.0000000000000000     
  0.96875000000000000       0.93750000000000000        0.0000000000000000     
   1.0000000000000000       0.93750000000000000        0.0000000000000000     
  0.87500000000000000       0.96875000000000000        0.0000000000000000     
  0.90625000000000000       0.96875000000000000        0.0000000000000000     
  0.93750000000000000       0.96875000000000000        0.0000000000000000     
  0.96875000000000000       0.96875000000000000        0.0000000000000000     
   1.0000000000000000       0.96875000000000000        0.0000000000000000     
  0.87500000000000000        1.0000000000000000        0.0000000000000000     
  0.90625000000000000        1.0000000000000000        0.0000000000000000     
  0.93750000000000000        1.0000000000000000        0.0000000000000000     
  0.96875000000000000        1.0000000000000000        0.0000000000000000     
   1.0000000000000000        1.0000000000000000        0.0000000000000000     
 </DataArray>
 </Points>
 <Cells>
 <DataArray  type="Int32"  Name="connectivity"  format="ascii">
           0           1           6           5
           1           2           7           6
           2           3           8           7
           3           4           9           8
           5           6          11          10
           6           7          12          11
           7           8          13          12
           8           9          14          13
          10          11          16          15
          11          12          17          16
          12          13          18          17
          13          14          19          18
          15          16          21          20
          16          17          22          21
          17          18          23          22
          18          19          24          23
          25          26          31          30
          26          27          32          31
          27          28          33          32
          28          29          34          33
          30          31          36          35
          31          32          37          36
          32          33          38          37
          33          34          39          38
          35          36          41          40
          36          37          42          41
          37          38          43          42
          38          39          44          43
          40          41          46          45
          41          42          47          46
          42          43          48          47
          43          44          49          48
          50          51          56          55
          51          52          57          56
          52          53          58          57
          53          54          59          58
          55          56          61          60
          56          57          62          61
          57          58          63          62
          58          59          64          63
          60          61          66          65
          61          62          67          66
          62          63          68          67
          63          64          69          68
          65          66          71          70
          66          67          72          71
          67          68          73          72
          68          69          74          73
          75          76          81          80
          76          77          82          81
          77          78          83          82
          78          79          84          83
          80          81          86          85
          81          82          87          86
          82          83          88          87
          83          84          89          88
          85          86          91          90
          86          87          92          91
          87          88          93          92
          88          89          94          93
          90          91          96          95
          91          92          97          96
          92          93          98          97
          93          94          99          98
         100         101         106         105
         101         102         107         106
         102         103         108         107
         103         104         109         108
         105         106         111         110
         106         107         112         111
         107         108         113         112
         108         109         114         113
         110         111         116         115
         111         112         117         116
         112         113         118         117
         113         114         119         118
         115         116         121         120
         116         117         122         121
         117         118         123         122
         118         119         124         123
         125         126         131         130
         126         127         132         131
         127         128         133         132
         128         129         134         133
         130         131         136         135
         131         132         137         136
         132         133         138         137
         133         134         139         138
         135         136         141         140
         136         137         142         141
         137         138         143         142
         138         139         144         143
         140         141         146         145
         141         142         147         146
         142         143         148         147
         143         144         149         148
         150         151         156         155
         151         152         157         156
         152         153         158         157
         153         154         159         158
         155         156         161         160
         156         157         162         161
         157         158         163         162
         158         159         164         163
         160         161         166         165
         161         162         167         166
         162         163         168         167
         163         164         169         168
         165         166         171         170
         166         167         172         171
         167         168         173         172
         168         169         174         173
         175         176         181         180
         176         177         182         181
         177         178         183         182
         178         179         184         183
         180         181         186         185
         181         182         187         186
         182         183         188         187
         183         184         189         188
         185         186         191         190
         186         187         192         191
         187         188         193         192
         188         189         194         193
         190         191         196         195
         191         192         197         196
         192         193         198         197
         193         194         199         198
         200         201         206         205
         201         202         207         206
         202         203         208         207
         203         204         209         208
         205         206         211         210
         206         207         212         211
         207         208         213         212
         208         209         214         213
         210         211         216         215
         211         212         217         216
         212         213         218         217
         213         214         219         218
         215         216         221         220
         216         217         222         221
         217         218         223         222
         218         219         224         223
         225         226         231         230
         226         227         232         231
         227         228         233         232
         228         229         234         233
         230         231         236         235
         231         232         237         236
         232         233         238         237
         233         234         239         238
         235         236         241         240
         236         237         242         241
         237         238         243         242
         238         239         244         243
         240         241         246         245
         241         242         247         246
         242         243         248         247
         243         244         249         248
         250         251         256         255
         251         252         257         256
         252         253         258         257
         253         254         259         258
         255         256         261         260
         256         257         262         261
         257         258         263         262
         258         259         264         263
         260         261         266         265
         261         262         267         266
         262         263         268         267
         263         264         269         268
         265         266         271         270
         266         267         272         271
         267         268         273         272
         268         269         274         273
         275         276         281         280
         276         277         282         281
         277         278         283         282
         278         279         284         283
         280         281         286         285
         281         282         287         286
         282         283         288         287
         283         284         289         288
         285         286         291         290
         286         287         292         291
         287         288         293         292
         288         289         294         293
         290         291         296         295
         291         292         297         296
         292         293         298         297
         293         294         299         298
         300         301         306         305
         301         302         307         306
         302         303         308         307
         303         304         309         308
         305         306         311         310
         306         307         312         311
         307         308         313         312
         308         309         314         313
         310         311         316         315
         311         312         317         316
         312         313         318         317
         313         314         319         318
         315         316         321         320
         316         317         322         321
         317         318         323         322
         318         319         324         323
         325         326         331         330
         326         327         332         331
         327         328         333         332
         328         329         334         333
         330         331         336         335
         331         332         337         336
         332         333         338         337
         333         334         339         338
         335         336         341         340
         336         337         342         341
         337         338         343         342
         338         339         344         343
         340         341         346         345
         341         342         347         346
         342         343         348         347
         343         344         349         348
         350         351         356         355
         351         352         357         356
         352         353         358         357
         353         354         359         358
         355         356         361         360
         356         357         362         361
         357         358         363         362
         358         359         364         363
         360         361         366         365
         361         362         367         366
         362         363         368         367
         363         364         369         368
         365         366         371         370
         366         367         372         371
         367         368         373         372
         368         369         374         373
         375         376         381         380
         376         377         382         381
         377         378         383         382
         378         379         384         383
         380         381         386         385
         381         382         387         386
         382         383         388         387
         383         384         389         388
         385         386         391         390
         386         387         392         391
         387         388         393         392
         388         389         394         393
         390         391         396         395
         391         392         397         396
         392         393         398         397
         393         394         399         398
         400         401         406         405
         401         402         407         406
         402         403         408         407
         403         404         409         408
         405         406         411         410
         406         407         412         411
         407         408         413         412
         408         409         414         413
         410         411         416         415
         411         412         417         416
         412         413         418         417
         413         414         419         418
         415         416         421         420
         416         417         422         421
         417         418         423         422
         418         419         424         423
         425         426         431         430
         426         427         432         431
         427         428         433         432
         428         429         434         433
         430         431         436         435
         431         432         437         436
         432         433         438         437
         433         434         439         438
         435         436         441         440
         436         437         442         441
         437         438         443         442
         438         439         444         443
         440         441         446         445
         441         442         447         446
         442         443         448         447
         443         444         449         448
         450         451         456         455
         451         452         457         456
         452         453         458         457
         453         454         459         458
         455         456         461         460
         456         457         462         461
         457         458         463         462
         458         459         464         463
         460         461         466         465
         461         462         467         466
         462         463         468         467
         463         464         469         468
         465         466         471         470
         466         467         472         471
         467         468         473         472
         468         469         474         473
         475         476         481         480
         476         477         482         481
         477         478         483         482
         478         479         484         483
         480         481         486         485
         481         482         487         486
         482         483         488         487
         483         484         489         488
         485         486         491         490
         486         487         492         491
         487         488         493         492
         488         489         494         493
         490         491         496         495
         491         492         497         496
         492         493         498         497
         493         494         499         498
         500         501         506         505
         501         502         507         506
         502         503         508         507
         503         504         509         508
         505         506         511         510
         506         507         512         511
         507         508         513         512
         508         509         514         513
         510         511         516         515
         511         512         517         516
         512         513         518         517
         513         514         519         518
         515         516         521         520
         516         517         522         521
         517         518         523         522
         518         519         524         523
         525         526         531         530
         526         527         532         531
         527         528         533         532
         528         529         534         533
         530         531         536         535
         531         532         537         536
         532         533         538         537
         533         534         539         538
         535         536         541         540
         536         537         542         541
         537         538         543         542
         538         539         544         543
         540         541         546         545
         541         542         547         546
         542         543         548         547
         543         544         549         548
         550         551         556         555
         551         552         557         556
         552         553         558         557
         553         554         559         558
         555         556         561         560
         556         557         562         561
         557         558         563         562
         558         559         564         563
         560         561         566         565
         561         562         567         566
         562         563         568         567
         563         564         569         568
         565         566         571         570
         566         567         572         571
         567         568         573         572
         568         569         574         573
         575         576         581         580
         576         577         582         581
         577         578         583         582
         578         579         584         583
         580         581         586         585
         581         582         587         586
         582         583         588         587
         583         584         589         588
         585         586         591         590
         586         587         592         591
         587         588         593         592
         588         589         594         593
         590         591         596         595
         591         592         597         596
         592         593         598         597
         593         594         599         598
         600         601         606         605
         601         602         607         606
         602         603         608         607
         603         604         609         608
         605         606         611         610
         606         607         612         611
         607         608         613         612
         608         609         614         613
         610         611         616         615
         611         612         617         616
         612         613         618         617
         613         614         619         618
         615         616         621         620
         616         617         622         621
         617         618         623         622
         618         619         624         623
         625         626         631         630
         626         627         632         631
         627         628         633         632
         628         629         634         633
         630         631         636         635
         631         632         637         636
         632         633         638         637
         633         634         639         638
         635         636         641         640
         636         637         642         641
         637         638         643         642
         638         639         644         643
         640         641         646         645
         641         642         647         646
         642         643         648         647
         643         644         649         648
         650         651         656         655
         651         652         657         656
         652         653         658         657
         653         654         659         658
         655         656         661         660
         656         657         662         661
         657         658         663         662
         658         659         664         663
         660         661         666         665
         661         662         667         666
         662         663         668         667
         663         664         669         668
         665         666         671         670
         666         667         672         671
         667         668         673         672
         668         669         674         673
         675         676         681         680
         676         677         682         681
         677         678         683         682
         678         679         684         683
         680         681         686         685
         681         682         687         686
         682         683         688         687
         683         684         689         688
         685         686         691         690
         686         687         692         691
         687         688         693         692
         688         689         694         693
         690         691         696         695
         691         692         697         696
         692         693         698         697
         693         694         699         698
         700         701         706         705
         701         702         707         706
         702         703         708         707
         703         704         709         708
         705         706         711         710
         706         707         712         711
         707         708         713         712
         708         709         714         713
         710         711         716         715
         711         712         717         716
         712         713         718         717
         713         714         719         718
         715         716         721         720
         716         717         722         721
         717         718         723         722
         718         719         724         723
         725         726         731         730
         726         727         732         731
         727         728         733         732
         728         729         734         733
         730         731         736         735
         731         732         737         736
         732         733         738         737
         733         734         739         738
         735         736         741         740
         736         737         742         741
         737         738         743         742
         738         739         744         743
         740         741         746         745
         741         742         747         746
         742         743         748         747
         743         744         749         748
         750         751         756         755
         751         752         757         756
         752         753         758         757
         753         754         759         758
         755         756         761         760
         756         757         762         761
         757         758         763         762
         758         759         764         763
         760         761         766         765
         761         762         767         766
         762         763         768         767
         763         764         769         768
         765         766         771         770
         766         767         772         771
         767         768         773         772
         768         769         774         773
         775         776         781         780
         776         777         782         781
         777         778         783         782
         778         779         784         783
         780         781         786         785
         781         782         787         786
         782         783         788         787
         783         784         789         788
         785         786         791         790
         786         787         792         791
         787         788         793         792
         788         789         794         793
         790         791         796         795
         791         792         797         796
         792         793         798         797
         793         794         799         798
         800         801         806         805
         801         802         807         806
         802         803         808         807
         803         804         809         808
         805         806         811         810
         806         807         812         811
         807         808         813         812
         808         809         814         813
         810         811         816         815
         811         812         817         816
         812         813         818         817
         813         814         819         818
         815         816         821         820
         816         817         822         821
         817         818         823         822
         818         819         824         823
         825         826         831         830
         826         827         832         831
         827         828         833         832
         828         829         834         833
         830         831         836         835
         831         832         837         836
         832         833         838         837
         833         834         839         838
         835         836         841         840
         836         837         842         841
         837         838         843         842
         838         839         844         843
         840         841         846         845
         841         842         847         846
         842         843         848         847
         843         844         849         848
         850         851         856         855
         851         852         857         856
         852         853         858         857
         853         854         859         858
         855         856         861         860
         856         857         862         861
         857         858         863         862
         858         859         864         863
         860         861         866         865
         861         862         867         866
         862         863         868         867
         863         864         869         868
         865         866         871         870
         866         867         872         871
         867         868         873         872
         868         869         874         873
         875         876         881         880
         876         877         882         881
         877         878         883         882
         878         879         884         883
         880         881         886         885
         881         882         887         886
         882         883         888         887
         883         884         889         888
         885         886         891         890
         886         887         892         891
         887         888         893         892
         888         889         894         893
         890         891         896         895
         891         892         897         896
         892         893         898         897
         893         894         899         898
         900         901         906         905
         901         902         907         906
         902         903         908         907
         903         904         909         908
         905         906         911         910
         906         907         912         911
         907         908         913         912
         908         909         914         913
         910         911         916         915
         911         912         917         916
         912         913         918         917
         913         914         919         918
         915         916         921         920
         916         917         922         921
         917         918         923         922
         918         919         924         923
         925         926         931         930
         926         927         932         931
         927         928         933         932
         928         929         934         933
         930         931         936         935
         931         932         937         936
         932         933         938         937
         933         934         939         938
         935         936         941         940
         936         937         942         941
         937         938         943         942
         938         939         944         943
         940         941         946         945
         941         942         947         946
         942         943         948         947
         943         944         949         948
         950         951         956         955
         951         952         957         956
         952         953         958         957
         953         954         959         958
         955         956         961         960
         956         957         962         961
         957         958         963         962
         958         959         964         963
         960         961         966         965
         961         962         967         966
         962         963         968         967
         963         964         969         968
         965         966         971         970
         966         967         972         971
         967         968         973         972
         968         969         974         973
         975         976         981         980
         976         977         982         981
         977         978         983         982
         978         979         984         983
         980         981         986         985
         981         982         987         986
         982         983         988         987
         983         984         989         988
         985         986         991         990
         986         987         992         991
         987         988         993         992
         988         989         994         993
         990         991         996         995
         991         992         997         996
         992         993         998         997
         993         994         999         998
        1000        1001        1006        1005
        1001        1002        1007        1006
        1002        1003        1008        1007
        1003        1004        1009        1008
        1005        1006        1011        1010
        1006        1007        1012        1011
        1007        1008        1013        1012
        1008        1009        1014        1013
        1010        1011        1016        1015
        1011        1012        1017        1016
        1012        1013        1018        1017
        1013        1014        1019        1018
        1015        1016        1021        1020
        1016        1017        1022        1021
        1017        1018        1023        1022
        1018        1019        1024        1023
        1025        1026        1031        1030
        1026        1027        1032        1031
        1027        1028        1033        1032
        1028        1029        1034        1033
        1030        1031        1036        1035
        1031        1032        1037        1036
        1032        1033        1038        1037
        1033        1034        1039        1038
        1035        1036        1041        1040
        1036        1037        1042        1041
        1037        1038        1043        1042
        1038        1039        1044        1043
        1040        1041        1046        1045
        1041        1042        1047        1046
        1042        1043        1048        1047
        1043        1044        1049        1048
        1050        1051        1056        1055
        1051        1052        1057        1056
        1052        1053        1058        1057
        1053        1054        1059        1058
        1055        1056        1061        1060
        1056        1057        1062        1061
        1057        1058        1063        1062
        1058        1059        1064        1063
        1060        1061        1066        1065
        1061        1062        1067        1066
        1062        1063        1068        1067
        1063        1064        1069        1068
        1065        1066        1071        1070
        1066        1067        1072        1071
        1067        1068        1073        1072
        1068        1069        1074        1073
        1075        1076        1081        1080
        1076        1077        1082        1081
        1077        1078        1083        1082
        1078        1079        1084        1083
        1080        1081        1086        1085
        1081        1082        1087        1086
        1082        1083        1088        1087
        1083        1084        1089        1088
        1085        1086        1091        1090
        1086        1087        1092        1091
        1087        1088        1093        1092
        1088        1089        1094        1093
        1090        1091        1096        1095
        1091        1092        1097        1096
        1092        1093        1098        1097
        1093        1094        1099        1098
        1100        1101        1106        1105
        1101        1102        1107        1106
        1102        1103        1108        1107
        1103        1104        1109        1108
        1105        1106        1111        1110
        1106        1107        1112        1111
        1107        1108        1113        1112
        1108        1109        1114        1113
        1110        1111        1116        1115
        1111        1112        1117        1116
        1112        1113        1118        1117
        1113        1114        1119        1118
        1115        1116        1121        1120
        1116        1117        1122        1121
        1117        1118        1123        1122
        1118        1119        1124        1123
        1125        1126        1131        1130
        1126        1127        1132        1131
        1127        1128        1133        1132
        1128        1129        1134        1133
        1130        1131        1136        1135
        1131        1132        1137        1136
        1132        1133        1138        1137
        1133        1134        1139        1138
        1135        1136        1141        1140
        1136        1137        1142        1141
        1137        1138        1143        1142
        1138        1139        1144        1143
        1140        1141        1146        1145
        1141        1142        1147        1146
        1142        1143        1148        1147
        1143        1144        1149        1148
        1150        1151        1156        1155
        1151        1152        1157        1156
        1152        1153        1158        1157
        1153        1154        1159        1158
        1155        1156        1161        1160
        1156        1157        1162        1161
        1157        1158        1163        1162
        1158        1159        1164        1163
        1160        1161        1166        1165
        1161        1162        1167        1166
        1162        1163        1168        1167
        1163        1164        1169        1168
        1165        1166        1171        1170
        1166        1167        1172        1171
        1167        1168        1173        1172
        1168        1169        1174        1173
        1175        1176        1181        1180
        1176        1177        1182        1181
        1177        1178        1183        1182
        1178        1179        1184        1183
        1180        1181        1186        1185
        1181        1182        1187        1186
        1182        1183        1188        1187
        1183        1184        1189        1188
        1185        1186        1191        1190
        1186        1187        1192        1191
        1187        1188        1193        1192
        1188        1189        1194        1193
        1190        1191        1196        1195
        1191        1192        1197        1196
        1192        1193        1198        1197
        1193        1194        1199        1198
        1200        1201        1206        1205
        1201        1202        1207        1206
        1202        1203        1208        1207
        1203        1204        1209        1208
        1205        1206        1211        1210
        1206        1207        1212        1211
        1207        1208        1213        1212
        1208        1209        1214        1213
        1210        1211        1216        1215
        1211        1212        1217        1216
        1212        1213        1218        1217
        1213        1214        1219        1218
        1215        1216        1221        1220
        1216        1217        1222        1221
        1217        1218        1223        1222
        1218        1219        1224        1223
        1225        1226        1231        1230
        1226        1227        1232        1231
        1227        1228        1233        1232
        1228        1229        1234        1233
        1230        1231        1236        1235
        1231        1232        1237        1236
        1232        1233        1238        1237
        1233        1234        1239        1238
        1235        1236        1241        1240
        1236        1237        1242        1241
        1237        1238        1243        1242
        1238        1239        1244        1243
        1240        1241        1246        1245
        1241        1242        1247        1246
        1242        1243        1248        1247
        1243        1244        1249        1248
        1250        1251        1256        1255
        1251        1252        1257        1256
        1252        1253        1258        1257
        1253        1254        1259        1258
        1255        1256        1261        1260
        1256        1257        1262        1261
        1257        1258        1263        1262
        1258        1259        1264        1263
        1260        1261        1266        1265
        1261        1262        1267        1266
        1262        1263        1268        1267
        1263        1264        1269        1268
        1265        1266        1271        1270
        1266        1267        1272        1271
        1267        1268        1273        1272
        1268        1269        1274        1273
        1275        1276        1281        1280
        1276        1277        1282        1281
        1277        1278        1283        1282
        1278        1279        1284        1283
        1280        1281        1286        1285
        1281        1282        1287        1286
        1282        1283        1288        1287
        1283        1284        1289        1288
        1285        1286        1291        1290
        1286        1287        1292        1291
        1287        1288        1293        1292
        1288        1289        1294        1293
        1290        1291        1296        1295
        1291        1292        1297        1296
        1292        1293        1298        1297
        1293        1294        1299        1298
        1300        1301        1306        1305
        1301        1302        1307        1306
        1302        1303        1308        1307
        1303        1304        1309        1308
        1305        1306        1311        1310
        1306        1307        1312        1311
        1307        1308        1313        1312
        1308        1309        1314        1313
        1310        1311        1316        1315
        1311        1312        1317        1316
        1312        1313        1318        1317
        1313        1314        1319        1318
        1315        1316        1321        1320
        1316        1317        1322        1321
        1317        1318        1323        1322
        1318        1319        1324        1323
        1325        1326        1331        1330
        1326        1327        1332        1331
        1327        1328        1333        1332
        1328        1329        1334        1333
        1330        1331        1336        1335
        1331        1332        1337        1336
        1332        1333        1338        1337
        1333        1334        1339        1338
        1335        1336        1341        1340
        1336        1337        1342        1341
        1337        1338        1343        1342
        1338        1339        1344        1343
        1340        1341        1346        1345
        1341        1342        1347        1346
        1342        1343        1348        1347
        1343        1344        1349        1348
        1350        1351        1356        1355
        1351        1352        1357        1356
        1352        1353        1358        1357
        1353        1354        1359        1358
        1355        1356        1361        1360
        1356        1357        1362        1361
        1357        1358        1363        1362
        1358        1359        1364        1363
        1360        1361        1366        1365
        1361        1362        1367        1366
        1362        1363        1368        1367
        1363        1364        1369        1368
        1365        1366        1371        1370
        1366        1367        1372        1371
        1367        1368        1373        1372
        1368        1369        1374        1373
        1375        1376        1381        1380
        1376        1377        1382        1381
        1377        1378        1383        1382
        1378        1379        1384        1383
        1380        1381        1386        1385
        1381        1382        1387        1386
        1382        1383        1388        1387
        1383        1384        1389        1388
        1385        1386        1391        1390
        1386        1387        1392        1391
        1387        1388        1393        1392
        1388        1389        1394        1393
        1390        1391        1396        1395
        1391        1392        1397        1396
        1392        1393        1398        1397
        1393        1394        1399        1398
        1400        1401        1406        1405
        1401        1402        1407        1406
        1402        1403        1408        1407
        1403        1404        1409        1408
        1405        1406        1411        1410
        1406        1407        1412        1411
        1407        1408        1413        1412
        1408        1409        1414        1413
        1410        1411        1416        1415
        1411        1412        1417        1416
        1412        1413        1418        1417
        1413        1414        1419        1418
        1415        1416        1421        1420
        1416        1417        1422        1421
        1417        1418        1423        1422
        1418        1419        1424        1423
        1425        1426        1431        1430
        1426        1427        1432        1431
        1427        1428        1433        1432
        1428        1429        1434        1433
        1430        1431        1436        1435
        1431        1432        1437        1436
        1432        1433        1438        1437
        1433        1434        1439        1438
        1435        1436        1441        1440
        1436        1437        1442        1441
        1437        1438        1443        1442
        1438        1439        1444        1443
        1440        1441        1446        1445
        1441        1442        1447        1446
        1442        1443        1448        1447
        1443        1444        1449        1448
        1450        1451        1456        1455
        1451        1452        1457        1456
        1452        1453        1458        1457
        1453        1454        1459        1458
        1455        1456        1461        1460
        1456        1457        1462        1461
        1457        1458        1463        1462
        1458        1459        1464        1463
        1460        1461        1466        1465
        1461        1462        1467        1466
        1462        1463        1468        1467
        1463        1464        1469        1468
        1465        1466        1471        1470
        1466        1467        1472        1471
        1467        1468        1473        1472
        1468        1469        1474        1473
        1475        1476        1481        1480
        1476        1477        1482        1481
        1477        1478        1483        1482
        1478        1479        1484        1483
        1480        1481        1486        1485
        1481        1482        1487        1486
        1482        1483        1488        1487
        1483        1484        1489        1488
        1485        1486        1491        1490
        1486        1487        1492        1491
        1487        1488        1493        1492
        1488        1489        1494        1493
        1490        1491        1496        1495
        1491        1492        1497        1496
        1492        1493        1498        1497
        1493        1494        1499        1498
        1500        1501        1506        1505
        1501        1502        1507        1506
        1502        1503        1508        1507
        1503        1504        1509        1508
        1505        1506        1511        1510
        1506        1507        1512        1511
        1507        1508        1513        1512
        1508        1509        1514        1513
        1510        1511        1516        1515
        1511        1512        1517        1516
        1512        1513        1518        1517
        1513        1514        1519        1518
        1515        1516        1521        1520
        1516        1517        1522        1521
        1517        1518        1523        1522
        1518        1519        1524        1523
        1525        1526        1531        1530
        1526        1527        1532        1531
        1527        1528        1533        1532
        1528        1529        1534        1533
        1530        1531        1536        1535
        1531        1532        1537        1536
        1532        1533        1538        1537
        1533        1534        1539        1538
        1535        1536        1541        1540
        1536        1537        1542        1541
        1537        1538        1543        1542
        1538        1539        1544        1543
        1540        1541        1546        1545
        1541        1542        1547        1546
        1542        1543        1548        1547
        1543        1544        1549        1548
        1550        1551        1556        1555
        1551        1552        1557        1556
        1552        1553        1558        1557
        1553        1554        1559        1558
        1555        1556        1561        1560
        1556        1557        1562        1561
        1557        1558        1563        1562
        1558        1559        1564        1563
        1560        1561        1566        1565
        1561        1562        1567        1566
        1562        1563        1568        1567
        1563        1564        1569        1568
        1565        1566        1571        1570
        1566        1567        1572        1571
        1567        1568        1573        1572
        1568        1569        1574        1573
        1575        1576        1581        1580
        1576        1577        1582        1581
        1577        1578        1583        1582
        1578        1579        1584        1583
        1580        1581        1586        1585
        1581        1582        1587        1586
        1582        1583        1588        1587
        1583        1584        1589        1588
        1585        1586        1591        1590
        1586        1587        1592        1591
        1587        1588        1593        1592
        1588        1589        1594        1593
        1590        1591        1596        1595
        1591        1592        1597        1596
        1592        1593        1598        1597
        1593        1594        1599        1598
 </DataArray>
 <DataArray  type="Int32"  Name="offsets"  format="ascii"> 
           4
           8
          12
          16
          20
          24
          28
          32
          36
          40
          44
          48
          52
          56
          60
          64
          68
          72
          76
          80
          84
          88
          92
          96
         100
         104
         108
         112
         116
         120
         124
         128
         132
         136
         140
         144
         148
         152
         156
         160
         164
         168
         172
         176
         180
         184
         188
         192
         196
         200
         204
         208
         212
         216
         220
         224
         228
         232
         236
         240
         244
         248
         252
         256
         260
         264
         268
         272
         276
         280
         284
         288
         292
         296
         300
         304
         308
         312
         316
         320
         324
         328
         332
         336
         340
         344
         348
         352
         356
         360
         364
         368
         372
         376
         380
         384
         388
         392
         396
         400
         404
         408
         412
         416
         420
         424
         428
         432
         436
         440
         444
         448
         452
         456
         460
         464
         468
         472
         476
         480
         484
         488
         492
         496
         500
         504
         508
         512
         516
         520
         524
         528
         532
         536
         540
         544
         548
         552
         556
         560
         564
         568
         572
         576
         580
         584
         588
         592
         596
         600
         604
         608
         612
         616
         620
         624
         628
         632
         636
         640
         644
         648
         652
         656
         660
         664
         668
         672
         676
         680
         684
         688
         692
         696
         700
         704
         708
         712
         716
         720
         724
         728
         732
         736
         740
         744
         748
         752
         756
         760
         764
         768
         772
         776
         780
         784
         788
         792
         796
         800
         804
         808
         812
         816
         820
         824
         828
         832
         836
         840
         844
         848
         852
         856
         860
         864
         868
         872
         876
         880
         884
         888
         892
         896
         900
         904
         908
         912
         916
         920
         924
         928
         932
         936
         940
         944
         948
         952
         956
         960
         964
         968
         972
         976
         980
         984
         988
         992
         996
        1000
        1004
        1008
        1012
        1016
        1020
        1024
        1028
        1032
        1036
        1040
        1044
        1048
        1052
        1056
        1060
        1064
        1068
        1072
        1076
        1080
        1084
        1088
        1092
        1096
        1100
        1104
        1108
        1112
        1116
        1120
        1124
        1128
        1132
        1136
        1140
        1144
        1148
        1152
        1156
        1160
        1164
        1168
        1172
        1176
        1180
        1184
        1188
        1192
        1196
        1200
        1204
        1208
        1212
        1216
        1220
        1224
        1228
        1232
        1236
        1240
        1244
        1248
        1252
        1256
        1260
        1264
        1268
        1272
        1276
        1280
        1284
        1288
        1292
        1296
        1300
        1304
        1308
        1312
        1316
        1320
        1324
        1328
        1332
        1336
        1340
        1344
        1348
        1352
        1356
        1360
        1364
        1368
        1372
        1376
        1380
        1384
        1388
        1392
        1396
        1400
        1404
        1408
        1412
        1416
        1420
        1424
        1428
        1432
        1436
        1440
        1444
        1448
        1452
        1456
        1460
        1464
        1468
        1472
        1476
        1480
        1484
        1488
        1492
        1496
        1500
        1504
        1508
        1512
        1516
        1520
        1524
        1528
        1532
        1536
        1540
        1544
        1548
        1552
        1556
        1560
        1564
        1568
        1572
        1576
        1580
        1584
        1588
        1592
        1596
        1600
        1604
        1608
        1612
        1616
        1620
        1624
        1628
        1632
        1636
        1640
        1644
        1648
        1652
        1656
        1660
        1664
        1668
        1672
        1676
        1680
        1684
        1688
        1692
        1696
        1700
        1704
        1708
        1712
        1716
        1720
        1724
        1728
        1732
        1736
        1740
        1744
        1748
        1752
        1756
        1760
        1764
        1768
        1772
        1776
        1780
        1784
        1788
        1792
        1796
        1800
        1804
        1808
        1812
        1816
        1820
        1824
        1828
        1832
        1836
        1840
        1844
        1848
        1852
        1856
        1860
        1864
        1868
        1872
        1876
        1880
        1884
        1888
        1892
        1896
        1900
        1904
        1908
        1912
        1916
        1920
        1924
        1928
        1932
        1936
        1940
        1944
        1948
        1952
        1956
        1960
        1964
        1968
        1972
        1976
        1980
        1984
        1988
        1992
        1996
        2000
        2004
        2008
        2012
        2016
        2020
        2024
        2028
        2032
        2036
        2040
        2044
        2048
        2052
        2056
        2060
        2064
        2068
        2072
        2076
        2080
        2084
        2088
        2092
        2096
        2100
        2104
        2108
        2112
        2116
        2120
        2124
        2128
        2132
        2136
        2140
        2144
        2148
        2152
        2156
        2160
        2164
        2168
        2172
        2176
        2180
        2184
        2188
        2192
        2196
        2200
        2204
        2208
        2212
        2216
        2220
        2224
        2228
        2232
        2236
        2240
        2244
        2248
        2252
        2256
        2260
        2264
        2268
        2272
        2276
        2280
        2284
        2288
        2292
        2296
        2300
        2304
        2308
        2312
        2316
        2320
        2324
        2328
        2332
        2336
        2340
        2344
        2348
        2352
        2356
        2360
        2364
        2368
        2372
        2376
        2380
        2384
        2388
        2392
        2396
        2400
        2404
        2408
        2412
        2416
        2420
        2424
        2428
        2432
        2436
        2440
        2444
        2448
        2452
        2456
        2460
        2464
        2468
        2472
        2476
        2480
        2484
        2488
        2492
        2496
        2500
        2504
        2508
        2512
        2516
        2520
        2524
        2528
        2532
        2536
        2540
        2544
        2548
        2552
        2556
        2560
        2564
        2568
        2572
        2576
        2580
        2584
        2588
        2592
        2596
        2600
        2604
        2608
        2612
        2616
        2620
        2624
        2628
        2632
        2636
        2640
        2644
        2648
        2652
        2656
        2660
        2664
        2668
        2672
        2676
        2680
        2684
        2688
        2692
        2696
        2700
        2704
        2708
        2712
        2716
        2720
        2724
        2728
        2732
        2736
        2740
        2744
        2748
        2752
        2756
        2760
        2764
        2768
        2772
        2776
        2780
        2784
        2788
        2792
        2796
        2800
        2804
        2808
        2812
        2816
        2820
        2824
        2828
        2832
        2836
        2840
        2844
        2848
        2852
        2856
        2860
        2864
        2868
        2872
        2876
        2880
        2884
        2888
        2892
        2896
        2900
        2904
        2908
        2912
        2916
        2920
        2924
        2928
        2932
        2936
        2940
        2944
        2948
        2952
        2956
        2960
        2964
        2968
        2972
        2976
        2980
        2984
        2988
        2992
        2996
        3000
        3004
        3008
        3012
        3016
        3020
        3024
        3028
        3032
        3036
        3040
        3044
        3048
        3052
        3056
        3060
        3064
        3068
        3072
        3076
        3080
        3084
        3088
        3092
        3096
        3100
        3104
        3108
        3112
        3116
        3120
        3124
        3128
        3132
        3136
        3140
        3144
        3148
        3152
        3156
        3160
        3164
        3168
        3172
        3176
        3180
        3184
        3188
        3192
        3196
        3200
        3204
        3208
        3212
        3216
        3220
        3224
        3228
        3232
        3236
        3240
        3244
        3248
        3252
        3256
        3260
        3264
        3268
        3272
        3276
        3280
        3284
        3288
        3292
        3296
        3300
        3304
        3308
        3312
        3316
        3320
        3324
        3328
        3332
        3336
        3340
        3344
        3348
        3352
        3356
        3360
        3364
        3368
        3372
        3376
        3380
        3384
        3388
        3392
        3396
        3400
        3404
        3408
        3412
        3416
        3420
        3424
        3428
        3432
        3436
        3440
        3444
        3448
        3452
        3456
        3460
        3464
        3468
        3472
        3476
        3480
        3484
        3488
        3492
        3496
        3500
        3504
        3508
        3512
        3516
        3520
        3524
        3528
        3532
        3536
        3540
        3544
        3548
        3552
        3556
        3560
        3564
        3568
        3572
        3576
        3580
        3584
        3588
        3592
        3596
        3600
        3604
        3608
        3612
        3616
        3620
        3624
        3628
        3632
        3636
        3640
        3644
        3648
        3652
        3656
        3660
        3664
        3668
        3672
        3676
        3680
        3684
        3688
        3692
        3696
        3700
        3704
        3708
        3712
        3716
        3720
        3724
        3728
        3732
        3736
        3740
        3744
        3748
        3752
        3756
        3760
        3764
        3768
        3772
        3776
        3780
        3784
        3788
        3792
        3796
        3800
        3804
        3808
        3812
        3816
        3820
        3824
        3828
        3832
        3836
        3840
        3844
        3848
        3852
        3856
        3860
        3864
        3868
        3872
        3876
        3880
        3884
        3888
        3892
        3896
        3900
        3904
        3908
        3912
        3916
        3920
        3924
        3928
        3932
        3936
        3940
        3944
        3948
        3952
        3956
        3960
        3964
        3968
        3972
        3976
        3980
        3984
        3988
        3992
        3996
        4000
        4004
        4008
        4012
        4016
        4020
        4024
        4028
        4032
        4036
        4040
        4044
        4048
        4052
        4056
        4060
        4064
        4068
        4072
        4076
        4080
        4084
        4088
        4092
        4096
 </DataArray>
 <DataArray  type="UInt8"  Name="types"  format="ascii">
 9
 9
 9
 9
 9
 9
 9
 9
 9
 9
 9
 9
 9
 9
 9
 9
 9
 9
 9
 9
 9
 9
 9
 9
 9
 9
 9
 9
 9
 9
 9
 9
 9
 9
 9
 9
 9
 9
 9
 9
 9
 9
 9
 9
 9
 9
 9
 9
 9
 9
 9
 9
 9
 9
 9
 9
 9
 9
 9
 9
 9
 9
 9
 9
 9
 9
 9
 9
 9
 9
 9
 9
 9
 9
 9
 9
 9
 9
 9
 9
 9
 9
 9
 9
 9
 9
 9
 9
 9
 9
 9
 9
 9
 9
 9
 9
 9
 9
 9
 9
 9
 9
 9
 9
 9
 9
 9
 9
 9
 9
 9
 9
 9
 9
 9
 9
 9
 9
 9
 9
 9
 9
 9
 9
 9
 9
 9
 9
 9
 9
 9
 9
 9
 9
 9
 9
 9
 9
 9
 9
 9
 9
 9
 9
 9
 9
 9
 9
 9
 9
 9
 9
 9
 9
 9
 9
 9
 9
 9
 9
 9
 9
 9
 9
 9
 9
 9
 9
 9
 9
 9
 9
 9
 9
 9
 9
 9
 9
 9
 9
 9
 9
 9
 9
 9
 9
 9
 9
 9
 9
 9
 9
 9
 9
 9
 9
 9
 9
 9
 9
 9
 9
 9
 9
 9
 9
 9
 9
 9
 9
 9
 9
 9
 9
 9
 9
 9
 9
 9
 9
 9
 9
 9
 9
 9
 9
 9
 9
 9
 9
 9
 9
 9
 9
 9
 9
 9
 9
 9
 9
 9
 9
 9
 9
 9
 9
 9
 9
 9
 9
 9
 9
 9
 9
 9
 9
 9
 9
 9
 9
 9
 9
 9
 9
 9
 9
 9
 9
 9
 9
 9
 9
 9
 9
 9
 9
 9
 9
 9
 9
 9
 9
 9
 9
 9
 9
 9
 9
 9
 9
 9
 9
 9
 9
 9
 9
 9
 9
 9
 9
 9
 9
 9
 9
 9
 9
 9
 9
 9
 9
 9
 9
 9
 9
 9
 9
 9
 9
 9
 9
 9
 9
 9
 9
 9
 9
 9
 9
 9
 9
 9
 9
 9
 9
 9
 9
 9
 9
 9
 9
 9
 9
 9
 9
 9
 9
 9
 9
 9
 9
 9
 9
 9
 9
 9
 9
 9
 9
 9
 9
 9
 9
 9
 9
 9
 9
 9
 9
 9
 9
 9
 9
 9
 9
 9
 9
 9
 9
 9
 9
 9
 9
 9
 9
 9
 9
 9
 9
 9
 9
 9
 9
 9
 9
 9
 9
 9
 9
 9
 9
 9
 9
 9
 9
 9
 9
 9
 9
 9
 9
 9
 9
 9
 9
 9
 9
 9
 9
 9
 9
 9
 9
 9
 9
 9
 9
 9
 9
 9
 9
 9
 9
 9
 9
 9
 9
 9
 9
 9
 9
 9
 9
 9
 9
 9
 9
 9
 9
 9
 9
 9
 9
 9
 9
 9
 9
 9
 9
 9
 9
 9
 9
 9
 9
 9
 9
 9
 9
 9
 9
 9
 9
 9
 9
 9
 9
 9
 9
 9
 9
 9
 9
 9
 9
 9
 9
 9
 9
 9
 9
 9
 9
 9
 9
 9
 9
 9
 9
 9
 9
 9
 9
 9
 9
 9
 9
 9
 9
 9
 9
 9
 9
 9
 9
 9
 9
 9
 9
 9
 9
 9
 9
 9
 9
 9
 9
 9
 9
 9
 9
 9
 9
 9
 9
 9
 9
 9
 9
 9
 9
 9
 9
 9
 9
 9
 9
 9
 9
 9
 9
 9
 9
 9
 9
 9
 9
 9
 9
 9
 9
 9
 9
 9
 9
 9
 9
 9
 9
 9
 9
 9
 9
 9
 9
 9
 9
 9
 9
 9
 9
 9
 9
 9
 9
 9
 9
 9
 9
 9
 9
 9
 9
 9
 9
 9
 9
 9
 9
 9
 9
 9
 9
 9
 9
 9
 9
 9
 9
 9
 9
 9
 9
 9
 9
 9
 9
 9
 9
 9
 9
 9
 9
 9
 9
 9
 9
 9
 9
 9
 9
 9
 9
 9
 9
 9
 9
 9
 9
 9
 9
 9
 9
 9
 9
 9
 9
 9
 9
 9
 9
 9
 9
 9
 9
 9
 9
 9
 9
 9
 9
 9
 9
 9
 9
 9
 9
 9
 9
 9
 9
 9
 9
 9
 9
 9
 9
 9
 9
 9
 9
 9
 9
 9
 9
 9
 9
 9
 9
 9
 9
 9
 9
 9
 9
 9
 9
 9
 9
 9
 9
 9
 9
 9
 9
 9
 9
 9
 9
 9
 9
 9
 9
 9
 9
 9
 9
 9
 9
 9
 9
 9
 9
 9
 9
 9
 9
 9
 9
 9
 9
 9
 9
 9
 9
 9
 9
 9
 9
 9
 9
 9
 9
 9
 9
 9
 9
 9
 9
 9
 9
 9
 9
 9
 9
 9
 9
 9
 9
 9
 9
 9
 9
 9
 9
 9
 9
 9
 9
 9
 9
 9
 9
 9
 9
 9
 9
 9
 9
 9
 9
 9
 9
 9
 9
 9
 9
 9
 9
 9
 9
 9
 9
 9
 9
 9
 9
 9
 9
 9
 9
 9
 9
 9
 9
 9
 9
 9
 9
 9
 9
 9
 9
 9
 9
 9
 9
 9
 9
 9
 9
 9
 9
 9
 9
 9
 9
 9
 9
 9
 9
 9
 9
 9
 9
 9
 9
 9
 9
 9
 9
 9
 9
 9
 9
 9
 9
 9
 9
 9
 9
 9
 9
 9
 9
 9
 9
 9
 9
 9
 9
 9
 9
 9
 9
 9
 9
 9
 9
 9
 9
 9
 9
 9
 9
 9
 9
 9
 9
 9
 9
 9
 9
 9
 9
 9
 9
 9
 9
 9
 9
 9
 9
 9
 9
 9
 9
 9
 9
 9
 9
 9
 9
 9
 9
 9
 9
 9
 9
 9
 9
 9
 9
 9
 9
 9
 9
 9
 9
 9
 9
 9
 9
 9
 9
 9
 9
 9
 9
 9
 9
 9
 9
 9
 9
 9
 9
 9
 9
 9
 9
 9
 9
 9
 9
 9
 9
 9
 9
 9
 9
 9
 9
 9
 9
 9
 9
 9
 9
 9
 9
 9
 9
 9
 9
 9
 9
 9
 9
 9
 9
 9
 9
 9
 9
 9
 9
 9
 9
 9
 9
 9
 9
 9
 9
 9
 9
 9
 9
 9
 9
 9
 9
 9
 9
 9
 9
 9
 9
 9
 9
 9
 9
 9
 9
 9
 9
 9
 9
 9
 9
 9
 9
 9
 9
 9
 9
 9
 9
 9
 9
 9
 9
 9
 9
 </DataArray>
 </Cells> 
 <PointData>
 <DataArray  type="Float64" Name="disp" NumberOfComponents="3" format="ascii">
   0.0000000000000000        0.0000000000000000        0.0000000000000000     
   6.0959775813838324E-003   3.7905132977201121E-003   0.0000000000000000     
   1.1666007067990373E-002   7.3239716679524471E-003   0.0000000000000000     
   1.6710088459819621E-002   1.0600375110697006E-002   0.0000000000000000     
   2.1228221756871581E-002   1.3619723625953786E-002   0.0000000000000000     
   0.0000000000000000        0.0000000000000000        0.0000000000000000     
   4.8911655196940892E-003   3.0222023268320539E-003   0.0000000000000000     
   9.5736323913569732E-003   6.0606405788972469E-003   0.0000000000000000     
   1.4047400614988655E-002   9.1153147561955777E-003   0.0000000000000000     
   1.8312470190589129E-002   1.2186224858727050E-002   0.0000000000000000     
   0.0000000000000000        0.0000000000000000        0.0000000000000000     
   3.9535787340276192E-003   2.4251594701569321E-003   0.0000000000000000     
   7.9106169026690980E-003   5.0629869786637189E-003   0.0000000000000000     
   1.1871114505924436E-002   7.9134825255203593E-003   0.0000000000000000     
   1.5835071543793634E-002   1.0976646110726856E-002   0.0000000000000000     
   0.0000000000000000        0.0000000000000000        0.0000000000000000     
   3.2832172243844196E-003   1.9993847276947464E-003   0.0000000000000000     
   6.6769606019267428E-003   4.3310108672518621E-003   0.0000000000000000     
   1.0181230132626971E-002   6.9948784186713480E-003   0.0000000000000000     
   1.3796025816485100E-002   9.9909873819532015E-003   0.0000000000000000     
   0.0000000000000000        0.0000000000000000        0.0000000000000000     
   2.8800809907644923E-003   1.7448780994454975E-003   0.0000000000000000     
   5.8726634891299104E-003   3.8647122446616783E-003   0.0000000000000000     
   8.9777474950962534E-003   6.3595024356485428E-003   0.0000000000000000     
   1.2195333008663522E-002   9.2292486724060933E-003   0.0000000000000000     
   2.1228221756871581E-002   1.3619723625953786E-002   0.0000000000000000     
   2.5433279664784297E-002   1.6612688760805495E-002   0.0000000000000000     
   2.9538134889195811E-002   1.9809942062334839E-002   0.0000000000000000     
   3.3542787430106129E-002   2.3211483530541820E-002   0.0000000000000000     
   3.7447237287515256E-002   2.6817313165426439E-002   0.0000000000000000     
   1.8312470190589129E-002   1.2186224858727050E-002   0.0000000000000000     
   2.2407074816648373E-002   1.5341743432211501E-002   0.0000000000000000     
   2.6369448191656372E-002   1.8650243022368777E-002   0.0000000000000000     
   3.0199590315613107E-002   2.2111723629198877E-002   0.0000000000000000     
   3.3897501188518586E-002   2.5726185252701806E-002   0.0000000000000000     
   1.5835071543793634E-002   1.0976646110726856E-002   0.0000000000000000     
   1.9730744285412140E-002   1.4211291986115517E-002   0.0000000000000000     
   2.3486388999915390E-002   1.7576234403518652E-002   0.0000000000000000     
   2.7102005687303379E-002   2.1071473362936258E-002   0.0000000000000000     
   3.0577594347576127E-002   2.4697008864368340E-002   0.0000000000000000     
   1.3796025816485100E-002   9.9909873819532015E-003   0.0000000000000000     
   1.7404288071075583E-002   1.3221334422517536E-002   0.0000000000000000     
   2.0888957313972875E-002   1.6587916205784453E-002   0.0000000000000000     
   2.4250033545176963E-002   2.0090732731753960E-002   0.0000000000000000     
   2.7487516764687862E-002   2.3729784000426041E-002   0.0000000000000000     
   1.2195333008663522E-002   9.2292486724060933E-003   0.0000000000000000     
   1.5427706173638712E-002   1.2371870741417561E-002   0.0000000000000000     
   1.8577153133828822E-002   1.5685288429166187E-002   0.0000000000000000     
   2.1643673889233852E-002   1.9169501735651972E-002   0.0000000000000000     
   2.4627268439853800E-002   2.2824510660874913E-002   0.0000000000000000     
   3.7447237287515256E-002   2.6817313165426439E-002   0.0000000000000000     
   4.1255723752614326E-002   3.0622566167818378E-002   0.0000000000000000     
   4.4972486116594490E-002   3.4622377738547302E-002   0.0000000000000000     
   4.8597524379455741E-002   3.8816747877613252E-002   0.0000000000000000     
   5.2130838541198078E-002   4.3205676585016187E-002   0.0000000000000000     
   3.3897501188518586E-002   2.5726185252701806E-002   0.0000000000000000     
   3.7486194315228732E-002   2.9522395232864911E-002   0.0000000000000000     
   4.0988683200599438E-002   3.3529120909675567E-002   0.0000000000000000     
   4.4404967844630702E-002   3.7746362283133758E-002   0.0000000000000000     
   4.7735048247322540E-002   4.2174119353239489E-002   0.0000000000000000     
   3.0577594347576127E-002   2.4697008864368340E-002   0.0000000000000000     
   3.3942414466596162E-002   2.8497422715827003E-002   0.0000000000000000     
   3.7225725530226031E-002   3.2517296725324364E-002   0.0000000000000000     
   4.0427527538465749E-002   3.6756630892860430E-002   0.0000000000000000     
   4.3547820491315295E-002   4.1215425218435180E-002   0.0000000000000000     
   2.7487516764687862E-002   2.3729784000426041E-002   0.0000000000000000     
   3.0624384206716614E-002   2.7547648616704650E-002   0.0000000000000000     
   3.3683613105474283E-002   3.1586905185493730E-002   0.0000000000000000     
   3.6665203460960846E-002   3.5847553706793253E-002   0.0000000000000000     
   3.9569155273176344E-002   4.0329594180603258E-002   0.0000000000000000     
   2.4627268439853800E-002   2.2824510660874913E-002   0.0000000000000000     
   2.7532103535590099E-002   2.6673072935497852E-002   0.0000000000000000     
   3.0362345926344181E-002   3.0737946290183633E-002   0.0000000000000000     
   3.3117995612116043E-002   3.5019130724932263E-002   0.0000000000000000     
   3.5799052592905688E-002   3.9516626239743724E-002   0.0000000000000000     
   5.2130838541198078E-002   4.3205676585016187E-002   0.0000000000000000     
   5.5570038200422389E-002   4.7794515532770754E-002   0.0000000000000000     
   5.8912732955729540E-002   5.2588616392891620E-002   0.0000000000000000     
   6.2158922807119543E-002   5.7587979165378764E-002   0.0000000000000000     
   6.5308607754592393E-002   6.2792603850232193E-002   0.0000000000000000     
   4.7735048247322540E-002   4.2174119353239489E-002   0.0000000000000000     
   5.0975197526859570E-002   4.6806029866709502E-002   0.0000000000000000     
   5.4121688801426426E-002   5.1635731570260482E-002   0.0000000000000000     
   5.7174522071023130E-002   5.6663224463892471E-002   0.0000000000000000     
   6.0133697335649654E-002   6.1888508547605456E-002   0.0000000000000000     
   4.3547820491315295E-002   4.1215425218435180E-002   0.0000000000000000     
   4.6582814502439424E-002   4.5880905398741192E-002   0.0000000000000000     
   4.9528719685502862E-002   5.0740297130470992E-002   0.0000000000000000     
   5.2385536040505616E-002   5.5793600413624599E-002   0.0000000000000000     
   5.5153263567447680E-002   6.1040815248202013E-002   0.0000000000000000     
   3.9569155273176344E-002   4.0329594180603258E-002   0.0000000000000000     
   4.2392889127161930E-002   4.5019142128865840E-002   0.0000000000000000     
   4.5133825607958825E-002   4.9902313073523143E-002   0.0000000000000000     
   4.7791964715567008E-002   5.4979107014575146E-002   0.0000000000000000     
   5.0367306449986500E-002   6.0249523952021850E-002   0.0000000000000000     
   3.5799052592905688E-002   3.9516626239743724E-002   0.0000000000000000     
   3.8405421401027116E-002   4.4220740057083464E-002   0.0000000000000000     
   4.0937006568794315E-002   4.9121779399416921E-002   0.0000000000000000     
   4.3393808096207319E-002   5.4219744266744106E-002   0.0000000000000000     
   4.5775825983266086E-002   5.9514634659064994E-002   0.0000000000000000     
   6.5308607754592393E-002   6.2792603850232193E-002   0.0000000000000000     
   6.8363973573738412E-002   6.8188234193244379E-002   0.0000000000000000     
   7.1327206040147889E-002   7.3760613940207831E-002   0.0000000000000000     
   7.4198305153820851E-002   7.9509743091122520E-002   0.0000000000000000     
   7.6977270914757284E-002   8.5435621645988460E-002   0.0000000000000000     
   6.0133697335649654E-002   6.1888508547605456E-002   0.0000000000000000     
   6.3002489472901976E-002   6.7302817030450074E-002   0.0000000000000000     
   6.5784173360376091E-002   7.2897383121477019E-002   0.0000000000000000     
   6.8478748998071992E-002   7.8672206820686291E-002   0.0000000000000000     
   7.1086216385989665E-002   8.4627288128077849E-002   0.0000000000000000     
   5.5153263567447680E-002   6.1040815248202013E-002   0.0000000000000000     
   5.7835351903103821E-002   6.6476102373842744E-002   0.0000000000000000     
   6.0435250684248792E-002   7.2093622530186349E-002   0.0000000000000000     
   6.2952959910882580E-002   7.7893375717232829E-002   0.0000000000000000     
   6.5388479583005199E-002   8.3875361934982171E-002   0.0000000000000000     
   5.0367306449986500E-002   6.0249523952021850E-002   0.0000000000000000     
   5.2862560864343926E-002   6.5708090223422375E-002   0.0000000000000000     
   5.5280438011765985E-002   7.1349332166335808E-002   0.0000000000000000     
   5.7620937892252630E-002   7.7173249780762149E-002   0.0000000000000000     
   5.9884060505803888E-002   8.3179843066701384E-002   0.0000000000000000     
   4.5775825983266086E-002   5.9514634659064994E-002   0.0000000000000000     
   4.8084116356622311E-002   6.4998780579188953E-002   0.0000000000000000     
   5.0319735342927663E-002   7.0664512029925367E-002   0.0000000000000000     
   5.2482682942182141E-002   7.6511829011274193E-002   0.0000000000000000     
   5.4572959154385745E-002   8.2540731523235489E-002   0.0000000000000000     
   7.6977270914757284E-002   8.5435621645988460E-002   0.0000000000000000     
   7.9660265073784042E-002   9.1529729186192302E-002   0.0000000000000000     
   8.2243449381727951E-002   9.7783545293120694E-002   0.0000000000000000     
   8.4726823838588983E-002  0.10419706996677365        0.0000000000000000     
   8.7110388444367165E-002  0.11077030320715113        0.0000000000000000     
   7.1086216385989665E-002   8.4627288128077849E-002   0.0000000000000000     
   7.3603253797014739E-002   9.0751332915362776E-002   0.0000000000000000     
   7.6026539504032778E-002   9.7033047054252114E-002   0.0000000000000000     
   7.8356073507043836E-002  0.10347243054474582        0.0000000000000000     
   8.0591855806047857E-002  0.11006948338684394        0.0000000000000000     
   6.5388479583005199E-002   8.3875361934982171E-002   0.0000000000000000     
   6.7739059146270306E-002   9.0026719877242992E-002   0.0000000000000000     
   7.0001948046331544E-002   9.6334588237823870E-002   0.0000000000000000     
   7.2177146283188942E-002  0.10279896701672481        0.0000000000000000     
   7.4264653856842472E-002  0.10941985621394579        0.0000000000000000     
   5.9884060505803888E-002   8.3179843066701384E-002   0.0000000000000000     
   6.2067681121550762E-002   8.9355890071832852E-002   0.0000000000000000     
   6.4169675008624236E-002   9.5688168843835908E-002   0.0000000000000000     
   6.6190042167024329E-002  0.10217667938271054        0.0000000000000000     
   6.8128782596751022E-002  0.10882142168845675        0.0000000000000000     
   5.4572959154385745E-002   8.2540731523235489E-002   0.0000000000000000     
   5.6589119722856109E-002   8.8738843499132455E-002   0.0000000000000000     
   5.8529720390910860E-002   9.5093788872288310E-002   0.0000000000000000     
   6.0394761158549984E-002  0.10160556764270307        0.0000000000000000     
   6.2184242025773495E-002  0.10827417981037674        0.0000000000000000     
   8.7110388444367165E-002  0.11077030320715113        0.0000000000000000     
   8.9399182838369978E-002  0.11748991772643952        0.0000000000000000     
   9.1598246659904875E-002  0.12434258623682520        0.0000000000000000     
   9.3707579908971855E-002  0.13132830873830809        0.0000000000000000     
   9.5727182585570933E-002  0.13844708523088828        0.0000000000000000     
   8.0591855806047857E-002  0.11006948338684394        0.0000000000000000     
   8.2738422635471320E-002  0.11681226838708421        0.0000000000000000     
   8.4800310229740675E-002  0.12368884835200443        0.0000000000000000     
   8.6777518588855906E-002  0.13069922328160458        0.0000000000000000     
   8.8670047712817043E-002  0.13784339317588462        0.0000000000000000     
   7.4264653856842472E-002  0.10941985621394579        0.0000000000000000     
   7.6268535923795247E-002  0.11618608790990942        0.0000000000000000     
   7.8192857640550409E-002  0.12308649418503817        0.0000000000000000     
   8.0037619007107902E-002  0.13012107503933201        0.0000000000000000     
   8.1802820023467782E-002  0.13728983047279103        0.0000000000000000     
   6.8128782596751022E-002  0.10882142168845675        0.0000000000000000     
   6.9989522703341772E-002  0.11561137629491514        0.0000000000000000     
   7.1775888892334050E-002  0.12253552373592638        0.0000000000000000     
   7.3487881163727828E-002  0.12959386401149051        0.0000000000000000     
   7.5125499517523134E-002  0.13678639712160745        0.0000000000000000     
   6.2184242025773495E-002  0.10827417981037674        0.0000000000000000     
   6.3901382974110896E-002  0.11508813354210139        0.0000000000000000     
   6.5549403985091625E-002  0.12203593700466912        0.0000000000000000     
   6.7128305058715726E-002  0.12911759019807995        0.0000000000000000     
   6.8638086194983156E-002  0.13633309312233388        0.0000000000000000     
   9.5727182585570933E-002  0.13844708523088828        0.0000000000000000     
   9.7654333460302070E-002  0.14570841942746479        0.0000000000000000     
   9.9486311303765229E-002  0.15312181504093678        0.0000000000000000     
  0.10122311611596042       0.16068727207130423        0.0000000000000000     
  0.10286474789688765       0.16840479051856708        0.0000000000000000     
   8.8670047712817043E-002  0.13784339317588462        0.0000000000000000     
   9.0473213949488263E-002  0.14511510097278688        0.0000000000000000     
   9.2182333646733824E-002  0.15250808961025347        0.0000000000000000     
   9.3797406804553674E-002  0.16002235908828447        0.0000000000000000     
   9.5318433422947879E-002  0.16765790940687980        0.0000000000000000     
   8.1802820023467782E-002  0.13728983047279103        0.0000000000000000     
   8.3482400704468246E-002  0.14457656668045385        0.0000000000000000     
   8.5070301064947548E-002  0.15196508985735929        0.0000000000000000     
   8.6566521104905716E-002  0.15945540000350730        0.0000000000000000     
   8.7971060824342723E-002  0.16704749711889785        0.0000000000000000     
   7.5125499517523134E-002  0.13678639712160745        0.0000000000000000     
   7.6681893725241992E-002  0.14409281655046582        0.0000000000000000     
   7.8150213558406484E-002  0.15149281578225424        0.0000000000000000     
   7.9530459017016525E-002  0.15898639481697269        0.0000000000000000     
   8.0822630101072171E-002  0.16657355365462120        0.0000000000000000     
   6.8638086194983156E-002  0.13633309312233388        0.0000000000000000     
   7.0071693011809572E-002  0.14366385058282272        0.0000000000000000     
   7.1422071127110534E-002  0.15109126738493833        0.0000000000000000     
   7.2689220540886085E-002  0.15861534352868070        0.0000000000000000     
   7.3873141253136210E-002  0.16623607901404985        0.0000000000000000     
   0.0000000000000000        0.0000000000000000        0.0000000000000000     
   2.8800809907644923E-003   1.7448780994454975E-003   0.0000000000000000     
   5.8726634891299104E-003   3.8647122446616783E-003   0.0000000000000000     
   8.9777474950962534E-003   6.3595024356485428E-003   0.0000000000000000     
   1.2195333008663522E-002   9.2292486724060933E-003   0.0000000000000000     
   0.0000000000000000        0.0000000000000000        0.0000000000000000     
   2.6103301089512015E-003   1.5889712976914256E-003   0.0000000000000000     
   5.2897457111824352E-003   3.5567699934287256E-003   0.0000000000000000     
   8.0382468066937003E-003   5.9033960872119009E-003   0.0000000000000000     
   1.0855833395484999E-002   8.6288495790409498E-003   0.0000000000000000     
   0.0000000000000000        0.0000000000000000        0.0000000000000000     
   2.3401246547279124E-003   1.4589960347147720E-003   0.0000000000000000     
   4.7202274149881554E-003   3.2998629960885634E-003   0.0000000000000000     
   7.1403082807807274E-003   5.5226008841213741E-003   0.0000000000000000     
   9.6003672521056301E-003   8.1272096988132068E-003   0.0000000000000000     
   0.0000000000000000        0.0000000000000000        0.0000000000000000     
   2.0694646280946245E-003   1.3549523105155369E-003   0.0000000000000000     
   4.1641086005470684E-003   3.0939912526411926E-003   0.0000000000000000     
   6.2839319173573329E-003   5.2171168263769659E-003   0.0000000000000000     
   8.4289345785254158E-003   7.7243290317228572E-003   0.0000000000000000     
   0.0000000000000000        0.0000000000000000        0.0000000000000000     
   1.7983500290513373E-003   1.2768401250937205E-003   0.0000000000000000     
   3.6213892678591754E-003   2.9391547630866115E-003   0.0000000000000000     
   5.4691177164235150E-003   4.9869439139786729E-003   0.0000000000000000     
   7.3415353747443551E-003   7.4202075777699055E-003   0.0000000000000000     
   1.2195333008663522E-002   9.2292486724060933E-003   0.0000000000000000     
   1.5427706173638712E-002   1.2371870741417561E-002   0.0000000000000000     
   1.8577153133828822E-002   1.5685288429166187E-002   0.0000000000000000     
   2.1643673889233852E-002   1.9169501735651972E-002   0.0000000000000000     
   2.4627268439853800E-002   2.2824510660874913E-002   0.0000000000000000     
   1.0855833395484999E-002   8.6288495790409498E-003   0.0000000000000000     
   1.3689177828123320E-002   1.1650874411403016E-002   0.0000000000000000     
   1.6484952455175651E-002   1.4887214526785236E-002   0.0000000000000000     
   1.9243157276641998E-002   1.8337869925187614E-002   0.0000000000000000     
   2.1963792292522360E-002   2.2002840606610147E-002   0.0000000000000000     
   9.6003672521056301E-003   8.1272096988132068E-003   0.0000000000000000     
   1.2076882269551201E-002   1.1046318901061320E-002   0.0000000000000000     
   1.4546331273705774E-002   1.4212557951762982E-002   0.0000000000000000     
   1.7008714264569361E-002   1.7625926850918190E-002   0.0000000000000000     
   1.9464031242141945E-002   2.1286425598526951E-002   0.0000000000000000     
   8.4289345785254158E-003   7.7243290317228572E-003   0.0000000000000000     
   1.0590819497922359E-002   1.0558204210392474E-002   0.0000000000000000     
   1.2761289589419201E-002   1.3661318704099422E-002   0.0000000000000000     
   1.4940344853015939E-002   1.7033672512843701E-002   0.0000000000000000     
   1.7127985288712577E-002   2.0675265636625320E-002   0.0000000000000000     
   7.3415353747443551E-003   7.4202075777699055E-003   0.0000000000000000     
   9.2309895132367918E-003   1.0186530339396479E-002   0.0000000000000000     
   1.1129827402315917E-002   1.3233496783794560E-002   0.0000000000000000     
   1.3038049041981732E-002   1.6561106910964147E-002   0.0000000000000000     
   1.4955654432234233E-002   2.0169360720905246E-002   0.0000000000000000     
   2.4627268439853800E-002   2.2824510660874913E-002   0.0000000000000000     
   2.7532103535590099E-002   2.6673072935497852E-002   0.0000000000000000     
   3.0362345926344181E-002   3.0737946290183633E-002   0.0000000000000000     
   3.3117995612116043E-002   3.5019130724932263E-002   0.0000000000000000     
   3.5799052592905688E-002   3.9516626239743724E-002   0.0000000000000000     
   2.1963792292522360E-002   2.2002840606610147E-002   0.0000000000000000     
   2.4630375720647461E-002   2.5880126375839238E-002   0.0000000000000000     
   2.7226425778848040E-002   2.9967727037661287E-002   0.0000000000000000     
   2.9751942467124089E-002   3.4265642592076290E-002   0.0000000000000000     
   3.2206925785475612E-002   3.8773873039084257E-002   0.0000000000000000     
   1.9464031242141945E-002   2.1286425598526951E-002   0.0000000000000000     
   2.1884004029319545E-002   2.5175239641361449E-002   0.0000000000000000     
   2.4240354448998153E-002   2.9273554426193883E-002   0.0000000000000000     
   2.6533082501177772E-002   3.3581369953024243E-002   0.0000000000000000     
   2.8762188185858403E-002   3.8098686221852543E-002   0.0000000000000000     
   1.7127985288712577E-002   2.0675265636625320E-002   0.0000000000000000     
   1.9292988461606358E-002   2.4558412732064484E-002   0.0000000000000000     
   2.1404131936794531E-002   2.8655428455781416E-002   0.0000000000000000     
   2.3461415714277095E-002   3.2966312807776128E-002   0.0000000000000000     
   2.5464839794054055E-002   3.7491065788048596E-002   0.0000000000000000     
   1.4955654432234233E-002   2.0169360720905246E-002   0.0000000000000000     
   1.6857329017507895E-002   2.4029645647948336E-002   0.0000000000000000     
   1.8717758242237169E-002   2.8113349126423891E-002   0.0000000000000000     
   2.0536942106422061E-002   3.2420471156331912E-002   0.0000000000000000     
   2.2314880610062572E-002   3.6951011737672415E-002   0.0000000000000000     
   3.5799052592905688E-002   3.9516626239743724E-002   0.0000000000000000     
   3.8405421401027116E-002   4.4220740057083464E-002   0.0000000000000000     
   4.0937006568794315E-002   4.9121779399416921E-002   0.0000000000000000     
   4.3393808096207319E-002   5.4219744266744106E-002   0.0000000000000000     
   4.5775825983266086E-002   5.9514634659064994E-002   0.0000000000000000     
   3.2206925785475612E-002   3.8773873039084257E-002   0.0000000000000000     
   3.4593458817560215E-002   4.3487932151242532E-002   0.0000000000000000     
   3.6913624647035487E-002   4.8403333701108470E-002   0.0000000000000000     
   3.9167423273901436E-002   5.3520077688682104E-002   0.0000000000000000     
   4.1354854698158063E-002   5.8838164113963393E-002   0.0000000000000000     
   2.8762188185858403E-002   3.8098686221852543E-002   0.0000000000000000     
   3.0930048870286483E-002   4.2822951379191530E-002   0.0000000000000000     
   3.3039041921708451E-002   4.7751613571553941E-002   0.0000000000000000     
   3.5089167340124308E-002   5.2884672798939762E-002   0.0000000000000000     
   3.7080425125534049E-002   5.8222129061349027E-002   0.0000000000000000     
   2.5464839794054055E-002   3.7491065788048596E-002   0.0000000000000000     
   2.7415191559205920E-002   4.2225797740930451E-002   0.0000000000000000     
   2.9313258392813204E-002   4.7166619010753280E-002   0.0000000000000000     
   3.1159040294875907E-002   5.2313529597517110E-002   0.0000000000000000     
   3.2952537265394030E-002   5.7666529501221898E-002   0.0000000000000000     
   2.2314880610062572E-002   3.6951011737672415E-002   0.0000000000000000     
   2.4048886884318534E-002   4.1696471236459316E-002   0.0000000000000000     
   2.5736274060349756E-002   4.6648350018706534E-002   0.0000000000000000     
   2.7377042138156248E-002   5.1806648084414111E-002   0.0000000000000000     
   2.8971191117738018E-002   5.7171365433582012E-002   0.0000000000000000     
   4.5775825983266086E-002   5.9514634659064994E-002   0.0000000000000000     
   4.8084116356622311E-002   6.4998780579188953E-002   0.0000000000000000     
   5.0319735342927663E-002   7.0664512029925367E-002   0.0000000000000000     
   5.2482682942182141E-002   7.6511829011274193E-002   0.0000000000000000     
   5.4572959154385745E-002   8.2540731523235489E-002   0.0000000000000000     
   4.1354854698158063E-002   5.8838164113963393E-002   0.0000000000000000     
   4.3475246428484174E-002   6.4347007556008376E-002   0.0000000000000000     
   4.5527925973558571E-002   7.0036022593873079E-002   0.0000000000000000     
   4.7512893333381247E-002   7.5905209227557502E-002   0.0000000000000000     
   4.9430148507952215E-002   8.1954567457061658E-002   0.0000000000000000     
   3.7080425125534049E-002   5.8222129061349027E-002   0.0000000000000000     
   3.9011179128474738E-002   6.3751605268746514E-002   0.0000000000000000     
   4.0879793199483414E-002   6.9460724331096999E-002   0.0000000000000000     
   4.2686267338560083E-002   7.5349486248400502E-002   0.0000000000000000     
   4.4430601545704738E-002   8.1417891020657024E-002   0.0000000000000000     
   3.2952537265394030E-002   5.7666529501221898E-002   0.0000000000000000     
   3.4691914456593982E-002   6.3212573717403339E-002   0.0000000000000000     
   3.6375337020702191E-002   6.8938617241597097E-002   0.0000000000000000     
   3.8002804957718628E-002   7.4844660073803207E-002   0.0000000000000000     
   3.9574318267643314E-002   8.0930702214021571E-002   0.0000000000000000     
   2.8971191117738018E-002   5.7171365433582012E-002   0.0000000000000000     
   3.0517452412841935E-002   6.2729912901978907E-002   0.0000000000000000     
   3.2014557437214902E-002   6.8469701325373417E-002   0.0000000000000000     
   3.3462506190856903E-002   7.4390730703765562E-002   0.0000000000000000     
   3.4861298673767950E-002   8.0493001037155343E-002   0.0000000000000000     
   5.4572959154385745E-002   8.2540731523235489E-002   0.0000000000000000     
   5.6589119722856109E-002   8.8738843499132455E-002   0.0000000000000000     
   5.8529720390910860E-002   9.5093788872288310E-002   0.0000000000000000     
   6.0394761158549984E-002  0.10160556764270307        0.0000000000000000     
   6.2184242025773495E-002  0.10827417981037674        0.0000000000000000     
   4.9430148507952215E-002   8.1954567457061658E-002   0.0000000000000000     
   5.1278781887646223E-002   8.8172865531248160E-002   0.0000000000000000     
   5.3057883862838044E-002   9.4548871698979700E-002   0.0000000000000000     
   5.4767454433527658E-002  0.10108258596025622        0.0000000000000000     
   5.6407493599715086E-002  0.10777400831507780        0.0000000000000000     
   4.4430601545704738E-002   8.1417891020657024E-002   0.0000000000000000     
   4.6112074553380990E-002   8.7655241540286463E-002   0.0000000000000000     
   4.7729965094052439E-002   9.4050840699708760E-002   0.0000000000000000     
   4.9284273167719099E-002  0.10060468849892394        0.0000000000000000     
   5.0774998774380950E-002  0.10731678493793194        0.0000000000000000     
   3.9574318267643314E-002   8.0930702214021571E-002   0.0000000000000000     
   4.1088997720060402E-002   8.7185971526247338E-002   0.0000000000000000     
   4.2545964084554071E-002   9.3599695874475558E-002   0.0000000000000000     
   4.3945217361124278E-002  0.10017187525870612        0.0000000000000000     
   4.5286757549771080E-002  0.10690250967893916        0.0000000000000000     
   3.4861298673767950E-002   8.0493001037155343E-002   0.0000000000000000     
   3.6209551387684467E-002   8.6765055489130813E-002   0.0000000000000000     
   3.7505880834342899E-002   9.3195437223279970E-002   0.0000000000000000     
   3.8750287013743230E-002   9.9784146239602869E-002   0.0000000000000000     
   3.9942769925885475E-002  0.10653118253809946        0.0000000000000000     
   6.2184242025773495E-002  0.10827417981037674        0.0000000000000000     
   6.3901382974110896E-002  0.11508813354210139        0.0000000000000000     
   6.5549403985091625E-002  0.12203593700466912        0.0000000000000000     
   6.7128305058715726E-002  0.12911759019807995        0.0000000000000000     
   6.8638086194983156E-002  0.13633309312233388        0.0000000000000000     
   5.6407493599715086E-002  0.10777400831507780        0.0000000000000000     
   5.7980879371952863E-002  0.11461102796755390        0.0000000000000000     
   5.9490489760793505E-002  0.12158153412179411        0.0000000000000000     
   6.0936324766237032E-002  0.12868552677779843        0.0000000000000000     
   6.2318384388283431E-002  0.13592300593556683        0.0000000000000000     
   5.0774998774380950E-002  0.10731678493793194        0.0000000000000000     
   5.2204774532717955E-002  0.11417472788735844        0.0000000000000000     
   5.3576233061410058E-002  0.12116611521782911        0.0000000000000000     
   5.4889374360457259E-002  0.12829094692934387        0.0000000000000000     
   5.6144198429859571E-002  0.13554922302190284        0.0000000000000000     
   4.5286757549771080E-002  0.10690250967893916        0.0000000000000000     
   4.6573068456406165E-002  0.11377923330151503        0.0000000000000000     
   4.7806633886941279E-002  0.12078968029277408        0.0000000000000000     
   4.8987453841376420E-002  0.12793385065271637        0.0000000000000000     
   5.0115528319711590E-002  0.13521174438134190        0.0000000000000000     
   3.9942769925885475E-002  0.10653118253809946        0.0000000000000000     
   4.1085761143017492E-002  0.11342454421002358        0.0000000000000000     
   4.2181692237387172E-002  0.12045222934662904        0.0000000000000000     
   4.3230563208994488E-002  0.12761423794791585        0.0000000000000000     
   4.4232374057839467E-002  0.13491057001388401        0.0000000000000000     
   6.8638086194983156E-002  0.13633309312233388        0.0000000000000000     
   7.0071693011809572E-002  0.14366385058282272        0.0000000000000000     
   7.1422071127110534E-002  0.15109126738493833        0.0000000000000000     
   7.2689220540886085E-002  0.15861534352868070        0.0000000000000000     
   7.3873141253136210E-002  0.16623607901404985        0.0000000000000000     
   6.2318384388283431E-002  0.13592300593556683        0.0000000000000000     
   6.3629784974846990E-002  0.14327931774885358        0.0000000000000000     
   6.4863642873841956E-002  0.15073980837141285        0.0000000000000000     
   6.6019958085268352E-002  0.15830447780324472        0.0000000000000000     
   6.7098730609126189E-002  0.16597332604434911        0.0000000000000000     
   5.6144198429859571E-002  0.13554922302190284        0.0000000000000000     
   5.7334156025030336E-002  0.14292886701988744        0.0000000000000000     
   5.8452697901382904E-002  0.15041780244767922        0.0000000000000000     
   5.9499824058917267E-002  0.15801602930527817        0.0000000000000000     
   6.0475534497633418E-002  0.16572354759268429        0.0000000000000000     
   5.0115528319711590E-002  0.13521174438134190        0.0000000000000000     
   5.1184806162359611E-002  0.14261249839592433        0.0000000000000000     
   5.2189236209733363E-002  0.15012524961373741        0.0000000000000000     
   5.3128818461832789E-002  0.15774999803478104        0.0000000000000000     
   5.4003552918657945E-002  0.16548674365905536        0.0000000000000000     
   4.4232374057839467E-002  0.13491057001388401        0.0000000000000000     
   4.5181735386834829E-002  0.14233021187696426        0.0000000000000000     
   4.6073257798893326E-002  0.14986214986958737        0.0000000000000000     
   4.6906941294014952E-002  0.15750638399175346        0.0000000000000000     
   4.7682785872199714E-002  0.16526291424346240        0.0000000000000000     
   0.0000000000000000        0.0000000000000000        0.0000000000000000     
   1.7983500290513373E-003   1.2768401250937205E-003   0.0000000000000000     
   3.6213892678591754E-003   2.9391547630866115E-003   0.0000000000000000     
   5.4691177164235150E-003   4.9869439139786729E-003   0.0000000000000000     
   7.3415353747443551E-003   7.4202075777699055E-003   0.0000000000000000     
   0.0000000000000000        0.0000000000000000        0.0000000000000000     
   1.5350514182822612E-003   1.2175507203429636E-003   0.0000000000000000     
   3.0994204093290744E-003   2.8208492549557543E-003   0.0000000000000000     
   4.6931069731404405E-003   4.8098956038383706E-003   0.0000000000000000     
   6.3161111097163568E-003   7.1846897669908148E-003   0.0000000000000000     
   0.0000000000000000        0.0000000000000000        0.0000000000000000     
   1.2878393564716053E-003   1.1699753381569080E-003   0.0000000000000000     
   2.6055530173613624E-003   2.7245704557795521E-003   0.0000000000000000     
   3.9531409826692697E-003   4.6637853528679321E-003   0.0000000000000000     
   5.3306032523953292E-003   6.9876200294220481E-003   0.0000000000000000     
   0.0000000000000000        0.0000000000000000        0.0000000000000000     
   1.0567138436193698E-003   1.1341139785355538E-003   0.0000000000000000     
   2.1397870919560376E-003   2.6503183655580058E-003   0.0000000000000000     
   3.2492197450100053E-003   4.5486131610673582E-003   0.0000000000000000     
   4.3850118027812706E-003   6.8289983650636089E-003   0.0000000000000000     
   0.0000000000000000        0.0000000000000000        0.0000000000000000     
   8.4167487972555460E-004   1.1099666414789004E-003   0.0000000000000000     
   1.7021226331131031E-003   2.5980929842911154E-003   0.0000000000000000     
   2.5813432601626456E-003   4.4643790284366464E-003   0.0000000000000000     
   3.4793367608741818E-003   6.7088247739154928E-003   0.0000000000000000     
   7.3415353747443551E-003   7.4202075777699055E-003   0.0000000000000000     
   9.2309895132367918E-003   1.0186530339396479E-002   0.0000000000000000     
   1.1129827402315917E-002   1.3233496783794560E-002   0.0000000000000000     
   1.3038049041981732E-002   1.6561106910964147E-002   0.0000000000000000     
   1.4955654432234233E-002   2.0169360720905246E-002   0.0000000000000000     
   6.3161111097163568E-003   7.1846897669908148E-003   0.0000000000000000     
   7.9557581934309035E-003   9.8956626323786524E-003   0.0000000000000000     
   9.5993735986581556E-003   1.2893245087967450E-002   0.0000000000000000     
   1.1246957325398113E-002   1.6177437133757213E-002   0.0000000000000000     
   1.2898509373650778E-002   1.9748238769747933E-002   0.0000000000000000     
   5.3306032523953292E-003   6.9876200294220481E-003   0.0000000000000000     
   6.7234914164410993E-003   9.6499664336443195E-003   0.0000000000000000     
   8.1173570647081455E-003   1.2604716513737161E-002   0.0000000000000000     
   9.5122001971964642E-003   1.5851870269700575E-002   0.0000000000000000     
   1.0908020813906058E-002   1.9391427701534562E-002   0.0000000000000000     
   4.3850118027812706E-003   6.8289983650636089E-003   0.0000000000000000     
   5.5341891822673810E-003   9.4494417431934766E-003   0.0000000000000000     
   6.6837778004658829E-003   1.2367911061103692E-002   0.0000000000000000     
   7.8337776573767816E-003   1.5584406318794243E-002   0.0000000000000000     
   8.9841887530000674E-003   1.9098927516265140E-002   0.0000000000000000     
   3.4793367608741818E-003   6.7088247739154928E-003   0.0000000000000000     
   4.3878514909097468E-003   9.2940885610261308E-003   0.0000000000000000     
   5.2986358059313740E-003   1.2182828730067038E-002   0.0000000000000000     
   6.2116897059390644E-003   1.5375045281038216E-002   0.0000000000000000     
   7.1270131909328162E-003   1.8870738213939663E-002   0.0000000000000000     
   1.4955654432234233E-002   2.0169360720905246E-002   0.0000000000000000     
   1.6857329017507895E-002   2.4029645647948336E-002   0.0000000000000000     
   1.8717758242237169E-002   2.8113349126423891E-002   0.0000000000000000     
   2.0536942106422061E-002   3.2420471156331912E-002   0.0000000000000000     
   2.2314880610062572E-002   3.6951011737672415E-002   0.0000000000000000     
   1.2898509373650778E-002   1.9748238769747933E-002   0.0000000000000000     
   1.4537632279727805E-002   2.3579492119483635E-002   0.0000000000000000     
   1.6147928579940848E-002   2.7645039306508346E-002   0.0000000000000000     
   1.7729398274289914E-002   3.1944880330822073E-002   0.0000000000000000     
   1.9282041362774997E-002   3.6479015192424788E-002   0.0000000000000000     
   1.0908020813906058E-002   1.9391427701534562E-002   0.0000000000000000     
   1.2294504830969749E-002   2.3198505877141014E-002   0.0000000000000000     
   1.3661338164520359E-002   2.7248221864421829E-002   0.0000000000000000     
   1.5008520814557899E-002   3.1540575663377007E-002   0.0000000000000000     
   1.6336052781082359E-002   3.6075567274006529E-002   0.0000000000000000     
   8.9841887530000674E-003   1.9098927516265140E-002   0.0000000000000000     
   1.0127946671233718E-002   2.2886686920920472E-002   0.0000000000000000     
   1.1257986995975704E-002   2.6922896800164329E-002   0.0000000000000000     
   1.2374309727226019E-002   3.1207557153996725E-002   0.0000000000000000     
   1.3476914864984663E-002   3.5740667982417644E-002   0.0000000000000000     
   7.1270131909328162E-003   1.8870738213939663E-002   0.0000000000000000     
   8.0379578005197218E-003   2.2644035250821998E-002   0.0000000000000000     
   8.9378750743068745E-003   2.6669064113735857E-002   0.0000000000000000     
   9.8267650122942710E-003   3.0945824802681238E-002   0.0000000000000000     
   1.0704627614481909E-002   3.5474317317658134E-002   0.0000000000000000     
   2.2314880610062572E-002   3.6951011737672415E-002   0.0000000000000000     
   2.4048886884318534E-002   4.1696471236459316E-002   0.0000000000000000     
   2.5736274060349756E-002   4.6648350018706534E-002   0.0000000000000000     
   2.7377042138156248E-002   5.1806648084414111E-002   0.0000000000000000     
   2.8971191117738018E-002   5.7171365433582012E-002   0.0000000000000000     
   1.9282041362774997E-002   3.6479015192424788E-002   0.0000000000000000     
   2.0799666235710411E-002   4.1233526127803684E-002   0.0000000000000000     
   2.2276081283410465E-002   4.6194495373445908E-002   0.0000000000000000     
   2.3711286505875173E-002   5.1361922929351475E-002   0.0000000000000000     
   2.5105281903104515E-002   5.6735808795520377E-002   0.0000000000000000     
   1.6336052781082359E-002   3.6075567274006529E-002   0.0000000000000000     
   1.7636061003467658E-002   4.0835516676989154E-002   0.0000000000000000     
   1.8900672421087703E-002   4.5802743853003619E-002   0.0000000000000000     
   2.0129887033942501E-002   5.0977248802049895E-002   0.0000000000000000     
   2.1323704842032051E-002   5.6359031524128016E-002   0.0000000000000000     
   1.3476914864984663E-002   3.5740667982417644E-002   0.0000000000000000     
   1.4558071187590269E-002   4.0502442884015742E-002   0.0000000000000000     
   1.5610047473381463E-002   4.5473095457379667E-002   0.0000000000000000     
   1.6632843722358244E-002   5.0652625702509391E-002   0.0000000000000000     
   1.7626459934520611E-002   5.6041033619404941E-002   0.0000000000000000     
   1.0704627614481909E-002   3.5474317317658134E-002   0.0000000000000000     
   1.1565696788078251E-002   4.0234304748883433E-002   0.0000000000000000     
   1.2404206440291745E-002   4.5205550186574031E-002   0.0000000000000000     
   1.3220156571122396E-002   5.0388053630729936E-002   0.0000000000000000     
   1.4013547180570201E-002   5.5781815081351133E-002   0.0000000000000000     
   2.8971191117738018E-002   5.7171365433582012E-002   0.0000000000000000     
   3.0517452412841935E-002   6.2729912901978907E-002   0.0000000000000000     
   3.2014557437214902E-002   6.8469701325373417E-002   0.0000000000000000     
   3.3462506190856903E-002   7.4390730703765562E-002   0.0000000000000000     
   3.4861298673767950E-002   8.0493001037155343E-002   0.0000000000000000     
   2.5105281903104515E-002   5.6735808795520377E-002   0.0000000000000000     
   2.6457553939456209E-002   6.2304294491707185E-002   0.0000000000000000     
   2.7767589079287936E-002   6.8055521537666461E-002   0.0000000000000000     
   2.9035387322599710E-002   7.3989489933398211E-002   0.0000000000000000     
   3.0260948669391524E-002   8.0106199678902451E-002   0.0000000000000000     
   2.1323704842032051E-002   5.6359031524128016E-002   0.0000000000000000     
   2.2481979978674418E-002   6.1936390155822231E-002   0.0000000000000000     
   2.3604566577187697E-002   6.7697622833716789E-002   0.0000000000000000     
   2.4691464637571863E-002   7.3642729557811717E-002   0.0000000000000000     
   2.5742674159826937E-002   7.9771710328106968E-002   0.0000000000000000     
   1.7626459934520611E-002   5.6041033619404941E-002   0.0000000000000000     
   1.8590730530496577E-002   6.1626199894324031E-002   0.0000000000000000     
   1.9525489930914162E-002   6.7396005213524401E-002   0.0000000000000000     
   2.0430738135773369E-002   7.3350449577006038E-002   0.0000000000000000     
   2.1306475145074187E-002   7.9489532984768990E-002   0.0000000000000000     
   1.4013547180570201E-002   5.5781815081351133E-002   0.0000000000000000     
   1.4783805594922679E-002   6.1373723707212599E-002   0.0000000000000000     
   1.5530359140467350E-002   6.7150668677089284E-002   0.0000000000000000     
   1.6253207817204209E-002   7.3112649990981229E-002   0.0000000000000000     
   1.6952351625133266E-002   7.9259667648888421E-002   0.0000000000000000     
   3.4861298673767950E-002   8.0493001037155343E-002   0.0000000000000000     
   3.6209551387684467E-002   8.6765055489130813E-002   0.0000000000000000     
   3.7505880834342899E-002   9.3195437223279970E-002   0.0000000000000000     
   3.8750287013743230E-002   9.9784146239602869E-002   0.0000000000000000     
   3.9942769925885475E-002  0.10653118253809946        0.0000000000000000     
   3.0260948669391524E-002   8.0106199678902451E-002   0.0000000000000000     
   3.1442374053268315E-002   8.6393346620512901E-002   0.0000000000000000     
   3.2577764407834997E-002   9.2838626604563379E-002   0.0000000000000000     
   3.3667119733091583E-002   9.9442039631053886E-002   0.0000000000000000     
   3.4710440029038066E-002  0.10620358569998441        0.0000000000000000     
   2.5742674159826937E-002   7.9771710328106968E-002   0.0000000000000000     
   2.6756104213827066E-002   8.6071698111969713E-002   0.0000000000000000     
   2.7729663869446423E-002   9.2529825876767086E-002   0.0000000000000000     
   2.8663353126684995E-002   9.9146093622498987E-002   0.0000000000000000     
   2.9557171985542790E-002  0.10592050134916556        0.0000000000000000     
   2.1306475145074187E-002   7.9489532984768990E-002   0.0000000000000000     
   2.2150741869360752E-002   8.5800109963501250E-002   0.0000000000000000     
   2.2961579219177172E-002   9.2269035039891006E-002   0.0000000000000000     
   2.3738987194523466E-002   9.8896308213938230E-002   0.0000000000000000     
   2.4482965795399624E-002  0.10568192948564295        0.0000000000000000     
   1.6952351625133266E-002   7.9259667648888421E-002   0.0000000000000000     
   1.7626287019869336E-002   8.5578582175107526E-002   0.0000000000000000     
   1.8273510457027249E-002   9.2056254093935239E-002   0.0000000000000000     
   1.8894021936606997E-002   9.8692683405371559E-002   0.0000000000000000     
   1.9487821458608591E-002  0.10548787010941651        0.0000000000000000     
   3.9942769925885475E-002  0.10653118253809946        0.0000000000000000     
   4.1085761143017492E-002  0.11342454421002358        0.0000000000000000     
   4.2181692237387172E-002  0.12045222934662904        0.0000000000000000     
   4.3230563208994488E-002  0.12761423794791585        0.0000000000000000     
   4.4232374057839467E-002  0.13491057001388401        0.0000000000000000     
   3.4710440029038066E-002  0.10620358569998441        0.0000000000000000     
   3.5710050290627147E-002  0.11311169187095861        0.0000000000000000     
   3.6668275512811536E-002  0.12015478520358022        0.0000000000000000     
   3.7585115695591212E-002  0.12733286569784921        0.0000000000000000     
   3.8460570838966202E-002  0.13464593335376560        0.0000000000000000     
   2.9557171985542790E-002  0.10592050134916556        0.0000000000000000     
   3.0413133597310335E-002  0.11284170754239456        0.0000000000000000     
   3.1233251113278179E-002  0.11989837068781380        0.0000000000000000     
   3.2017524533446320E-002  0.12709049078542334        0.0000000000000000     
   3.2765953857814764E-002  0.13441806783522312        0.0000000000000000     
   2.4482965795399624E-002  0.10568192948564295        0.0000000000000000     
   2.5195011063067041E-002  0.11261459122433135        0.0000000000000000     
   2.5876619038787102E-002  0.11968298579932979        0.0000000000000000     
   2.6527789722559807E-002  0.12688711321063822        0.0000000000000000     
   2.7148523114385155E-002  0.13422697345825660        0.0000000000000000     
   1.9487821458608591E-002  0.10548787010941651        0.0000000000000000     
   2.0055682687897272E-002  0.11243034291676907        0.0000000000000000     
   2.0598379289338303E-002  0.11950863053812817        0.0000000000000000     
   2.1115911262931671E-002  0.12672273297349382        0.0000000000000000     
   2.1608278608677381E-002  0.13407265022286605        0.0000000000000000     
   4.4232374057839467E-002  0.13491057001388401        0.0000000000000000     
   4.5181735386834829E-002  0.14233021187696426        0.0000000000000000     
   4.6073257798893326E-002  0.14986214986958737        0.0000000000000000     
   4.6906941294014952E-002  0.15750638399175346        0.0000000000000000     
   4.7682785872199714E-002  0.16526291424346240        0.0000000000000000     
   3.8460570838966202E-002  0.13464593335376560        0.0000000000000000     
   3.9289925191622201E-002  0.14208228033580311        0.0000000000000000     
   4.0068463002244946E-002  0.14963019880843559        0.0000000000000000     
   4.0796184270834424E-002  0.15728968877166294        0.0000000000000000     
   4.1473088997390647E-002  0.16506075022548528        0.0000000000000000     
   3.2765953857814764E-002  0.13441806783522312        0.0000000000000000     
   3.3474357069887953E-002  0.14186897664523690        0.0000000000000000     
   3.4138552153170319E-002  0.14943109202348828        0.0000000000000000     
   3.4758539107661864E-002  0.15710441396997729        0.0000000000000000     
   3.5334317933362606E-002  0.16488894248470395        0.0000000000000000     
   2.7148523114385155E-002  0.13422697345825660        0.0000000000000000     
   2.7735031021632064E-002  0.14169030080526557        0.0000000000000000     
   2.8283525251669446E-002  0.14926482951474548        0.0000000000000000     
   2.8794005804497293E-002  0.15695055958669643        0.0000000000000000     
   2.9266472680115608E-002  0.16474749102111838        0.0000000000000000     
   2.1608278608677381E-002  0.13407265022286605        0.0000000000000000     
   2.2071947046854563E-002  0.14154625281588912        0.0000000000000000     
   2.2503382297742333E-002  0.14913141128220722        0.0000000000000000     
   2.2902584361340690E-002  0.15682812562182039        0.0000000000000000     
   2.3269553237649641E-002  0.16463639583472861        0.0000000000000000     
   0.0000000000000000        0.0000000000000000        0.0000000000000000     
   8.4167487972555460E-004   1.1099666414789004E-003   0.0000000000000000     
   1.7021226331131031E-003   2.5980929842911154E-003   0.0000000000000000     
   2.5813432601626456E-003   4.4643790284366464E-003   0.0000000000000000     
   3.4793367608741818E-003   6.7088247739154928E-003   0.0000000000000000     
   0.0000000000000000        0.0000000000000000        0.0000000000000000     
   6.3382343267616567E-004   1.0939626064295296E-003   0.0000000000000000     
   1.2780296743604665E-003   2.5620324608554390E-003   0.0000000000000000     
   1.9326187250529024E-003   4.4042095632777284E-003   0.0000000000000000     
   2.5975905847534734E-003   6.6204939136963971E-003   0.0000000000000000     
   0.0000000000000000        0.0000000000000000        0.0000000000000000     
   4.2426047035720867E-004   1.0825311528300232E-003   0.0000000000000000     
   8.5297824922603771E-004   2.5362749441275342E-003   0.0000000000000000     
   1.2861533366064870E-003   4.3612313738925325E-003   0.0000000000000000     
   1.7237857324985566E-003   6.5574004421250177E-003   0.0000000000000000     
   0.0000000000000000        0.0000000000000000        0.0000000000000000     
   2.1298599276868389E-004   1.0756722806803810E-003   0.0000000000000000     
   4.2696835770981696E-004   2.5208204341074006E-003   0.0000000000000000     
   6.4194709482339916E-004   4.3354444602810571E-003   0.0000000000000000     
   8.5792220410943042E-004   6.5195443592013531E-003   0.0000000000000000     
   0.0000000000000000        0.0000000000000000        0.0000000000000000     
  -8.9408759259071435E-014   1.0733859899806032E-003   0.0000000000000000     
  -1.8819575888992524E-013   2.5156689307950387E-003   0.0000000000000000     
  -2.9636097178750709E-013   4.3268488224433065E-003   0.0000000000000000     
  -4.1390445216192562E-013   6.5069256649254049E-003   0.0000000000000000     
   3.4793367608741818E-003   6.7088247739154928E-003   0.0000000000000000     
   4.3878514909097468E-003   9.2940885610261308E-003   0.0000000000000000     
   5.2986358059313740E-003   1.2182828730067038E-002   0.0000000000000000     
   6.2116897059390644E-003   1.5375045281038216E-002   0.0000000000000000     
   7.1270131909328162E-003   1.8870738213939663E-002   0.0000000000000000     
   2.5975905847534734E-003   6.6204939136963971E-003   0.0000000000000000     
   3.2699692077321407E-003   9.1779170615087849E-003   0.0000000000000000     
   3.9467785482588643E-003   1.2043510556112228E-002   0.0000000000000000     
   4.6280186063336450E-003   1.5217274397506725E-002   0.0000000000000000     
   5.3136893819564820E-003   1.8699208585692278E-002   0.0000000000000000     
   1.7237857324985566E-003   6.5574004421250177E-003   0.0000000000000000     
   2.1660331980985093E-003   9.0949374190079472E-003   0.0000000000000000     
   2.6130534946026086E-003   1.1943997574724276E-002   0.0000000000000000     
   3.0648466220108538E-003   1.5104580909274008E-002   0.0000000000000000     
   3.5214125803232459E-003   1.8576687422657143E-002   0.0000000000000000     
   8.5792220410943042E-004   6.5195443592013531E-003   0.0000000000000000     
   1.0760434620088527E-003   9.0451496335236196E-003   0.0000000000000000     
   1.2974606449626066E-003   1.1884289785903192E-002   0.0000000000000000     
   1.5221737529706927E-003   1.5036964816340072E-002   0.0000000000000000     
   1.7501827860331104E-003   1.8503174724834256E-002   0.0000000000000000     
  -4.1390445216192562E-013   6.5069256649254049E-003   0.0000000000000000     
  -5.3683019672363247E-013   9.0285537050558053E-003   0.0000000000000000     
  -6.6114224961692433E-013   1.1864387189648972E-002   0.0000000000000000     
  -7.8684050750378164E-013   1.5014426118704911E-002   0.0000000000000000     
  -9.1392507711035575E-013   1.8478670492223619E-002   0.0000000000000000     
   7.1270131909328162E-003   1.8870738213939663E-002   0.0000000000000000     
   8.0379578005197218E-003   2.2644035250821998E-002   0.0000000000000000     
   8.9378750743068745E-003   2.6669064113735857E-002   0.0000000000000000     
   9.8267650122942710E-003   3.0945824802681238E-002   0.0000000000000000     
   1.0704627614481909E-002   3.5474317317658134E-002   0.0000000000000000     
   5.3136893819564820E-003   1.8699208585692278E-002   0.0000000000000000     
   5.9968072682721916E-003   2.2461975727156362E-002   0.0000000000000000     
   6.6703886584255903E-003   2.6478238428386439E-002   0.0000000000000000     
   7.3344335524166788E-003   3.0747996689382526E-002   0.0000000000000000     
   7.9889419502454564E-003   3.5271250510144597E-002   0.0000000000000000     
   3.5214125803232459E-003   1.8576687422657143E-002   0.0000000000000000     
   3.9767641239355587E-003   2.2331933210234300E-002   0.0000000000000000     
   4.4249140072435645E-003   2.6341934367366107E-002   0.0000000000000000     
   4.8658622302472660E-003   3.0606690894052570E-002   0.0000000000000000     
   5.2996087929466622E-003   3.5126202790293680E-002   0.0000000000000000     
   1.7501827860331104E-003   1.8503174724834256E-002   0.0000000000000000     
   1.9778283675098247E-003   2.2253907700055833E-002   0.0000000000000000     
   2.2014511207607986E-003   2.6260151930674869E-002   0.0000000000000000     
   2.4210510457860325E-003   3.0521907416691387E-002   0.0000000000000000     
   2.6366281425855265E-003   3.5039174158105368E-002   0.0000000000000000     
  -9.1392507711035575E-013   1.8478670492223619E-002   0.0000000000000000     
  -1.0050097689826010E-012   2.2227899196620937E-002   0.0000000000000000     
  -1.0227090170827208E-012   2.6232891118312722E-002   0.0000000000000000     
  -9.6702219121820240E-013   3.0493646257298959E-002   0.0000000000000000     
  -8.3794993513408578E-013   3.5010164613579656E-002   0.0000000000000000     
   1.0704627614481909E-002   3.5474317317658134E-002   0.0000000000000000     
   1.1565696788078251E-002   4.0234304748883433E-002   0.0000000000000000     
   1.2404206440291745E-002   4.5205550186574031E-002   0.0000000000000000     
   1.3220156571122396E-002   5.0388053630729936E-002   0.0000000000000000     
   1.4013547180570201E-002   5.5781815081351133E-002   0.0000000000000000     
   7.9889419502454564E-003   3.5271250510144597E-002   0.0000000000000000     
   8.6306657202974181E-003   4.0028093230818955E-002   0.0000000000000000     
   9.2563567309580583E-003   4.4998618191551827E-002   0.0000000000000000     
   9.8660149822273804E-003   5.0182825392343242E-002   0.0000000000000000     
   1.0459640474105379E-002   5.5580714833193184E-002   0.0000000000000000     
   5.2996087929466622E-003   3.5126202790293680E-002   0.0000000000000000     
   5.7247058996135972E-003   3.9880799289049002E-002   0.0000000000000000     
   6.1397057545199158E-003   4.4850809623278115E-002   0.0000000000000000     
   6.5446083576656180E-003   5.0036233792981007E-002   0.0000000000000000     
   6.9394137090507037E-003   5.5437071798157690E-002   0.0000000000000000     
   2.6366281425855265E-003   3.5039174158105368E-002   0.0000000000000000     
   2.8478173260267844E-003   3.9792422923573614E-002   0.0000000000000000     
   3.0542535109773115E-003   4.4762124481752895E-002   0.0000000000000000     
   3.2559366974371086E-003   4.9948278832643245E-002   0.0000000000000000     
   3.4528668854061735E-003   5.5350885976244657E-002   0.0000000000000000     
  -8.3794993513408578E-013   3.5010164613579656E-002   0.0000000000000000     
  -4.6301656085601106E-013   3.9762964134392759E-002   0.0000000000000000     
   3.3025036698386412E-013   4.4732562766976187E-002   0.0000000000000000     
   1.5418523120584726E-012   4.9918960511329956E-002   0.0000000000000000     
   3.1717887864768368E-012   5.5322157367454050E-002   0.0000000000000000     
   1.4013547180570201E-002   5.5781815081351133E-002   0.0000000000000000     
   1.4783805594922679E-002   6.1373723707212599E-002   0.0000000000000000     
   1.5530359140467350E-002   6.7150668677089284E-002   0.0000000000000000     
   1.6253207817204209E-002   7.3112649990981229E-002   0.0000000000000000     
   1.6952351625133266E-002   7.9259667648888421E-002   0.0000000000000000     
   1.0459640474105379E-002   5.5580714833193184E-002   0.0000000000000000     
   1.1036245736082299E-002   6.1178056950720663E-002   0.0000000000000000     
   1.1594843297648377E-002   6.6960622181544666E-002   0.0000000000000000     
   1.2135433158803614E-002   7.2928410525665191E-002   0.0000000000000000     
   1.2658015319548011E-002   7.9081421983082253E-002   0.0000000000000000     
   6.9394137090507037E-003   5.5437071798157690E-002   0.0000000000000000     
   7.3230915181050106E-003   6.1038294981080980E-002   0.0000000000000000     
   7.6946114942583665E-003   6.6824874684023677E-002   0.0000000000000000     
   8.0539736375107793E-003   7.2796810906985837E-002   0.0000000000000000     
   8.4011779478622428E-003   7.8954103649967411E-002   0.0000000000000000     
   3.4528668854061735E-003   5.5350885976244657E-002   0.0000000000000000     
   3.6443429409908109E-003   6.0954437798293536E-002   0.0000000000000000     
   3.8296637302973214E-003   6.6743426184526375E-002   0.0000000000000000     
   4.0088292533257061E-003   7.2717851134943168E-002   0.0000000000000000     
   4.1818395100759647E-003   7.8877712649543880E-002   0.0000000000000000     
   3.1717887864768368E-012   5.5322157367454050E-002   0.0000000000000000     
   4.7397029877271901E-012   6.0926485402358357E-002   0.0000000000000000     
   5.7652393059201557E-012   6.6716276683052730E-002   0.0000000000000000     
   6.2483960876474204E-012   7.2691531209537183E-002   0.0000000000000000     
   6.1891746068465370E-012   7.8852248981811701E-002   0.0000000000000000     
   1.6952351625133266E-002   7.9259667648888421E-002   0.0000000000000000     
   1.7626287019869336E-002   8.5578582175107526E-002   0.0000000000000000     
   1.8273510457027249E-002   9.2056254093935239E-002   0.0000000000000000     
   1.8894021936606997E-002   9.8692683405371559E-002   0.0000000000000000     
   1.9487821458608591E-002  0.10548787010941651        0.0000000000000000     
   1.2658015319548011E-002   7.9081421983082253E-002   0.0000000000000000     
   1.3161643254953965E-002   8.5406646767728092E-002   0.0000000000000000     
   1.3645370440093875E-002   9.1891075093534932E-002   0.0000000000000000     
   1.4109196874967743E-002   9.8534706960502830E-002   0.0000000000000000     
   1.4553122559575565E-002  0.10533754236863174        0.0000000000000000     
   8.4011779478622428E-003   7.8954103649967411E-002   0.0000000000000000     
   8.7357141642157472E-003   8.5283835762302557E-002   0.0000000000000000     
   9.0570720254742835E-003   9.1773090093325377E-002   0.0000000000000000     
   9.3652515316378464E-003   9.8421866643035885E-002   0.0000000000000000     
   9.6602526827064394E-003  0.10523016541143412        0.0000000000000000     
   4.1818395100759647E-003   7.8877712649543880E-002   0.0000000000000000     
   4.3484997476546878E-003   8.5210149158830892E-002   0.0000000000000000     
   4.5086152131684713E-003   9.1702299093306530E-002   0.0000000000000000     
   4.6621859066173117E-003   9.8354162452970753E-002   0.0000000000000000     
   4.8092118280012100E-003  0.10516573923782357        0.0000000000000000     
   6.1891746068465370E-012   7.8852248981811701E-002   0.0000000000000000     
   5.2707861946527101E-012   8.5185586957313167E-002   0.0000000000000000     
   3.1764401222170169E-012   9.1678702093478406E-002   0.0000000000000000     
  -9.3861957052229772E-014   9.8331594390307392E-002   0.0000000000000000     
  -4.5401213170925825E-012  0.10514426384780018        0.0000000000000000     
   1.9487821458608591E-002  0.10548787010941651        0.0000000000000000     
   2.0055682687897272E-002  0.11243034291676907        0.0000000000000000     
   2.0598379289338303E-002  0.11950863053812817        0.0000000000000000     
   2.1115911262931671E-002  0.12672273297349382        0.0000000000000000     
   2.1608278608677381E-002  0.13407265022286605        0.0000000000000000     
   1.4553122559575565E-002  0.10533754236863174        0.0000000000000000     
   1.4977254047547650E-002  0.11228788040253192        0.0000000000000000     
   1.5381697892514300E-002  0.11937402014681354        0.0000000000000000     
   1.5766454094475513E-002  0.12659596160147665        0.0000000000000000     
   1.6131522653431291E-002  0.13395370476652119        0.0000000000000000     
   9.6602526827064394E-003  0.10523016541143412        0.0000000000000000     
   9.9418307177647890E-003  0.11218612146444426        0.0000000000000000     
   1.0209740875897622E-002  0.11927786986799059        0.0000000000000000     
   1.0463983157104942E-002  0.12650541062207307        0.0000000000000000     
   1.0704557561386746E-002  0.13386874372669169        0.0000000000000000     
   4.8092118280012100E-003  0.10516573923782357        0.0000000000000000     
   4.9494126985486879E-003  0.11212506610250610        0.0000000000000000     
   5.0825082394882707E-003  0.11922017970165925        0.0000000000000000     
   5.2084984508199541E-003  0.12645108003528313        0.0000000000000000     
   5.3273833325437414E-003  0.13381776710337762        0.0000000000000000     
  -4.5401213170925825E-012  0.10514426384780018        0.0000000000000000     
  -1.0100649483479884E-011  0.11210471431671735        0.0000000000000000     
  -1.6713757981789978E-011  0.11920094964781955        0.0000000000000000     
  -2.4379448980427210E-011  0.12643296984110675        0.0000000000000000     
  -3.3097720744668102E-011  0.13380077489657896        0.0000000000000000     
   2.1608278608677381E-002  0.13407265022286605        0.0000000000000000     
   2.2071947046854563E-002  0.14154625281588912        0.0000000000000000     
   2.2503382297742333E-002  0.14913141128220722        0.0000000000000000     
   2.2902584361340690E-002  0.15682812562182039        0.0000000000000000     
   2.3269553237649641E-002  0.16463639583472861        0.0000000000000000     
   1.6131522653431291E-002  0.13395370476652119        0.0000000000000000     
   1.6473728150235612E-002  0.14143536050977548        0.0000000000000000     
   1.6789895165742443E-002  0.14902903969906786        0.0000000000000000     
   1.7080023699951784E-002  0.15673474233439832        0.0000000000000000     
   1.7344113752863641E-002  0.16455246841576684        0.0000000000000000     
   1.0704557561386746E-002  0.13386874372669169        0.0000000000000000     
   1.0928997336455392E-002  0.14135615171959259        0.0000000000000000     
   1.1134835730023241E-002  0.14895591713852183        0.0000000000000000     
   1.1322072742090284E-002  0.15666803998347939        0.0000000000000000     
   1.1490708372656528E-002  0.16449252025446531        0.0000000000000000     
   5.3273833325437414E-003  0.13381776710337762        0.0000000000000000     
   5.4377546055139059E-003  0.14130862644534045        0.0000000000000000     
   5.5382039905847204E-003  0.14891204360056909        0.0000000000000000     
   5.6287314877561858E-003  0.15662801856906364        0.0000000000000000     
   5.7093370970283030E-003  0.16445655135082404        0.0000000000000000     
  -3.3097720744668102E-011  0.13380077489657896        0.0000000000000000     
  -4.2588848246649658E-011  0.14129278468701903        0.0000000000000000     
  -5.2573110253216482E-011  0.14889741908520973        0.0000000000000000     
  -6.3050505110960262E-011  0.15661467809115101        0.0000000000000000     
  -7.4021032359095074E-011  0.16444456170484301        0.0000000000000000     
   0.0000000000000000        0.0000000000000000        0.0000000000000000     
  -8.9408759259071435E-014   1.0733859899806032E-003   0.0000000000000000     
  -1.8819575888992524E-013   2.5156689307950387E-003   0.0000000000000000     
  -2.9636097178750709E-013   4.3268488224433065E-003   0.0000000000000000     
  -4.1390445216192562E-013   6.5069256649254049E-003   0.0000000000000000     
   0.0000000000000000        0.0000000000000000        0.0000000000000000     
  -2.1298599294403928E-004   1.0756722807293275E-003   0.0000000000000000     
  -4.2696835807959582E-004   2.5208204341892922E-003   0.0000000000000000     
  -6.4194709540666935E-004   4.3354444603798939E-003   0.0000000000000000     
  -8.5792220492526036E-004   6.5195443593011318E-003   0.0000000000000000     
   0.0000000000000000        0.0000000000000000        0.0000000000000000     
  -4.2426047052217784E-004   1.0825311529251923E-003   0.0000000000000000     
  -8.5297824957597838E-004   2.5362749442890057E-003   0.0000000000000000     
  -1.2861533371614018E-003   4.3612313740914394E-003   0.0000000000000000     
  -1.7237857332784482E-003   6.5574004423324950E-003   0.0000000000000000     
   0.0000000000000000        0.0000000000000000        0.0000000000000000     
  -6.3382343282382425E-004   1.0939626065681971E-003   0.0000000000000000     
  -1.2780296746773439E-003   2.5620324610941786E-003   0.0000000000000000     
  -1.9326187255605586E-003   4.4042095635779448E-003   0.0000000000000000     
  -2.5975905854734686E-003   6.6204939140194936E-003   0.0000000000000000     
   0.0000000000000000        0.0000000000000000        0.0000000000000000     
  -8.4167487984897833E-004   1.1099666416583426E-003   0.0000000000000000     
  -1.7021226333836916E-003   2.5980929846048115E-003   0.0000000000000000     
  -2.5813432606041397E-003   4.4643790288394066E-003   0.0000000000000000     
  -3.4793367615103227E-003   6.7088247743621295E-003   0.0000000000000000     
  -4.1390445216192562E-013   6.5069256649254049E-003   0.0000000000000000     
  -5.3683019672363247E-013   9.0285537050558053E-003   0.0000000000000000     
  -6.6114224961692433E-013   1.1864387189648972E-002   0.0000000000000000     
  -7.8684050750378164E-013   1.5014426118704911E-002   0.0000000000000000     
  -9.1392507711035575E-013   1.8478670492223619E-002   0.0000000000000000     
  -8.5792220492526036E-004   6.5195443593011318E-003   0.0000000000000000     
  -1.0760434630687204E-003   9.0451496336126456E-003   0.0000000000000000     
  -1.2974606462704027E-003   1.1884289785974066E-002   0.0000000000000000     
  -1.5221737545303069E-003   1.5036964816385393E-002   0.0000000000000000     
  -1.7501827878484335E-003   1.8503174724846635E-002   0.0000000000000000     
  -1.7237857332784482E-003   6.5574004423324950E-003   0.0000000000000000     
  -2.1660331991170006E-003   9.0949374192022849E-003   0.0000000000000000     
  -2.6130534958669406E-003   1.1943997574890917E-002   0.0000000000000000     
  -3.0648466235282685E-003   1.5104580909398396E-002   0.0000000000000000     
  -3.5214125821009866E-003   1.8576687422724714E-002   0.0000000000000000     
  -2.5975905854734686E-003   6.6204939140194936E-003   0.0000000000000000     
  -3.2699692086816702E-003   9.1779170618247231E-003   0.0000000000000000     
  -3.9467785494507572E-003   1.2043510556399531E-002   0.0000000000000000     
  -4.6280186077807279E-003   1.5217274397743907E-002   0.0000000000000000     
  -5.3136893836715849E-003   1.8699208585857861E-002   0.0000000000000000     
  -3.4793367615103227E-003   6.7088247743621295E-003   0.0000000000000000     
  -4.3878514917627294E-003   9.2940885614799656E-003   0.0000000000000000     
  -5.2986358070218490E-003   1.2182828730499902E-002   0.0000000000000000     
  -6.2116897072876818E-003   1.5375045281421935E-002   0.0000000000000000     
  -7.1270131925602279E-003   1.8870738214246070E-002   0.0000000000000000     
  -9.1392507711035575E-013   1.8478670492223619E-002   0.0000000000000000     
  -1.0050097689826010E-012   2.2227899196620937E-002   0.0000000000000000     
  -1.0227090170827208E-012   2.6232891118312722E-002   0.0000000000000000     
  -9.6702219121820240E-013   3.0493646257298959E-002   0.0000000000000000     
  -8.3794993513408578E-013   3.5010164613579656E-002   0.0000000000000000     
  -1.7501827878484335E-003   1.8503174724846635E-002   0.0000000000000000     
  -1.9778283695148185E-003   2.2253907699963660E-002   0.0000000000000000     
  -2.2014511228195008E-003   2.6260151930342344E-002   0.0000000000000000     
  -2.4210510477624789E-003   3.0521907415982687E-002   0.0000000000000000     
  -2.6366281443437525E-003   3.5039174156884699E-002   0.0000000000000000     
  -3.5214125821009866E-003   1.8576687422724714E-002   0.0000000000000000     
  -3.9767641259254747E-003   2.2331933210118018E-002   0.0000000000000000     
  -4.4249140093421185E-003   2.6341934366826438E-002   0.0000000000000000     
  -4.8658622323509166E-003   3.0606690892849980E-002   0.0000000000000000     
  -5.2996087949518681E-003   3.5126202788188635E-002   0.0000000000000000     
  -5.3136893836715849E-003   1.8699208585857861E-002   0.0000000000000000     
  -5.9968072702369793E-003   2.2461975727084020E-002   0.0000000000000000     
  -6.6703886605905616E-003   2.6478238427765002E-002   0.0000000000000000     
  -7.3344335547323352E-003   3.0747996687900816E-002   0.0000000000000000     
  -7.9889419526622957E-003   3.5271250507491463E-002   0.0000000000000000     
  -7.1270131925602279E-003   1.8870738214246070E-002   0.0000000000000000     
  -8.0379578024493310E-003   2.2644035250861654E-002   0.0000000000000000     
  -8.9378750765648322E-003   2.6669064113158031E-002   0.0000000000000000     
  -9.8267650149067350E-003   3.0945824801135214E-002   0.0000000000000000     
  -1.0704627617475038E-002   3.5474317314793183E-002   0.0000000000000000     
  -8.3794993513408578E-013   3.5010164613579656E-002   0.0000000000000000     
  -4.6301656085601106E-013   3.9762964134392759E-002   0.0000000000000000     
   3.3025036698386412E-013   4.4732562766976187E-002   0.0000000000000000     
   1.5418523120584726E-012   4.9918960511329956E-002   0.0000000000000000     
   3.1717887864768368E-012   5.5322157367454050E-002   0.0000000000000000     
  -2.6366281443437525E-003   3.5039174156884699E-002   0.0000000000000000     
  -2.8478173271017197E-003   3.9792422921737049E-002   0.0000000000000000     
  -3.0542535105747724E-003   4.4762124479228421E-002   0.0000000000000000     
  -3.2559366947629139E-003   4.9948278829358796E-002   0.0000000000000000     
  -3.4528668796661422E-003   5.5350885972128200E-002   0.0000000000000000     
  -5.2996087949518681E-003   3.5126202788188635E-002   0.0000000000000000     
  -5.7247059011352307E-003   3.9880799285837092E-002   0.0000000000000000     
  -6.1397057548912577E-003   4.4850809618790038E-002   0.0000000000000000     
  -6.5446083562199523E-003   5.0036233787047461E-002   0.0000000000000000     
  -6.9394137051213105E-003   5.5437071790609381E-002   0.0000000000000000     
  -7.9889419526622957E-003   3.5271250507491463E-002   0.0000000000000000     
  -8.6306657225635533E-003   4.0028093226692887E-002   0.0000000000000000     
  -9.2563567326192087E-003   4.4998618185661053E-002   0.0000000000000000     
  -9.8660149828292618E-003   5.0182825384395974E-002   0.0000000000000000     
  -1.0459640473193714E-002   5.5580714822897601E-002   0.0000000000000000     
  -1.0704627617475038E-002   3.5474317314793183E-002   0.0000000000000000     
  -1.1565696791386684E-002   4.0234304744304436E-002   0.0000000000000000     
  -1.2404206443758619E-002   4.5205550179841472E-002   0.0000000000000000     
  -1.3220156574590844E-002   5.0388053621404277E-002   0.0000000000000000     
  -1.4013547183883358E-002   5.5781815068992865E-002   0.0000000000000000     
   3.1717887864768368E-012   5.5322157367454050E-002   0.0000000000000000     
   4.7397029877271901E-012   6.0926485402358357E-002   0.0000000000000000     
   5.7652393059201557E-012   6.6716276683052730E-002   0.0000000000000000     
   6.2483960876474204E-012   7.2691531209537183E-002   0.0000000000000000     
   6.1891746068465370E-012   7.8852248981811701E-002   0.0000000000000000     
  -3.4528668796661422E-003   5.5350885972128200E-002   0.0000000000000000     
  -3.6443429322989885E-003   6.0954437793612926E-002   0.0000000000000000     
  -3.8296637196759816E-003   6.6743426179889306E-002   0.0000000000000000     
  -4.0088292417971242E-003   7.2717851130957301E-002   0.0000000000000000     
  -4.1818394986624140E-003   7.8877712646816922E-002   0.0000000000000000     
  -6.9394137051213105E-003   5.5437071790609381E-002   0.0000000000000000     
  -7.3230915117759397E-003   6.1038294972394776E-002   0.0000000000000000     
  -7.6946114863644458E-003   6.6824874675322610E-002   0.0000000000000000     
  -8.0539736288868288E-003   7.2796810899392911E-002   0.0000000000000000     
  -8.4011779393430921E-003   7.8954103644605630E-002   0.0000000000000000     
  -1.0459640473193714E-002   5.5580714822897601E-002   0.0000000000000000     
  -1.1036245733691151E-002   6.1178056938703873E-002   0.0000000000000000     
  -1.1594843294300154E-002   6.6960622169352682E-002   0.0000000000000000     
  -1.2135433155020723E-002   7.2928410514843972E-002   0.0000000000000000     
  -1.2658015315852859E-002   7.9081421975177799E-002   0.0000000000000000     
  -1.4013547183883358E-002   5.5781815068992865E-002   0.0000000000000000     
  -1.4783805598044625E-002   6.1373723692540252E-002   0.0000000000000000     
  -1.5530359143483104E-002   6.7150668661979482E-002   0.0000000000000000     
  -1.6253207820198800E-002   7.3112649977310540E-002   0.0000000000000000     
  -1.6952351628191715E-002   7.9259667638533454E-002   0.0000000000000000     
   6.1891746068465370E-012   7.8852248981811701E-002   0.0000000000000000     
   5.2707861946527101E-012   8.5185586957313167E-002   0.0000000000000000     
   3.1764401222170169E-012   9.1678702093478406E-002   0.0000000000000000     
  -9.3861957052229772E-014   9.8331594390307392E-002   0.0000000000000000     
  -4.5401213170925825E-012  0.10514426384780018        0.0000000000000000     
  -4.1818394986624140E-003   7.8877712646816922E-002   0.0000000000000000     
  -4.3484997379900237E-003   8.5210149157636292E-002   0.0000000000000000     
  -4.5086152074981303E-003   9.1702299093583406E-002   0.0000000000000000     
  -4.6621859071867278E-003   9.8354162454658348E-002   0.0000000000000000     
  -4.8092118370558221E-003  0.10516573924086105        0.0000000000000000     
  -8.4011779393430921E-003   7.8954103644605630E-002   0.0000000000000000     
  -8.7357141571818078E-003   8.5283835759687204E-002   0.0000000000000000     
  -9.0570720218515564E-003   9.1773090093364013E-002   0.0000000000000000     
  -9.3652515333523412E-003   9.8421866645636083E-002   0.0000000000000000     
  -9.6602526916841572E-003  0.10523016541650337        0.0000000000000000     
  -1.2658015315852859E-002   7.9081421975177799E-002   0.0000000000000000     
  -1.3161643252304565E-002   8.5406646763465960E-002   0.0000000000000000     
  -1.3645370439883847E-002   9.1891075092820226E-002   0.0000000000000000     
  -1.4109196878590699E-002   9.8534706963240640E-002   0.0000000000000000     
  -1.4553122568425128E-002  0.10533754237472713        0.0000000000000000     
  -1.6952351628191715E-002   7.9259667638533454E-002   0.0000000000000000     
  -1.7626287023358292E-002   8.5578582168972503E-002   0.0000000000000000     
  -1.8273510461594988E-002   9.2056254091951992E-002   0.0000000000000000     
  -1.8894021942901806E-002   9.8692683407471948E-002   0.0000000000000000     
  -1.9487821467278735E-002  0.10548787011553235        0.0000000000000000     
  -4.5401213170925825E-012  0.10514426384780018        0.0000000000000000     
  -1.0100649483479884E-011  0.11210471431671735        0.0000000000000000     
  -1.6713757981789978E-011  0.11920094964781955        0.0000000000000000     
  -2.4379448980427210E-011  0.12643296984110675        0.0000000000000000     
  -3.3097720744668102E-011  0.13380077489657896        0.0000000000000000     
  -4.8092118370558221E-003  0.10516573924086105        0.0000000000000000     
  -4.9494127182247438E-003  0.11212506610650388        0.0000000000000000     
  -5.0825082718128252E-003  0.11922017970589915        0.0000000000000000     
  -5.2084984978200697E-003  0.12645108003904684        0.0000000000000000     
  -5.3273833962464764E-003  0.13381776710594701        0.0000000000000000     
  -9.6602526916841572E-003  0.10523016541650337        0.0000000000000000     
  -9.9418307358651089E-003  0.11218612147129141        0.0000000000000000     
  -1.0209740904913292E-002  0.11927786987532570        0.0000000000000000     
  -1.0463983198828712E-002  0.12650541062860624        0.0000000000000000     
  -1.0704557617611365E-002  0.13386874373113303        0.0000000000000000     
  -1.4553122568425128E-002  0.10533754237472713        0.0000000000000000     
  -1.4977254063021743E-002  0.11228788041107994        0.0000000000000000     
  -1.5381697916015159E-002  0.11937402015609920        0.0000000000000000     
  -1.5766454127405374E-002  0.12659596160978487        0.0000000000000000     
  -1.6131522697192386E-002  0.13395370477213700        0.0000000000000000     
  -1.9487821467278735E-002  0.10548787011553235        0.0000000000000000     
  -2.0055682699694651E-002  0.11243034292586947        0.0000000000000000     
  -2.0598379305118427E-002  0.11950863054821963        0.0000000000000000     
  -2.1115911283550053E-002  0.12672273298258277        0.0000000000000000     
  -2.1608278634989538E-002  0.13407265022895898        0.0000000000000000     
  -3.3097720744668102E-011  0.13380077489657896        0.0000000000000000     
  -4.2588848246649658E-011  0.14129278468701903        0.0000000000000000     
  -5.2573110253216482E-011  0.14889741908520973        0.0000000000000000     
  -6.3050505110960262E-011  0.15661467809115101        0.0000000000000000     
  -7.4021032359095074E-011  0.16444456170484301        0.0000000000000000     
  -5.3273833962464764E-003  0.13381776710594701        0.0000000000000000     
  -5.4377546874091482E-003  0.14130862644462536        0.0000000000000000     
  -5.5382040916251863E-003  0.14891204359310767        0.0000000000000000     
  -5.6287316088945941E-003  0.15662801855139391        0.0000000000000000     
  -5.7093372392173639E-003  0.16445655131948417        0.0000000000000000     
  -1.0704557617611365E-002  0.13386874373113303        0.0000000000000000     
  -1.0928997408503270E-002  0.14135615171815649        0.0000000000000000     
  -1.1134835818746441E-002  0.14895591712492703        0.0000000000000000     
  -1.1322072848340877E-002  0.15666803995144477        0.0000000000000000     
  -1.1490708497286580E-002  0.16449252019770949        0.0000000000000000     
  -1.6131522697192386E-002  0.13395370477213700        0.0000000000000000     
  -1.6473728205871212E-002  0.14143536050761238        0.0000000000000000     
  -1.6789895233936866E-002  0.14902903968066789        0.0000000000000000     
  -1.7080023781389356E-002  0.15673474229130341        0.0000000000000000     
  -1.7344113848228680E-002  0.16455246833951895        0.0000000000000000     
  -2.1608278634989538E-002  0.13407265022895898        0.0000000000000000     
  -2.2071947079512981E-002  0.14154625281299310        0.0000000000000000     
  -2.2503382337196478E-002  0.14913141126033008        0.0000000000000000     
  -2.2902584408040043E-002  0.15682812557096992        0.0000000000000000     
  -2.3269553292043658E-002  0.16463639574491262        0.0000000000000000     
   0.0000000000000000        0.0000000000000000        0.0000000000000000     
  -8.4167487984897833E-004   1.1099666416583426E-003   0.0000000000000000     
  -1.7021226333836916E-003   2.5980929846048115E-003   0.0000000000000000     
  -2.5813432606041397E-003   4.4643790288394066E-003   0.0000000000000000     
  -3.4793367615103227E-003   6.7088247743621295E-003   0.0000000000000000     
   0.0000000000000000        0.0000000000000000        0.0000000000000000     
  -1.0567138437134601E-003   1.1341139787510476E-003   0.0000000000000000     
  -2.1397870921692473E-003   2.6503183659400183E-003   0.0000000000000000     
  -3.2492197453673618E-003   4.5486131615669100E-003   0.0000000000000000     
  -4.3850118033078042E-003   6.8289983656317256E-003   0.0000000000000000     
   0.0000000000000000        0.0000000000000000        0.0000000000000000     
  -1.2878393565330882E-003   1.1699753384017322E-003   0.0000000000000000     
  -2.6055530175082362E-003   2.7245704562189116E-003   0.0000000000000000     
  -3.9531409829254432E-003   4.6637853534515364E-003   0.0000000000000000     
  -5.3306032527847096E-003   6.9876200300996094E-003   0.0000000000000000     
   0.0000000000000000        0.0000000000000000        0.0000000000000000     
  -1.5350514183078631E-003   1.2175507206103964E-003   0.0000000000000000     
  -3.0994204094006573E-003   2.8208492554414920E-003   0.0000000000000000     
  -4.6931069732783839E-003   4.8098956044932860E-003   0.0000000000000000     
  -6.3161111099410399E-003   7.1846897677657791E-003   0.0000000000000000     
   0.0000000000000000        0.0000000000000000        0.0000000000000000     
  -1.7983500290377850E-003   1.2768401253770401E-003   0.0000000000000000     
  -3.6213892678465124E-003   2.9391547636077597E-003   0.0000000000000000     
  -5.4691177164261822E-003   4.9869439146921594E-003   0.0000000000000000     
  -7.3415353747767944E-003   7.4202075786302373E-003   0.0000000000000000     
  -3.4793367615103227E-003   6.7088247743621295E-003   0.0000000000000000     
  -4.3878514917627294E-003   9.2940885614799656E-003   0.0000000000000000     
  -5.2986358070218490E-003   1.2182828730499902E-002   0.0000000000000000     
  -6.2116897072876818E-003   1.5375045281421935E-002   0.0000000000000000     
  -7.1270131925602279E-003   1.8870738214246070E-002   0.0000000000000000     
  -4.3850118033078042E-003   6.8289983656317256E-003   0.0000000000000000     
  -5.5341891829893226E-003   9.4494417437891581E-003   0.0000000000000000     
  -6.6837778014106636E-003   1.2367911061693904E-002   0.0000000000000000     
  -7.8337776585718291E-003   1.5584406319345961E-002   0.0000000000000000     
  -8.9841887544728199E-003   1.9098927516745329E-002   0.0000000000000000     
  -5.3306032527847096E-003   6.9876200300996094E-003   0.0000000000000000     
  -6.7234914169905912E-003   9.6499664343734550E-003   0.0000000000000000     
  -8.1173570654476442E-003   1.2604716514483406E-002   0.0000000000000000     
  -9.5122001981558704E-003   1.5851870270429457E-002   0.0000000000000000     
  -1.0908020815115263E-002   1.9391427702211618E-002   0.0000000000000000     
  -6.3161111099410399E-003   7.1846897677657791E-003   0.0000000000000000     
  -7.9557581937665378E-003   9.8956626332328598E-003   0.0000000000000000     
  -9.5993735991327933E-003   1.2893245088868415E-002   0.0000000000000000     
  -1.1246957326039798E-002   1.6177437134672436E-002   0.0000000000000000     
  -1.2898509374487558E-002   1.9748238770644945E-002   0.0000000000000000     
  -7.3415353747767944E-003   7.4202075786302373E-003   0.0000000000000000     
  -9.2309895133171633E-003   1.0186530340367369E-002   0.0000000000000000     
  -1.1129827402466106E-002   1.3233496784848919E-002   0.0000000000000000     
  -1.3038049042223620E-002   1.6561106912074897E-002   0.0000000000000000     
  -1.4955654432589708E-002   2.0169360722045292E-002   0.0000000000000000     
  -7.1270131925602279E-003   1.8870738214246070E-002   0.0000000000000000     
  -8.0379578024493310E-003   2.2644035250861654E-002   0.0000000000000000     
  -8.9378750765648322E-003   2.6669064113158031E-002   0.0000000000000000     
  -9.8267650149067350E-003   3.0945824801135214E-002   0.0000000000000000     
  -1.0704627617475038E-002   3.5474317314793183E-002   0.0000000000000000     
  -8.9841887544728199E-003   1.9098927516745329E-002   0.0000000000000000     
  -1.0127946673047327E-002   2.2886686921133156E-002   0.0000000000000000     
  -1.1257986998229049E-002   2.6922896799750580E-002   0.0000000000000000     
  -1.2374309730017980E-002   3.1207557152597609E-002   0.0000000000000000     
  -1.3476914868414127E-002   3.5740667979674234E-002   0.0000000000000000     
  -1.0908020815115263E-002   1.9391427702211618E-002   0.0000000000000000     
  -1.2294504832515771E-002   2.3198505877580738E-002   0.0000000000000000     
  -1.3661338166547327E-002   2.7248221864287690E-002   0.0000000000000000     
  -1.5008520817209938E-002   3.1540575662332468E-002   0.0000000000000000     
  -1.6336052784503594E-002   3.6075567271715056E-002   0.0000000000000000     
  -1.2898509374487558E-002   1.9748238770644945E-002   0.0000000000000000     
  -1.4537632280854654E-002   2.3579492120204413E-002   0.0000000000000000     
  -1.6147928581519668E-002   2.7645039306769353E-002   0.0000000000000000     
  -1.7729398276482598E-002   3.1944880330339771E-002   0.0000000000000000     
  -1.9282041365743446E-002   3.6479015190915662E-002   0.0000000000000000     
  -1.4955654432589708E-002   2.0169360722045292E-002   0.0000000000000000     
  -1.6857329018063985E-002   2.4029645649004172E-002   0.0000000000000000     
  -1.8717758243146074E-002   2.8113349127195587E-002   0.0000000000000000     
  -2.0536942107835972E-002   3.2420471156619543E-002   0.0000000000000000     
  -2.2314880612133679E-002   3.6951011737276031E-002   0.0000000000000000     
  -1.0704627617475038E-002   3.5474317314793183E-002   0.0000000000000000     
  -1.1565696791386684E-002   4.0234304744304436E-002   0.0000000000000000     
  -1.2404206443758619E-002   4.5205550179841472E-002   0.0000000000000000     
  -1.3220156574590844E-002   5.0388053621404277E-002   0.0000000000000000     
  -1.4013547183883358E-002   5.5781815068992865E-002   0.0000000000000000     
  -1.3476914868414127E-002   3.5740667979674234E-002   0.0000000000000000     
  -1.4558071191780611E-002   4.0502442879462412E-002   0.0000000000000000     
  -1.5610047478480559E-002   4.5473095450444097E-002   0.0000000000000000     
  -1.6632843728513976E-002   5.0652625692619274E-002   0.0000000000000000     
  -1.7626459941880855E-002   5.6041033605987958E-002   0.0000000000000000     
  -1.6336052784503594E-002   3.6075567271715056E-002   0.0000000000000000     
  -1.7636061007921311E-002   4.0835516672957477E-002   0.0000000000000000     
  -1.8900672426956092E-002   4.5802743846581728E-002   0.0000000000000000     
  -2.0129887041607928E-002   5.0977248792587797E-002   0.0000000000000000     
  -2.1323704851876825E-002   5.6359031510975703E-002   0.0000000000000000     
  -1.9282041365743446E-002   3.6479015190915662E-002   0.0000000000000000     
  -2.0799666239808792E-002   4.1233526124789657E-002   0.0000000000000000     
  -2.2276081289185210E-002   4.6194495368254374E-002   0.0000000000000000     
  -2.3711286513872703E-002   5.1361922921309852E-002   0.0000000000000000     
  -2.5105281913871274E-002   5.6735808783956065E-002   0.0000000000000000     
  -2.2314880612133679E-002   3.6951011737276031E-002   0.0000000000000000     
  -2.4048886887443052E-002   4.1696471234958919E-002   0.0000000000000000     
  -2.5736274065167920E-002   4.6648350015462046E-002   0.0000000000000000     
  -2.7377042145308308E-002   5.1806648078785433E-002   0.0000000000000000     
  -2.8971191127864199E-002   5.7171365424929073E-002   0.0000000000000000     
  -1.4013547183883358E-002   5.5781815068992865E-002   0.0000000000000000     
  -1.4783805598044625E-002   6.1373723692540252E-002   0.0000000000000000     
  -1.5530359143483104E-002   6.7150668661979482E-002   0.0000000000000000     
  -1.6253207820198800E-002   7.3112649977310540E-002   0.0000000000000000     
  -1.6952351628191715E-002   7.9259667638533454E-002   0.0000000000000000     
  -1.7626459941880855E-002   5.6041033605987958E-002   0.0000000000000000     
  -1.8590730538954613E-002   6.1626199878112908E-002   0.0000000000000000     
  -1.9525489940108658E-002   6.7396005196556835E-002   0.0000000000000000     
  -2.0430738145343002E-002   7.3350449561319753E-002   0.0000000000000000     
  -2.1306475154657622E-002   7.9489532972401647E-002   0.0000000000000000     
  -2.1323704851876825E-002   5.6359031510975703E-002   0.0000000000000000     
  -2.2481979990539382E-002   6.1936390139630787E-002   0.0000000000000000     
  -2.3604566590372193E-002   6.7697622816438430E-002   0.0000000000000000     
  -2.4691464651375252E-002   7.3642729541398666E-002   0.0000000000000000     
  -2.5742674173548568E-002   7.9771710314511426E-002   0.0000000000000000     
  -2.5105281913871274E-002   5.6735808783956065E-002   0.0000000000000000     
  -2.6457553952798942E-002   6.2304294477093923E-002   0.0000000000000000     
  -2.7767589094273699E-002   6.8055521521624335E-002   0.0000000000000000     
  -2.9035387338295571E-002   7.3989489917547294E-002   0.0000000000000000     
  -3.0260948684864539E-002   8.0106199664862821E-002   0.0000000000000000     
  -2.8971191127864199E-002   5.7171365424929073E-002   0.0000000000000000     
  -3.0517452425733269E-002   6.2729912890502310E-002   0.0000000000000000     
  -3.2014557451813183E-002   6.8469701312114523E-002   0.0000000000000000     
  -3.3462506206103936E-002   7.4390730689765691E-002   0.0000000000000000     
  -3.4861298688605540E-002   8.0493001023455801E-002   0.0000000000000000     
  -1.6952351628191715E-002   7.9259667638533454E-002   0.0000000000000000     
  -1.7626287023358292E-002   8.5578582168972503E-002   0.0000000000000000     
  -1.8273510461594988E-002   9.2056254091951992E-002   0.0000000000000000     
  -1.8894021942901806E-002   9.8692683407471948E-002   0.0000000000000000     
  -1.9487821467278735E-002  0.10548787011553235        0.0000000000000000     
  -2.1306475154657622E-002   7.9489532972401647E-002   0.0000000000000000     
  -2.2150741878701644E-002   8.5800109955475962E-002   0.0000000000000000     
  -2.2961579228124158E-002   9.2269035036216140E-002   0.0000000000000000     
  -2.3738987202925166E-002   9.8896308214622128E-002   0.0000000000000000     
  -2.4482965803104665E-002  0.10568192949069394        0.0000000000000000     
  -2.5742674173548568E-002   7.9771710314511426E-002   0.0000000000000000     
  -2.6756104226693282E-002   8.6071698102245464E-002   0.0000000000000000     
  -2.7729663880610524E-002   9.2529825871069338E-002   0.0000000000000000     
  -2.8663353135300305E-002   9.9146093620983186E-002   0.0000000000000000     
  -2.9557171990762618E-002  0.10592050135198688        0.0000000000000000     
  -3.0260948684864539E-002   8.0106199664862821E-002   0.0000000000000000     
  -3.1442374067333183E-002   8.6393346609280927E-002   0.0000000000000000     
  -3.2577764419054071E-002   9.2838626596511709E-002   0.0000000000000000     
  -3.3667119740027202E-002   9.9442039626555123E-002   0.0000000000000000     
  -3.4710440030252573E-002  0.10620358569941118        0.0000000000000000     
  -3.4861298688605540E-002   8.0493001023455801E-002   0.0000000000000000     
  -3.6209551400621369E-002   8.6765055476582448E-002   0.0000000000000000     
  -3.7505880843454818E-002   9.3195437212543170E-002   0.0000000000000000     
  -3.8750287017105881E-002   9.9784146231337967E-002   0.0000000000000000     
  -3.9942769921574563E-002  0.10653118253296684        0.0000000000000000     
  -1.9487821467278735E-002  0.10548787011553235        0.0000000000000000     
  -2.0055682699694651E-002  0.11243034292586947        0.0000000000000000     
  -2.0598379305118427E-002  0.11950863054821963        0.0000000000000000     
  -2.1115911283550053E-002  0.12672273298258277        0.0000000000000000     
  -2.1608278634989538E-002  0.13407265022895898        0.0000000000000000     
  -2.4482965803104665E-002  0.10568192949069394        0.0000000000000000     
  -2.5195011070140522E-002  0.11261459123273172        0.0000000000000000     
  -2.5876619045510571E-002  0.11968298580903559        0.0000000000000000     
  -2.6527789729214830E-002  0.12688711321960555        0.0000000000000000     
  -2.7148523121253293E-002  0.13422697346444160        0.0000000000000000     
  -2.9557171990762618E-002  0.10592050135198688        0.0000000000000000     
  -3.0413133598616020E-002  0.11284170754873843        0.0000000000000000     
  -3.1233251110479081E-002  0.11989837069589575        0.0000000000000000     
  -3.2017524526351780E-002  0.12709049079345880        0.0000000000000000     
  -3.2765953846234132E-002  0.13441806784142765        0.0000000000000000     
  -3.4710440030252573E-002  0.10620358569941118        0.0000000000000000     
  -3.5710050285121170E-002  0.11311169187388960        0.0000000000000000     
  -3.6668275500023953E-002  0.12015478520880003        0.0000000000000000     
  -3.7585115674960916E-002  0.12733286570414254        0.0000000000000000     
  -3.8460570809932058E-002  0.13464593335991709        0.0000000000000000     
  -3.9942769921574563E-002  0.10653118253296684        0.0000000000000000     
  -4.1085761129655951E-002  0.11342454420818521        0.0000000000000000     
  -4.2181692214145174E-002  0.12045222934774850        0.0000000000000000     
  -4.3230563175042210E-002  0.12761423795165674        0.0000000000000000     
  -4.4232374012347073E-002  0.13491057001990989        0.0000000000000000     
  -2.1608278634989538E-002  0.13407265022895898        0.0000000000000000     
  -2.2071947079512981E-002  0.14154625281299310        0.0000000000000000     
  -2.2503382337196478E-002  0.14913141126033008        0.0000000000000000     
  -2.2902584408040043E-002  0.15682812557096992        0.0000000000000000     
  -2.3269553292043658E-002  0.16463639574491262        0.0000000000000000     
  -2.7148523121253293E-002  0.13422697346444160        0.0000000000000000     
  -2.7735031029015724E-002  0.14169030080232281        0.0000000000000000     
  -2.8283525259891869E-002  0.14926482949202824        0.0000000000000000     
  -2.8794005813881737E-002  0.15695055953355791        0.0000000000000000     
  -2.9266472690985326E-002  0.16474749092691177        0.0000000000000000     
  -3.2765953846234132E-002  0.13441806784142765        0.0000000000000000     
  -3.3474357053966605E-002  0.14186897664362583        0.0000000000000000     
  -3.4138552133389642E-002  0.14943109200387691        0.0000000000000000     
  -3.4758539084503277E-002  0.15710441392218091        0.0000000000000000     
  -3.5334317907307483E-002  0.16488894239853782        0.0000000000000000     
  -3.8460570809932058E-002  0.13464593335991709        0.0000000000000000     
  -3.9289925154365621E-002  0.14208228033690209        0.0000000000000000     
  -4.0068462957689829E-002  0.14963019879587608        0.0000000000000000     
  -4.0796184219904663E-002  0.15728968873683893        0.0000000000000000     
  -4.1473088941010136E-002  0.16506075015979074        0.0000000000000000     
  -4.4232374012347073E-002  0.13491057001990989        0.0000000000000000     
  -4.5181735330212781E-002  0.14233021188215164        0.0000000000000000     
  -4.6073257732792396E-002  0.14986214986802568        0.0000000000000000     
  -4.6906941220085888E-002  0.15750638397753197        0.0000000000000000     
  -4.7682785792093271E-002  0.16526291421067058        0.0000000000000000     
   0.0000000000000000        0.0000000000000000        0.0000000000000000     
  -1.7983500290377850E-003   1.2768401253770401E-003   0.0000000000000000     
  -3.6213892678465124E-003   2.9391547636077597E-003   0.0000000000000000     
  -5.4691177164261822E-003   4.9869439146921594E-003   0.0000000000000000     
  -7.3415353747767944E-003   7.4202075786302373E-003   0.0000000000000000     
   0.0000000000000000        0.0000000000000000        0.0000000000000000     
  -2.0694646280419787E-003   1.3549523108053493E-003   0.0000000000000000     
  -4.1641086004494789E-003   3.0939912531817099E-003   0.0000000000000000     
  -6.2839319172225024E-003   5.2171168271290822E-003   0.0000000000000000     
  -8.4289345783610456E-003   7.7243290326474666E-003   0.0000000000000000     
   0.0000000000000000        0.0000000000000000        0.0000000000000000     
  -2.3401246546395703E-003   1.4589960349990095E-003   0.0000000000000000     
  -4.7202274148132389E-003   3.2998629966273377E-003   0.0000000000000000     
  -7.1403082805210072E-003   5.5226008848849838E-003   0.0000000000000000     
  -9.6003672517628730E-003   8.1272096997719468E-003   0.0000000000000000     
   0.0000000000000000        0.0000000000000000        0.0000000000000000     
  -2.6103301088305588E-003   1.5889712979580220E-003   0.0000000000000000     
  -5.2897457109377915E-003   3.5567699939446427E-003   0.0000000000000000     
  -8.0382468063216941E-003   5.9033960879598616E-003   0.0000000000000000     
  -1.0855833394982275E-002   8.6288495800036797E-003   0.0000000000000000     
   0.0000000000000000        0.0000000000000000        0.0000000000000000     
  -2.8800809906149457E-003   1.7448780996823852E-003   0.0000000000000000     
  -5.8726634888231358E-003   3.8647122451336250E-003   0.0000000000000000     
  -8.9777474946245699E-003   6.3595024363537183E-003   0.0000000000000000     
  -1.2195333008019248E-002   9.2292486733426670E-003   0.0000000000000000     
  -7.3415353747767944E-003   7.4202075786302373E-003   0.0000000000000000     
  -9.2309895133171633E-003   1.0186530340367369E-002   0.0000000000000000     
  -1.1129827402466106E-002   1.3233496784848919E-002   0.0000000000000000     
  -1.3038049042223620E-002   1.6561106912074897E-002   0.0000000000000000     
  -1.4955654432589708E-002   2.0169360722045292E-002   0.0000000000000000     
  -8.4289345783610456E-003   7.7243290326474666E-003   0.0000000000000000     
  -1.0590819497738822E-002   1.0558204211458680E-002   0.0000000000000000     
  -1.2761289589229537E-002   1.3661318705284543E-002   0.0000000000000000     
  -1.4940344852833189E-002   1.7033672514125058E-002   0.0000000000000000     
  -1.7127985288549783E-002   2.0675265637980219E-002   0.0000000000000000     
  -9.6003672517628730E-003   8.1272096997719468E-003   0.0000000000000000     
  -1.2076882269127873E-002   1.1046318902188495E-002   0.0000000000000000     
  -1.4546331273205034E-002   1.4212557953034900E-002   0.0000000000000000     
  -1.7008714263994366E-002   1.7625926852311156E-002   0.0000000000000000     
  -1.9464031241495858E-002   2.1286425600017263E-002   0.0000000000000000     
  -1.0855833394982275E-002   8.6288495800036797E-003   0.0000000000000000     
  -1.3689177827484312E-002   1.1650874412556817E-002   0.0000000000000000     
  -1.6484952454392604E-002   1.4887214528099985E-002   0.0000000000000000     
  -1.9243157275707141E-002   1.8337869926633190E-002   0.0000000000000000     
  -2.1963792291427930E-002   2.2002840608156424E-002   0.0000000000000000     
  -1.2195333008019248E-002   9.2292486733426670E-003   0.0000000000000000     
  -1.5427706172808147E-002   1.2371870742563637E-002   0.0000000000000000     
  -1.8577153132792238E-002   1.5685288430479800E-002   0.0000000000000000     
  -2.1643673887971525E-002   1.9169501737091157E-002   0.0000000000000000     
  -2.4627268438346006E-002   2.2824510662397705E-002   0.0000000000000000     
  -1.4955654432589708E-002   2.0169360722045292E-002   0.0000000000000000     
  -1.6857329018063985E-002   2.4029645649004172E-002   0.0000000000000000     
  -1.8717758243146074E-002   2.8113349127195587E-002   0.0000000000000000     
  -2.0536942107835972E-002   3.2420471156619543E-002   0.0000000000000000     
  -2.2314880612133679E-002   3.6951011737276031E-002   0.0000000000000000     
  -1.7127985288549783E-002   2.0675265637980219E-002   0.0000000000000000     
  -1.9292988461530960E-002   2.4558412733430273E-002   0.0000000000000000     
  -2.1404131936928389E-002   2.8655428457055463E-002   0.0000000000000000     
  -2.3461415714742053E-002   3.2966312808855786E-002   0.0000000000000000     
  -2.5464839794971959E-002   3.7491065788831240E-002   0.0000000000000000     
  -1.9464031241495858E-002   2.1286425600017263E-002   0.0000000000000000     
  -2.1884004028642792E-002   2.5175239642932987E-002   0.0000000000000000     
  -2.4240354448368456E-002   2.9273554427838074E-002   0.0000000000000000     
  -2.6533082500672839E-002   3.3581369954732522E-002   0.0000000000000000     
  -2.8762188185555950E-002   3.8098686223616333E-002   0.0000000000000000     
  -2.1963792291427930E-002   2.2002840608156424E-002   0.0000000000000000     
  -2.4630375719399470E-002   2.5880126377512299E-002   0.0000000000000000     
  -2.7226425777466277E-002   2.9967727039543410E-002   0.0000000000000000     
  -2.9751942465628331E-002   3.4265642594249753E-002   0.0000000000000000     
  -3.2206925783885655E-002   3.8773873041631324E-002   0.0000000000000000     
  -2.4627268438346006E-002   2.2824510662397705E-002   0.0000000000000000     
  -2.7532103533801002E-002   2.6673072937168221E-002   0.0000000000000000     
  -3.0362345924221847E-002   3.0737946292171477E-002   0.0000000000000000     
  -3.3117995609608541E-002   3.5019130727407470E-002   0.0000000000000000     
  -3.5799052589961078E-002   3.9516626242876211E-002   0.0000000000000000     
  -2.2314880612133679E-002   3.6951011737276031E-002   0.0000000000000000     
  -2.4048886887443052E-002   4.1696471234958919E-002   0.0000000000000000     
  -2.5736274065167920E-002   4.6648350015462046E-002   0.0000000000000000     
  -2.7377042145308308E-002   5.1806648078785433E-002   0.0000000000000000     
  -2.8971191127864199E-002   5.7171365424929073E-002   0.0000000000000000     
  -2.5464839794971959E-002   3.7491065788831240E-002   0.0000000000000000     
  -2.7415191560971990E-002   4.2225797741080373E-002   0.0000000000000000     
  -2.9313258396096022E-002   4.7166619009701739E-002   0.0000000000000000     
  -3.1159040300344065E-002   5.2313529594695332E-002   0.0000000000000000     
  -3.2952537273716109E-002   5.7666529496061145E-002   0.0000000000000000     
  -2.8762188185555950E-002   3.8098686223616333E-002   0.0000000000000000     
  -3.0930048870543528E-002   4.2822951380769109E-002   0.0000000000000000     
  -3.3039041923161323E-002   4.7751613572470444E-002   0.0000000000000000     
  -3.5089167343409312E-002   5.2884672798720313E-002   0.0000000000000000     
  -3.7080425131287530E-002   5.8222129059518728E-002   0.0000000000000000     
  -3.2206925783885655E-002   3.8773873041631324E-002   0.0000000000000000     
  -3.4593458816157670E-002   4.3487932154025126E-002   0.0000000000000000     
  -3.6913624646363809E-002   4.8403333703768141E-002   0.0000000000000000     
  -3.9167423274504072E-002   5.3520077690860368E-002   0.0000000000000000     
  -4.1354854700578446E-002   5.8838164115301815E-002   0.0000000000000000     
  -3.5799052589961078E-002   3.9516626242876211E-002   0.0000000000000000     
  -3.8405421397814409E-002   4.4220740060848432E-002   0.0000000000000000     
  -4.0937006565703489E-002   4.9121779403594870E-002   0.0000000000000000     
  -4.3393808093628305E-002   5.4219744271115519E-002   0.0000000000000000     
  -4.5775825981588872E-002   5.9514634663410393E-002   0.0000000000000000     
  -2.8971191127864199E-002   5.7171365424929073E-002   0.0000000000000000     
  -3.0517452425733269E-002   6.2729912890502310E-002   0.0000000000000000     
  -3.2014557451813183E-002   6.8469701312114523E-002   0.0000000000000000     
  -3.3462506206103936E-002   7.4390730689765691E-002   0.0000000000000000     
  -3.4861298688605540E-002   8.0493001023455801E-002   0.0000000000000000     
  -3.2952537273716109E-002   5.7666529496061145E-002   0.0000000000000000     
  -3.4691914467557018E-002   6.3212573709790373E-002   0.0000000000000000     
  -3.6375337033211649E-002   6.8938617231874194E-002   0.0000000000000000     
  -3.8002804970679996E-002   7.4844660062312593E-002   0.0000000000000000     
  -3.9574318279962051E-002   8.0930702201105570E-002   0.0000000000000000     
  -3.7080425131287530E-002   5.8222129059518728E-002   0.0000000000000000     
  -3.9011179136484823E-002   6.3751605264892541E-002   0.0000000000000000     
  -4.0879793208690098E-002   6.9460724324868550E-002   0.0000000000000000     
  -4.2686267347903331E-002   7.5349486239446803E-002   0.0000000000000000     
  -4.4430601554124559E-002   8.1417891008627286E-002   0.0000000000000000     
  -4.1354854700578446E-002   5.8838164115301815E-002   0.0000000000000000     
  -4.3475246432516698E-002   6.4347007555808799E-002   0.0000000000000000     
  -4.5527925978248542E-002   7.0036022591097660E-002   0.0000000000000000     
  -4.7512893337774004E-002   7.5905209221168363E-002   0.0000000000000000     
  -4.9430148511093057E-002   8.1954567446020921E-002   0.0000000000000000     
  -4.5775825981588872E-002   5.9514634663410393E-002   0.0000000000000000     
  -4.8084116355652622E-002   6.4998780582539134E-002   0.0000000000000000     
  -5.0319735341886988E-002   7.0664512030561399E-002   0.0000000000000000     
  -5.2482682940291965E-002   7.6511829007477203E-002   0.0000000000000000     
  -5.4572959150867531E-002   8.2540731513286530E-002   0.0000000000000000     
  -3.4861298688605540E-002   8.0493001023455801E-002   0.0000000000000000     
  -3.6209551400621369E-002   8.6765055476582448E-002   0.0000000000000000     
  -3.7505880843454818E-002   9.3195437212543170E-002   0.0000000000000000     
  -3.8750287017105881E-002   9.9784146231337967E-002   0.0000000000000000     
  -3.9942769921574563E-002  0.10653118253296684        0.0000000000000000     
  -3.9574318279962051E-002   8.0930702201105570E-002   0.0000000000000000     
  -4.1088997730058398E-002   8.7185971512556734E-002   0.0000000000000000     
  -4.2545964089969586E-002   9.3599695860969709E-002   0.0000000000000000     
  -4.3945217359695636E-002  0.10017187524634448        0.0000000000000000     
  -4.5286757539236520E-002  0.10690250966868102        0.0000000000000000     
  -4.4430601554124559E-002   8.1417891008627286E-002   0.0000000000000000     
  -4.6112074559144817E-002   8.7655241525610564E-002   0.0000000000000000     
  -4.7729965094755217E-002   9.4050840683597273E-002   0.0000000000000000     
  -4.9284273160955752E-002  0.10060468848258736        0.0000000000000000     
  -5.0774998757746409E-002  0.10731678492258091        0.0000000000000000     
  -4.9430148511093057E-002   8.1954567446020921E-002   0.0000000000000000     
  -5.1278781887880640E-002   8.8172865515743909E-002   0.0000000000000000     
  -5.3057883857811704E-002   9.4548871680425833E-002   0.0000000000000000     
  -5.4767454420886243E-002  0.10108258594006668        0.0000000000000000     
  -5.6407493577104242E-002  0.10777400829466648        0.0000000000000000     
  -5.4572959150867531E-002   8.2540731513286530E-002   0.0000000000000000     
  -5.6589119716265859E-002   8.8738843482956783E-002   0.0000000000000000     
  -5.8529720379139047E-002   9.5093788851455419E-002   0.0000000000000000     
  -6.0394761139487094E-002  0.10160556761878239        0.0000000000000000     
  -6.2184241997310014E-002  0.10827417978493777        0.0000000000000000     
  -3.9942769921574563E-002  0.10653118253296684        0.0000000000000000     
  -4.1085761129655951E-002  0.11342454420818521        0.0000000000000000     
  -4.2181692214145174E-002  0.12045222934774850        0.0000000000000000     
  -4.3230563175042210E-002  0.12761423795165674        0.0000000000000000     
  -4.4232374012347073E-002  0.13491057001990989        0.0000000000000000     
  -4.5286757539236520E-002  0.10690250966868102        0.0000000000000000     
  -4.6573068435117812E-002  0.11377923329420854        0.0000000000000000     
  -4.7806633853865077E-002  0.12078968028915622        0.0000000000000000     
  -4.8987453795478308E-002  0.12793385065352406        0.0000000000000000     
  -5.0115528259957513E-002  0.13521174438731201        0.0000000000000000     
  -5.0774998757746409E-002  0.10731678492258091        0.0000000000000000     
  -5.2204774504404167E-002  0.11417472787454284        0.0000000000000000     
  -5.3576233020205970E-002  0.12116611520943825        0.0000000000000000     
  -5.4889374305151839E-002  0.12829094692726709        0.0000000000000000     
  -5.6144198359241747E-002  0.13554922302802935        0.0000000000000000     
  -5.6407493577104242E-002  0.10777400829466648        0.0000000000000000     
  -5.7980879337515015E-002  0.11461102794918812        0.0000000000000000     
  -5.9490489713167866E-002  0.12158153410859458        0.0000000000000000     
  -6.0936324704062773E-002  0.12868552677288586        0.0000000000000000     
  -6.2318384310199766E-002  0.13592300594206194        0.0000000000000000     
  -6.2184241997310014E-002  0.10827417978493777        0.0000000000000000     
  -6.3901382934450371E-002  0.11508813351814440        0.0000000000000000     
  -6.5549403932750744E-002  0.12203593698662528        0.0000000000000000     
  -6.7128304992211146E-002  0.12911759019038038        0.0000000000000000     
  -6.8638086112831564E-002  0.13633309312940967        0.0000000000000000     
  -4.4232374012347073E-002  0.13491057001990989        0.0000000000000000     
  -4.5181735330212781E-002  0.14233021188215164        0.0000000000000000     
  -4.6073257732792396E-002  0.14986214986802568        0.0000000000000000     
  -4.6906941220085888E-002  0.15750638397753197        0.0000000000000000     
  -4.7682785792093271E-002  0.16526291421067058        0.0000000000000000     
  -5.0115528259957513E-002  0.13521174438731201        0.0000000000000000     
  -5.1184806089386158E-002  0.14261249840618295        0.0000000000000000     
  -5.2189236125847700E-002  0.15012524962579959        0.0000000000000000     
  -5.3128818369342155E-002  0.15774999804616205        0.0000000000000000     
  -5.4003552819869509E-002  0.16548674366727018        0.0000000000000000     
  -5.6144198359241747E-002  0.13554922302802935        0.0000000000000000     
  -5.7334155939763799E-002  0.14292886703580443        0.0000000000000000     
  -5.8452697804006096E-002  0.15041780247467165        0.0000000000000000     
  -5.9499823951968636E-002  0.15801602934463099        0.0000000000000000     
  -6.0475534383651421E-002  0.16572354764568245        0.0000000000000000     
  -6.2318384310199766E-002  0.13592300594206194        0.0000000000000000     
  -6.3629784881345741E-002  0.14327931777101610        0.0000000000000000     
  -6.4863642767267596E-002  0.15073980841464177        0.0000000000000000     
  -6.6019957967965365E-002  0.15830447787293889        0.0000000000000000     
  -6.7098730483439034E-002  0.16597332614590746        0.0000000000000000     
  -6.8638086112831564E-002  0.13633309312940967        0.0000000000000000     
  -7.0071692914131956E-002  0.14366385061181797        0.0000000000000000     
  -7.1422071015632194E-002  0.15109126744570997        0.0000000000000000     
  -7.2689220417332320E-002  0.15861534363108565        0.0000000000000000     
  -7.3873141119232322E-002  0.16623607916794511        0.0000000000000000     
   0.0000000000000000        0.0000000000000000        0.0000000000000000     
  -2.8800809906149457E-003   1.7448780996823852E-003   0.0000000000000000     
  -5.8726634888231358E-003   3.8647122451336250E-003   0.0000000000000000     
  -8.9777474946245699E-003   6.3595024363537183E-003   0.0000000000000000     
  -1.2195333008019248E-002   9.2292486733426670E-003   0.0000000000000000     
   0.0000000000000000        0.0000000000000000        0.0000000000000000     
  -3.2832172242209358E-003   1.9993847278967410E-003   0.0000000000000000     
  -6.6769606015854212E-003   4.3310108676692608E-003   0.0000000000000000     
  -1.0181230132093455E-002   6.9948784193175585E-003   0.0000000000000000     
  -1.3796025815745039E-002   9.9909873828416332E-003   0.0000000000000000     
   0.0000000000000000        0.0000000000000000        0.0000000000000000     
  -3.9535787338767347E-003   2.4251594703257307E-003   0.0000000000000000     
  -7.9106169023407946E-003   5.0629869790265267E-003   0.0000000000000000     
  -1.1871114505392182E-002   7.9134825261023885E-003   0.0000000000000000     
  -1.5835071543030894E-002   1.0976646111553318E-002   0.0000000000000000     
   0.0000000000000000        0.0000000000000000        0.0000000000000000     
  -4.8911655195823436E-003   3.0222023269693538E-003   0.0000000000000000     
  -9.5736323910892585E-003   6.0606405792054240E-003   0.0000000000000000     
  -1.4047400614520747E-002   9.1153147567082111E-003   0.0000000000000000     
  -1.8312470189876806E-002   1.2186224859477714E-002   0.0000000000000000     
   0.0000000000000000        0.0000000000000000        0.0000000000000000     
  -6.0959775813377599E-003   3.7905132978276104E-003   0.0000000000000000     
  -1.1666007067830811E-002   7.3239716682059501E-003   0.0000000000000000     
  -1.6710088459479151E-002   1.0600375111135020E-002   0.0000000000000000     
  -2.1228221756282785E-002   1.3619723626614821E-002   0.0000000000000000     
  -1.2195333008019248E-002   9.2292486733426670E-003   0.0000000000000000     
  -1.5427706172808147E-002   1.2371870742563637E-002   0.0000000000000000     
  -1.8577153132792238E-002   1.5685288430479800E-002   0.0000000000000000     
  -2.1643673887971525E-002   1.9169501737091157E-002   0.0000000000000000     
  -2.4627268438346006E-002   2.2824510662397705E-002   0.0000000000000000     
  -1.3796025815745039E-002   9.9909873828416332E-003   0.0000000000000000     
  -1.7404288070107150E-002   1.3221334423627756E-002   0.0000000000000000     
  -2.0888957312746773E-002   1.6587916207062178E-002   0.0000000000000000     
  -2.4250033543663903E-002   2.0090732733144913E-002   0.0000000000000000     
  -2.7487516762858533E-002   2.3729784001875951E-002   0.0000000000000000     
  -1.5835071543030894E-002   1.0976646111553318E-002   0.0000000000000000     
  -1.9730744284389114E-002   1.4211291987167958E-002   0.0000000000000000     
  -2.3486388998599037E-002   1.7576234404734953E-002   0.0000000000000000     
  -2.7102005685660655E-002   2.1071473364254304E-002   0.0000000000000000     
  -3.0577594345573979E-002   2.4697008865726015E-002   0.0000000000000000     
  -1.8312470189876806E-002   1.2186224859477714E-002   0.0000000000000000     
  -2.2407074815654040E-002   1.5341743433184245E-002   0.0000000000000000     
  -2.6369448190349028E-002   1.8650243023498117E-002   0.0000000000000000     
  -3.0199590313961803E-002   2.2111723630419335E-002   0.0000000000000000     
  -3.3897501186492332E-002   2.5726185253947893E-002   0.0000000000000000     
  -2.1228221756282785E-002   1.3619723626614821E-002   0.0000000000000000     
  -2.5433279663901916E-002   1.6612688761676618E-002   0.0000000000000000     
  -2.9538134887996764E-002   1.9809942063351679E-002   0.0000000000000000     
  -3.3542787428567325E-002   2.3211483531640001E-002   0.0000000000000000     
  -3.7447237285613597E-002   2.6817313166541585E-002   0.0000000000000000     
  -2.4627268438346006E-002   2.2824510662397705E-002   0.0000000000000000     
  -2.7532103533801002E-002   2.6673072937168221E-002   0.0000000000000000     
  -3.0362345924221847E-002   3.0737946292171477E-002   0.0000000000000000     
  -3.3117995609608541E-002   3.5019130727407470E-002   0.0000000000000000     
  -3.5799052589961078E-002   3.9516626242876211E-002   0.0000000000000000     
  -2.7487516762858533E-002   2.3729784001875951E-002   0.0000000000000000     
  -3.0624384204502510E-002   2.7547648618306855E-002   0.0000000000000000     
  -3.3683613102767650E-002   3.1586905187489155E-002   0.0000000000000000     
  -3.6665203457653964E-002   3.5847553709422879E-002   0.0000000000000000     
  -3.9569155269161438E-002   4.0329594184108010E-002   0.0000000000000000     
  -3.0577594345573979E-002   2.4697008865726015E-002   0.0000000000000000     
  -3.3942414464159104E-002   2.8497422717334284E-002   0.0000000000000000     
  -3.7225725527236152E-002   3.2517296727263320E-002   0.0000000000000000     
  -4.0427527534805122E-002   3.6756630895513141E-002   0.0000000000000000     
  -4.3547820486866007E-002   4.1215425222083719E-002   0.0000000000000000     
  -3.3897501186492332E-002   2.5726185253947893E-002   0.0000000000000000     
  -3.7486194312770796E-002   2.9522395234250522E-002   0.0000000000000000     
  -4.0988683197627343E-002   3.3529120911493987E-002   0.0000000000000000     
  -4.4404967841062001E-002   3.7746362285678250E-002   0.0000000000000000     
  -4.7735048243074764E-002   4.2174119356803340E-002   0.0000000000000000     
  -3.7447237285613597E-002   2.6817313166541585E-002   0.0000000000000000     
  -4.1255723750337571E-002   3.0622566169055579E-002   0.0000000000000000     
  -4.4972486113941244E-002   3.4622377740181128E-002   0.0000000000000000     
  -4.8597524376424624E-002   3.8816747879918234E-002   0.0000000000000000     
  -5.2130838537787688E-002   4.3205676588266892E-002   0.0000000000000000     
  -3.5799052589961078E-002   3.9516626242876211E-002   0.0000000000000000     
  -3.8405421397814409E-002   4.4220740060848432E-002   0.0000000000000000     
  -4.0937006565703489E-002   4.9121779403594870E-002   0.0000000000000000     
  -4.3393808093628305E-002   5.4219744271115519E-002   0.0000000000000000     
  -4.5775825981588872E-002   5.9514634663410393E-002   0.0000000000000000     
  -3.9569155269161438E-002   4.0329594184108010E-002   0.0000000000000000     
  -4.2392889122471931E-002   4.5019142133321449E-002   0.0000000000000000     
  -4.5133825602767241E-002   4.9902313078840112E-002   0.0000000000000000     
  -4.7791964710047388E-002   5.4979107020663998E-002   0.0000000000000000     
  -5.0367306444312372E-002   6.0249523958793100E-002   0.0000000000000000     
  -4.3547820486866007E-002   4.1215425222083719E-002   0.0000000000000000     
  -4.6582814497088419E-002   4.5880905403526615E-002   0.0000000000000000     
  -4.9528719679141978E-002   5.0740297136393393E-002   0.0000000000000000     
  -5.2385536033026668E-002   5.5793600420684042E-002   0.0000000000000000     
  -5.5153263558742512E-002   6.1040815256398574E-002   0.0000000000000000     
  -4.7735048243074764E-002   4.2174119356803340E-002   0.0000000000000000     
  -5.0975197521663886E-002   4.6806029871463928E-002   0.0000000000000000     
  -5.4121688794827684E-002   5.1635731576254708E-002   0.0000000000000000     
  -5.7174522062566152E-002   5.6663224471175659E-002   0.0000000000000000     
  -6.0133697324879290E-002   6.1888508556226803E-002   0.0000000000000000     
  -5.2130838537787688E-002   4.3205676588266892E-002   0.0000000000000000     
  -5.5570038196198324E-002   4.7794515537133396E-002   0.0000000000000000     
  -5.8912732949824360E-002   5.2588616398424055E-002   0.0000000000000000     
  -6.2158922798665819E-002   5.7587979172138849E-002   0.0000000000000000     
  -6.5308607742722694E-002   6.2792603858277785E-002   0.0000000000000000     
  -4.5775825981588872E-002   5.9514634663410393E-002   0.0000000000000000     
  -4.8084116355652622E-002   6.4998780582539134E-002   0.0000000000000000     
  -5.0319735341886988E-002   7.0664512030561399E-002   0.0000000000000000     
  -5.2482682940291965E-002   7.6511829007477203E-002   0.0000000000000000     
  -5.4572959150867531E-002   8.2540731513286530E-002   0.0000000000000000     
  -5.0367306444312372E-002   6.0249523958793100E-002   0.0000000000000000     
  -5.2862560858308427E-002   6.5708090229679522E-002   0.0000000000000000     
  -5.5280438004781780E-002   7.1349332169775348E-002   0.0000000000000000     
  -5.7620937883732432E-002   7.7173249779080536E-002   0.0000000000000000     
  -5.9884060495160388E-002   8.3179843057595154E-002   0.0000000000000000     
  -5.5153263558742512E-002   6.1040815256398574E-002   0.0000000000000000     
  -5.7835351892899907E-002   6.6476102381825886E-002   0.0000000000000000     
  -6.0435250672109295E-002   7.2093622535254878E-002   0.0000000000000000     
  -6.2952959896370661E-002   7.7893375716685545E-002   0.0000000000000000     
  -6.5388479565683985E-002   8.3875361926117914E-002   0.0000000000000000     
  -6.0133697324879290E-002   6.1888508556226803E-002   0.0000000000000000     
  -6.3002489459427075E-002   6.7302817038978210E-002   0.0000000000000000     
  -6.5784173343869531E-002   7.2897383127000018E-002   0.0000000000000000     
  -6.8478748978206633E-002   7.8672206820292218E-002   0.0000000000000000     
  -7.1086216362438351E-002   8.4627288118854782E-002   0.0000000000000000     
  -6.5308607742722694E-002   6.2792603858277785E-002   0.0000000000000000     
  -6.8363973557889923E-002   6.8188234201136538E-002   0.0000000000000000     
  -7.1327206020062470E-002   7.3760613945010781E-002   0.0000000000000000     
  -7.4198305129240319E-002   7.9509743089900539E-002   0.0000000000000000     
  -7.6977270885423457E-002   8.5435621635805772E-002   0.0000000000000000     
  -5.4572959150867531E-002   8.2540731513286530E-002   0.0000000000000000     
  -5.6589119716265859E-002   8.8738843482956783E-002   0.0000000000000000     
  -5.8529720379139047E-002   9.5093788851455419E-002   0.0000000000000000     
  -6.0394761139487094E-002  0.10160556761878239        0.0000000000000000     
  -6.2184241997310014E-002  0.10827417978493777        0.0000000000000000     
  -5.9884060495160388E-002   8.3179843057595154E-002   0.0000000000000000     
  -6.2067681107665987E-002   8.9355890054994891E-002   0.0000000000000000     
  -6.4169674989849573E-002   9.5688168820955516E-002   0.0000000000000000     
  -6.6190042141711106E-002  0.10217667935547699        0.0000000000000000     
  -6.8128782563250626E-002  0.10882142165855938        0.0000000000000000     
  -6.5388479565683985E-002   8.3875361926117914E-002   0.0000000000000000     
  -6.7739059125446574E-002   9.0026719859603921E-002   0.0000000000000000     
  -7.0001948021055582E-002   9.6334588213195599E-002   0.0000000000000000     
  -7.2177146252511079E-002  0.10279896698689296        0.0000000000000000     
  -7.4264653819812995E-002  0.10941985618069598        0.0000000000000000     
  -7.1086216362438351E-002   8.4627288118854782E-002   0.0000000000000000     
  -7.3603253769607593E-002   9.0751332896783887E-002   0.0000000000000000     
  -7.6026539472757143E-002   9.7033047028175751E-002   0.0000000000000000     
  -7.8356073471886972E-002  0.10347243051303028        0.0000000000000000     
  -8.0591855766997109E-002  0.11006948335134753        0.0000000000000000     
  -7.6977270885423457E-002   8.5435621635805772E-002   0.0000000000000000     
  -7.9660265040149031E-002   9.1529729166534776E-002   0.0000000000000000     
  -8.2243449344954145E-002   9.7783545265895833E-002   0.0000000000000000     
  -8.4726823799838799E-002  0.10419706993388891        0.0000000000000000     
  -8.7110388404803007E-002  0.11077030317051406        0.0000000000000000     
  -6.2184241997310014E-002  0.10827417978493777        0.0000000000000000     
  -6.3901382934450371E-002  0.11508813351814440        0.0000000000000000     
  -6.5549403932750744E-002  0.12203593698662528        0.0000000000000000     
  -6.7128304992211146E-002  0.12911759019038038        0.0000000000000000     
  -6.8638086112831564E-002  0.13633309312940967        0.0000000000000000     
  -6.8128782563250626E-002  0.10882142165855938        0.0000000000000000     
  -6.9989522660137277E-002  0.11561137626600058        0.0000000000000000     
  -7.1775888838040230E-002  0.12253552371359856        0.0000000000000000     
  -7.3487881096959515E-002  0.12959386400135334        0.0000000000000000     
  -7.5125499436895074E-002  0.13678639712926488        0.0000000000000000     
  -7.4264653819812995E-002  0.10941985618069598        0.0000000000000000     
  -7.6268535879502830E-002  0.11618608787734556        0.0000000000000000     
  -7.8192857588121945E-002  0.12308649415958273        0.0000000000000000     
  -8.0037618945670408E-002  0.13012107502740747        0.0000000000000000     
  -8.1802819952148151E-002  0.13728983048081977        0.0000000000000000     
  -8.0591855766997109E-002  0.11006948335134753        0.0000000000000000     
  -8.2738422592546976E-002  0.11681226835217939        0.0000000000000000     
  -8.4800310182995872E-002  0.12368884832457784        0.0000000000000000     
  -8.6777518538343812E-002  0.13069922326854277        0.0000000000000000     
  -8.8670047658590836E-002  0.13784339318407432        0.0000000000000000     
  -8.7110388404803007E-002  0.11077030317051406        0.0000000000000000     
  -8.9399182799269741E-002  0.11748991769050207        0.0000000000000000     
  -9.1598246622661986E-002  0.12434258620858382        0.0000000000000000     
  -9.3707579874979796E-002  0.13132830872475931        0.0000000000000000     
  -9.5727182556223089E-002  0.13844708523902854        0.0000000000000000     
  -6.8638086112831564E-002  0.13633309312940967        0.0000000000000000     
  -7.0071692914131956E-002  0.14366385061181797        0.0000000000000000     
  -7.1422071015632194E-002  0.15109126744570997        0.0000000000000000     
  -7.2689220417332320E-002  0.15861534363108565        0.0000000000000000     
  -7.3873141119232322E-002  0.16623607916794511        0.0000000000000000     
  -7.5125499436895074E-002  0.13678639712926488        0.0000000000000000     
  -7.6681893630489759E-002  0.14409281658574533        0.0000000000000000     
  -7.8150213450386377E-002  0.15149281585920679        0.0000000000000000     
  -7.9530458896584971E-002  0.15898639494964928        0.0000000000000000     
  -8.0822629969085485E-002  0.16657355385707273        0.0000000000000000     
  -8.1802819952148151E-002  0.13728983048081977        0.0000000000000000     
  -8.3482400622786487E-002  0.14457656672033356        0.0000000000000000     
  -8.5070300972816704E-002  0.15196508994646285        0.0000000000000000     
  -8.6566521002238758E-002  0.15945540015920753        0.0000000000000000     
  -8.7971060711052651E-002  0.16704749735856766        0.0000000000000000     
  -8.8670047658590836E-002  0.13784339318407432        0.0000000000000000     
  -9.0473213891022183E-002  0.14511510101558261        0.0000000000000000     
  -9.2182333582923118E-002  0.15250808970747798        0.0000000000000000     
  -9.3797406734293695E-002  0.16002235925976041        0.0000000000000000     
  -9.5318433345133874E-002  0.16765790967242986        0.0000000000000000     
  -9.5727182556223089E-002  0.13844708523902854        0.0000000000000000     
  -9.7654333435196777E-002  0.14570841947149255        0.0000000000000000     
  -9.9486311280705675E-002  0.15312181514225232        0.0000000000000000     
 -0.10122311609274978       0.16068727225130791        0.0000000000000000     
 -0.10286474787132910       0.16840479079865933        0.0000000000000000     
 </DataArray>
 <DataArray  type="Float64" Name="stress" NumberOfComponents="3" format="ascii">
   13416689150.816656        4025006745.2449965        2894060870.0041852     
   11766477416.643858        1890368771.2436669        1715860529.9260392     
   10313574306.837276        413426211.79639339        810739669.57461190     
   9057979821.3969116       -405820933.09682417        178698288.94990191     
   7999693960.3227654       -567372663.43598270       -180263611.94808960     
   10539987362.552317        3161996208.7656951        2225785376.6514344     
   9667544168.5324173        1589523576.0990722        1446735408.5689971     
   8943760550.5138760        512582863.43698359        863158989.80021513     
   8368636508.4967003       -68825929.220569134        475056120.34508920     
   7942172042.4808798       -154702801.87358713        282426800.20361972     
   8337967156.1579361        2501390146.8473806        1712363409.9559419     
   8021561272.5393295        1424563486.5899837        1275706590.7768798     
   7805165916.5572243        681105251.78759789        956917390.49841082     
   7688781088.2116241        271015442.44022512        755995809.12053597     
   7672406787.5025282        194294058.54786682        672941846.64325607     
   6810628531.6335144        2043188559.4900544        1353794969.9177070     
   6828528728.6645927        1395488502.7164006        1202774076.5496874     
   6897790404.9673185        918993376.84823728        1092014871.6691988     
   7018413560.5416918        613703181.88556409        1021517355.2762427     
   7190398195.3877125        479617917.82838178        991281527.37081790     
   5957971488.9790516        1787391446.6937156        1150080056.5367301     
   6088446536.9082108        1502298624.4783239        1227937865.8874199     
   6221634015.7441607        1226247238.6188998        1268451433.3125796     
   6357533925.4869003        959237289.11544430        1271620758.8122089     
   6496146266.1364298        701268775.96795607        1237445842.3863070     
   7999693960.3227654       -567372663.43598270       -180263611.94808960     
   7917571274.2875786       -199817775.81227875       -78301136.045710713     
   7793914248.7990389        29289313.633578777       -8937648.4213007540     
   7628722883.8571424        119948604.90158558        27826850.925134599     
   7421997179.4618940        72160097.991746426        31992361.993599758     
   7942172042.4808798       -154702801.87358713        282426800.20361972     
   7739666604.3009167        16559077.587897301        281162874.19184333     
   7513744036.5572290        109763858.50362825        265194205.92256817     
   7264404339.2498121        124911540.87360334        234520795.39579329     
   6991647512.3786755        62002124.697827339        189142642.61152291     
   7672406787.5025282        194294058.54786682        672941846.64325607     
   7400645014.3791409        184600855.00753498        589588263.58855498     
   7123583321.5816574        157241252.55354404        509424184.29683030     
   6841221709.1100750        112215251.18589520        432449608.76807779     
   6553560176.9643974        49522850.904586792        358664537.00230348     
   7190398195.3877125        479617917.82838178        991281527.37081790     
   6900506504.5222549        304307556.44664145        846975032.14442718     
   6623432103.8723259        171721495.78333449        723752286.70148444     
   6359174993.4379282        81859735.838463783        621613291.04198980     
   6107735173.2190609        34722276.612029076        540558045.16594470     
   6496146266.1364298        701268775.96795607        1237445842.3863070     
   6239251074.7302513        375679181.90521240        1053323179.8594595     
   6013290383.4292336        153204588.19299769        908178513.13653278     
   5818264192.2333727        33844994.831310987        802011842.21752667     
   5654172501.1426716        17600401.820154428        734823167.10244381     
   7421997179.4618940        72160097.991746426        31992361.993599758     
   7218553047.2782288       -18952762.126111507        14863794.312608959     
   7027428644.7425365       -68999856.750722885        2115925.7291477947     
   6848623971.8548193       -77981185.882091522       -6251243.7567766886     
   6682139028.6150713       -45896749.520219803       -10237714.145167055     
   6991647512.3786755        62002124.697827339        189142642.61152291     
   6808234524.6418629        2332643.4808402061        180785121.58360308     
   6632702479.5798779       -31067028.820062637        176199309.74783641     
   6465051377.1927128       -38196892.204894066        175385207.10422504     
   6305281217.4803696       -19056946.673649073        178342813.65276027     
   6553560176.9643974        49522850.904586792        358664537.00230348     
   6388438362.5162134        20774757.241011858        353899477.82544559     
   6226758703.7697048        3500515.9163467884        352297137.93536150     
   6068521200.7248678       -2299873.0694131851        353857517.33204937     
   5913725853.3816967        3373590.2837288380        358580616.01551074     
   6107735173.2190609        34722276.612029076        540558045.16594470     
   5959164560.9012814        36373579.154397011        534206863.03813857     
   5809597317.3120213        34702777.458501339        530409410.29172593     
   5659033442.4512825        29709871.524339914        529165686.92670953     
   5507472936.3190622        21394861.351912260        530475692.94308567     
   5654172501.1426716        17600401.820154428        734823167.10244381     
   5520413119.7970638        49129109.220995665        721707277.22168052     
   5381218320.2068272        62539755.806402922        710536126.81693172     
   5236588102.3719587        57832341.576375246        701309715.88819766     
   5086522466.2924604        35006866.530910254        694028044.43547976     
   6682139028.6150713       -45896749.520219803       -10237714.145167055     
   6508794361.8111448       -6080920.4635288715       -3396623.4065925418     
   6329584455.3135643        14184109.614316702        4910874.6912950994     
   6144509309.1223412        14898340.713346004        14684780.148488503     
   5953568923.2374640       -3938227.1664571762        25925092.964996956     
   6305281217.4803696       -19056946.673649073        178342813.65276027     
   6131928805.8672810        2512913.0918014050        175158837.79865837     
   5954984192.1097479        12108765.709120512        174713105.33770731     
   5774447376.2077885        9730611.1783425808        177005616.26991859     
   5590318358.1613903       -4621550.5005624294        182036370.59528774     
   5913725853.3816967        3373590.2837288380        358580616.01551074     
   5743999514.1990032        7787625.9298002720        348023450.70947933     
   5572954010.4210854        7804446.2584669590        341476364.83044958     
   5400589342.0479555        3424051.2697484493        338939358.37842315     
   5226905509.0795965       -5353559.0363767147        340412431.35340041     
   5507472936.3190622        21394861.351912260        530475692.94308567     
   5345006486.8063278        9743218.0504868031        515197215.32587278     
   5183493910.2475824        1271151.2623698711        505200653.16951162     
   5022935206.6428337       -4021339.0124311447        500486006.47400105     
   4863330375.9920797       -6134252.7739143372        501053275.23933691     
   5086522466.2924604        35006866.530910254        694028044.43547976     
   4934949723.6892433        8379689.4538478851        676680131.64783740     
   4786603891.5892353       -7491119.2791869640        665885970.35489213     
   4641484969.9924345       -12605559.668192387        661645560.55664301     
   4499592958.8988466       -6963631.7131669521        663958902.25309074     
   5953568923.2374640       -3938227.1664571762        25925092.964996956     
   5770272248.9911165       -25273683.807197094        18718285.759203527     
   5589681252.5136929       -37590214.551530600        15261612.808630083     
   5411795933.8051920       -40887819.399453640        15555074.113266381     
   5236616292.8656158       -35166498.350958586        19598669.673121389     
   5590318358.1613903       -4621550.5005624294        182036370.59528774     
   5419080241.4832020       -17922474.180606127        177324148.88750368     
   5249577602.2824421       -25438472.935883999        176283483.44754133     
   5081810440.5591192       -27169546.766369104        178914374.27540648     
   4915778756.3132362       -23115695.672064304        185216821.37108696     
   5226905509.0795965       -5353559.0363767147        340412431.35340041     
   5067501441.4341488       -10687302.316361904        337062894.80355972     
   4908862650.9746504       -13470121.643186331        337306336.53413928     
   4750989137.7010965       -13702017.016865969        341142756.54515827     
   4593880901.6134892       -11382988.437379599        348572154.83659309     
   4863330375.9920797       -6134252.7739143372        501053275.23933691     
   4715535848.8439684       -3568168.2144496441        497934523.50736225     
   4567536398.5903101       -1685160.6734664440        498330172.06842208     
   4419332025.2311172       -485230.15094113350        502240220.92251468     
   4270922728.7663803        31623.353106260300        509664670.06964266     
   4499592958.8988466       -6963631.7131669521        663958902.25309074     
   4363183463.7126503        3434928.1251163483        659939034.99891961     
   4225598845.1294308        9916409.9733061790        659354990.05038416     
   4086839103.1491756        12480813.831381798        662206767.40749347     
   3946904237.7718906        11128139.699368238        668494367.07023346     
   5236616292.8656158       -35166498.350958586        19598669.673121389     
   5045808247.5534401       -32410269.127933741        15169649.563833836     
   4853430851.6061907       -34885208.688509464        15213269.611238709     
   4659484105.0238428       -42591317.032734632        19729529.815322552     
   4463968007.8064070       -55528594.160579920        28718430.176107783     
   4915778756.3132362       -23115695.672064304        185216821.37108696     
   4736091771.8065825       -22061405.049371243        178911876.42849448     
   4555392626.0466433       -24380985.270958185        177081708.54891619     
   4373681319.0334129       -30074436.336859465        179726317.73235211     
   4190957850.7668939       -39141758.247054100        186845703.97879449     
   4593880901.6134892       -11382988.437379599        348572154.83659309     
   4425321083.3589849       -12028804.781032324        341041339.33946329     
   4256306293.2329969       -14191194.029643774        337987437.81166911     
   4086836531.2355204       -17870156.183222771        339410450.25321507     
   3916911797.3665590       -23065691.241741180        345310376.66409600     
   4270922728.7663803        31623.353106260300        509664670.06964266     
   4113496182.2106600       -2312468.3229107857        501558038.29674596     
   3956171853.1652575       -4315834.9645502567        497930457.39950103     
   3798949741.6301675       -5978476.5718109608        498781927.37791878     
   3641829847.6053886       -7300393.1446962357        504112448.23199886     
   3946904237.7718906        11128139.699368238        668494367.07023346     
   3800617068.3615947        7087604.3249819279        660461973.30033433     
   3654989305.8434162        5245091.9243149757        656910767.31241405     
   3510020950.2173486        5600602.4973566532        657840749.10647178     
   3365712001.4833946        8154136.0441055298        663251918.68251145     
   4463968007.8064070       -55528594.160579920        28718430.176107783     
   4289225093.5599341       -63729311.187534809        22112910.518461253     
   4115065555.3614788       -69985441.387755156        19212668.516767658     
   3941489393.2110443       -74296984.761248589        20017704.171041086     
   3768496607.1086235       -76663941.308018923        24528017.481293064     
   4190957850.7668939       -39141758.247054100        186845703.97879449     
   4027047538.0048761       -43562362.467439890        180449741.75474229     
   3863491872.8950977       -46800807.847020864        177808938.52277896     
   3700290855.4375763       -48857094.385767221        178923294.28292021     
   3537444485.6323009       -49731222.083681345        183792809.03516763     
   3916911797.3665590       -23065691.241741180        345310376.66409600     
   3763976604.1922207       -23663427.224640608        338857122.07857597     
   3611167330.2743635       -23841432.352606058        336208907.82128972     
   3458483975.6129913       -23599706.625614166        337365733.89223665     
   3305926540.2081032       -22938250.043679476        342327600.29141098     
   3641829847.6053886       -7300393.1446962357        504112448.23199886     
   3500012292.1219740       -4032505.4591171741        497335051.48995513     
   3358091927.4992738       -1107314.9044876099        494412576.41227275     
   3216068753.7372947        1475178.5192019939        495345022.99895936     
   3073942770.8360214        3714974.8119304180        500132391.25001961     
   3365712001.4833946        8154136.0441055298        663251918.68251145     
   3235154601.7941413        15330402.829142213        655883529.98887825     
   3104265664.5698299        21401544.497316241        652419944.29575074     
   2973045189.8104825        26367561.048698187        652861161.60311401     
   2841493177.5160694        30228452.483196020        657207181.91097963     
   3768496607.1086235       -76663941.308018923        24528017.481293064     
   3572784945.9524026       -119928745.04707146        45114285.277700551     
   3354018138.6320596       -240044035.99988818        66074678.596203744     
   3112196185.1475677       -437009814.16652775        87409197.436824411     
   2847319085.4989386       -710826079.54694772        109117841.79953566     
   3537444485.6323009       -49731222.083681345        183792809.03516763     
   3347055940.0230284       -82461855.123605728        181943512.07446510     
   3140756360.4313107       -168229268.10500801        181383831.38949990     
   2918545746.8571491       -307033461.02789187        182113766.98029700     
   2680424099.3005280       -498874433.89229643        184133318.84683526     
   3305926540.2081032       -22938250.043679476        342327600.29141098     
   3123476798.0133305       -44350006.024206877        326377536.11890024     
   2932260134.0178032       -94984834.673913598        312632578.97578448     
   2732276548.2215195       -174842735.99282563        301092728.86205983     
   2523526040.6244760       -283923709.98092437        291757985.77771348     
   3073942770.8360214        3714974.8119304180        500132391.25001961     
   2902047519.9233065       -5593197.7489342690        478416357.41100603     
   2728529459.3915238       -20310735.706698298        459820921.35503155     
   2553388589.2406750       -40437639.061334133        444346083.08209252     
   2376624909.4707551       -65973907.812873006        431991842.59218955     
   2841493177.5160694        30228452.483196020        657207181.91097963     
   2682768105.7529631        33808569.702255964        638059975.95077598     
   2529564336.5524836        55793028.796731114        622948858.52725554     
   2381881869.9146237        96181829.766604543        611873829.64040852     
   2239720705.8393874        154974972.61189747        604834889.29025197     
   5957971488.9790516        1787391446.6937156        1150080056.5367301     
   6088446536.9082108        1502298624.4783239        1227937865.8874199     
   6221634015.7441607        1226247238.6188998        1268451433.3125796     
   6357533925.4869003        959237289.11544430        1271620758.8122089     
   6496146266.1364298        701268775.96795607        1237445842.3863070     
   5434628280.9203043        1630388484.2760911        1033519457.4782681     
   5489914118.7831745        1372527453.4934564        1113900427.3447921     
   5547388402.4656515        1121961242.1095054        1167503525.6782966     
   5607051131.9677315        878689850.12423766        1194328752.4787815     
   5668902307.2894182        642713277.53765440        1194376107.7462461     
   4895231160.1830273        1468569348.0549083        936413960.40757835     
   4905517417.6724977        1246996997.6128967        1018706774.8548870     
   4917468135.8943872        1030972849.6122839        1084788088.1616869     
   4931083314.8486967        820496904.05307150        1134657900.3279779     
   4946362954.5354261        615569160.93525803        1168316211.3537595     
   4339780126.7672215        1301934038.0301664        858763565.32466054     
   4335256433.5761795        1125707256.8366442        942356908.41770482     
   4331873216.0303707        953282061.12723732        1020305120.7627506     
   4329630474.1297970        784658450.90194547        1092608202.3597975     
   4328528207.8744574        619836426.16076946        1159266153.2088468     
   3768275180.6728864        1130482554.2018659        800568272.22951519     
   3779131166.4942183        1008658231.1646992        884850828.03324509     
   3790603642.8735995        888888876.65436387        974054623.48148763     
   3802692609.8110309        771174490.67086005        1068179658.5742421     
   3815398067.3065100        655515073.21418619        1167225933.3115084     
   6496146266.1364298        701268775.96795607        1237445842.3863070     
   6239251074.7302513        375679181.90521240        1053323179.8594595     
   6013290383.4292336        153204588.19299769        908178513.13653278     
   5818264192.2333727        33844994.831310987        802011842.21752667     
   5654172501.1426716        17600401.820154428        734823167.10244381     
   5668902307.2894182        642713277.53765440        1194376107.7462461     
   5518896008.0004721        383139035.65814948        1073553616.1194251     
   5393048234.1602306        204093211.94099259        980741041.35195911     
   5291358985.7686911        105575806.38617921        915938383.44384742     
   5213828262.8258572        87586818.993715763        879145642.39509094     
   4946362954.5354261        615569160.93525803        1168316211.3537595     
   4871908178.9506655        412609060.71507907        1102888586.8611019     
   4814835954.1581516        267590796.46906352        1054502800.2832321     
   4775146280.1578884        180514368.19721079        1023158851.6201504     
   4752839156.9498730        151379775.89952278        1008856740.8718574     
   4328528207.8744574        619836426.16076946        1159266153.2088468     
   4298287587.5808325        464089257.07600081        1141328092.0844882     
   4278653543.4229999        343697341.77721274        1129463789.9303513     
   4269626075.4009619        258660680.26440573        1123673246.7464354     
   4271205183.5147214        208979272.53758121        1123956462.5327413     
   3815398067.3065100        655515073.21418619        1167225933.3115084     
   3798034233.8909721        537579624.74091411        1188872131.7895856     
   3784501001.9547744        432412847.86544108        1205624010.2933171     
   3774798371.4979143        340014742.58776331        1217481568.8227034     
   3768926342.5203962        260385308.90788698        1224444807.3777452     
   5654172501.1426716        17600401.820154428        734823167.10244381     
   5520413119.7970638        49129109.220995665        721707277.22168052     
   5381218320.2068272        62539755.806402922        710536126.81693172     
   5236588102.3719587        57832341.576375246        701309715.88819766     
   5086522466.2924604        35006866.530910254        694028044.43547976     
   5213828262.8258572        87586818.993715763        879145642.39509094     
   5077749624.3531532        85404924.935000181        855429018.38052475     
   4939515626.1412239        76038498.412207127        835762980.51360857     
   4799126268.1900721        59487539.425333738        820147528.79434979     
   4656581550.4996939        35752047.974381208        808582663.22274339     
   4752839156.9498730        151379775.89952278        1008856740.8718574     
   4620457966.1261826        117292291.81408691        978366117.64645886     
   4489201474.0686750        86953803.615927935        954031927.24035358     
   4359069680.7773504        60364311.305042267        935854169.65354240     
   4230062586.2522078        37523814.881433249        923832844.88602138     
   4271205183.5147214        208979272.53758121        1123956462.5327413     
   4148538145.1161547        144791209.85825586        1090518575.0194871     
   4030275863.9891796        95285671.417563915        1065342966.9971647     
   3916418340.1337938        60462657.215502977        1048429638.4657738     
   3806965573.5499945        40322167.252067804        1039778589.4253163     
   3768926342.5203962        260385308.90788698        1224444807.3777452     
   3661990161.3230686        167901679.06750941        1191886390.4996080     
   3562738795.9027386        101034101.81711698        1169696099.7840436     
   3471172246.2594032        59782577.156710386        1157873935.2310467     
   3387290512.3930626        44147105.086286545        1156419896.8406262     
   5086522466.2924604        35006866.530910254        694028044.43547976     
   4934949723.6892433        8379689.4538478851        676680131.64783740     
   4786603891.5892353       -7491119.2791869640        665885970.35489213     
   4641484969.9924345       -12605559.668192387        661645560.55664301     
   4499592958.8988466       -6963631.7131669521        663958902.25309074     
   4656581550.4996939        35752047.974381208        808582663.22274339     
   4522931613.0380230        15002353.135147810        795355617.70470989     
   4391646285.3439941        2134690.8547222614        788005251.82290089     
   4262725567.4176159       -2850938.8668754101        786531565.57731628     
   4136169459.2588768        45463.970338821411        790934558.96795690     
   4230062586.2522078        37523814.881433249        923832844.88602138     
   4112400962.9078732        22071254.972768068        913720649.11277366     
   3996241648.5956230        11626391.837703466        908808061.11727703     
   3881584643.3154492        6189225.4762370586        909095080.89953148     
   3768429947.0673594        5759755.8883783817        914581708.45953906     
   3806965573.5499945        40322167.252067804        1039778589.4253163     
   3703357773.2987952        29586394.966708183        1031775225.8720263     
   3600389981.3441100        20983983.669738054        1028294398.2380149     
   3498062197.6859426        14514933.361150503        1029336106.5232848     
   3396374422.3242888        10179244.040951252        1034900350.7278305     
   3387290512.3930626        44147105.086286545        1156419896.8406262     
   3295802044.2107873        37547773.116973877        1149519347.9824691     
   3204091283.5894623        30207466.350830197        1146464263.1851211     
   3112158230.5290871        22126184.787853479        1147254642.4485767     
   3020002885.0296679        13303928.428060651        1151890485.7728424     
   4499592958.8988466       -6963631.7131669521        663958902.25309074     
   4363183463.7126503        3434928.1251163483        659939034.99891961     
   4225598845.1294308        9916409.9733061790        659354990.05038416     
   4086839103.1491756        12480813.831381798        662206767.40749347     
   3946904237.7718906        11128139.699368238        668494367.07023346     
   4136169459.2588768        45463.970338821411        790934558.96795690     
   4007650477.9967670        5006845.3742780685        784586308.34293461     
   3878516671.9105735        7918810.6979396343        782126594.99257076     
   3748768041.0002990        8781359.9413268566        783555418.91686416     
   3618404585.2659397        7594493.1044421196        788872780.11581755     
   3768429947.0673594        5759755.8883783817        914581708.45953906     
   3649094951.0693855        5672000.2599878311        906558756.13210595     
   3529705428.8202753        5402490.4611470699        902877056.04835010     
   3410261380.3200345        4951226.4918637276        903536608.20827186     
   3290762805.5686555        4318208.3521282673        908537412.61186850     
   3396374422.3242888        10179244.040951252        1034900350.7278305     
   3287516882.9305048        5430392.7822501659        1025856378.3664285     
   3179165115.8585305        2367449.2629173994        1021606373.2177227     
   3071319121.1083765        990413.48297560215        1022150335.2817117     
   2963978898.6800289        1299285.4424006939        1027488264.5583955     
   3020002885.0296679        13303928.428060651        1151890485.7728424     
   2922916273.5801272        4282022.9410630465        1142479175.0459070     
   2826895733.0253448       -1186312.8967424631        1138314546.5006869     
   2731941263.3653274       -3101079.0853296518        1139396600.1371813     
   2638052864.6000690       -1462275.6247167587        1145725335.9553888     
   3946904237.7718906        11128139.699368238        668494367.07023346     
   3800617068.3615947        7087604.3249819279        660461973.30033433     
   3654989305.8434162        5245091.9243149757        656910767.31241405     
   3510020950.2173486        5600602.4973566532        657840749.10647178     
   3365712001.4833946        8154136.0441055298        663251918.68251145     
   3618404585.2659397        7594493.1044421196        788872780.11581755     
   3484119314.8821440        4977913.9725048542        781757195.97892439     
   3350281945.4321694        3854337.9532997608        779064048.79372168     
   3216892476.9160137        4223765.0468320847        780793338.56020057     
   3083950909.3336821        6086195.2530993223        786945065.27836454     
   3290762805.5686555        4318208.3521282673        908537412.61186850     
   3168311574.6962228        3075227.6080752611        902091881.15664923     
   3046096738.7993183        2620230.1157937050        900010035.82282281     
   2924118297.8779464        2953215.8752844334        902291876.61038113     
   2802376251.9321079        4074184.8865430355        908937403.51932883     
   2963978898.6800289        1299285.4424006939        1027488264.5583955     
   2853193847.8038254        1379545.2317018509        1021466028.8335125     
   2742433685.9448662        1542768.4118089676        1019748728.3997171     
   2631698413.1031456        1788954.9827101231        1022336363.2570183     
   2520988029.2786674        2118104.9444190264        1029228933.4054148     
   2638052864.6000690       -1462275.6247167587        1145725335.9553888     
   2538766134.2049680       -109133.15659809113        1139879639.0095026     
   2439292786.8688164        621952.84135055542        1138280126.5244052     
   2339632822.5916147        730982.36913323402        1140926798.5001070     
   2239786241.3733625        217955.42674589157        1147819654.9366090     
   3365712001.4833946        8154136.0441055298        663251918.68251145     
   3235154601.7941413        15330402.829142213        655883529.98887825     
   3104265664.5698299        21401544.497316241        652419944.29575074     
   2973045189.8104825        26367561.048698187        652861161.60311401     
   2841493177.5160694        30228452.483196020        657207181.91097963     
   3083950909.3336821        6086195.2530993223        786945065.27836454     
   2963313720.9552879        12124687.733366132        779415642.58093953     
   2842548246.0471129        17735558.447694778        775874911.96170557     
   2721654484.6091704        22918807.396138072        776322873.42065001     
   2600632436.6414561        27674434.578654170        780759526.95778263     
   2802376251.9321079        4074184.8865430355        908937403.51932883     
   2691898957.9436684        9046807.9857575893        901484072.99094296     
   2581496628.4307332        14269312.669978499        898103323.61842215     
   2471169263.3933048        19741698.939225197        898795155.40177560     
   2360916862.8313799        25463966.793478608        903559568.34099805     
   2520988029.2786674        2118104.9444190264        1029228933.4054148     
   2420910312.7592902        6096763.5863262415        1022088821.2188810     
   2321110811.7206960        11002807.164165020        1019105179.2659028     
   2221589526.1628804        16836235.677945018        1020278007.5464796     
   2122346456.0858483        23597049.127657175        1025607306.0606134     
   2239786241.3733625        217955.42674589157        1147819654.9366090     
   2150347785.4021454        3274554.5350596905        1141229887.2647564     
   2061390795.9169919        7936041.9302469492        1138880478.9041429     
   1972915272.9178932        14202417.612285495        1140771429.8547761     
   1884921216.4048607        22073681.581212044        1146902740.1166501     
   2841493177.5160694        30228452.483196020        657207181.91097963     
   2682768105.7529631        33808569.702255964        638059975.95077598     
   2529564336.5524836        55793028.796731114        622948858.52725554     
   2381881869.9146237        96181829.766604543        611873829.64040852     
   2239720705.8393874        154974972.61189747        604834889.29025197     
   2600632436.6414561        27674434.578654170        780759526.95778263     
   2452497670.3415790        30165080.684624910        767728781.19389081     
   2308360751.7295647        45981885.750137806        759059752.12189722     
   2168221680.8054156        75124849.775196671        754752439.74180710     
   2032080457.5691233        117593972.75978875        754806844.05362546     
   2360916862.8313799        25463966.793478608        903559568.34099805     
   2224302768.1525002        27144251.633692503        894867918.75286317     
   2090163066.2867212        37072512.517577648        890863614.01185381     
   1958497757.2340474        55248749.445134282        891546654.11796749     
   1829306840.9944737        81672962.416371107        896917039.07118654     
   2122346456.0858483        23597049.127657175        1025607306.0606134     
   1998183399.1857381        24746082.549458385        1019477388.6276944     
   1874971280.2239671        29064909.099055767        1018360444.1971111     
   1752710099.2005343        36553528.776441813        1022256472.7688591     
   1631399856.1154356        47211941.581633508        1031165474.3429480     
   1884921216.4048607        22073681.581212044        1146902740.1166501     
   1774139563.4412782        22970573.431901574        1141557190.8183768     
   1662785393.5412757        21959075.494527698        1141550242.6776640     
   1550858706.7048502        19039187.769078255        1146881895.6945014     
   1438359502.9320135        14210910.255580664        1157552149.8689046     
   3768275180.6728864        1130482554.2018659        800568272.22951519     
   3779131166.4942183        1008658231.1646992        884850828.03324509     
   3790603642.8735995        888888876.65436387        974054623.48148763     
   3802692609.8110309        771174490.67086005        1068179658.5742421     
   3815398067.3065100        655515073.21418619        1167225933.3115084     
   3207861377.1955733        962358413.15867198        756684415.90748334     
   3235897290.4594612        868178991.67849827        853048091.95422363     
   3263662694.6806793        773097873.38942671        951326264.49141943     
   3291157589.8592281        677115058.29145730        1051518933.5190704     
   3318381975.9951077        580230546.38458967        1153626099.0371766     
   2685683771.6308322        805705131.48924971        721968331.14390647     
   2722308917.6113997        736593403.14830625        829378294.56615174     
   2757776554.9485784        663623312.66273558        935696011.32479560     
   2792086683.6423693        586794860.03253818        1040921481.4198383     
   2825239303.6927729        506108045.25771362        1145054704.8512795     
   2201742363.9786634        660522709.19359899        696420017.93878460     
   2238366047.9500327        613901465.57412243        813841435.86902952     
   2272945223.6772971        560465194.47429001        927163863.98161662     
   2305479891.1604528        500213895.89410126        1036387302.2765453     
   2335970050.3995028        433147569.83355671        1141511750.7538166     
   1756037154.2390666        526811146.27171999        680039476.29211760     
   1784068681.4753635        500103178.95594788        806437515.86285734     
   1809168700.8668344        463623518.82409024        925729822.46188247     
   1831337212.4134798        417372165.87614787        1037916396.0891924     
   1850574216.1152997        361349120.11212015        1142997236.7447875     
   3815398067.3065100        655515073.21418619        1167225933.3115084     
   3798034233.8909721        537579624.74091411        1188872131.7895856     
   3784501001.9547744        432412847.86544108        1205624010.2933171     
   3774798371.4979143        340014742.58776331        1217481568.8227034     
   3768926342.5203962        260385308.90788698        1224444807.3777452     
   3318381975.9951077        580230546.38458967        1153626099.0371766     
   3293847895.0851703        473053019.00347924        1181928821.2360420     
   3273035658.1450462        378281638.18841350        1207127691.2384455     
   3255945265.1747346        295916403.93939054        1229222709.0443871     
   3242576716.1742363        225957316.25641382        1248213874.6538682     
   2825239303.6927729        506108045.25771362        1145054704.8512795     
   2798650597.5109601        411223125.63552153        1179887067.0098183     
   2775674977.7894349        328381827.54762006        1213406044.7497795     
   2756312444.5281968        257584150.99401057        1245611638.0711637     
   2740562997.7272468        198830095.97469199        1276503846.9739702     
   2335970050.3995028        433147569.83355671        1141511750.7538166     
   2312442341.1683416        352089944.63704151        1182746869.1109152     
   2292418960.8879423        282713415.94306356        1224459070.8273208     
   2275899909.5583043        225017983.75162351        1266648355.9030323     
   2262885187.1794267        179003648.06272066        1309314724.3380527     
   1850574216.1152997        361349120.11212015        1142997236.7447875     
   1835223126.0573158        295653476.00803924        1190508227.5393329     
   1823267607.4405665        241276403.37474054        1240286769.4710691     
   1814707660.2650537        198217902.21222866        1292332862.5399957     
   1809543284.5307760        166477972.52049989        1346646506.7461135     
   3768926342.5203962        260385308.90788698        1224444807.3777452     
   3661990161.3230686        167901679.06750941        1191886390.4996080     
   3562738795.9027386        101034101.81711698        1169696099.7840436     
   3471172246.2594032        59782577.156710386        1157873935.2310467     
   3387290512.3930626        44147105.086286545        1156419896.8406262     
   3242576716.1742363        225957316.25641382        1248213874.6538682     
   3164916685.7647920        151580825.75441241        1231006652.3897629     
   3093339234.4209123        97479598.804291368        1221772849.3372128     
   3027844362.1425986        63653635.406060219        1220512465.4962246     
   2968432068.9298506        50102935.559713364        1227225500.8667943     
   2740562997.7272468        198830095.97469199        1276503846.9739702     
   2685337098.2456479        140508138.85305345        1272778543.1605587     
   2634591541.1181850        97120656.245199203        1274631951.6076941     
   2588326326.3448558        68667648.151130319        1282064072.3153760     
   2546541453.9256639        55149114.570845246        1295074905.2836030     
   2262885187.1794267        179003648.06272066        1309314724.3380527     
   2223251398.7656388        134683618.36343539        1317202062.8120005     
   2186495715.9945560        99957274.139833808        1328273406.5954840     
   2152618138.8661785        74824615.391917467        1342528755.6884992     
   2121618667.3805053        59285642.119685054        1359968110.0910490     
   1809543284.5307760        166477972.52049989        1346646506.7461135     
   1778659587.3247623        134107264.28555733        1364277211.3440862     
   1749051759.0500243        105989452.48819965        1382697214.3005815     
   1720719799.7065613        82124537.128424883        1401906515.6155984     
   1693663709.2943733        62512518.206234455        1421905115.2891362     
   3387290512.3930626        44147105.086286545        1156419896.8406262     
   3295802044.2107873        37547773.116973877        1149519347.9824691     
   3204091283.5894623        30207466.350830197        1146464263.1851211     
   3112158230.5290871        22126184.787853479        1147254642.4485767     
   3020002885.0296679        13303928.428060651        1151890485.7728424     
   2968432068.9298506        50102935.559713364        1227225500.8667943     
   2886069682.0688477        39304527.529313207        1219441587.7551677     
   2803978993.0062947        29411778.827080965        1215801290.6901195     
   2722160001.7421942        20424689.453019500        1216304609.6716480     
   2640612708.2765422        12343259.407129169        1220951544.6997557     
   2546541453.9256639        55149114.570845246        1295074905.2836030     
   2474157011.2024226        40407189.324306607        1286983949.8622558     
   2402538256.5151329        28217557.530938625        1283334762.4732568     
   2331685189.8637924        18580219.190733790        1284127343.1166070     
   2261597811.2484016        11495174.303697348        1289361691.7923026     
   2121618667.3805053        59285642.119685054        1359968110.0910490     
   2060064031.6115146        40855758.501957774        1352146434.3037322     
   1999769074.1159725        26624802.462396741        1349064678.5345294     
   1940733794.8938794        16592774.000993490        1350722842.7834487     
   1882958193.9452357        10759673.117759228        1357120927.0504854     
   1693663709.2943733        62512518.206234455        1421905115.2891362     
   1643790743.2961202        40650235.062261283        1414929041.0795937     
   1595671445.8088150        24633513.621451080        1412991038.8739400     
   1549305816.8324578        14462353.883799851        1416091108.6721768     
   1504693856.3670483        10136755.849307954        1424229250.4743025     
   3020002885.0296679        13303928.428060651        1151890485.7728424     
   2922916273.5801272        4282022.9410630465        1142479175.0459070     
   2826895733.0253448       -1186312.8967424631        1138314546.5006869     
   2731941263.3653274       -3101079.0853296518        1139396600.1371813     
   2638052864.6000690       -1462275.6247167587        1145725335.9553888     
   2640612708.2765422        12343259.407129169        1220951544.6997557     
   2557450921.1461134        5453440.0334326029        1212642575.2536252     
   2475122463.9787421        1341387.2032618523        1209306307.0758746     
   2393627336.7744322        7100.9166303873062        1210942740.1664989     
   2312965539.5331807        1450581.1735210419        1217551874.5255063     
   2261597811.2484016        11495174.303697348        1289361691.7923026     
   2191578045.8275518        6502600.2604418993        1281883532.5399902     
   2122158869.4380593        3511989.6550385952        1279104093.6427209     
   2053340282.0799260        2523342.4875017405        1281023375.1004946     
   1985122283.7531493        3536658.7578189373        1287641376.9133120     
   1882958193.9452357        10759673.117759228        1357120927.0504854     
   1825297647.6244371        7429503.6220831871        1350202046.9050066     
   1768004949.4032934        5325494.4585921764        1347707906.2012331     
   1711080099.2818077        4447645.6272904873        1349638504.9391663     
   1654523097.2599773        4795957.1281733513        1355993843.1188126     
   1504693856.3670483        10136755.849307954        1424229250.4743025     
   1458609726.5367718        8234150.1183593273        1417598118.3486691     
   1412660703.8744478        6781901.6139193177        1415117744.7514083     
   1366846788.3800807        5780010.3360018730        1416788129.6825187     
   1321167980.0536637        5228476.2845885158        1422609273.1420038     
   2638052864.6000690       -1462275.6247167587        1145725335.9553888     
   2538766134.2049680       -109133.15659809113        1139879639.0095026     
   2439292786.8688164        621952.84135055542        1138280126.5244052     
   2339632822.5916147        730982.36913323402        1140926798.5001070     
   2239786241.3733625        217955.42674589157        1147819654.9366090     
   2312965539.5331807        1450581.1735210419        1217551874.5255063     
   2224677125.5860887        1780055.6011910439        1210700216.0505433     
   2136329433.8842041        1911937.5128815174        1208298847.6225901     
   2047922464.4275172        1846226.9085665941        1210347769.2416415     
   1959456217.2160378        1582923.7882725000        1216846980.9077032     
   1985122283.7531493        3536658.7578189373        1287641376.9133120     
   1908415345.0718160        3017412.7903695107        1279932319.2932427     
   1831776467.8219380        2725038.2611066103        1276877657.3063881     
   1755205652.0035183        2659535.1700330973        1278477390.9527564     
   1678702897.6165564        2820903.5171536207        1284731520.2323377     
   1654523097.2599773        4795957.1281733513        1355993843.1188126     
   1589980792.6621444        3602938.4109247327        1347575948.7375937     
   1525633888.6820247        3061255.0860440731        1344016555.5758052     
   1461482385.3196137        3170907.1535277963        1345315663.6334453     
   1397526282.5749159        3931894.6133894920        1351473272.9105136     
   1321167980.0536637        5228476.2845885158        1422609273.1420038     
   1269373468.3570793        3536632.4628585577        1413631104.3836017     
   1217901696.4644613        2920587.9876865149        1409715542.4308412     
   1166752664.3758044        3380342.8590502739        1410862587.2837172     
   1115926372.0911136        4915897.0769702196        1417072238.9422379     
   2239786241.3733625        217955.42674589157        1147819654.9366090     
   2150347785.4021454        3274554.5350596905        1141229887.2647564     
   2061390795.9169919        7936041.9302469492        1138880478.9041429     
   1972915272.9178932        14202417.612285495        1140771429.8547761     
   1884921216.4048607        22073681.581212044        1146902740.1166501     
   1959456217.2160378        1582923.7882725000        1216846980.9077032     
   1880950663.8960042        4761998.2449191809        1210549645.9896584     
   1802803840.6886952        9136839.7439713478        1208393613.3347464     
   1725015747.5941012        14707448.285409212        1210378882.9429619     
   1647586384.6122224        21473823.869238555        1216505454.8143108     
   1678702897.6165564        2820903.5171536207        1284731520.2323377     
   1610847226.8102498        6037547.2808971405        1278583425.6325374     
   1543227549.7433209        10040836.842569590        1276477576.2477608     
   1475843866.4157655        14830772.202149928        1278413972.0779996     
   1408696176.8275895        20407353.359666526        1284392613.1232610     
   1397526282.5749159        3931894.6133894920        1351473272.9105136     
   1340037474.1448715        7101201.6429800391        1345331226.1933980     
   1282661923.0808682        10648033.226040661        1343132367.6431854     
   1225399629.3828967        14572389.362540603        1344876697.2598851     
   1168250593.0509593        18874270.052488744        1350564215.0434911     
   1115926372.0911136        4915897.0769702196        1417072238.9422379     
   1068521405.8998789        7952961.3311919570        1410793047.6722302     
   1021106960.7013371        10958428.894389212        1408357987.5210249     
   973683036.49548864        13932299.766567230        1409767058.4886174     
   926249633.28233719        16874573.947730005        1415020260.5750091     
   1884921216.4048607        22073681.581212044        1146902740.1166501     
   1774139563.4412782        22970573.431901574        1141557190.8183768     
   1662785393.5412757        21959075.494527698        1141550242.6776640     
   1550858706.7048502        19039187.769078255        1146881895.6945014     
   1438359502.9320135        14210910.255580664        1157552149.8689046     
   1647586384.6122224        21473823.869238555        1216505454.8143108     
   1550264538.4726479        22293539.083516836        1209927558.5439169     
   1452597864.1397619        21963826.986758530        1208382568.6659026     
   1354586361.6135538        20484687.578936696        1211870485.1802921     
   1256230030.8940439        17856120.860091984        1220391308.0870602     
   1408696176.8275895        20407353.359666526        1284392613.1232610     
   1323960723.8972578        20887867.853100777        1276848006.7476928     
   1239108131.5167212        20977917.512527168        1274030611.9993517     
   1154138399.6859727        20677502.337911129        1275940428.8782272     
   1069051528.4050252        19986622.329288721        1282577457.3843331     
   1168250593.0509593        18874270.052488744        1350564215.0434911     
   1095228119.7151134        18753559.740660012        1342318535.4297147     
   1022316195.6721649        19001347.071826398        1338494372.6779919     
   949514820.92211843        19617632.045999587        1339091726.7883272     
   876823995.46497214        20602414.663174987        1344110597.7607265     
   926249633.28233719        16874573.947730005        1415020260.5750091     
   864066725.92620385        15890614.746179879        1406339144.5899773     
   802222056.60609162        16034115.664691448        1401773850.7018392     
   740715625.32197618        17305076.703196883        1401324378.9105892     
   679547432.07387471        19703497.861748010        1404990729.2162352     
   1756037154.2390666        526811146.27171999        680039476.29211760     
   1784068681.4753635        500103178.95594788        806437515.86285734     
   1809168700.8668344        463623518.82409024        925729822.46188247     
   1831337212.4134798        417372165.87614787        1037916396.0891924     
   1850574216.1152997        361349120.11212015        1142997236.7447875     
   1326344499.0004704        397903349.70014113        669717402.41083550     
   1339568205.1155729        375532392.43174994        791858972.85677290     
   1350593280.3456655        345832665.54666108        908714796.17026436     
   1359419724.6907492        308804169.04487479        1020284872.3513107     
   1366047538.1508236        264446902.92639118        1126569201.3999109     
   890440754.85130239        267132226.45539072        662344492.50186801     
   894056599.38597953        250658267.09661135        781084616.94278872     
   896206689.99546373        229298461.32052201        896358980.09053266     
   896891026.67975497        203052809.12712300        1008167581.9451003     
   896109609.43885303        171921310.51641405        1116510422.5064917     
   448325921.79156262        134497776.53746879        657920746.56521511     
   447533864.28658384        125480802.95053194        774114448.12090433     
   446008929.81622845        114020906.14567287        888662374.22268665     
   443751118.38049638        100118086.12289153        1001564524.8705617     
   440760429.97938764        83772342.882188261        1112820900.0645299     
 -0.17874912859396272       -5.3624738578188821E-002   656446164.60087669     
 -0.18261440894250169       -6.4882680272449408E-003   770948466.39112079     
 -0.19204002799607695        2.2113696805491245E-002   885624978.56672704     
 -0.20702587566646777        3.2181501196711593E-002   1000475701.1276950     
 -0.22757221931078145        2.3714492480536892E-002   1115500634.0740252     
   1850574216.1152997        361349120.11212015        1142997236.7447875     
   1835223126.0573158        295653476.00803924        1190508227.5393329     
   1823267607.4405665        241276403.37474054        1240286769.4710691     
   1814707660.2650537        198217902.21222866        1292332862.5399957     
   1809543284.5307760        166477972.52049989        1346646506.7461135     
   1366047538.1508236        264446902.92639118        1126569201.3999109     
   1360291116.5537786        216902238.62867805        1181980929.0847726     
   1357081373.5370648        177846502.93206990        1238316932.1855416     
   1356418309.1006827        147279695.83656842        1295577210.7022190     
   1358301923.2446334        125201817.34217411        1353761764.6348031     
   896109609.43885303        171921310.51641405        1116510422.5064917     
   896109925.67050886        141376246.83539632        1178832512.0772824     
   897808027.62159300        116490468.88580653        1240735601.3426974     
   901203915.29210591        97263976.667645901        1302219690.3027363     
   906297588.68204725        83696770.180913687        1363284778.9574020     
   440760429.97938764        83772342.882188261        1112820900.0645299     
   442679553.40750724        69075500.628195032        1181062976.5168619     
   445447569.69415236        57208301.235953018        1247542776.9425354     
   449064478.83932239        48170744.705461606        1312260301.3415511     
   453530280.84301770        41962831.036720619        1375215549.7139082     
 -0.22757221931078145        2.3714492480536892E-002   1115500634.0740252     
 -0.23522561531381100        7.0754156883218455E-003   1188672322.4035118     
 -0.24525716994153818       -1.7490726415291508E-002   1258738458.9850569     
 -0.25766699149503725       -4.9984750198796113E-002   1325699043.8186607     
 -0.27245481511920611       -9.0404927134156959E-002   1389554076.9043233     
   1809543284.5307760        166477972.52049989        1346646506.7461135     
   1778659587.3247623        134107264.28555733        1364277211.3440862     
   1749051759.0500243        105989452.48819965        1382697214.3005815     
   1720719799.7065613        82124537.128424883        1401906515.6155984     
   1693663709.2943733        62512518.206234455        1421905115.2891362     
   1358301923.2446334        125201817.34217411        1353761764.6348031     
   1332468041.4517453        100122453.47133470        1372739507.4867682     
   1307591061.3452973        78232761.888631761        1393129807.4447453     
   1283670982.9252915        59532742.594069421        1414932664.5087357     
   1260707806.1917291        44022395.587647676        1438148078.6787374     
   906297588.68204725        83696770.180913687        1363284778.9574020     
   887294261.58082747        66442972.457737684        1383237431.6110535     
   868928868.92121708        51315622.873258084        1405225900.1182072     
   851201410.70321417        38314721.427470803        1429250184.4788640     
   834111886.92681921        27440268.120378643        1455310284.6930244     
   453530280.84301770        41962831.036720619        1375215549.7139082     
   443138247.71201295        33068821.244774550        1395770983.7169394     
   433065181.77778244        25238035.442075431        1418985492.3209655     
   423311083.04032779        18470473.628630370        1444859075.5259845     
   413875951.49964756        12766135.804432273        1473391733.3319972     
 -0.27245481511920611       -9.0404927134156959E-002   1389554076.9043233     
 -0.15470051979364979      -0.16755970466442416        1410340163.8044302     
  -8.5004061939525172E-002 -0.40490762071082537        1434408584.0530202     
  -6.3367097169292536E-002 -0.80245341335599740        1461759337.6500959     
  -8.9787929838411273E-002  -1.3601923845493837        1492392424.5956559     
   1693663709.2943733        62512518.206234455        1421905115.2891362     
   1643790743.2961202        40650235.062261283        1414929041.0795937     
   1595671445.8088150        24633513.621451080        1412991038.8739400     
   1549305816.8324578        14462353.883799851        1416091108.6721768     
   1504693856.3670483        10136755.849307954        1424229250.4743025     
   1260707806.1917291        44022395.587647676        1438148078.6787374     
   1225174304.4525089        28187049.894700527        1434969892.7787957     
   1190956054.0918016        16735875.463460624        1436393160.2778323     
   1158053055.1096039        9668872.2939192057        1442417881.1758420     
   1126465307.5059137        6986040.3860726953        1453044055.4728329     
   834111886.92681921        27440268.120378643        1455310284.6930244     
   811670367.71831298        17257615.359966904        1455418500.4481754     
   790105682.75587893        9997743.4197956026        1459691550.9973874     
   769417832.03951645        5660652.2998642623        1468129436.3406656     
   749606815.56922603        4246342.0001698136        1480732156.4780068     
   413875951.49964756        12766135.804432273        1473391733.3319972     
   403278933.09353095        7861931.4580553174        1476274864.0877264     
   393120331.80104899        4419117.4904609770        1482886211.0326064     
   383400147.62219870        2437693.9016381949        1493225774.1666360     
   374118380.55698323        1917660.6916004717        1507293553.4898205     
  -8.9787929838411273E-002  -1.3601923845493837        1492392424.5956559     
  0.57816212897829322       -1.8110335232384340        1497538983.6974521     
   1.2273094628501990       -2.3245500647987845        1505977140.3834884     
   1.8576527049677101       -2.9007472591518120        1517706894.6537621     
   2.4691888643625477       -3.5396343823023888        1532728246.5082741     
   1504693856.3670483        10136755.849307954        1424229250.4743025     
   1458609726.5367718        8234150.1183593273        1417598118.3486691     
   1412660703.8744478        6781901.6139193177        1415117744.7514083     
   1366846788.3800807        5780010.3360018730        1416788129.6825187     
   1321167980.0536637        5228476.2845885158        1422609273.1420038     
   1126465307.5059137        6986040.3860726953        1453044055.4728329     
   1091418942.2806280        5414105.5978351235        1447086746.4124818     
   1056473907.4830422        4179938.9019327164        1445392958.3023548     
   1021630203.1131564        3283540.2983601689        1447962691.1424553     
   986887829.17097223        2724909.7871285677        1454795944.9327810     
   749606815.56922603        4246342.0001698136        1480732156.4780068     
   725920393.29708350        3101731.6590890586        1475409264.2859738     
   702301524.71238828        2182300.2761661708        1474462655.4660196     
   678750209.81514001        1488047.8513972759        1477892330.0181446     
   655266448.60533822        1018974.3847842216        1485698287.9423521     
   374118380.55698323        1917660.6916004717        1507293553.4898205     
   362114079.58613938        1297028.3021264076        1502565671.9691412     
   350143555.56248796        788985.73662836850        1502326836.2423975     
   338206808.48602903        393532.99510449171        1506577046.3095870     
   326303838.35676521        110670.07756568491        1515316302.1707091     
   2.4691888643625477       -3.5396343823023888        1532728246.5082741     
   1.1477944510591500       -4.4730598117434246        1528555969.4619904     
   3.3339631421902993E-002  -4.7166859017412346        1528985500.6314950     
 -0.87417665825875390       -4.2705172388284378        1534016840.0167847     
  -1.5747522333750144       -3.1345461940343204        1543649987.6178608     
   1321167980.0536637        5228476.2845885158        1422609273.1420038     
   1269373468.3570793        3536632.4628585577        1413631104.3836017     
   1217901696.4644613        2920587.9876865149        1409715542.4308412     
   1166752664.3758044        3380342.8590502739        1410862587.2837172     
   1115926372.0911136        4915897.0769702196        1417072238.9422379     
   986887829.17097223        2724909.7871285677        1454795944.9327810     
   948323020.69911647        1540349.9169561267        1447045017.1565940     
   910000267.07427311        1162639.5368221402        1444291111.8357389     
   871919568.29642737        1591778.6466814876        1446534228.9702137     
   834080924.36559296        2827767.2465786338        1453774368.5600193     
   655266448.60533822        1018974.3847842216        1485698287.9423521     
   629743959.50018835        285483.30876582861        1479080468.6985948     
   604382840.28508770        89891.866245180368        1477394087.5598588     
   579183090.96003175        432200.05720722675        1480639144.5261445     
   554144711.52502656        1312407.8816700280        1488815639.5974565     
   326303838.35676521        110670.07756568491        1515316302.1707091     
   313636284.76029229       -227967.36171405017        1509737459.0095994     
   301049416.09690922       -297655.02402800322        1509024469.6032009     
   288543232.36661834       -98392.909369081259        1513177333.9515178     
   276117733.56941628        369818.98225490749        1522196052.0545456     
  -1.5747522333750144       -3.1345461940343204        1543649987.6178608     
  -3.5205709227002826       -2.0944857112417821        1539015988.0896125     
  -5.4902592088008806       -1.1339898571442850        1539182257.9657669     
  -7.4838150100086347      -0.25305342757140004        1544148797.2463269     
  -9.5012414602635431       0.54831555962309153        1553915605.9312899     
   1115926372.0911136        4915897.0769702196        1417072238.9422379     
   1068521405.8998789        7952961.3311919570        1410793047.6722302     
   1021106960.7013371        10958428.894389212        1408357987.5210249     
   973683036.49548864        13932299.766567230        1409767058.4886174     
   926249633.28233719        16874573.947730005        1415020260.5750091     
   834080924.36559296        2827767.2465786338        1453774368.5600193     
   796809386.10070968        4590221.5984180570        1448354144.5105133     
   759530738.51772308        6328978.2232459784        1447178874.6476426     
   722244981.61663103        8044037.1210585535        1450248558.9714074     
   684952115.39743173        9735398.2918417454        1457563197.4818127     
   554144711.52502656        1312407.8816700280        1488815639.5974565     
   528151809.95175040        2143814.9607137740        1484257147.4058459     
   502154168.74957085        2959423.2767442167        1484344432.4687099     
   476151787.91848534        3759232.8297565877        1489077494.7860501     
   450144667.45849371        4543243.6197487712        1498456334.3578653     
   276117733.56941628        369818.98225490749        1522196052.0545456     
   262548677.45299906        613741.41807189584        1518502056.3582335     
   248977251.39687893        849764.05487912893        1519854660.9842353     
   235403455.40105563        1077886.8926761448        1526253865.9325531     
   221827289.46552470        1298109.9314473122        1537699671.2031808     
  -9.5012414602635431       0.54831555962309153        1553915605.9312899     
  -11.395544947228492       0.97048889071547251        1551088871.3676777     
  -13.540350983300341       0.55765511256363887        1553709560.1942132     
  -15.935663022675721      -0.69019867659997391        1561777672.4109032     
  -18.581479303943109       -2.7730679931823832        1575293208.0177469     
   926249633.28233719        16874573.947730005        1415020260.5750091     
   864066725.92620385        15890614.746179879        1406339144.5899773     
   802222056.60609162        16034115.664691448        1401773850.7018392     
   740715625.32197618        17305076.703196883        1401324378.9105892     
   679547432.07387471        19703497.861748010        1404990729.2162352     
   684952115.39743173        9735398.2918417454        1457563197.4818127     
   634382962.73110700        7817836.3746837080        1451957620.4852397     
   584067488.29245543        6745868.5497630835        1451385325.6259956     
   534005692.08148056        6519494.8171016872        1455846312.9040873     
   484197574.09818375        7138715.1767029464        1465340582.3195186     
   450144667.45849371        4543243.6197487712        1498456334.3578653     
   413810583.88323116        2478473.3073287755        1495827643.2400348     
   377645618.72731310        977431.05939245224        1499149694.2999754     
   341649771.99073774        40116.875935554504        1508422487.5376868     
   305823043.67350882       -333469.24303731322        1523646022.9531820     
   221827289.46552470        1298109.9314473122        1537699671.2031808     
   202349589.38258308       -127474.45585526526        1537949212.8543627     
   182956447.91065729       -1271196.8064403534        1545066956.7237630     
   163647865.04974538       -2133057.1203103662        1559052902.8113775     
   144423840.79984564       -2713055.3974740878        1579907051.1172097     
  -18.581479303943109       -2.7730679931823832        1575293208.0177469     
  -20.770833404885632       -6.9148631875404822        1578322329.3282270     
  -24.157503195645333       -15.047712069067957        1589137112.8973675     
  -28.741493891830377       -27.171628900623102        1607737558.7251656     
  -34.522802565380047       -43.286606350616367        1634123666.8116171     
 -0.17874912859396272       -5.3624738578188821E-002   656446164.60087669     
 -0.18261440894250169       -6.4882680272449408E-003   770948466.39112079     
 -0.19204002799607695        2.2113696805491245E-002   885624978.56672704     
 -0.20702587566646777        3.2181501196711593E-002   1000475701.1276950     
 -0.22757221931078145        2.3714492480536892E-002   1115500634.0740252     
  -448325922.14142752       -134497776.64242825        657920746.60726821     
  -447533864.64656085       -125480802.96716285        774114448.15625477     
  -446008930.19545323       -114020906.10442753        888662374.25087392     
  -443751118.78810447       -100118086.05422252        1001564524.8911258     
  -440760430.42451483       -83772342.816547439        1112820900.0770104     
  -890440755.17826736       -267132226.55348024        662344492.58280504     
  -894056599.72675252       -250658267.11271095        781084617.01263547     
  -896206690.35719538       -229298461.27846751        896358980.14836907     
  -896891027.06959605       -203052809.05075029        1008167581.9900061     
  -896109609.86395442       -171921310.42955863        1116510422.5375469     
  -1326344499.2892690       -397903349.78678066        669717402.52748680     
  -1339568205.4231901       -375532392.44313288        791858972.96026266     
  -1350593280.6772668       -345832665.50000644        908714796.25921249     
  -1359419725.0515006       -308804168.95740175        1020284872.4243366     
  -1366047538.5458915       -264446902.81531897        1126569201.4556346     
  -1756037154.4744320       -526811146.34232962        680039476.44131386     
  -1784068681.7358725       -500103178.95842820        806437515.99913669     
  -1809168701.1556680       -463623518.76904404        925729822.58340406     
  -1831337212.7338188       -417372165.77417767        1037916396.1941161     
  -1850574216.4703250       -361349119.97382832        1142997236.8312731     
 -0.22757221931078145        2.3714492480536892E-002   1115500634.0740252     
 -0.23522561531381100        7.0754156883218455E-003   1188672322.4035118     
 -0.24525716994153818       -1.7490726415291508E-002   1258738458.9850569     
 -0.25766699149503725       -4.9984750198796113E-002   1325699043.8186607     
 -0.27245481511920611       -9.0404927134156959E-002   1389554076.9043233     
  -440760430.42451483       -83772342.816547439        1112820900.0770104     
  -442679553.86500102       -69075500.578880757        1181062976.5265584     
  -445447570.16861904       -57208301.218319789        1247542776.9477980     
  -449064479.33536965       -48170744.734867677        1312260301.3407288     
  -453530281.36525184       -41962831.128520787        1375215549.7053504     
  -896109609.86395442       -171921310.42955863        1116510422.5375469     
  -896109926.10975122       -141376246.74932832        1178832512.1029432     
  -897808028.07943392       -116490468.81538475        1240735601.3596637     
  -901203915.77300310       -97263976.627729654        1302219690.3077090     
  -906297589.19045711       -83696770.186358899        1363284778.9470782     
  -1366047538.5458915       -264446902.81531897        1126569201.4556346     
  -1360291116.9694760       -216902238.50426900        1181980929.1326663     
  -1357081373.9777017       -177846502.80868575        1238316932.2206554     
  -1356418309.5705659       -147279695.72856992        1295577210.7196012     
  -1358301923.7480712       -125201817.26392055        1353761764.6295044     
  -1850574216.4703250       -361349119.97382832        1142997236.8312731     
  -1835223126.4441760       -295653475.84370148        1190508227.6157277     
  -1823267607.8634210       -241276403.19822186        1240286769.5307720     
  -1814707660.7280607       -198217902.03739047        1292332862.5764058     
  -1809543285.0380936       -166477972.36120266        1346646506.7526298     
 -0.27245481511920611       -9.0404927134156959E-002   1389554076.9043233     
 -0.15470051979364979      -0.16755970466442416        1410340163.8044302     
  -8.5004061939525172E-002 -0.40490762071082537        1434408584.0530202     
  -6.3367097169292536E-002 -0.80245341335599740        1461759337.6500959     
  -8.9787929838411273E-002  -1.3601923845493837        1492392424.5956559     
  -453530281.36525184       -41962831.128520787        1375215549.7053504     
  -443138248.00556612       -33068821.444472402        1395770983.5970132     
  -433065181.91846323       -25238036.002367154        1418985492.0737071     
  -423311083.10394263       -18470474.802201599        1444859075.1354325     
  -413875951.56200594       -12766137.843984514        1473391732.7821879     
  -906297589.19045711       -83696770.186358899        1363284778.9470782     
  -887294261.91299260       -66442972.538353473        1383237431.4016852     
  -868928869.13263488       -51315623.214038849        1405225899.6778700     
  -851201410.84938431       -38314722.213413805        1429250183.7756333     
  -834111887.06324089       -27440269.536480486        1455310283.6949739     
  -1358301923.7480712       -125201817.26392055        1353761764.6295044     
  -1332468041.8769798       -100122453.44920307        1372739507.2184443     
  -1307591061.7275195       -78232762.039926469        1393129806.8655081     
  -1283670983.2996900       -59532743.036083937        1414932663.5706983     
  -1260707806.5934927       -44022396.437683821        1438148077.3340118     
  -1809543285.0380936       -166477972.36120266        1346646506.7526298     
  -1778659587.8975272       -134107264.17702079        1364277211.0472908     
  -1749051759.7031162       -105989452.48002470        1382697213.6366231     
  -1720719800.4548602       -82124537.270212114        1401906514.5206275     
  -1693663710.1527615       -62512518.547588825        1421905113.6993022     
  -8.9787929838411273E-002  -1.3601923845493837        1492392424.5956559     
  0.57816212897829322       -1.8110335232384340        1497538983.6974521     
   1.2273094628501990       -2.3245500647987845        1505977140.3834884     
   1.8576527049677101       -2.9007472591518120        1517706894.6537621     
   2.4691888643625477       -3.5396343823023888        1532728246.5082741     
  -413875951.56200594       -12766137.843984514        1473391732.7821879     
  -403278931.83055985       -7861934.1626033485        1476274863.3864007     
  -393120329.26632714       -4419121.0386005193        1482886210.1170113     
  -383400143.86930805       -2437698.4719770402        1493225772.9740248     
  -374118375.63950282       -1917666.4627315104        1507293551.9574349     
  -834111887.06324089       -27440269.536480486        1455310283.6949739     
  -811670366.71926618       -17257617.258172840        1455418499.1284561     
  -790105680.69091296       -9997746.0319356322        1459691549.2305009     
  -769417828.97818351       -5660655.8577786982        1468129434.0011077     
  -749606811.58107519       -4246346.7356920242        1480732153.4402752     
  -1260707806.5934927       -44022396.437683821        1438148077.3340118     
  -1225174304.0879550       -28187051.097735763        1434969890.9236212     
  -1190956053.0464482       -16735877.304559052        1436393157.7239549     
  -1158053053.4689729       -9668875.0581524968        1442417877.7350121     
  -1126465305.3555291       -6986044.3585174084        1453044050.9567921     
  -1693663710.1527615       -62512518.547588825        1421905113.6993022     
  -1643790743.9366267       -40650235.681291938        1414929038.7718954     
  -1595671446.3329322       -24633514.856463611        1412991035.5973735     
  -1549305817.3416774       -14462356.073100805        1416091104.1757376     
  -1504693856.9628642       -10136759.331207097        1424229244.5069869     
   2.4691888643625477       -3.5396343823023888        1532728246.5082741     
   1.1477944510591500       -4.4730598117434246        1528555969.4619904     
   3.3339631421902993E-002  -4.7166859017412346        1528985500.6314950     
 -0.87417665825875390       -4.2705172388284378        1534016840.0167847     
  -1.5747522333750144       -3.1345461940343204        1543649987.6178608     
  -374118375.63950282       -1917666.4627315104        1507293551.9574349     
  -362114077.18567103       -1297035.9207464308        1502565670.6137044     
  -350143555.32361335       -788994.01800818741        1502326835.1561897     
  -338206810.05333179       -393540.75452449918        1506577045.5848906     
  -326303841.37482554       -110676.13029053807        1515316301.8998077     
  -749606811.58107519       -4246346.7356920242        1480732153.4402752     
  -725920391.43650234       -3101738.1436369419        1475409261.5339289     
  -702301524.68242121       -2182307.5198867321        1474462653.1842282     
  -678750211.31883013       -1488054.8644363284        1477892328.3911731     
  -655266451.34572804       -1018980.1772819459        1485698287.1547616     
  -1126465305.3555291       -6986044.3585174084        1453044050.9567921     
  -1091418941.6047044       -5414111.1417432427        1447086742.2226624     
  -1056473908.0430846       -4179945.2223187089        1445392954.7156093     
  -1021630204.6706704       -3283546.6002465487        1447962688.4356313     
  -986887831.48746359       -2724915.2755307555        1454795943.3827260     
  -1504693856.9628642       -10136759.331207097        1424229244.5069869     
  -1458609727.6902738       -8234154.9150564671        1417598112.6799083     
  -1412660705.4056058       -6781907.1253163815        1415117739.7503338     
  -1366846790.1088552       -5780015.9619665146        1416788125.7182629     
  -1321167981.8000255       -5228481.4250175357        1422609270.5836964     
  -1.5747522333750144       -3.1345461940343204        1543649987.6178608     
  -3.5205709227002826       -2.0944857112417821        1539015988.0896125     
  -5.4902592088008806       -1.1339898571442850        1539182257.9657669     
  -7.4838150100086347      -0.25305342757140004        1544148797.2463269     
  -9.5012414602635431       0.54831555962309153        1553915605.9312899     
  -326303841.37482554       -110676.13029053807        1515316301.8998077     
  -313636291.64677322        227962.78504647315        1509737458.8235900     
  -301049426.88107216        297651.82587738335        1509024469.6593473     
  -288543247.07771814        98390.992219805717        1513177334.4070742     
  -276117752.23672038       -369819.71595892310        1522196053.0667715     
  -655266451.34572804       -1018980.1772819459        1485698287.1547616     
  -629743965.63646591       -285488.09446096420        1479080468.1023476     
  -604382849.82803643       -89895.681084156036        1477394087.4694741     
  -579183103.92043984       -432202.93714922667        1480639145.2561388     
  -554144727.91368079       -1312409.8626711667        1488815641.4623442     
  -986887831.48746359       -2724915.2755307555        1454795943.3827260     
  -948323025.48964930       -1540354.7330093980        1447045015.9258814     
  -910000274.33116126       -1162643.6549054980        1444291111.3961468     
  -871919578.01198232       -1591782.0411661863        1446534229.7935216     
  -834080936.53212357       -2827769.8918281198        1453774371.1179993     
  -1321167981.8000255       -5228481.4250175357        1422609270.5836964     
  -1269373471.2063341       -3536637.1306298971        1413631102.2941954     
  -1217901700.3904400       -2920592.0955646634        1409715541.4393702     
  -1166752669.3523438       -3380346.3198266625        1410862588.0192194     
  -1115926378.0920520       -4915899.8034375310        1417072242.0337443     
  -9.5012414602635431       0.54831555962309153        1553915605.9312899     
  -11.395544947228492       0.97048889071547251        1551088871.3676777     
  -13.540350983300341       0.55765511256363887        1553709560.1942132     
  -15.935663022675721      -0.69019867659997391        1561777672.4109032     
  -18.581479303943109       -2.7730679931823832        1575293208.0177469     
  -276117752.23672038       -369819.71595892310        1522196053.0667715     
  -262548699.83450294       -613741.55926445127        1518502057.5779576     
  -248977277.90081891       -849764.96434786916        1519854662.5268102     
  -235403486.43566626       -1077889.9312026948        1526253867.9133310     
  -221827325.43904477       -1298116.4598264098        1537699673.7375159     
  -554144727.91368079       -1312409.8626711667        1488815641.4623442     
  -528151829.65062273       -2143816.5021780133        1484257149.7939646     
  -502154192.07412213       -2959425.4302076697        1484344435.6107664     
  -476151815.18417913       -3759236.6467628479        1489077498.9127469     
  -450144698.98079318       -4543250.1518413723        1498456339.6999094     
  -834080936.53212357       -2827769.8918281198        1453774371.1179993     
  -796809400.84389913       -4590223.8582327068        1448354148.0156932     
  -759530756.06025815       -6328980.8399158716        1447178879.4460828     
  -722245002.18119740       -8044040.8368696570        1450248565.4091632     
  -684952139.20672655       -9735403.8491176665        1457563205.9049380     
  -1115926378.0920520       -4915899.8034375310        1417072242.0337443     
  -1068521413.4143335       -7952963.6274363995        1410793052.2431457     
  -1021106969.8592247       -10958431.193469107        1408357994.0327559     
  -973683047.42672586       -13932302.501532674        1409767067.4025743     
  -926249646.11683893       -16874577.551637709        1415020272.3525984     
  -18.581479303943109       -2.7730679931823832        1575293208.0177469     
  -20.770833404885632       -6.9148631875404822        1578322329.3282270     
  -24.157503195645333       -15.047712069067957        1589137112.8973675     
  -28.741493891830377       -27.171628900623102        1607737558.7251656     
  -34.522802565380047       -43.286606350616367        1634123666.8116171     
  -221827325.43904477       -1298116.4598264098        1537699673.7375159     
  -202349629.22634092        127461.12406655401        1537949213.9986095     
  -182956493.61256245        1271170.0448795557        1545066956.5274739     
  -163647918.59770167        2133010.3026300743        1559052901.3241050     
  -144423904.18176952        2712981.8972875550        1579907048.3885026     
  -450144698.98079318       -4543250.1518413723        1498456339.6999094     
  -413810618.62572247       -2478485.1201692373        1495827646.2764182     
  -377645658.27117825       -977453.42358204722        1499149695.1298034     
  -341649817.91715997       -40155.062086015940        1508422486.2600596     
  -305823097.56367356        333409.96430701017        1523646019.6671951     
  -684952139.20672655       -9735403.8491176665        1457563205.9049380     
  -634382988.96897304       -7817845.6475574076        1451957626.1616504     
  -584067518.13335574       -6745885.4531156719        1451385328.7043483     
  -534005726.69987249       -6519523.2657884061        1455846313.5330255     
  -484197614.66851729       -7138759.0855554342        1465340580.6476922     
  -926249646.11683893       -16874577.551637709        1415020272.3525984     
  -864066740.25609970       -15890620.458121687        1406339153.6543086     
  -802222073.19909573       -16034126.043722212        1401773857.2511132     
  -740715644.94582975       -17305094.308448583        1401324383.1430087     
  -679547455.49630260       -19703525.252307057        1404990731.3300009     
  -1756037154.4744320       -526811146.34232962        680039476.44131386     
  -1784068681.7358725       -500103178.95842820        806437515.99913669     
  -1809168701.1556680       -463623518.76904404        925729822.58340406     
  -1831337212.7338188       -417372165.77417767        1037916396.1941161     
  -1850574216.4703250       -361349119.97382832        1142997236.8312731     
  -2201742364.1507792       -660522709.24523377        696420018.11600220     
  -2238366048.1542649       -613901465.57262528        813841436.03295064     
  -2272945223.9152584       -560465194.42504203        927163864.13217902     
  -2305479891.4337602       -500213895.80248356        1036387302.4136875     
  -2335970050.7097678       -433147569.70494980        1141511750.8774767     
  -2685683771.7353320       -805705131.52059960        721968331.34326804     
  -2722308917.7499056       -736593403.13999701        829378294.75366449     
  -2757776555.1211386       -663623312.61492634        935696011.50217628     
  -2792086683.8490319       -586794859.94538856        1040921481.5888036     
  -2825239303.9335847       -506108045.13138324        1145054705.0135467     
  -3207861377.2280917       -962358413.16842747        756684416.12311149     
  -3235897290.5227938       -868178991.66054273        853048092.16127837     
  -3263662694.7733083       -773097873.33869803        951326264.69339573     
  -3291157589.9796352       -677115058.20289278        1051518933.7194645     
  -3318381976.1417732       -580230546.25312829        1153626099.2394843     
  -3768275180.6290574       -1130482554.1887174        800568272.45553243     
  -3779131166.4729304       -1008658231.1342633        884850828.25579190     
  -3790603642.8717685       -888888876.59635639        974054623.70583761     
  -3802692609.8255696       -771174490.57499683        1068179658.8056700     
  -3815398067.3343349       -655515073.07018530        1167225933.5552883     
  -1850574216.4703250       -361349119.97382832        1142997236.8312731     
  -1835223126.4441760       -295653475.84370148        1190508227.6157277     
  -1823267607.8634210       -241276403.19822186        1240286769.5307720     
  -1814707660.7280607       -198217902.03739047        1292332862.5764058     
  -1809543285.0380936       -166477972.36120266        1346646506.7526298     
  -2335970050.7097678       -433147569.70494980        1141511750.8774767     
  -2312442341.5224390       -352089944.47897863        1182746869.2311316     
  -2292418961.2878652       -282713415.76219261        1224459070.9406793     
  -2275899910.0060458       -225017983.55458856        1266648356.0061193     
  -2262885187.6769814       -179003647.85616779        1309314724.4274521     
  -2825239303.9335847       -506108045.13138324        1145054705.0135467     
  -2798650597.7984958       -411223125.47359461        1179887067.1778145     
  -2775674978.1235237       -328381827.34952724        1213406044.9232774     
  -2756312444.9086676       -257584150.75917900        1245611638.2499359     
  -2740562998.1539264       -198830095.70255113        1276503847.1577888     
  -3318381976.1417732       -580230546.25312829        1153626099.2394843     
  -3293847895.2723470       -473053018.82754874        1181928821.4557767     
  -3273035658.3703976       -378281637.96022618        1207127691.4785674     
  -3255945265.4359250       -295916403.65116084        1229222709.3078549     
  -3242576716.4689283       -225957315.90035057        1248213874.9436421     
  -3815398067.3343349       -655515073.07018530        1167225933.5552883     
  -3798034233.9439912       -537579624.54084015        1188872132.0650182     
  -3784501002.0284848       -432412847.59428930        1205624010.6065483     
  -3774798371.5878172       -340014742.23053169        1217481569.1798790     
  -3768926342.6219873       -260385308.44956756        1224444807.7850096     
  -1809543285.0380936       -166477972.36120266        1346646506.7526298     
  -1778659587.8975272       -134107264.17702079        1364277211.0472908     
  -1749051759.7031162       -105989452.48002470        1382697213.6366231     
  -1720719800.4548602       -82124537.270212114        1401906514.5206275     
  -1693663710.1527615       -62512518.547588825        1421905113.6993022     
  -2262885187.6769814       -179003647.85616779        1309314724.4274521     
  -2223251399.4625087       -134683618.18842983        1317202062.6235614     
  -2186495716.8862491       -99957273.981406569        1328273406.0856459     
  -2152618139.9482045       -74824615.235099912        1342528754.8137059     
  -2121618668.6483755       -59285641.949509382        1359968108.8077393     
  -2740562998.1539264       -198830095.70255113        1276503847.1577888     
  -2685337098.9475365       -140508138.57585371        1272778543.1146123     
  -2634591542.0714202       -97120655.883400798        1274631951.3087139     
  -2588326327.5255756       -68667647.625193954        1282064071.7400942     
  -2546541455.3100071       -55149113.801233530        1295074904.4087515     
  -3242576716.4689283       -225957315.90035057        1248213874.9436421     
  -3164916686.3526120       -151580825.33929217        1231006652.5204432     
  -3093339235.2586269       -97479598.186004281        1221772849.3058259     
  -3027844363.1869769       -63653634.440498114        1220512465.2997901     
  -2968432070.1376576       -50102934.102764130        1227225500.5023363     
  -3768926342.6219873       -260385308.44956756        1224444807.7850096     
  -3661990161.6777349       -167901678.47874391        1191886390.8410544     
  -3562738796.4478726       -101034100.88922071        1169696100.0769830     
  -3471172246.9324036       -59782575.681008339        1157873935.4927967     
  -3387290513.1313252       -44147102.854098082        1156419897.0884960     
  -1693663710.1527615       -62512518.547588825        1421905113.6993022     
  -1643790743.9366267       -40650235.681291938        1414929038.7718954     
  -1595671446.3329322       -24633514.856463611        1412991035.5973735     
  -1549305817.3416774       -14462356.073100805        1416091104.1757376     
  -1504693856.9628642       -10136759.331207097        1424229244.5069869     
  -2121618668.6483755       -59285641.949509382        1359968108.8077393     
  -2060064033.1996703       -40855758.452979565        1352146432.3330090     
  -1999769076.0910294       -26624802.756662965        1349064675.6773150     
  -1940733797.3224504       -16592774.860557318        1350722838.8406584     
  -1882958196.8939373       -10759674.764663696        1357120921.8230414     
  -2546541455.3100071       -55149113.801233530        1295074904.4087515     
  -2474157013.2968664       -40407188.474907994        1286983948.3711348     
  -2402538259.3514156       -28217556.707547307        1283334760.2187083     
  -2331685193.4736509       -18580218.499140382        1284127339.9514709     
  -2261597815.6635737       -11495173.849692583        1289361687.5694246     
  -2968432070.1376576       -50102934.102764130        1227225500.5023363     
  -2886069684.2282181       -39304525.747086525        1219441586.8862739     
  -2803978996.1140914       -29411776.709112883        1215801289.2215519     
  -2722160005.7952781       -20424686.988849163        1216304607.5081749     
  -2640612713.2717757       -12343256.586290956        1220951541.7461383     
  -3387290513.1313252       -44147102.854098082        1156419897.0884960     
  -3295802045.9937258       -37547770.269510984        1149519347.8784251     
  -3204091286.3790622       -30207462.761376381        1146464262.6858487     
  -3112158234.2873325       -22126180.329690695        1147254641.5107672     
  -3020002889.7185397       -13303922.974454880        1151890484.3531814     
  -1504693856.9628642       -10136759.331207097        1424229244.5069869     
  -1458609727.6902738       -8234154.9150564671        1417598112.6799083     
  -1412660705.4056058       -6781907.1253163815        1415117739.7503338     
  -1366846790.1088552       -5780015.9619665146        1416788125.7182629     
  -1321167981.8000255       -5228481.4250175357        1422609270.5836964     
  -1882958196.8939373       -10759674.764663696        1357120921.8230414     
  -1825297650.0402446       -7429505.8051693439        1350202042.3658195     
  -1768004951.2622776       -5325497.0980920792        1347707902.6404006     
  -1711080100.5600376       -4447648.6434348822        1349638502.6467817     
  -1654523097.9335227       -4795960.4411983490        1355993842.3849657     
  -2261597815.6635737       -11495173.849692583        1289361687.5694246     
  -2191578048.8450713       -6502599.6317340136        1281883529.2129543     
  -2122158871.1901002       -3511989.2922146320        1279104091.4225838     
  -2053340282.6986599       -2523342.8311318159        1281023374.1983120     
  -1985122283.3707547       -3536660.2484947443        1287641377.5401397     
  -2640612713.2717757       -12343256.586290956        1220951541.7461383     
  -2557450924.1047540       -5453436.3947536945        1212642573.2213118     
  -2475122465.1890731       -1341383.7076865435        1209306306.0968833     
  -2393627336.5247278       -7098.5250658988953        1210942740.3728504     
  -2312965538.1117220       -1450580.8469176292        1217551876.0492146     
  -3020002889.7185397       -13303922.974454880        1151890484.3531814     
  -2922916275.8192940       -4282016.0942389965        1142479174.3908925     
  -2826895733.2591934        1186319.6555057764        1138314546.6632977     
  -2731941262.0382357        3101084.2747687101        1139396601.1703982     
  -2638052862.1564236        1462277.7635494471        1145725337.9121926     
  -1321167981.8000255       -5228481.4250175357        1422609270.5836964     
  -1269373471.2063341       -3536637.1306298971        1413631102.2941954     
  -1217901700.3904400       -2920592.0955646634        1409715541.4393702     
  -1166752669.3523438       -3380346.3198266625        1410862588.0192194     
  -1115926378.0920520       -4915899.8034375310        1417072242.0337443     
  -1654523097.9335227       -4795960.4411983490        1355993842.3849657     
  -1589980793.1266639       -3602941.9959739447        1347575948.4847357     
  -1525633888.8667905       -3061258.7073687315        1344016556.3559208     
  -1461482385.1539040       -3170910.5753863454        1345315665.9985189     
  -1397526281.9880066       -3931897.6000343561        1351473277.4125330     
  -1985122283.3707547       -3536660.2484947443        1287641377.5401397     
  -1908415343.3886168       -3017415.3638089895        1279932320.4651270     
  -1831776464.7226524       -2725041.5330327749        1276877659.4982700     
  -1755205647.3728595       -2659538.7561612129        1278477394.6395674     
  -1678702891.3392422       -2820907.0332119465        1284731525.8890173     
  -2312965538.1117220       -1450580.8469176292        1217551876.0492146     
  -2224677121.9921923       -1780057.2341321707        1210700218.2353690     
  -2136329427.9580195       -1911940.5725351572        1208298850.8664198     
  -2047922456.0092139       -1846230.8621660471        1210347773.9423640     
  -1959456206.1457632       -1582928.1029771566        1216846987.4631987     
  -2638052862.1564236        1462277.7635494471        1145725337.9121926     
  -2538766128.9373903        109132.39306294918        1139879641.7954631     
  -2439292778.5729032       -621955.82591426373        1138280130.4603696     
  -2339632811.0629578       -730986.89336264133        1140926803.9069064     
  -2239786226.4075680       -217960.80932724476        1147819662.1350780     
  -1115926378.0920520       -4915899.8034375310        1417072242.0337443     
  -1068521413.4143335       -7952963.6274363995        1410793052.2431457     
  -1021106969.8592247       -10958431.193469107        1408357994.0327559     
  -973683047.42672586       -13932302.501532674        1409767067.4025743     
  -926249646.11683893       -16874577.551637709        1415020272.3525984     
  -1397526281.9880066       -3931897.6000343561        1351473277.4125330     
  -1340037473.9817648       -7101204.2403224707        1345331231.7859542     
  -1282661923.2754006       -10648035.213533401        1343132374.7125585     
  -1225399629.8689184       -14572390.519684672        1344876706.1923485     
  -1168250593.7623153       -18874270.158767939        1350564226.2253194     
  -1678702891.3392422       -2820907.0332119465        1284731525.8890173     
  -1610847220.0816894       -6037550.5129488707        1278583432.2196438     
  -1543227542.3012848       -10040838.916517138        1276477584.0764296     
  -1475843857.9980271       -14830772.243905008        1278413981.4593775     
  -1408696167.1719217       -20407350.495135486        1284392624.3684840     
  -1959456206.1457632       -1582928.1029771566        1216846987.4631987     
  -1880950651.7141087       -4762002.4453326464        1210549653.5442185     
  -1802803826.9368725       -9136842.3024051189        1208393622.1243758     
  -1725015731.8140507       -14707447.674199700        1210378893.2036664     
  -1647586366.3456500       -21473818.560727060        1216505466.7820942     
  -2239786226.4075680       -217960.80932724476        1147819662.1350780     
  -2150347768.8790259       -3274560.0374590158        1141229895.7596741     
  -2061390777.1821680       -7936045.3712130785        1138880488.8563869     
  -1972915251.3169928       -14202416.810571909        1140771441.4252071     
  -1884921191.2835128       -22073674.355582476        1146902753.4661446     
  -926249646.11683893       -16874577.551637709        1415020272.3525984     
  -864066740.25609970       -15890620.458121687        1406339153.6543086     
  -802222073.19909573       -16034126.043722212        1401773857.2511132     
  -740715644.94582975       -17305094.308448583        1401324383.1430087     
  -679547455.49630260       -19703525.252307057        1404990731.3300009     
  -1168250593.7623153       -18874270.158767939        1350564226.2253194     
  -1095228120.7371502       -18753558.813734531        1342318542.6952622     
  -1022316197.0658129       -19001345.314791977        1338494376.0154707     
  -949514822.74830151       -19617629.661939681        1339091726.1859601     
  -876823997.78462005       -20602411.855185539        1344110593.2067044     
  -1408696167.1719217       -20407350.495135486        1284392624.3684840     
  -1323960713.9675407       -20887860.994156003        1276848013.6982195     
  -1239108120.6670759       -20977904.506228387        1274030614.4334059     
  -1154138387.2705336       -20677481.031365454        1275940426.5740318     
  -1069051513.7778969       -19986590.569545150        1282577450.1201131     
  -1647586366.3456500       -21473818.560727060        1216505466.7820942     
  -1550264519.9472666       -22293526.999374747        1209927566.6631866     
  -1452597844.0028844       -21963803.618026972        1208382572.5048978     
  -1354586338.5125053       -20484648.416703165        1211870484.3072462     
  -1256230003.4761395       -17856061.395401299        1220391302.0701983     
  -1884921191.2835128       -22073674.355582476        1146902753.4661446     
  -1774139538.6763287       -22970556.829397678        1141557201.5901525     
  -1662785367.0732355       -21959042.650189102        1141550250.2299645     
  -1550858676.4742405       -19039131.817980111        1146881899.3855743     
  -1438359466.8793409       -14210824.332738221        1157552149.0569899     
  -3768275180.6290574       -1130482554.1887174        800568272.45553243     
  -3779131166.4729304       -1008658231.1342633        884850828.25579190     
  -3790603642.8717685       -888888876.59635639        974054623.70583761     
  -3802692609.8255696       -771174490.57499683        1068179658.8056700     
  -3815398067.3343349       -655515073.07018530        1167225933.5552883     
  -4339780126.6480188       -1301934037.9944057        858763565.55311501     
  -4335256433.4729366       -1125707256.8047900        942356908.64489543     
  -4331873215.9380922       -953282061.08263290        1020305120.9933562     
  -4329630474.0434847       -784658450.82793462        1092608202.5984979     
  -4328528207.7891169       -619836426.04069436        1159266153.4603200     
  -4895231159.9947691       -1468569347.9984307        936413960.62844348     
  -4905517417.4953184       -1246996997.5820298        1018706775.0789257     
  -4917468135.7213783       -1030972849.5839984        1084788088.3929830     
  -4931083314.6729488       -820496904.00433648        1134657900.5706151     
  -4946362954.3500328       -615569160.84304428        1168316211.6118221     
  -5434628280.6693048       -1630388484.2007916        1033519457.6815182     
  -5489914118.5400743       -1372527453.4659820        1113900427.5578830     
  -5547388402.2216282       -1121961242.1004529        1167503525.9047177     
  -5607051131.7139645       -878689850.10420358        1194328752.7220216     
  -5668902307.0170860       -642713277.47723603        1194376108.0097952     
  -5957971488.6716280       -1787391446.6014886        1150080056.7123384     
  -6088446536.6072035       -1502298624.4566457        1227937866.0817676     
  -6221634015.4388371       -1226247238.6319952        1268451433.5285606     
  -6357533925.1665277       -959237289.12753546        1271620759.0527172     
  -6496146265.7902765       -701268775.94326758        1237445842.6542382     
  -3815398067.3343349       -655515073.07018530        1167225933.5552883     
  -3798034233.9439912       -537579624.54084015        1188872132.0650182     
  -3784501002.0284848       -432412847.59428930        1205624010.6065483     
  -3774798371.5878172       -340014742.23053169        1217481569.1798790     
  -3768926342.6219873       -260385308.44956756        1224444807.7850096     
  -4328528207.7891169       -619836426.04069436        1159266153.4603200     
  -4298287587.5046873       -464089256.90312302        1141328092.3666596     
  -4278653543.3549781       -343697341.54795384        1129463790.2501345     
  -4269626075.3399911       -258660679.97518635        1123673247.1107442     
  -4271205183.4597268       -208979272.18482471        1123956462.9484897     
  -4946362954.3500328       -615569160.84304428        1168316211.6118221     
  -4871908178.7562771       -412609060.57267404        1102888587.1449084     
  -4814835953.9571257       -267590796.28431630        1054502800.6004653     
  -4775146279.9525776       -180514367.97796726        1023158851.9784917     
  -4752839156.7426338       -151379775.65363169        1008856741.2789871     
  -5668902307.0170860       -642713277.47723603        1194376108.0097952     
  -5518896007.6987629       -383139035.54949427        1073553616.3997653     
  -5393048233.8349266       -204093211.80337167        980741041.65753973     
  -5291358985.4255781       -105575806.23887324        915938383.78311992     
  -5213828262.4707108       -87586818.855990171        879145642.77650237     
  -6496146265.7902765       -701268775.94326758        1237445842.6542382     
  -6239251074.3321447       -375679181.83358240        1053323180.1312284     
  -6013290382.9883814       -153204588.10512733        908178513.42135930     
  -5818264191.7589855       -33844994.757897139        802011842.52462780     
  -5654172500.6439590       -17600401.791898966        734823167.44103682     
  -3768926342.6219873       -260385308.44956756        1224444807.7850096     
  -3661990161.6777349       -167901678.47874391        1191886390.8410544     
  -3562738796.4478726       -101034100.88922071        1169696100.0769830     
  -3471172246.9324036       -59782575.681008339        1157873935.4927967     
  -3387290513.1313252       -44147102.854098082        1156419897.0884960     
  -4271205183.4597268       -208979272.18482471        1123956462.9484897     
  -4148538145.2658939       -144791209.40810800        1090518575.4448376     
  -4030275864.2830892       -95285670.668142796        1065342967.4596169     
  -3916418340.5113063       -60462655.964928865        1048429638.9928275     
  -3806965573.9505539       -40322165.298472404        1039778590.0444704     
  -4752839156.7426338       -151379775.65363169        1008856741.2789871     
  -4620457966.0462322       -117292291.49512601        978366118.13623190     
  -4489201474.0574913       -86953803.028820038        954031927.85045421     
  -4359069680.7764111       -60364310.254714489        935854170.42165577     
  -4230062586.2029915       -37523813.172809839        923832845.84983373     
  -5213828262.4707108       -87586818.855990171        879145642.77650237     
  -5077749624.0187502       -85404924.739795685        855429018.91523731     
  -4939515625.7710857       -76038497.971255302        835762981.24949729     
  -4799126267.7277136       -59487538.550355911        820147529.77928269     
  -4656581549.8886356       -35752046.477110863        808582664.50459158     
  -5654172500.6439590       -17600401.791898966        734823167.44103682     
  -5520413119.1834478       -49129109.142123222        721707277.78185582     
  -5381218319.4238682       -62539755.495447159        710536127.65674484     
  -5236588101.3652153       -57832340.851858616        701309717.06570697     
  -5086522465.0074911       -35006865.211371899        694028046.00873864     
  -3387290513.1313252       -44147102.854098082        1156419897.0884960     
  -3295802045.9937258       -37547770.269510984        1149519347.8784251     
  -3204091286.3790622       -30207462.761376381        1146464262.6858487     
  -3112158234.2873325       -22126180.329690695        1147254641.5107672     
  -3020002889.7185397       -13303922.974454880        1151890484.3531814     
  -3806965573.9505539       -40322165.298472404        1039778590.0444704     
  -3703357774.8195229       -29586392.468068838        1031775226.2535447     
  -3600389983.9327235       -20983980.451769590        1028294398.3833437     
  -3498062201.2901554       -14514929.249573469        1029336106.4338701     
  -3396374426.8918161       -10179238.861476183        1034900350.4051204     
  -4230062586.2029915       -37523813.172809839        923832845.84983373     
  -4112400963.9264431       -22071252.750967503        913720649.96987677     
  -3996241650.6154194       -11626388.880875111        908808061.91387534     
  -3881584646.2699208       -6189221.5625340939        909095081.68183184     
  -3768429950.8899498       -5759750.7959513664        914581709.27374232     
  -4656581549.8886356       -35752046.477110863        808582664.50459158     
  -4522931613.3144817       -15002351.118200302        795355619.02742314     
  -4391646286.4271460       -2134688.0486860275        788005253.27744317     
  -4262725569.2266340        2850942.7314167023        786531567.25464904     
  -4136169461.7129431       -45458.777887821198        790934560.95904136     
  -5086522465.0074911       -35006865.211371899        694028046.00873864     
  -4934949722.9836426       -8379687.5697681904        676680133.42618215     
  -4786603891.3679094        7491122.0447843075        665885972.47404420     
  -4641484970.1602926        12605563.632284403        661645563.15232491     
  -4499592959.3607922        6963637.1927225590        663958905.46102154     
  -3020002889.7185397       -13303922.974454880        1151890484.3531814     
  -2922916275.8192940       -4282016.0942389965        1142479174.3908925     
  -2826895733.2591934        1186319.6555057764        1138314546.6632977     
  -2731941262.0382357        3101084.2747687101        1139396601.1703982     
  -2638052862.1564236        1462277.7635494471        1145725337.9121926     
  -3396374426.8918161       -10179238.861476183        1034900350.4051204     
  -3287516884.9355273       -5430386.0660467148        1025856378.4842378     
  -3179165115.7416363       -2367442.4786099195        1021606373.7767216     
  -3071319119.3101392       -990408.09916090965        1022150336.2825754     
  -2963978895.6410456       -1299282.9277037382        1027488266.0017983     
  -3768429950.8899498       -5759750.7959513664        914581709.27374232     
  -3649094952.3661175       -5671993.5321612358        906558757.06713295     
  -3529705428.0279355       -5402483.5538742542        902877057.05256748     
  -3410261377.8754072       -4951220.8610947132        903536609.23004735     
  -3290762801.9085245       -4318205.4538123608        908537413.59956598     
  -4136169461.7129431       -45458.777887821198        790934560.95904136     
  -4007650478.1110692       -5006838.4925825596        784586310.13957942     
  -3878516670.1180983       -7918803.5702979565        782126596.49083352     
  -3748768037.7340317       -8781354.0110280514        783555420.01280379     
  -3618404580.9588776       -7594489.8147823811        788872780.70549273     
  -4499592959.3607922        6963637.1927225590        663958905.46102154     
  -4363183462.1703768       -3434920.9473142624        659939037.70157433     
  -4225598842.0121231       -9916402.5278830528        659354992.09151912     
  -4086839098.8860283       -12480807.548987627        662206768.63085687     
  -3946904232.7920885       -11128136.010609627        668494367.31958401     
  -2638052862.1564236        1462277.7635494471        1145725337.9121926     
  -2538766128.9373903        109132.39306294918        1139879641.7954631     
  -2439292778.5729032       -621955.82591426373        1138280130.4603696     
  -2339632811.0629578       -730986.89336264133        1140926803.9069064     
  -2239786226.4075680       -217960.80932724476        1147819662.1350780     
  -2963978895.6410456       -1299282.9277037382        1027488266.0017983     
  -2853193841.1946621       -1379545.2914139032        1021466031.2642546     
  -2742433675.5913944       -1542770.4655022621        1019748731.9953221     
  -2631698398.8312297       -1788958.4499454498        1022336368.1949961     
  -2520988010.9141836       -2118109.2447645664        1029228939.8632791     
  -3290762801.9085245       -4318205.4538123608        908537413.59956598     
  -3168311567.1291552       -3075227.0790662766        902091883.25455034     
  -3046096727.1814570       -2620231.4765583277        900010039.06512034     
  -2924118282.0654359       -2953218.6463017464        902291881.03127456     
  -2802376231.7810836       -4074188.5882837772        908937409.15301180     
  -3618404580.9588776       -7594489.8147823811        788872780.70549273     
  -3484119306.7408690       -4977912.9698736668        781757197.76634848     
  -3350281933.3431058       -3854338.8591072559        779064051.66976523     
  -3216892460.7655663       -4223767.4824317694        780793342.41574073     
  -3083950889.0082741       -6086198.8398951292        786945070.00427806     
  -3946904232.7920885       -11128136.010609627        668494367.31958401     
  -3800617060.0298052       -7087602.9638624191        660461974.79965293     
  -3654989294.0763154       -5245092.6130964756        656910769.80925655     
  -3510020934.9316330       -5600604.9583468437        657840752.34840155     
  -3365711982.5957441       -8154139.9995837212        663251922.41707790     
  -2239786226.4075680       -217960.80932724476        1147819662.1350780     
  -2150347768.8790259       -3274560.0374590158        1141229895.7596741     
  -2061390777.1821680       -7936045.3712130785        1138880488.8563869     
  -1972915251.3169928       -14202416.810571909        1140771441.4252071     
  -1884921191.2835128       -22073674.355582476        1146902753.4661446     
  -2520988010.9141836       -2118109.2447645664        1029228939.8632791     
  -2420910292.4532084       -6096768.0326306820        1022088829.1915032     
  -2321110788.7686095       -11002809.408440351        1019105188.8940421     
  -2221589499.8603935       -16836233.372185946        1020278018.9708964     
  -2122346425.7285666       -23597039.923885703        1025607319.4220663     
  -2802376231.7810836       -4074188.5882837772        908937409.15301180     
  -2691898935.5242352       -9046811.8768609762        901484080.41605091     
  -2581496602.9884701       -14269314.235699654        898103332.95560980     
  -2471169234.1737795       -19741695.664792061        898795166.77168489     
  -2360916829.0801687       -25463956.164155006        903559581.86427605     
  -3083950889.0082741       -6086198.8398951292        786945070.00427806     
  -2963313698.0921249       -12124691.570148945        779415649.43332160     
  -2842548219.8417444       -17735559.852980018        775874921.04108584     
  -2721654454.2571387       -22918803.688391924        776322884.82757187     
  -2600632401.3383126       -27674423.076389313        780759540.79277158     
  -3365711982.5957441       -8154139.9995837212        663251922.41707790     
  -3235154580.1568546       -15330407.112489104        655883536.24331367     
  -3104265639.3284359       -21401546.260288715        652419953.15047288     
  -2973045160.1104808       -26367557.442982674        652861173.13855362     
  -2841493142.5030022       -30228440.660587430        657207196.20755517     
  -1884921191.2835128       -22073674.355582476        1146902753.4661446     
  -1774139538.6763287       -22970556.829397678        1141557201.5901525     
  -1662785367.0732355       -21959042.650189102        1141550250.2299645     
  -1550858676.4742405       -19039131.817980111        1146881899.3855743     
  -1438359466.8793409       -14210824.332738221        1157552149.0569899     
  -2122346425.7285666       -23597039.923885703        1025607319.4220663     
  -1998183370.3325052       -24746063.593084693        1019477401.4535060     
  -1874971250.5974898       -29064872.799120069        1018360456.1595219     
  -1752710066.5235419       -36553467.542031050        1022256483.5401136     
  -1631399818.1106434       -47211847.821779072        1031165483.5952891     
  -2360916829.0801687       -25463956.164155006        903559581.86427605     
  -2224302736.1558619       -27144230.606924057        894867934.03668833     
  -2090163033.5495689       -37072472.776411295        890863631.04245639     
  -1958497721.2612925       -55248682.672621608        891546672.88158214     
  -1829306799.2910280       -81672860.295531094        896917059.55405831     
  -2600632401.3383126       -27674423.076389313        780759540.79277158     
  -2452497636.1464014       -30165057.870925784        767728799.33970571     
  -2308360715.9294610       -45981842.582046747        759059774.87877333     
  -2168221640.6874928       -75124777.209738135        754752467.40997577     
  -2032080410.4205081       -117593861.75402188        754806876.93331027     
  -2841493142.5030022       -30228440.660587430        657207196.20755517     
  -2682768070.3041148       -33808545.385069609        638059997.36255729     
  -2529564297.7371655       -55792982.216014147        622948887.66847134     
  -2381881824.8021512       -96181751.153410673        611873867.12529075     
  -2239720651.4990606       -154974852.19722772        604834935.73302972     
  -5957971488.6716280       -1787391446.6014886        1150080056.7123384     
  -6088446536.6072035       -1502298624.4566457        1227937866.0817676     
  -6221634015.4388371       -1226247238.6319952        1268451433.5285606     
  -6357533925.1665277       -959237289.12753546        1271620759.0527172     
  -6496146265.7902765       -701268775.94326758        1237445842.6542382     
  -6810628531.3037243       -2043188559.3911173        1353794970.0619214     
  -6828528728.3260670       -1395488502.6802084        1202774076.7042971     
  -6897790404.6114979       -918993376.84626293        1092014871.8411660     
  -7018413560.1600189       -613703181.88928199        1021517355.4725279     
  -7190398194.9716272       -479617917.80926347        991281527.59838235     
  -8337967155.8675804       -2501390146.7602739        1712363410.0712843     
  -8021561272.2134619       -1424563486.5543303        1275706590.8917363     
  -7805165916.1894665       -681105251.78212404        956917390.62381101     
  -7688781087.7955875       -271015442.44365120        755995809.26750731     
  -7672406787.0318346       -194294058.53891659        672941846.82282639     
  -10539987362.363195       -3161996208.7089586        2225785376.7404275     
  -9667544168.2693920       -1589523576.0790133        1446735408.6440854     
  -8943760550.1727390       -512582863.43957472        863158989.87649512     
  -8368636508.0732384        68825929.209355831        475056120.43765616     
  -7942172041.9708910        154702801.86777592        282426800.32756865     
  -13416689150.790571       -4025006745.2371716        2894060870.0693502     
  -11766477416.493855       -1890368771.2542558        1715860529.9613435     
  -10313574306.561323       -413426211.81862020        810739669.59921837     
  -9057979820.9929714        405820933.06973505        178698288.98297408     
  -7999693959.7888079        567372663.41081047       -180263611.88739055     
  -6496146265.7902765       -701268775.94326758        1237445842.6542382     
  -6239251074.3321447       -375679181.83358240        1053323180.1312284     
  -6013290382.9883814       -153204588.10512733        908178513.42135930     
  -5818264191.7589855       -33844994.757897139        802011842.52462780     
  -5654172500.6439590       -17600401.791898966        734823167.44103682     
  -7190398194.9716272       -479617917.80926347        991281527.59838235     
  -6900506504.0391407       -304307556.39159560        846975032.35922706     
  -6623432103.3285637       -171721495.71362424        723752286.90843976     
  -6359174992.8398972       -81859735.775349379        621613291.24601924     
  -6107735172.5731354       -34722276.576766253        540558045.37196767     
  -7672406787.0318346       -194294058.53891659        672941846.82282639     
  -7400645013.8386250       -184600854.97735786        589588263.74206102     
  -7123583320.9748678       -157241252.51395798        509424184.42489260     
  -6841221708.4405565       -112215251.14872289        432449608.87132061     
  -6553560176.2356949       -49522850.881647348        358664537.08134556     
  -7942172041.9708910        154702801.86777592        282426800.32756865     
  -7739666603.7305975       -16559077.590864182        281162874.27973050     
  -7513744035.9272900       -109763858.50613117        265194205.97071782     
  -7264404338.5609713       -124911540.87802267        234520795.40053377     
  -6991647511.6316376       -62002124.706541061        189142642.56917161     
  -7999693959.7888079        567372663.41081047       -180263611.88739055     
  -7917571273.7150536        199817775.76788378       -78301136.027763695     
  -7793914248.1858311       -29289313.690136909       -8937648.4540805034     
  -7628722883.2011309       -119948604.96324682        27826850.833652701     
  -7421997178.7609634       -72160098.051453114        31992361.835442293     
  -5654172500.6439590       -17600401.791898966        734823167.44103682     
  -5520413119.1834478       -49129109.142123222        721707277.78185582     
  -5381218319.4238682       -62539755.495447159        710536127.65674484     
  -5236588101.3652153       -57832340.851858616        701309717.06570697     
  -5086522465.0074911       -35006865.211371899        694028046.00873864     
  -6107735172.5731354       -34722276.576766253        540558045.37196767     
  -5959164560.0273914       -36373579.048797607        534206863.47880912     
  -5809597316.1746683       -34702777.164228439        530409410.99140644     
  -5659033441.0149593       -29709870.923055410        529165687.90975988     
  -5507472934.5482769       -21394860.325283527        530475694.23387265     
  -6553560176.2356949       -49522850.881647348        358664537.08134556     
  -6388438361.5427570       -20774757.156893253        353899478.13010293     
  -6226758702.5349274       -3500515.7158477306        352297138.45630306     
  -6068521199.2122087        2299873.4415028095        353857518.05994362     
  -5913725851.5746012       -3373589.6848537922        358580616.94102937     
  -6991647511.6316376       -62002124.706541061        189142642.56917161     
  -6808234523.7295465       -2332643.4664187431        180785121.73573670     
  -6632702478.5046568        31067028.849694729        176199310.05143073     
  -6465051375.9569664        38196892.241805077        175385207.51625797     
  -6305281216.0864792        19056946.709910870        178342814.13020694     
  -7421997178.7609634       -72160098.051453114        31992361.835442293     
  -7218553046.5877609        18952762.022624969        14863794.295711897     
  -7027428644.0838480        68999856.532395840        2115925.7767958981     
  -6848623971.2492266        77981185.477859020       -6251243.7213067440     
  -6682139028.0839024        45896748.859007359       -10237714.198592266     
  -5086522465.0074911       -35006865.211371899        694028046.00873864     
  -4934949722.9836426       -8379687.5697681904        676680133.42618215     
  -4786603891.3679094        7491122.0447843075        665885972.47404420     
  -4641484970.1602926        12605563.632284403        661645563.15232491     
  -4499592959.3607922        6963637.1927225590        663958905.46102154     
  -5507472934.5482769       -21394860.325283527        530475694.23387265     
  -5345006485.2420340       -9743216.6015546322        515197216.78452677     
  -5183493908.8202972       -1271149.1595025063        505200654.97995830     
  -5022935205.2830639        4021342.0008640289        500486008.82016838     
  -4863330374.6303368        6134256.8795533180        501053278.30515629     
  -5913725851.5746012       -3373589.6848537922        358580616.94102937     
  -5743999512.0878029       -7787625.0095579624        348023451.73577261     
  -5572954007.9618893       -7804444.8705570698        341476366.18965924     
  -5400589339.1968737       -3424049.2678649426        338939360.30267918     
  -5226905505.7927408        5353561.7985289097        340412434.07483697     
  -6305281216.0864792        19056946.709910870        178342814.13020694     
  -6131928803.5209455       -2512912.7937726974        175158838.27992532     
  -5954984188.7926874       -12108765.088375092        174713106.10314071     
  -5774447371.9017057       -9730610.1739058495        177005617.59986073     
  -5590318352.8480043        4621551.9496424198        182036372.77007085     
  -6682139028.0839024        45896748.859007359       -10237714.198592266     
  -6508794359.5414648        6080920.0458016396       -3396623.5830193637     
  -6329584451.3126850       -14184109.812941551        4910874.7204141142     
  -6144509303.3975773       -14898340.717248678        14684780.711704804     
  -5953568915.7961302        3938227.3329000473        25925094.390853826     
  -4499592959.3607922        6963637.1927225590        663958905.46102154     
  -4363183462.1703768       -3434920.9473142624        659939037.70157433     
  -4225598842.0121231       -9916402.5278830528        659354992.09151912     
  -4086839098.8860283       -12480807.548987627        662206768.63085687     
  -3946904232.7920885       -11128136.010609627        668494367.31958401     
  -4863330374.6303368        6134256.8795533180        501053278.30515629     
  -4715535845.9956512        3568173.5165803432        497934525.68674880     
  -4567536394.5662975        1685166.1358397007        498330173.23521870     
  -4419332020.3422737        485234.73733258247        502240220.95056695     
  -4270922723.3235793       -31620.678942441940        509664668.83279777     
  -5226905505.7927408        5353561.7985289097        340412434.07483697     
  -5067501437.0923967        10687305.799036503        337062896.39543825     
  -4908862645.7705555        13470125.204533339        337306336.90040207     
  -4750989131.8272095        13702020.015041113        341142755.58973032     
  -4593880895.2623720        11382990.230525970        348572152.46342319     
  -5590318352.8480043        4621551.9496424198        182036372.77007085     
  -5419080235.4606113        17922475.900049210        177324149.82764018     
  -5249577595.6248865        25438474.678215742        176283483.08706892     
  -5081810433.3408384        27169548.284134150        178914372.54834348     
  -4915778748.6084642        23115696.717805862        185216818.21146640     
  -5953568915.7961302        3938227.3329000473        25925094.390853826     
  -5770272241.1003017        25273683.819613934        18718285.983367164     
  -5589681244.1293077        37590214.556856632        15261611.795214130     
  -5411795924.8831587        40887819.544632673        15555071.826398009     
  -5236616283.3618574        35166498.782908201        19598666.076928813     
  -3946904232.7920885       -11128136.010609627        668494367.31958401     
  -3800617060.0298052       -7087602.9638624191        660461974.79965293     
  -3654989294.0763154       -5245092.6130964756        656910769.80925655     
  -3510020934.9316330       -5600604.9583468437        657840752.34840155     
  -3365711982.5957441       -8154139.9995837212        663251922.41707790     
  -4270922723.3235793       -31620.678942441940        509664668.83279777     
  -4113496174.0958500        2312469.3525004387        501558038.46633440     
  -3956171842.3100371        4315834.5775799751        497930458.54728609     
  -3798949727.9661298        5978474.9962964058        498781929.07565135     
  -3641829831.0641346        7300390.6086368561        504112450.05142617     
  -4593880895.2623720        11382990.230525970        348572152.46342319     
  -4425321075.5181227        12028805.461998940        341041338.51180291     
  -4256306283.8489008        14191193.776723862        337987437.92547071     
  -4086836520.2546997        17870155.174710751        339410450.70442957     
  -3916911784.7355151        23065689.655974150        345310376.84867883     
  -4915778748.6084642        23115696.717805862        185216818.21146640     
  -4736091764.2966213        22061405.364629269        178911874.93605578     
  -4555392618.6929131        24380984.984314919        177081707.94381142     
  -4373681311.7973318        30074435.576923609        179726317.23473072     
  -4190957843.6098852        39141757.142405987        186845702.80882397     
  -5236616283.3618574        35166498.782908201        19598666.076928813     
  -5045808240.4313374        32410269.060384274        15169647.739099883     
  -4853430846.8420668        34885208.200381994        15213268.602307949     
  -4659484102.5940323        42591316.202899933        19729528.666565340     
  -4463968007.6872492        55528593.067943096        28718427.931864530     
  -3365711982.5957441       -8154139.9995837212        663251922.41707790     
  -3235154580.1568546       -15330407.112489104        655883536.24331367     
  -3104265639.3284359       -21401546.260288715        652419953.15047288     
  -2973045160.1104808       -26367557.442982674        652861173.13855362     
  -2841493142.5030022       -30228440.660587430        657207196.20755517     
  -3641829831.0641346        7300390.6086368561        504112450.05142617     
  -3500012272.9099894        4032502.9601283073        497335055.99510282     
  -3358091904.9863477        1107314.5432777405        494412583.37780702     
  -3216068727.2932205       -1475174.6419444084        495345032.19953972     
  -3073942739.8305869       -3714964.5954918861        500132402.46030581     
  -3916911784.7355151        23065689.655974150        345310376.84867883     
  -3763976589.8429537        23663425.778799057        338857124.85308099     
  -3611167313.8009310        23841432.399819613        336208912.65462780     
  -3458483956.6094379        23599709.519063711        337365740.25330317     
  -3305926518.2684903        22938257.136511326        342327607.64912224     
  -4190957843.6098852        39141757.142405987        186845702.80882397     
  -4027047530.9557362        43562361.343531370        180449742.81725198     
  -3863491865.7721581        46800807.309402943        177808940.98092714     
  -3700290848.0591588        48857095.040024519        178923297.29984891     
  -3537444477.8167334        49731224.535390854        183792811.77401701     
  -4463968007.6872492        55528593.067943096        28718427.931864530     
  -4289225096.2483521        63729309.654290676        22112909.887608193     
  -4115065560.9000621        69985439.271946907        19212668.356711715     
  -3941489401.6423745        74296981.920922518        20017703.339161169     
  -3768496618.4752975        76663937.601207495        24528014.834966317     
  -2841493142.5030022       -30228440.660587430        657207196.20755517     
  -2682768070.3041148       -33808545.385069609        638059997.36255729     
  -2529564297.7371655       -55792982.216014147        622948887.66847134     
  -2381881824.8021512       -96181751.153410673        611873867.12529075     
  -2239720651.4990606       -154974852.19722772        604834935.73302972     
  -3073942739.8305869       -3714964.5954918861        500132402.46030581     
  -2902047487.5815105        5593217.9005264044        478416377.09071964     
  -2728529423.3347006        20310773.722324491        459820950.17332196     
  -2553388547.0901589        40437702.869907975        444346121.70813072     
  -2376624858.8478656        65974005.343305230        431991891.69512278     
  -3305926518.2684903        22938257.136511326        342327607.64912224     
  -3123476773.6798534        44350020.539839625        326377552.65623456     
  -2932260105.4638062        94984862.701183081        312632605.41682100     
  -2732276513.6203489        174842783.62057233        301092765.93087709     
  -2523525998.1494765        283923783.29798305        291758034.19841939     
  -3537444477.8167334        49731224.535390854        183792811.77401701     
  -3347055928.5991511        82461862.532845974        181943524.05909520     
  -3140756344.1244917        168229284.72056532        181383853.39893961     
  -2918545724.3927426        307033491.09856188        182113799.79354167     
  -2680424069.4039288        498874481.66681170        184133363.24290606     
  -3768496618.4752975        76663937.601207495        24528014.834966317     
  -3572784952.3393927        119928743.87960887        45114291.299311966     
  -3354018139.3167334        240044039.78049278        66074694.119705454     
  -3112196179.4073205        437009825.30389929        87409223.296132371     
  -2847319072.6111584        710826100.44981396        109117878.82860778     
 </DataArray>
 <DataArray  type="Float64" Name="VM" NumberOfComponents="1" format="ascii">
   12935715198.468340     
   11340768735.239689     
   10210226770.006815     
   9272723770.9901390     
   8303812845.6967144     
   10130375865.432068     
   9322034976.2195415     
   8826341592.5829201     
   8443448830.6802320     
   8035546071.6510162     
   7982399728.0285902     
   7734978021.9066620     
   7669123322.0540543     
   7669525055.3249731     
   7666252358.7094822     
   6491699673.3124390     
   6586885141.3814049     
   6757405348.2337389     
   6961180279.9346066     
   7171550246.9150953     
   5657827991.1539831     
   5890917733.2341423     
   6116376190.2453165     
   6331749224.7505598     
   6536816220.8479633     
   8303812845.6967144     
   8020494168.8486919     
   7779326347.9132586     
   7569614840.9480686     
   7386389354.8604546     
   8035546071.6510162     
   7746722487.2489023     
   7473596451.1630192     
   7214205802.9993544     
   6968558460.5192499     
   7666252358.7094822     
   7381077270.2192192     
   7101308469.9585762     
   6827023898.8641672     
   6558427652.4656830     
   7171550246.9150953     
   6910992472.1748409     
   6658333692.1591148     
   6409715787.7088890     
   6161993923.4872456     
   6536816220.8479633     
   6328815153.3657084     
   6142982487.3245687     
   5965408079.7509823     
   5787085276.6805696     
   7386389354.8604546     
   7228093913.3014803     
   7062182335.3987246     
   6887954153.9086428     
   6705228661.4988508     
   6968558460.5192499     
   6814266752.9550877     
   6655291450.5872412     
   6491346015.6952200     
   6322381852.1342010     
   6558427652.4656830     
   6407463817.0880213     
   6254844455.3662567     
   6100537444.2963009     
   5944573536.9774904     
   6161993923.4872456     
   6012681604.3146162     
   5864726637.8608160     
   5718169461.9329605     
   5573068961.2562275     
   5787085276.6805696     
   5636377017.6840601     
   5489942305.1281013     
   5347696825.2325373     
   5209692682.5972261     
   6705228661.4988508     
   6511839609.0442495     
   6322510055.0537767     
   6137126407.8188505     
   5955708293.0226450     
   6322381852.1342010     
   6138174813.9133205     
   5956630746.4564600     
   5777728035.1166162     
   5601511257.1153755     
   5944573536.9774904     
   5771673926.4627266     
   5600375149.4688349     
   5430702048.2391567     
   5262717385.4313335     
   5573068961.2562275     
   5414184723.7285957     
   5256206315.2487183     
   5099171689.0718441     
   4943178737.0919485     
   5209692682.5972261     
   5068148937.2434406     
   4927240843.4219866     
   4787000593.8950357     
   4647606165.3077955     
   5955708293.0226450     
   5783041392.3417416     
   5608633130.8943977     
   5432422061.9062529     
   5254397459.5664558     
   5601511257.1153755     
   5436745972.1566019     
   5271193503.9097614     
   5104864061.3082762     
   4937809491.5544758     
   5262717385.4313335     
   5106336963.2664518     
   4950208444.2321749     
   4794404948.1521215     
   4639037728.3659782     
   4943178737.0919485     
   4795511783.7190714     
   4649202889.3250723     
   4504372974.8283739     
   4361183339.7539425     
   4647606165.3077955     
   4508764032.9582682     
   4372428178.1783371     
   4238744620.3019452     
   4107908147.9885621     
   5254397459.5664558     
   5062159386.5363503     
   4871038419.8791084     
   4681049825.9495907     
   4492265120.4080982     
   4937809491.5544758     
   4757264465.4335833     
   4577918212.9992018     
   4399821973.7196989     
   4223083612.0597515     
   4639037728.3659782     
   4470544742.1747694     
   4303423433.1070833     
   4137775120.0198088     
   3973763216.5614343     
   4361183339.7539425     
   4205359665.4185758     
   4051196460.8293633     
   3898860993.5311050     
   3748593443.6386328     
   4107908147.9885621     
   3965656707.1561480     
   3825493281.9912848     
   3687666411.0475559     
   3552513000.1488676     
   4492265120.4080982     
   4321611925.1390820     
   4150634234.1929917     
   3979309183.9620404     
   3807644509.5777540     
   4223083612.0597515     
   4061049566.9465938     
   3899284852.9133244     
   3737828985.6274633     
   3576764950.4353924     
   3973763216.5614343     
   3821206729.3844619     
   3669646112.6178541     
   3519195146.3555493     
   3370025694.2546506     
   3748593443.6386328     
   3606416862.3582187     
   3466097585.4796567     
   3327830555.3024707     
   3191882761.9100151     
   3552513000.1488676     
   3421609812.6806731     
   3293545599.1570644     
   3168593392.5603871     
   3047107995.3913908     
   3807644509.5777540     
   3635073683.5739894     
   3482135616.7962251     
   3355551229.2968650     
   3266828502.2284179     
   3576764950.4353924     
   3403659529.0905085     
   3243411634.2081823     
   3099639704.3665848     
   2978667377.4291878     
   3370025694.2546506     
   3196273976.6514773     
   3029671474.7196398     
   2871514290.3338733     
   2724087625.8450193     
   3191882761.9100151     
   3020726642.8005452     
   2852193860.2797256     
   2686449668.4515748     
   2523756051.1489148     
   3047107995.3913908     
   2886009143.2397146     
   2724861901.0821991     
   2564505250.5825377     
   2406395885.3780141     
   5657827991.1539831     
   5890917733.2341423     
   6116376190.2453165     
   6331749224.7505598     
   6536816220.8479633     
   5151435062.4717932     
   5311332533.6466703     
   5467865559.9352341     
   5618142294.1588869     
   5760699419.7771635     
   4643448171.7710428     
   4755547038.4566898     
   4868769591.5791817     
   4980482394.9501982     
   5088761311.5007038     
   4134131215.4850025     
   4224398794.3802848     
   4320583622.4141140     
   4421027690.2399549     
   4524275436.8608627     
   3625003167.8536673     
   3719711683.2816715     
   3825666115.4663763     
   3942799131.6068053     
   4071014691.4461417     
   6536816220.8479633     
   6328815153.3657084     
   6142982487.3245687     
   5965408079.7509823     
   5787085276.6805696     
   5760699419.7771635     
   5652261164.6503887     
   5559810943.6790285     
   5474286806.7141914     
   5390148899.0944872     
   5088761311.5007038     
   5054169742.7558823     
   5030086756.6457996     
   5011305920.3330812     
   4994625905.1834478     
   4524275436.8608627     
   4539135971.9895020     
   4558673876.9539413     
   4580409641.3401537     
   4602619590.2910604     
   4071014691.4461417     
   4112488408.9531307     
   4151331065.0173559     
   4186646603.8231282     
   4217704173.2954612     
   5787085276.6805696     
   5636377017.6840601     
   5489942305.1281013     
   5347696825.2325373     
   5209692682.5972261     
   5390148899.0944872     
   5249042468.8487272     
   5111213398.1892862     
   4976704672.6981068     
   4845613004.3774204     
   4994625905.1834478     
   4867447583.1647243     
   4743486950.5414448     
   4622712317.8189049     
   4505164903.8343945     
   4602619590.2910604     
   4494257854.8798361     
   4390107318.6567974     
   4289849112.5775390     
   4193390775.7170806     
   4217704173.2954612     
   4133435389.8688617     
   4055604073.4836864     
   3983354270.8073435     
   3916384537.4852829     
   5209692682.5972261     
   5068148937.2434406     
   4927240843.4219866     
   4787000593.8950357     
   4647606165.3077955     
   4845613004.3774204     
   4720916489.9833517     
   4597830322.6652098     
   4476481416.4604483     
   4357113973.8130264     
   4505164903.8343945     
   4396159601.7051392     
   4289687271.9964023     
   4185937797.6170306     
   4085189262.2632236     
   4193390775.7170806     
   4098761458.8074899     
   4007476254.3405700     
   3919754347.2843881     
   3835876238.5325165     
   3916384537.4852829     
   3834599733.5645981     
   3756789438.5026555     
   3683169542.0744500     
   3613996623.0623612     
   4647606165.3077955     
   4508764032.9582682     
   4372428178.1783371     
   4238744620.3019452     
   4107908147.9885621     
   4357113973.8130264     
   4229414706.7588940     
   4104559303.3018169     
   3982749921.7933607     
   3864245108.6790786     
   4085189262.2632236     
   3969984231.8270254     
   3858152580.7376065     
   3749954323.3715773     
   3645716524.9580207     
   3835876238.5325165     
   3734580051.8761859     
   3637390365.6323128     
   3544620455.3500900     
   3456662833.8245788     
   3613996623.0623612     
   3527990629.2084250     
   3447024005.7078538     
   3371447535.7472653     
   3301702932.0375748     
   4107908147.9885621     
   3965656707.1561480     
   3825493281.9912848     
   3687666411.0475559     
   3552513000.1488676     
   3864245108.6790786     
   3735666135.2612071     
   3610029532.7492661     
   3487655711.6273041     
   3368956564.4076557     
   3645716524.9580207     
   3531256674.0892167     
   3420641011.1358480     
   3314246955.2948780     
   3212540033.6731815     
   3456662833.8245788     
   3356629182.7524686     
   3261345791.0954309     
   3171221636.3435073     
   3086742944.4321733     
   3301702932.0375748     
   3216144793.6844316     
   3136188371.4370766     
   3062240017.8867073     
   2994766128.0574670     
   3552513000.1488676     
   3421609812.6806731     
   3293545599.1570644     
   3168593392.5603871     
   3047107995.3913908     
   3368956564.4076557     
   3250832538.7554955     
   3136228074.8720365     
   3025488876.4929152     
   2919047829.2443218     
   3212540033.6731815     
   3108065210.5598392     
   3007866521.8089566     
   2912349631.7427521     
   2822006062.8621678     
   3086742944.4321733     
   2996678306.1402712     
   2911677150.1325388     
   2832179710.8932414     
   2758702815.7328315     
   2994766128.0574670     
   2919620156.2117043     
   2850295062.9976144     
   2787230629.4380832     
   2730927639.9414868     
   3047107995.3913908     
   2886009143.2397146     
   2724861901.0821991     
   2564505250.5825377     
   2406395885.3780141     
   2919047829.2443218     
   2776670201.7775254     
   2636857226.9769473     
   2500579014.5498719     
   2369265504.3243394     
   2822006062.8621678     
   2700045991.6080356     
   2583327767.5752964     
   2472878413.2938261     
   2370023123.8017840     
   2758702815.7328315     
   2657424409.4248919     
   2563794099.3181572     
   2478767032.5408068     
   2403451603.3589931     
   2730927639.9414868     
   2648925120.5759597     
   2576477266.6676335     
   2514361226.3810310     
   2463416438.7760472     
   3625003167.8536673     
   3719711683.2816715     
   3825666115.4663763     
   3942799131.6068053     
   4071014691.4461417     
   3138010494.2337561     
   3255533924.0666380     
   3382470813.2229557     
   3518350028.4645348     
   3662712023.5778489     
   2694791958.0689545     
   2830531038.6774011     
   2973580954.3347406     
   3122858743.7556033     
   3277452816.8280239     
   2298839137.4028044     
   2449496892.2074008     
   2604878697.6089315     
   2763062488.0534382     
   2922618752.8326006     
   1955366357.6759021     
   2119389117.5795631     
   2284773973.2294431     
   2448562367.4793854     
   2608797194.2793441     
   4071014691.4461417     
   4112488408.9531307     
   4151331065.0173559     
   4186646603.8231282     
   4217704173.2954612     
   3662712023.5778489     
   3702150137.3178096     
   3740214153.6991258     
   3776006339.8955603     
   3808778041.2014160     
   3277452816.8280239     
   3320704782.4862151     
   3364191979.2739396     
   3407091214.5848508     
   3448724222.3367610     
   2922618752.8326006     
   2975540233.9137244     
   3030662307.3152490     
   3087301289.9627075     
   3144923228.7655153     
   2608797194.2793441     
   2676713343.5126309     
   2749098294.3557172     
   2825441446.2590337     
   2905388641.6661587     
   4217704173.2954612     
   4133435389.8688617     
   4055604073.4836864     
   3983354270.8073435     
   3916384537.4852829     
   3808778041.2014160     
   3755804284.6479888     
   3708759780.5717468     
   3667166753.8932595     
   3630925416.6497469     
   3448724222.3367610     
   3422478898.4331946     
   3401277934.4192472     
   3384889805.0956349     
   3373296951.9275694     
   3144923228.7655153     
   3141116798.0640392     
   3140880378.0203228     
   3144112773.1157227     
   3150799710.1536093     
   2905388641.6661587     
   2920075417.3040528     
   2936084048.6715059     
   2953359677.9258928     
   2971863365.3495903     
   3916384537.4852829     
   3834599733.5645981     
   3756789438.5026555     
   3683169542.0744500     
   3613996623.0623612     
   3630925416.6497469     
   3560705099.8659554     
   3495026691.0722675     
   3434117598.5794077     
   3378248375.5678034     
   3373296951.9275694     
   3315432850.7557859     
   3262826517.1190395     
   3215700067.9918852     
   3174321983.4501982     
   3150799710.1536093     
   3105844083.0423312     
   3066996624.3764420     
   3034448453.9349957     
   3008441282.1201868     
   2971863365.3495903     
   2939889886.2235856     
   2914978251.4594183     
   2897256141.4094329     
   2886908470.0900583     
   3613996623.0623612     
   3527990629.2084250     
   3447024005.7078538     
   3371447535.7472653     
   3301702932.0375748     
   3378248375.5678034     
   3307286515.3771629     
   3241940490.8808260     
   3182543289.6257620     
   3129497443.4354205     
   3174321983.4501982     
   3117447967.7748423     
   3066665852.0828195     
   3022266378.5900636     
   2984587615.7211304     
   3008441282.1201868     
   2964345180.1135406     
   2926671174.3475547     
   2895647922.6300349     
   2871531397.4354997     
   2886908470.0900583     
   2853831284.3545089     
   2827322130.0523858     
   2807537885.0672212     
   2794647724.6909900     
   3301702932.0375748     
   3216144793.6844316     
   3136188371.4370766     
   3062240017.8867073     
   2994766128.0574670     
   3129497443.4354205     
   3056569395.9339747     
   2989946637.0988598     
   2930022878.2084355     
   2877241600.5279379     
   2984587615.7211304     
   2924205872.2203722     
   2870830968.2257299     
   2824818443.7804799     
   2786560811.1595578     
   2871531397.4354997     
   2823155346.8021021     
   2782452027.2705736     
   2749714402.7614598     
   2725259669.5351353     
   2794647724.6909900     
   2757152679.9154191     
   2727935082.5731854     
   2707208692.1955786     
   2695201522.3214998     
   2994766128.0574670     
   2919620156.2117043     
   2850295062.9976144     
   2787230629.4380832     
   2730927639.9414868     
   2877241600.5279379     
   2815196676.8051772     
   2759412729.9671650     
   2710272344.1392756     
   2668197632.2636862     
   2786560811.1595578     
   2736688948.8416429     
   2693388535.0322957     
   2656967071.2421598     
   2627753179.4214764     
   2725259669.5351353     
   2686258235.4229059     
   2653995258.8108969     
   2628695417.5402985     
   2610591294.3085961     
   2695201522.3214998     
   2665391979.6379700     
   2642348661.2059655     
   2626217165.0860729     
   2617143496.2538834     
   2730927639.9414868     
   2648925120.5759597     
   2576477266.6676335     
   2514361226.3810310     
   2463416438.7760472     
   2668197632.2636862     
   2600198136.4551010     
   2541492406.6769934     
   2492682445.4052825     
   2454397313.1658688     
   2627753179.4214764     
   2572290046.2057552     
   2525727049.2625074     
   2488507632.9826107     
   2461080800.9652705     
   2610591294.3085961     
   2566085356.3199029     
   2529973839.2609892     
   2502565877.7577891     
   2484165852.7582273     
   2617143496.2538834     
   2581957132.8454237     
   2554577104.9746089     
   2535206304.6923466     
   2524040476.3874264     
   1955366357.6759021     
   2119389117.5795631     
   2284773973.2294431     
   2448562367.4793854     
   2608797194.2793441     
   1653881520.5444767     
   1820312665.3712173     
   1988444344.1039326     
   2155581403.3522878     
   2319966701.6725864     
   1393728676.3153706     
   1571096314.1561718     
   1749469537.9120741     
   1926845436.0534315     
   2101974215.2115304     
   1207214177.6343958     
   1399154966.1573427     
   1590670561.8275256     
   1780984465.3963959     
   1969638315.7980409     
   1136998109.5224407     
   1335321913.8067281     
   1533947459.3296692     
   1732874746.0912628     
   1932103774.0915101     
   2608797194.2793441     
   2676713343.5126309     
   2749098294.3557172     
   2825441446.2590337     
   2905388641.6661587     
   2319966701.6725864     
   2406995027.9737482     
   2496444177.2530847     
   2587923876.1506476     
   2681158422.5158467     
   2101974215.2115304     
   2205731139.2376304     
   2309397692.6925349     
   2412737546.2204185     
   2515583918.9351187     
   1969638315.7980409     
   2086836736.1916997     
   2201204663.1854391     
   2312667043.0187969     
   2421171742.1137004     
   1932103774.0915101     
   2058840855.9537754     
   2180198964.4030719     
   2296178099.4393997     
   2406778261.0627589     
   2905388641.6661587     
   2920075417.3040528     
   2936084048.6715059     
   2953359677.9258928     
   2971863365.3495903     
   2681158422.5158467     
   2702836821.5528884     
   2726912222.6001363     
   2753368522.5418987     
   2782199211.9119473     
   2515583918.9351187     
   2544167581.6795154     
   2576249315.8356018     
   2611832035.9529328     
   2650922750.4035921     
   2421171742.1137004     
   2455064339.4790983     
   2493554125.7303562     
   2536645012.5341244     
   2584341749.9245882     
   2406778261.0627589     
   2442780819.6642861     
   2484468546.3927636     
   2531841441.2481956     
   2584899504.2305808     
   2971863365.3495903     
   2939889886.2235856     
   2914978251.4594183     
   2897256141.4094329     
   2886908470.0900583     
   2782199211.9119473     
   2764910182.3328571     
   2754705184.3673801     
   2751670643.4906235     
   2755923519.0907845     
   2650922750.4035921     
   2645718834.3539410     
   2647369627.2083697     
   2655916520.1440802     
   2671413199.0666809     
   2584341749.9245882     
   2587989099.5760694     
   2598014708.1093597     
   2614428549.6553898     
   2637243329.1519799     
   2584899504.2305808     
   2593813606.0790477     
   2608428922.1814895     
   2628745452.5379019     
   2654763197.1482854     
   2886908470.0900583     
   2853831284.3545089     
   2827322130.0523858     
   2807537885.0672212     
   2794647724.6909900     
   2755923519.0907845     
   2732671900.8383336     
   2716472161.5409656     
   2707429104.2295976     
   2705653258.7109580     
   2671413199.0666809     
   2656165642.2935381     
   2648361744.2351465     
   2648054241.5514331     
   2655297660.4582057     
   2637243329.1519799     
   2627502504.7461600     
   2625506168.8009033     
   2631268533.2434192     
   2644804072.5119996     
   2654763197.1482854     
   2647536601.3208685     
   2648280571.1298852     
   2656995106.5753293     
   2673680207.6572032     
   2794647724.6909900     
   2757152679.9154191     
   2727935082.5731854     
   2707208692.1955786     
   2695201522.3214998     
   2705653258.7109580     
   2679491746.5841846     
   2661761499.9657779     
   2652591599.0092411     
   2652116162.9886227     
   2655297660.4582057     
   2638074080.3274317     
   2629316292.5902739     
   2629083442.1134677     
   2637435657.2186856     
   2644804072.5119996     
   2633697183.6819086     
   2631004560.6166573     
   2636740891.5530024     
   2650920875.5920486     
   2673680207.6572032     
   2665653885.0320268     
   2665941872.9052944     
   2674544171.2770114     
   2691460780.1471720     
   2695201522.3214998     
   2665391979.6379700     
   2642348661.2059655     
   2626217165.0860729     
   2617143496.2538834     
   2652116162.9886227     
   2631436474.6314802     
   2618224595.1968894     
   2612576391.7935343     
   2614585496.9140520     
   2637435657.2186856     
   2624285523.6087041     
   2619258800.3566508     
   2622403486.8744445     
   2633765347.1308227     
   2650920875.5920486     
   2643164113.9372683     
   2644173480.2088699     
   2653962094.7138705     
   2672542218.8786106     
   2691460780.1471720     
   2686564732.2634845     
   2691103898.4618721     
   2705078278.7423463     
   2728487873.1049061     
   2617143496.2538834     
   2581957132.8454237     
   2554577104.9746089     
   2535206304.6923466     
   2524040476.3874264     
   2614585496.9140520     
   2592698623.9867983     
   2580077205.3273849     
   2576856339.8132114     
   2583159067.8902683     
   2633765347.1308227     
   2623493994.3747501     
   2623851646.7051549     
   2634905323.7483354     
   2656712524.4567742     
   2672542218.8786106     
   2671485450.2570095     
   2682424827.2234206     
   2705378366.3668070     
   2740360616.2057228     
   2728487873.1049061     
   2733734465.1169472     
   2752466219.7315598     
   2784683136.9487386     
   2830385216.7684770     
   1136998109.5224407     
   1335321913.8067281     
   1533947459.3296692     
   1732874746.0912628     
   1932103774.0915101     
   1207214177.8057964     
   1399154966.3138502     
   1590670561.9703333     
   1780984465.5258870     
   1969638315.9138908     
   1393728676.5957894     
   1571096314.4250724     
   1749469538.1678329     
   1926845436.2945640     
   2101974215.4362712     
   1653881520.8691533     
   1820312665.6990802     
   1988444344.4300044     
   2155581403.6727018     
   2319966701.9839125     
   1955366357.9985492     
   2119389117.9232261     
   2284773973.5871835     
   2448562367.8458519     
   2608797194.6501675     
   1932103774.0915101     
   2058840855.9537754     
   2180198964.4030719     
   2296178099.4393997     
   2406778261.0627589     
   1969638315.9138908     
   2086836736.3012373     
   2201204663.2855630     
   2312667043.1063089     
   2421171742.1854095     
   2101974215.4362712     
   2205731139.4551115     
   2309397692.8964615     
   2412737546.4042468     
   2515583919.0922432     
   2319966701.9839125     
   2406995028.2844458     
   2496444177.5539207     
   2587923876.4318209     
   2681158422.7672806     
   2608797194.6501675     
   2676713343.8966255     
   2749098294.7414584     
   2825441446.6340122     
   2905388642.0171332     
   2406778261.0627589     
   2442780819.6642861     
   2484468546.3927636     
   2531841441.2481956     
   2584899504.2305808     
   2421171742.1854095     
   2455064339.3102307     
   2493554125.2889781     
   2536645011.7877626     
   2584341748.8408051     
   2515583919.0922432     
   2544167581.4375763     
   2576249315.1335702     
   2611832034.7284889     
   2650922748.5939445     
   2681158422.7672806     
   2702836821.3504481     
   2726912221.8582354     
   2753368521.1727743     
   2782199209.8263731     
   2905388642.0171332     
   2920075417.2518568     
   2936084048.1128721     
   2953359676.7548203     
   2971863363.4576731     
   2584899504.2305808     
   2593813606.0790477     
   2608428922.1814895     
   2628745452.5379019     
   2654763197.1482854     
   2584341748.8408051     
   2587989097.9784989     
   2598014705.8977623     
   2614428546.7324595     
   2637243325.4235620     
   2650922748.5939445     
   2645718831.5939693     
   2647369623.2934027     
   2655916514.8729348     
   2671413192.2425551     
   2782199209.8263731     
   2764910179.0304289     
   2754705179.5367875     
   2751670636.8200622     
   2755923510.2696037     
   2971863363.4576731     
   2939889883.0807939     
   2914978246.6517229     
   2897256134.5128613     
   2886908460.6726222     
   2654763197.1482854     
   2647536601.3208685     
   2648280571.1298852     
   2656995106.5753293     
   2673680207.6572032     
   2637243325.4235620     
   2627502501.5693374     
   2625506166.3547592     
   2631268531.7024288     
   2644804072.0455341     
   2671413192.2425551     
   2656165636.3216047     
   2648361739.4615946     
   2648054238.3175225     
   2655297659.0994167     
   2755923510.2696037     
   2732671892.8167596     
   2716472154.8136692     
   2707429099.2921090     
   2705653256.0589757     
   2886908460.6726222     
   2853831275.2828197     
   2827322121.9425912     
   2807537878.5476456     
   2794647720.4025955     
   2673680207.6572032     
   2665653885.0320268     
   2665941872.9052944     
   2674544171.2770114     
   2691460780.1471720     
   2644804072.0455341     
   2633697183.9095020     
   2631004561.7645073     
   2636740893.8424749     
   2650920879.2407122     
   2655297659.0994167     
   2638074080.2183371     
   2629316294.1930079     
   2629083445.8841581     
   2637435663.6090117     
   2705653256.0589757     
   2679491745.4348712     
   2661761501.0274482     
   2652591602.9909410     
   2652116170.6018453     
   2794647720.4025955     
   2757152676.9430475     
   2727935081.8741760     
   2707208694.7457404     
   2695201529.1175237     
   2691460780.1471720     
   2686564732.2634845     
   2691103898.4618721     
   2705078278.7423463     
   2728487873.1049061     
   2650920879.2407122     
   2643164118.2530727     
   2644173485.3177032     
   2653962100.7441278     
   2672542225.9625349     
   2637435663.6090117     
   2624285531.4633627     
   2619258809.9530210     
   2622403498.4942760     
   2633765361.0621819     
   2652116170.6018453     
   2631436484.5325184     
   2618224607.8482203     
   2612576407.6656094     
   2614585516.4869103     
   2695201529.1175237     
   2665391989.4439535     
   2642348674.7034049     
   2626217182.9725718     
   2617143519.2438350     
   2728487873.1049061     
   2733734465.1169472     
   2752466219.7315598     
   2784683136.9487386     
   2830385216.7684770     
   2672542225.9625349     
   2671485454.7465525     
   2682424829.0868649     
   2705378365.6028619     
   2740360612.8483295     
   2633765361.0621819     
   2623494004.1116180     
   2623851652.2105508     
   2634905325.0336237     
   2656712521.5906873     
   2614585516.4869103     
   2592698638.7973261     
   2580077215.3696251     
   2576856345.1336765     
   2583159068.5998783     
   2617143519.2438350     
   2581957151.4877625     
   2554577119.3501096     
   2535206314.9255548     
   2524040482.6585069     
   1955366357.9985492     
   2119389117.9232261     
   2284773973.5871835     
   2448562367.8458519     
   2608797194.6501675     
   2298839137.6940942     
   2449496892.5321331     
   2604878697.9626307     
   2763062488.4327016     
   2922618753.2348285     
   2694791958.3114648     
   2830531038.9592528     
   2973580954.6544709     
   3122858744.1125040     
   3277452817.2220330     
   3138010494.4160037     
   3255533924.2880430     
   3382470813.4850426     
   3518350028.7696323     
   3662712023.9289951     
   3625003167.9674187     
   3719711683.4289570     
   3825666115.6514006     
   3942799131.8349786     
   4071014691.7239590     
   2608797194.6501675     
   2676713343.8966255     
   2749098294.7414584     
   2825441446.6340122     
   2905388642.0171332     
   2922618753.2348285     
   2975540234.3540316     
   3030662307.7880330     
   3087301290.4616036     
   3144923229.2835765     
   3277452817.2220330     
   3320704782.9379988     
   3364191979.7833962     
   3407091215.1515746     
   3448724222.9600811     
   3662712023.9289951     
   3702150137.7386222     
   3740214154.1941900     
   3776006340.4695258     
   3808778041.8588953     
   4071014691.7239590     
   4112488409.3037376     
   4151331065.4489703     
   4186646604.3441701     
   4217704173.9142880     
   2905388642.0171332     
   2920075417.2518568     
   2936084048.1128721     
   2953359676.7548203     
   2971863363.4576731     
   3144923229.2835765     
   3141116798.3597050     
   3140880378.0301509     
   3144112772.7730041     
   3150799709.3877745     
   3448724222.9600811     
   3422478899.0156078     
   3401277934.9376650     
   3384889805.5232525     
   3373296952.2316046     
   3808778041.8588953     
   3755804285.4181147     
   3708759781.4700198     
   3667166754.9322219     
   3630925417.8347473     
   4217704173.9142880     
   4133435390.7081347     
   4055604074.5936956     
   3983354272.2378440     
   3916384539.2793684     
   2971863363.4576731     
   2939889883.0807939     
   2914978246.6517229     
   2897256134.5128613     
   2886908460.6726222     
   3150799709.3877745     
   3105844081.5269914     
   3066996621.7919149     
   3034448449.9462581     
   3008441276.3766117     
   3373296952.2316046     
   3315432850.8761239     
   3262826516.8309822     
   3215700067.0538764     
   3174321981.6021447     
   3630925417.8347473     
   3560705101.4141674     
   3495026692.8516850     
   3434117600.4433594     
   3378248377.3529091     
   3916384539.2793684     
   3834599736.1905198     
   3756789441.9153690     
   3683169546.2191329     
   3613996627.8730273     
   2886908460.6726222     
   2853831275.2828197     
   2827322121.9425912     
   2807537878.5476456     
   2794647720.4025955     
   3008441276.3766117     
   2964345174.7288647     
   2926671169.7572165     
   2895647919.2924819     
   2871531395.8344922     
   3174321981.6021447     
   3117447966.0085077     
   3066665850.6413136     
   3022266377.7465281     
   2984587615.7843380     
   3378248377.3529091     
   3307286516.8279381     
   3241940492.0420146     
   3182543290.5728607     
   3129497444.2841396     
   3613996627.8730273     
   3527990633.2538185     
   3447024008.8345184     
   3371447537.8261504     
   3301702932.9770689     
   2794647720.4025955     
   2757152676.9430475     
   2727935081.8741760     
   2707208694.7457404     
   2695201529.1175237     
   2871531395.8344922     
   2823155345.6963682     
   2782452027.5134330     
   2749714405.2394447     
   2725259675.1708536     
   2984587615.7843380     
   2924205871.8244572     
   2870830968.1336017     
   2824818444.8004584     
   2786560814.1495385     
   3129497444.2841396     
   3056569395.3221674     
   2989946635.7080536     
   2930022876.7733722     
   2877241599.8424692     
   3301702932.9770689     
   3216144792.1870618     
   3136188368.1110177     
   3062240013.3960295     
   2994766123.1296501     
   2695201529.1175237     
   2665391989.4439535     
   2642348674.7034049     
   2626217182.9725718     
   2617143519.2438350     
   2725259675.1708536     
   2686258243.1033692     
   2653995269.1652174     
   2628695431.2121353     
   2610591311.9557805     
   2786560814.1495385     
   2736688953.1769795     
   2693388541.3264136     
   2656967080.1202579     
   2627753191.5176029     
   2877241599.8424692     
   2815196677.0256195     
   2759412731.7255754     
   2710272348.0766697     
   2668197639.0233483     
   2994766123.1296501     
   2919620151.9928484     
   2850295060.1693163     
   2787230628.6895871     
   2730927641.9582334     
   2617143519.2438350     
   2581957151.4877625     
   2554577119.3501096     
   2535206314.9255548     
   2524040482.6585069     
   2610591311.9557805     
   2566085368.3452363     
   2529973845.4578257     
   2502565877.9101453     
   2484165846.6474862     
   2627753191.5176029     
   2572290053.1951175     
   2525727050.7505364     
   2488507628.4955688     
   2461080789.9537978     
   2668197639.0233483     
   2600198140.3224411     
   2541492407.2068787     
   2492682441.9922028     
   2454397305.0423570     
   2730927641.9582334     
   2648925123.4389930     
   2576477270.0556855     
   2514361229.7317486     
   2463416441.2737551     
   3625003167.9674187     
   3719711683.4289570     
   3825666115.6514006     
   3942799131.8349786     
   4071014691.7239590     
   4134131215.5285158     
   4224398794.4479871     
   4320583622.5076666     
   4421027690.3631678     
   4524275437.0193567     
   4643448171.7478762     
   4755547038.4489555     
   4868769591.5856571     
   4980482394.9726000     
   5088761311.5431175     
   5151435062.3849344     
   5311332533.5679750     
   5467865559.8604689     
   5618142294.0874567     
   5760699419.7112761     
   5657827991.0053234     
   5890917733.0886297     
   6116376190.0956841     
   6331749224.5938177     
   6536816220.6843109     
   4071014691.7239590     
   4112488409.3037376     
   4151331065.4489703     
   4186646604.3441701     
   4217704173.9142880     
   4524275437.0193567     
   4539135972.1983156     
   4558673877.2206554     
   4580409641.6716251     
   4602619590.6935120     
   5088761311.5431175     
   5054169742.8192396     
   5030086756.7368288     
   5011305920.4571886     
   4994625905.3456297     
   5760699419.7112761     
   5652261164.5714436     
   5559810943.5928593     
   5474286806.6245012     
   5390148899.0048437     
   6536816220.6843109     
   6328815153.1518021     
   6142982487.0656633     
   5965408079.4488907     
   5787085276.3367662     
   4217704173.9142880     
   4133435390.7081347     
   4055604074.5936956     
   3983354272.2378440     
   3916384539.2793684     
   4602619590.6935120     
   4494257855.5185328     
   4390107319.5878277     
   4289849113.8591909     
   4193390777.4073715     
   4994625905.3456297     
   4867447583.5288324     
   4743486951.1661367     
   4622712318.7660294     
   4505164905.1692219     
   5390148899.0048437     
   5249042468.8806219     
   5111213398.4018326     
   4976704673.1533718     
   4845613005.1425390     
   5787085276.3367662     
   5636377017.3388634     
   5489942304.8400431     
   5347696825.0623150     
   5209692682.6110201     
   3916384539.2793684     
   3834599736.1905198     
   3756789441.9153690     
   3683169546.2191329     
   3613996627.8730273     
   4193390777.4073715     
   4098761461.5749054     
   4007476258.2000127     
   3919754352.2431388     
   3835876244.5887241     
   4505164905.1692219     
   4396159604.2178812     
   4289687275.7508583     
   4185937802.6729841     
   4085189268.6751709     
   4845613005.1425390     
   4720916491.8760796     
   4597830325.7862024     
   4476481420.9102631     
   4357113979.6914635     
   5209692682.6110201     
   5068148938.1834478     
   4927240845.4135151     
   4787000597.0665493     
   4647606169.7909679     
   3613996627.8730273     
   3527990633.2538185     
   3447024008.8345184     
   3371447537.8261504     
   3301702932.9770689     
   3835876244.5887241     
   3734580056.6831551     
   3637390368.9615946     
   3544620456.9890251     
   3456662833.5836582     
   4085189268.6751709     
   3969984236.7409668     
   3858152583.8682423     
   3749954324.4415073     
   3645716523.6994696     
   4357113979.6914635     
   4229414711.1192904     
   4104559305.8200750     
   3982749922.1472950     
   3864245106.5451236     
   4647606169.7909679     
   4508764036.1206799     
   4372428179.6734600     
   4238744619.7813487     
   4107908145.0945139     
   3301702932.9770689     
   3216144792.1870618     
   3136188368.1110177     
   3062240013.3960295     
   2994766123.1296501     
   3456662833.5836582     
   3356629179.3296876     
   3261345784.9020452     
   3171221627.8426995     
   3086742934.1466446     
   3645716523.6994696     
   3531256669.1478343     
   3420641002.7489548     
   3314246943.7415142     
   3212540019.2797546     
   3864245106.5451236     
   3735666129.2619390     
   3610029522.9791322     
   3487655698.2096238     
   3368956547.4966249     
   4107908145.0945139     
   3965656700.5774684     
   3825493271.7148862     
   3687666397.0773015     
   3552512982.5031171     
   2994766123.1296501     
   2919620151.9928484     
   2850295060.1693163     
   2787230628.6895871     
   2730927641.9582334     
   3086742934.1466446     
   2996678296.1271634     
   2911677141.1027880     
   2832179703.5768757     
   2758702810.8718247     
   3212540019.2797546     
   3108065195.9621367     
   3007866507.7328911     
   2912349618.9423947     
   2822006052.1180339     
   3368956547.4966249     
   3250832521.1514406     
   3136228057.3042388     
   3025488859.7244053     
   2919047814.0755596     
   3552512982.5031171     
   3421609793.8618851     
   3293545579.8910389     
   3168593373.6088028     
   3047107977.5603170     
   2730927641.9582334     
   2648925123.4389930     
   2576477270.0556855     
   2514361229.7317486     
   2463416441.2737551     
   2758702810.8718247     
   2657424409.5753708     
   2563794104.9361997     
   2478767043.7486539     
   2403451619.8234549     
   2822006052.1180339     
   2700045989.0559535     
   2583327774.4486504     
   2472878430.4499025     
   2370023151.4781399     
   2919047814.0755596     
   2776670196.6391573     
   2636857233.7440276     
   2500579034.7003102     
   2369265538.5748582     
   3047107977.5603170     
   2886009135.7140136     
   2724861906.1000724     
   2564505269.9186220     
   2406395919.8530316     
   5657827991.0053234     
   5890917733.0886297     
   6116376190.0956841     
   6331749224.5938177     
   6536816220.6843109     
   6491699673.1293306     
   6586885141.1621075     
   6757405347.9788313     
   6961180279.6514854     
   7171550246.6145000     
   7982399727.8632202     
   7734978021.6674786     
   7669123321.7453423     
   7669525054.9571075     
   7666252358.2959156     
   10130375865.335279     
   9322034976.0111332     
   8826341592.2683659     
   8443448830.2687721     
   8035546071.1521301     
   12935715198.490705     
   11340768735.108854     
   10210226769.729191     
   9272723770.5742092     
   8303812845.1462717     
   6536816220.6843109     
   6328815153.1518021     
   6142982487.0656633     
   5965408079.4488907     
   5787085276.3367662     
   7171550246.6145000     
   6910992471.8071270     
   6658333691.7255764     
   6409715787.2092552     
   6161993922.9203253     
   7666252358.2959156     
   7381077269.7351894     
   7101308469.4031391     
   6827023898.2363920     
   6558427651.7645283     
   8035546071.1521301     
   7746722486.6878061     
   7473596450.5382271     
   7214205802.3099976     
   6968558459.7653179     
   8303812845.1462717     
   8020494168.2528372     
   7779326347.2720480     
   7569614840.2610283     
   7386389354.1280994     
   5787085276.3367662     
   5636377017.3388634     
   5489942304.8400431     
   5347696825.0623150     
   5209692682.6110201     
   6161993922.9203253     
   6012681603.6202955     
   5864726637.0713701     
   5718169461.0825491     
   5573068960.3816080     
   6558427651.7645283     
   6407463816.2111750     
   6254844454.3250809     
   6100537443.1031666     
   5944573535.6453123     
   6968558459.7653179     
   6814266752.0630436     
   6655291449.5521765     
   6491346014.5128393     
   6322381850.8005753     
   7386389354.1280994     
   7228093912.5589666     
   7062182334.6293421     
   6887954153.0974455     
   6705228660.6339445     
   5209692682.6110201     
   5068148938.1834478     
   4927240845.4135151     
   4787000597.0665493     
   4647606169.7909679     
   5573068960.3816080     
   5414184723.3147011     
   5256206315.3997641     
   5099171689.8969336     
   4943178738.7083893     
   5944573535.6453123     
   5771673925.0053997     
   5600375147.9606447     
   5430702046.7592001     
   5262717384.0677586     
   6322381850.8005753     
   6138174811.7597933     
   5956630743.5200653     
   5777728031.4390783     
   5601511252.7467289     
   6705228660.6339445     
   6511839606.5656919     
   6322510050.9539995     
   6137126402.0962477     
   5955708285.6834459     
   4647606169.7909679     
   4508764036.1206799     
   4372428179.6734600     
   4238744619.7813487     
   4107908145.0945139     
   4943178738.7083893     
   4795511784.2068739     
   4649202888.4313993     
   4504372972.2913456     
   4361183335.2995701     
   5262717384.0677586     
   5106336961.0037937     
   4950208440.9148283     
   4794404943.6131659     
   4639037722.4261847     
   5601511252.7467289     
   5436745967.0982409     
   5271193498.1032791     
   5104864054.6853285     
   4937809484.0359278     
   5955708285.6834459     
   5783041384.4595346     
   5608633122.5046644     
   5432422053.0382805     
   5254397450.2409487     
   4107908145.0945139     
   3965656700.5774684     
   3825493271.7148862     
   3687666397.0773015     
   3552512982.5031171     
   4361183335.2995701     
   4205359658.0435920     
   4051196450.4568424     
   3898860980.0883298     
   3748593427.0495610     
   4639037722.4261847     
   4470544734.5521297     
   4303423423.7111626     
   4137775108.7590890     
   3973763203.3318152     
   4937809484.0359278     
   4757264457.9296389     
   4577918205.4477100     
   4399821966.0579929     
   4223083604.2103672     
   5254397450.2409487     
   5062159379.3639517     
   4871038414.8590155     
   4681049823.0848379     
   4492265119.6895294     
   3552512982.5031171     
   3421609793.8618851     
   3293545579.8910389     
   3168593373.6088028     
   3047107977.5603170     
   3748593427.0495610     
   3606416844.3507223     
   3466097566.4703007     
   3327830535.7326555     
   3191882742.2454343     
   3973763203.3318152     
   3821206715.2227392     
   3669646097.7054381     
   3519195130.8866858     
   3370025678.4271026     
   4223083604.2103672     
   4061049559.4909968     
   3899284845.8765063     
   3737828979.0405641     
   3576764944.3200865     
   4492265119.6895294     
   4321611927.0340042     
   4150634238.6440697     
   3979309190.9196978     
   3807644518.9818678     
   3047107977.5603170     
   2886009135.7140136     
   2724861906.1000724     
   2564505269.9186220     
   2406395919.8530316     
   3191882742.2454343     
   3020726630.7672048     
   2852193858.0502095     
   2686449678.5226436     
   2523756076.5023088     
   3370025678.4271026     
   3196273965.0632930     
   3029671469.2632504     
   2871514293.5767827     
   2724087641.4429016     
   3576764944.3200865     
   3403659523.4626703     
   3243411630.5937829     
   3099639705.0212364     
   2978667385.7526979     
   3807644518.9818678     
   3635073689.5688496     
   3482135620.4443703     
   3355551232.2352672     
   3266828506.9615593     
 </DataArray>
 <DataArray  type="Float64" Name="strain" NumberOfComponents="3" format="ascii">
  0.20348645212071928        0.0000000000000000       0.12540930436684802     
  0.18665611308784597       -2.7326240895824843E-002   7.4353956296795032E-002
  0.16982577405497265       -4.4677434670913160E-002   3.5132052348233182E-002
  0.15299543502209931       -5.2053581325264955E-002   7.7435925211624158E-003
  0.13616509598922599       -4.9454680858880204E-002  -7.8114231844172155E-003
  0.15985647499871014        0.0000000000000000        9.6450699654895500E-002
  0.15317811826171157       -2.1845661241010880E-002   6.2691867704656540E-002
  0.14649976152471303       -3.6175755028619652E-002   3.7403556224675991E-002
  0.13982140478771451       -4.2990281362826316E-002   2.0585765214953866E-002
  0.13314304805071595       -4.2289240243630857E-002   1.2238494675490187E-002
  0.12645916853506203        0.0000000000000000        7.4202414431424155E-002
  0.12656987044270557       -1.6365081586196914E-002   5.5280618933664788E-002
  0.12668057235034907       -2.7674075386326151E-002   4.1466420254931136E-002
  0.12679127425799261       -3.3926981400387697E-002   3.2759818395223225E-002
  0.12690197616563614       -3.5123799628381532E-002   2.9160813354541095E-002
  0.10329453272977497        0.0000000000000000        5.8664448696433974E-002
  0.10683136963082789       -1.0884501931382955E-002   5.2120209983819783E-002
  0.11036820653188080       -1.9172395744032643E-002   4.7320644438998617E-002
  0.11390504343293371       -2.4863681437949061E-002   4.4265752061970517E-002
  0.11744188033398664       -2.7958359013132202E-002   4.2955532852735442E-002
   9.0362567582848954E-002   0.0000000000000000        4.9836802449924972E-002
   9.3962615826078566E-002  -5.4039222765689928E-003   5.3210640855121533E-002
   9.7562664069308178E-002  -1.0670716101739138E-002   5.4966228776878456E-002
  0.10116271231253779       -1.5800381475510432E-002   5.5103566215195715E-002
  0.10476276055576739       -2.0792918397882880E-002   5.3622653170073302E-002
  0.13616509598922599       -4.9454680858880204E-002  -7.8114231844172155E-003
  0.13295861011718771       -4.2918152634975872E-002  -3.3930492286474642E-003
  0.12975212424514942       -3.8481416016768882E-002  -3.8729809825636605E-004
  0.12654563837311111       -3.6144471004259285E-002   1.2058302067558327E-003
  0.12333915250107283       -3.5907317597447030E-002   1.3863356863893228E-003
  0.13314304805071595       -4.2289240243630857E-002   1.2238494675490187E-002
  0.12891164801707580       -3.8422348395039635E-002   1.2183724548313211E-002
  0.12468024798343567       -3.5739322541059007E-002   1.1491748923311288E-002
  0.12044884794979553       -3.4240162681689008E-002   1.0162567800484376E-002
  0.11621744791615546       -3.3924868816929590E-002   8.1961811798326595E-003
  0.12690197616563614       -3.5123799628381532E-002   2.9160813354541095E-002
  0.12242107929794802       -3.3926544155103461E-002   2.5548824755504049E-002
  0.11794018243025992       -3.2997229065349229E-002   2.2075047986195979E-002
  0.11345928556257179       -3.2335854359118794E-002   1.8739483046616705E-002
  0.10897838869488369       -3.1942420036412206E-002   1.5542129936766486E-002
  0.11744188033398664       -2.7958359013132202E-002   4.2955532852735442E-002
  0.11348690395980437       -2.9430739915167252E-002   3.6702251392925177E-002
  0.10953192758562209       -3.0255135589639388E-002   3.1362599090397660E-002
  0.10557695121143981       -3.0431546036548577E-002   2.6936575945152894E-002
  0.10162197483725754       -2.9959971255894821E-002   2.3424181957190936E-002
  0.10476276055576739       -2.0792918397882880E-002   5.3622653170073302E-002
  0.10210912200264480       -2.4934935675231050E-002   4.5644004460576579E-002
   9.9455483449522236E-002  -2.7513042113929537E-002   3.9354402235916422E-002
   9.6801844896399647E-002  -2.8527237713978342E-002   3.4753846496092825E-002
   9.4148206343277085E-002  -2.7977522475377450E-002   3.1842337241105897E-002
  0.12333915250107283       -3.5907317597447030E-002   1.3863356863893228E-003
  0.12040398126526772       -3.6408644605159676E-002   6.4409775354638821E-004
  0.11746881002946256       -3.6287140836224738E-002   9.1690114929737776E-005
  0.11453363879365744       -3.5542806290642284E-002  -2.7088722946032318E-004
  0.11159846755785230       -3.4175640968412357E-002  -4.4363427962390567E-004
  0.11621744791615546       -3.3924868816929590E-002   8.1961811798326595E-003
  0.11345891219329352       -3.4002295231861976E-002   7.8340219352894674E-003
  0.11070037647043160       -3.3681296211567097E-002   7.6353034224062449E-003
  0.10794184074756967       -3.2961871756045126E-002   7.6000256411830856E-003
  0.10518330502470774       -3.1844021865296002E-002   7.7281885916196114E-003
  0.10897838869488369       -3.1942420036412206E-002   1.5542129936766486E-002
  0.10637009892239849       -3.1595945858564199E-002   1.5335644039102644E-002
  0.10376180914991334       -3.1075451586909407E-002   1.5266209310532332E-002
  0.10115351937742820       -3.0380937221447891E-002   1.5333825751055474E-002
   9.8545229604942983E-002  -2.9512402762179674E-002   1.5538493360672131E-002
  0.10162197483725754       -2.9959971255894821E-002   2.3424181957190936E-002
   9.9137541452582717E-002  -2.9189596485266461E-002   2.3148964064986004E-002
   9.6653108067907861E-002  -2.8469606962251755E-002   2.2984407779308123E-002
   9.4168674683233020E-002  -2.7800002686850751E-002   2.2930513100157413E-002
   9.1684241298558150E-002  -2.7180783659063443E-002   2.2987280027533714E-002
   9.4148206343277085E-002  -2.7977522475377450E-002   3.1842337241105897E-002
   9.1761239783846094E-002  -2.6783247111968729E-002   3.1273982012939489E-002
   8.9374273224415102E-002  -2.5863762337594087E-002   3.0789898828733710E-002
   8.6987306664984110E-002  -2.5219068152253544E-002   3.0390087688488564E-002
   8.4600340105553118E-002  -2.4849164555947129E-002   3.0074548592204126E-002
  0.11159846755785230       -3.4175640968412357E-002  -4.4363427962390567E-004
  0.10851031063250338       -3.2645320483447871E-002  -1.4718701428567682E-004
  0.10542215370715449       -3.1411520449662542E-002   2.1280456995612096E-004
  0.10233399678180562       -3.0474240867055937E-002   6.3634047310116848E-004
   9.9245839856456686E-002  -2.9833481735628276E-002   1.1234206951498682E-003
  0.10518330502470774       -3.1844021865296002E-002   7.7281885916196114E-003
  0.10218624886566235       -3.0617762144473051E-002   7.5902163046085297E-003
   9.9189192706616858E-002  -2.9573108198730061E-002   7.5709012313006502E-003
   9.6192136547571416E-002  -2.8710060028066562E-002   7.6702433716964724E-003
   9.3195080388525975E-002  -2.8028617632482988E-002   7.8882427257958021E-003
   9.8545229604942983E-002  -2.9512402762179674E-002   1.5538493360672131E-002
   9.5694387107001053E-002  -2.8590203805498343E-002   1.5081016197410771E-002
   9.2843544609059081E-002  -2.7734695947797643E-002   1.4797309142652815E-002
   8.9992702111117179E-002  -2.6945879189077301E-002   1.4687372196398336E-002
   8.7141859613175152E-002  -2.6223753529337590E-002   1.4751205358647351E-002
   9.1684241298558150E-002  -2.7180783659063443E-002   2.2987280027533714E-002
   8.9034725356519698E-002  -2.6562645466523524E-002   2.2325212664121154E-002
   8.6385209414481190E-002  -2.5896283696865082E-002   2.1892028304012170E-002
   8.3735693472442724E-002  -2.5181698350088023E-002   2.1687726947206713E-002
   8.1086177530404230E-002  -2.4418889426192303E-002   2.1712308593704599E-002
   8.4600340105553118E-002  -2.4849164555947129E-002   3.0074548592204126E-002
   8.2207263614218137E-002  -2.4535087127548746E-002   2.9322805704739621E-002
   7.9814187122883185E-002  -2.4057871445932626E-002   2.8855058715378662E-002
   7.7421110631548218E-002  -2.3417517511098718E-002   2.8671307624121199E-002
   7.5028034140213279E-002  -2.2614025323047016E-002   2.8771552430967268E-002
   9.9245839856456686E-002  -2.9833481735628276E-002   1.1234206951498682E-003
   9.6297572568887935E-002  -2.9272589308408870E-002   8.1112571623215279E-004
   9.3349305281319211E-002  -2.8574909838427309E-002   6.6133655504063693E-004
   9.0401037993750474E-002  -2.7740443325683525E-002   6.7405321157487652E-004
   8.7452770706181737E-002  -2.6769189770177393E-002   8.4927568583526014E-004
   9.3195080388525975E-002  -2.8028617632482988E-002   7.8882427257958021E-003
   9.0407616395623058E-002  -2.7394109110426113E-002   7.6840464517918261E-003
   8.7620152402720114E-002  -2.6671862560343609E-002   7.6389509493934582E-003
   8.4832688409817170E-002  -2.5861877982235080E-002   7.7529562186009482E-003
   8.2045224416914253E-002  -2.4964155376100583E-002   8.0260622594137687E-003
   8.7141859613175152E-002  -2.6223753529337590E-002   1.4751205358647351E-002
   8.4511793868817617E-002  -2.5515628912443439E-002   1.4606058774820921E-002
   8.1881728124460096E-002  -2.4768815282259687E-002   1.4616607916479368E-002
   7.9251662380102603E-002  -2.3983312638786579E-002   1.4782852783623526E-002
   7.6621596635745054E-002  -2.3159120982023773E-002   1.5104793376252368E-002
   8.1086177530404230E-002  -2.4418889426192303E-002   2.1712308593704599E-002
   7.8610104988471721E-002  -2.3637148714460668E-002   2.1577162685319031E-002
   7.6134032446539157E-002  -2.2865768004175988E-002   2.1594307456298291E-002
   7.3657959904606662E-002  -2.2104747295337939E-002   2.1763742906642302E-002
   7.1181887362674140E-002  -2.1354086587946797E-002   2.2085469036351182E-002
   7.5028034140213279E-002  -2.2614025323047016E-002   2.8771552430967268E-002
   7.2702549754585261E-002  -2.1758668516477980E-002   2.8597358183286514E-002
   7.0377065368957312E-002  -2.0962720726092052E-002   2.8572049568849983E-002
   6.8051580983329363E-002  -2.0226181951889518E-002   2.8695626587658049E-002
   6.5726096597701344E-002  -1.9549052193869987E-002   2.8968089239710115E-002
   8.7452770706181737E-002  -2.6769189770177393E-002   8.4927568583526014E-004
   8.4258855471530336E-002  -2.5769212389899432E-002   6.5735148109946628E-004
   8.1064940236879046E-002  -2.4848574402839441E-002   6.5924168315367737E-004
   7.7871025002227728E-002  -2.4007275808998127E-002   8.5494629199731054E-004
   7.4677109767576355E-002  -2.3245316608375033E-002   1.2444653076313372E-003
   8.2045224416914253E-002  -2.4964155376100583E-002   8.0260622594137687E-003
   7.9045169888689898E-002  -2.4048148943189102E-002   7.7528479785680948E-003
   7.6045115360465515E-002  -2.3183312884749188E-002   7.6735407037863690E-003
   7.3045060832241174E-002  -2.2369647200781387E-002   7.7881404350685912E-003
   7.0045006304016832E-002  -2.1607151891285370E-002   8.0966471724144284E-003
   7.6621596635745054E-002  -2.3159120982023773E-002   1.5104793376252368E-002
   7.3815495413221577E-002  -2.2327085496478799E-002   1.4778458038043410E-002
   7.1009394190698169E-002  -2.1518051366659047E-002   1.4646122305172329E-002
   6.8203292968174789E-002  -2.0732018592564648E-002   1.4707786177639320E-002
   6.5397191745651367E-002  -1.9968987174195152E-002   1.4963449655444161E-002
   7.1181887362674140E-002  -2.1354086587946797E-002   2.2085469036351182E-002
   6.8569832045125553E-002  -2.0606022049768483E-002   2.1734181659525658E-002
   6.5957776727577050E-002  -1.9852789848568794E-002   2.1576986487311711E-002
   6.3345721410028519E-002  -1.9094389984347687E-002   2.1613883519709814E-002
   6.0733666092479960E-002  -1.8330822457105211E-002   2.1844872756719952E-002
   6.5726096597701344E-002  -1.9549052193869987E-002   2.8968089239710115E-002
   6.3308179784401675E-002  -1.8884958603058277E-002   2.8620018843014489E-002
   6.0890262971102033E-002  -1.8187528330478500E-002   2.8466133250204612E-002
   5.8472346157802363E-002  -1.7456761376130798E-002   2.8506432461280443E-002
   5.6054429344502721E-002  -1.6692657740015215E-002   2.8740916476242162E-002
   7.4677109767576355E-002  -2.3245316608375033E-002   1.2444653076313372E-003
   7.1805731448603249E-002  -2.2508280654258583E-002   9.5822612246665440E-004
   6.8934353129630088E-002  -2.1741751799936648E-002   8.3254896905993192E-004
   6.6062974810656983E-002  -2.0945730045409366E-002   8.6743384741178042E-004
   6.3191596491683821E-002  -2.0120215390676766E-002   1.0628807575226995E-003
   7.0045006304016832E-002  -2.1607151891285370E-002   8.0966471724144284E-003
   6.7335270779085132E-002  -2.0861277064481709E-002   7.8194888093721659E-003
   6.4625535254153404E-002  -2.0097472828592505E-002   7.7050540026537551E-003
   6.1915799729221774E-002  -1.9315739183617335E-002   7.7533427522598758E-003
   5.9206064204290088E-002  -1.8516076129556192E-002   7.9643550581905975E-003
   6.5397191745651367E-002  -1.9968987174195152E-002   1.4963449655444161E-002
   6.2851260539326881E-002  -1.9214273474705112E-002   1.4683808623404959E-002
   6.0305329333002422E-002  -1.8453193857248584E-002   1.4569052672255889E-002
   5.7759398126677922E-002  -1.7685748321825193E-002   1.4619181801996922E-002
   5.5213466920353449E-002  -1.6911936868435173E-002   1.4834196012627809E-002
   6.0733666092479960E-002  -1.8330822457105211E-002   2.1844872756719952E-002
   5.8353700729328481E-002  -1.7567269884928488E-002   2.1551185564564722E-002
   5.5973735366177002E-002  -1.6808914885904497E-002   2.1424544977865154E-002
   5.3593770003025565E-002  -1.6055757460033106E-002   2.1464950996621573E-002
   5.1213804639874037E-002  -1.5307797607314599E-002   2.1672403620834182E-002
   5.6054429344502721E-002  -1.6692657740015215E-002   2.8740916476242162E-002
   5.3842591349089974E-002  -1.5920266295151669E-002   2.8421619632851391E-002
   5.1630753353677256E-002  -1.5164635914560548E-002   2.8271530919482535E-002
   4.9418915358264551E-002  -1.4425766598240776E-002   2.8290650336134940E-002
   4.7207077362851846E-002  -1.3703658346193748E-002   2.8478977882809120E-002
   6.3191596491683821E-002  -2.0120215390676766E-002   1.0628807575226995E-003
   6.0146059491108739E-002  -1.9862737147213205E-002   1.9549523620336906E-003
   5.7100522490533767E-002  -2.0770824626491768E-002   2.8632360725021622E-003
   5.4054985489958768E-002  -2.2844477828513302E-002   3.7877318889290579E-003
   5.1009448489383713E-002  -2.6083696753277152E-002   4.7284398113132120E-003
   5.9206064204290088E-002  -1.8516076129556192E-002   7.9643550581905975E-003
   5.6196574942668498E-002  -1.8109643952175236E-002   7.8842188565601545E-003
   5.3187085681046881E-002  -1.8507602937240020E-002   7.8599660268783289E-003
   5.0177596419425277E-002  -1.9709953084750612E-002   7.8915965691462031E-003
   4.7168107157803618E-002  -2.1716694394707581E-002   7.9791104833628612E-003
   5.5213466920353449E-002  -1.6911936868435173E-002   1.4834196012627809E-002
   5.2279696663676545E-002  -1.6356550757136767E-002   1.4143026565152345E-002
   4.9345926406999627E-002  -1.6244381247987577E-002   1.3547411755617328E-002
   4.6412156150322785E-002  -1.6575428340988026E-002   1.3047351584022593E-002
   4.3478385893645888E-002  -1.7349692036137787E-002   1.2642846050367584E-002
   5.1213804639874037E-002  -1.5307797607314599E-002   2.1672403620834182E-002
   4.8395424654133115E-002  -1.4603457562098771E-002   2.0731375487810261E-002
   4.5577044668392228E-002  -1.3981159558735926E-002   1.9925573258718035E-002
   4.2758664682651257E-002  -1.3440903597225610E-002   1.9254996933557342E-002
   3.9940284696910286E-002  -1.2982689677568326E-002   1.8719646512328214E-002
   4.7207077362851846E-002  -1.3703658346193748E-002   2.8478977882809120E-002
   4.4543758914038112E-002  -1.2850364367060552E-002   2.7649265624533625E-002
   4.1880440465224406E-002  -1.1717937869483566E-002   2.6994450536181075E-002
   3.9217122016410713E-002  -1.0306378853463045E-002   2.6514532617751038E-002
   3.6553803567596965E-002  -8.6156873189986438E-003   2.6209511869244251E-002
   9.0362567582848954E-002   0.0000000000000000        4.9836802449924972E-002
   9.3962615826078566E-002  -5.4039222765689928E-003   5.3210640855121533E-002
   9.7562664069308178E-002  -1.0670716101739138E-002   5.4966228776878456E-002
  0.10116271231253779       -1.5800381475510432E-002   5.5103566215195715E-002
  0.10476276055576739       -2.0792918397882880E-002   5.3622653170073302E-002
   8.2425195593957945E-002   0.0000000000000000        4.4785843157391619E-002
   8.4635931378918963E-002  -4.5741130356916036E-003   4.8269018518274323E-002
   8.6846667163879995E-002  -9.0375879771698343E-003   5.0591819446059519E-002
   8.9057402948841000E-002  -1.3390424824434697E-002   5.1754245940747193E-002
   9.1268138733802032E-002  -1.7632623577486184E-002   5.1756298002337331E-002
   7.4244339262775919E-002   0.0000000000000000        4.0577938284328395E-002
   7.5523638639810486E-002  -3.7443037948142149E-003   4.4143960243711769E-002
   7.6802938016845040E-002  -7.4044598526005357E-003   4.7007483820339764E-002
   7.8082237393879594E-002  -1.0980468173358959E-002   4.9168509014212380E-002
   7.9361536770914148E-002  -1.4472328757089498E-002   5.0627035825329576E-002
   6.5819998589302861E-002   0.0000000000000000        3.7213087830735292E-002
   6.6625737608753094E-002  -2.9144945539368253E-003   4.0835466031433877E-002
   6.7431476628203327E-002  -5.7713317280312336E-003   4.4213221899719192E-002
   6.8237215647653560E-002  -8.5705115222832265E-003   4.7346355435591229E-002
   6.9042954667103779E-002  -1.1312033936692797E-002   5.0234866639050031E-002
   5.7152173573538780E-002   0.0000000000000000        3.4691291796612324E-002
   5.7942228285746807E-002  -2.0846853130594379E-003   3.8343535881440620E-002
   5.8732282997954841E-002  -4.1382036034619332E-003   4.2209033684197796E-002
   5.9522337710162881E-002  -6.1605548712074867E-003   4.6287785204883823E-002
   6.0312392422370902E-002  -8.1517391162961115E-003   5.0579790443498696E-002
  0.10476276055576739       -2.0792918397882880E-002   5.3622653170073302E-002
  0.10210912200264480       -2.4934935675231050E-002   4.5644004460576579E-002
   9.9455483449522236E-002  -2.7513042113929537E-002   3.9354402235916422E-002
   9.6801844896399647E-002  -2.8527237713978342E-002   3.4753846496092825E-002
   9.4148206343277085E-002  -2.7977522475377450E-002   3.1842337241105897E-002
   9.1268138733802032E-002  -1.7632623577486184E-002   5.1756298002337331E-002
   9.0065904955050458E-002  -2.1208829445699871E-002   4.6520656698508418E-002
   8.8863671176298883E-002  -2.3563687638451278E-002   4.2498778458584893E-002
   8.7661437397547282E-002  -2.4697198155740466E-002   3.9690663282566721E-002
   8.6459203618795721E-002  -2.4609360997567359E-002   3.8096311170453943E-002
   7.9361536770914148E-002  -1.4472328757089498E-002   5.0627035825329576E-002
   7.9135424345602362E-002  -1.7482723216168675E-002   4.7791838763981083E-002
   7.8909311920290548E-002  -1.9614333162973032E-002   4.5695121345606722E-002
   7.8683199494978748E-002  -2.0867158597502593E-002   4.4336883570206521E-002
   7.8457087069666934E-002  -2.1241199519757316E-002   4.3717125437780488E-002
   6.9042954667103779E-002  -1.1312033936692797E-002   5.0234866639050031E-002
   6.9317680174300539E-002  -1.3756616986637485E-002   4.9457550656994483E-002
   6.9592405681497271E-002  -1.5664978687494790E-002   4.8943430896981888E-002
   6.9867131188694004E-002  -1.7037119039264713E-002   4.8692507359012205E-002
   7.0141856695890792E-002  -1.7873038041947256E-002   4.8704780043085455E-002
   6.0312392422370902E-002  -8.1517391162961115E-003   5.0579790443498696E-002
   6.0612672441144967E-002  -1.0030510757106294E-002   5.1517792377548707E-002
   6.0912952459919040E-002  -1.1715624212016522E-002   5.2243707112710411E-002
   6.1213232478693091E-002  -1.3207079481026850E-002   5.2757534648983813E-002
   6.1513512497467164E-002  -1.4504876564137195E-002   5.3059274986368962E-002
   9.4148206343277085E-002  -2.7977522475377450E-002   3.1842337241105897E-002
   9.1761239783846094E-002  -2.6783247111968729E-002   3.1273982012939489E-002
   8.9374273224415102E-002  -2.5863762337594087E-002   3.0789898828733710E-002
   8.6987306664984110E-002  -2.5219068152253544E-002   3.0390087688488564E-002
   8.4600340105553118E-002  -2.4849164555947129E-002   3.0074548592204126E-002
   8.6459203618795721E-002  -2.4609360997567359E-002   3.8096311170453943E-002
   8.4202135781210885E-002  -2.3965332706182431E-002   3.7068590796489408E-002
   8.1945067943626021E-002  -2.3430269823835996E-002   3.6216395822256373E-002
   7.9688000106041199E-002  -2.3004172350528131E-002   3.5539726247755157E-002
   7.7430932268456334E-002  -2.2687040286258786E-002   3.5038582072985547E-002
   7.8457087069666934E-002  -2.1241199519757316E-002   4.3717125437780488E-002
   7.6421171309699276E-002  -2.1147418300396129E-002   4.2395865098013220E-002
   7.4385255549731605E-002  -2.0996777310077909E-002   4.1341383513748657E-002
   7.2349339789763961E-002  -2.0789276548802714E-002   4.0553680684986840E-002
   7.0313424029796304E-002  -2.0524916016570485E-002   4.0032756611727595E-002
   7.0141856695890792E-002  -1.7873038041947256E-002   4.8704780043085455E-002
   6.8418346369311295E-002  -1.8329503894609842E-002   4.7255804917511114E-002
   6.6694836042731839E-002  -1.8563284796319832E-002   4.6164861903210473E-002
   6.4971325716152384E-002  -1.8574380747077252E-002   4.5431951000183532E-002
   6.3247815389572901E-002  -1.8362791746882177E-002   4.5057072208430374E-002
   6.1513512497467164E-002  -1.4504876564137195E-002   5.3059274986368962E-002
   6.0193660960046927E-002  -1.5511589488823519E-002   5.1648410254983013E-002
   5.8873809422626724E-002  -1.6129792282561745E-002   5.0686830990641883E-002
   5.7553957885206501E-002  -1.6359484945351842E-002   5.0174537193345359E-002
   5.6234106347786278E-002  -1.6200667477193870E-002   5.0111528863093807E-002
   8.4600340105553118E-002  -2.4849164555947129E-002   3.0074548592204126E-002
   8.2207263614218137E-002  -2.4535087127548746E-002   2.9322805704739621E-002
   7.9814187122883185E-002  -2.4057871445932626E-002   2.8855058715378662E-002
   7.7421110631548218E-002  -2.3417517511098718E-002   2.8671307624121199E-002
   7.5028034140213279E-002  -2.2614025323047016E-002   2.8771552430967268E-002
   7.7430932268456334E-002  -2.2687040286258786E-002   3.5038582072985547E-002
   7.5307181784957988E-002  -2.2364618846270987E-002   3.4465410100537427E-002
   7.3183431301459628E-002  -2.1922653245807937E-002   3.4146894245659039E-002
   7.1059680817961310E-002  -2.1361143484869338E-002   3.4083034508350374E-002
   6.8935930334462922E-002  -2.0680089563455406E-002   3.4273830888611467E-002
   7.0313424029796304E-002  -2.0524916016570485E-002   4.0032756611727595E-002
   6.8429659773600715E-002  -2.0194150564993234E-002   3.9594561461553525E-002
   6.6545895517405196E-002  -1.9787435045683057E-002   3.9381682648415337E-002
   6.4662131261209635E-002  -1.9304769458639959E-002   3.9394120172313030E-002
   6.2778367005014102E-002  -1.8746153803863824E-002   3.9631874033246695E-002
   6.3247815389572901E-002  -1.8362791746882177E-002   4.5057072208430374E-002
   6.1574697580146380E-002  -1.8023682283715505E-002   4.4710259787787809E-002
   5.9901579770719811E-002  -1.7652216845558247E-002   4.4559423923647312E-002
   5.8228461961293290E-002  -1.7248395432410538E-002   4.4604564616009007E-002
   5.6555344151866721E-002  -1.6812218044272256E-002   4.4845681864872658E-002
   5.6234106347786278E-002  -1.6200667477193870E-002   5.0111528863093807E-002
   5.4742295204594921E-002  -1.5853214002437707E-002   4.9812505079240330E-002
   5.3250484061403550E-002  -1.5516998645433475E-002   4.9680118071355250E-002
   5.1758672918212185E-002  -1.5192021406181210E-002   4.9714367839438320E-002
   5.0266861775020821E-002  -1.4878282284680661E-002   4.9915254383489843E-002
   7.5028034140213279E-002  -2.2614025323047016E-002   2.8771552430967268E-002
   7.2702549754585261E-002  -2.1758668516477980E-002   2.8597358183286514E-002
   7.0377065368957312E-002  -2.0962720726092052E-002   2.8572049568849983E-002
   6.8051580983329363E-002  -2.0226181951889518E-002   2.8695626587658049E-002
   6.5726096597701344E-002  -1.9549052193869987E-002   2.8968089239710115E-002
   6.8935930334462922E-002  -2.0680089563455406E-002   3.4273830888611467E-002
   6.6769140406408065E-002  -1.9954804967079201E-002   3.3998740028193836E-002
   6.4602350478353193E-002  -1.9260603181253874E-002   3.3892152449678067E-002
   6.2435560550298350E-002  -1.8597484205979380E-002   3.3954068153064114E-002
   6.0268770622243450E-002  -1.7965448041255661E-002   3.4184487138352093E-002
   6.2778367005014102E-002  -1.8746153803863824E-002   3.9631874033246695E-002
   6.0789889183189817E-002  -1.8150941417680463E-002   3.9284212765724594E-002
   5.8801411361365519E-002  -1.7558485636415593E-002   3.9124672428761838E-002
   5.6812933539541255E-002  -1.6968786460069107E-002   3.9153253022358447E-002
   5.4824455717716949E-002  -1.6381843888641140E-002   3.9369954546514305E-002
   5.6555344151866721E-002  -1.6812218044272256E-002   4.4845681864872658E-002
   5.4764796084930498E-002  -1.6347077868281691E-002   4.4453776395878566E-002
   5.2974248017994253E-002  -1.5856368091577363E-002   4.4269609506101315E-002
   5.1183699951058065E-002  -1.5340088714158956E-002   4.4293181195540841E-002
   4.9393151884121814E-002  -1.4798239736026800E-002   4.4524491464197138E-002
   5.0266861775020821E-002  -1.4878282284680661E-002   4.9915254383489843E-002
   4.8693861111630141E-002  -1.4543214318882919E-002   4.9507430918655976E-002
   4.7120860448239460E-002  -1.4154250546739099E-002   4.9326963681696437E-002
   4.5547859784848765E-002  -1.3711390968248796E-002   4.9373852672611192E-002
   4.3974859121458071E-002  -1.3214635583412293E-002   4.9648097891400178E-002
   6.5726096597701344E-002  -1.9549052193869987E-002   2.8968089239710115E-002
   6.3308179784401675E-002  -1.8884958603058277E-002   2.8620018843014489E-002
   6.0890262971102033E-002  -1.8187528330478500E-002   2.8466133250204612E-002
   5.8472346157802363E-002  -1.7456761376130798E-002   2.8506432461280443E-002
   5.6054429344502721E-002  -1.6692657740015215E-002   2.8740916476242162E-002
   6.0268770622243450E-002  -1.7965448041255661E-002   3.4184487138352093E-002
   5.8043765678173209E-002  -1.7337631341535639E-002   3.3876145159086726E-002
   5.5818760734102996E-002  -1.6687170761272518E-002   3.3759442114394606E-002
   5.3593755790032734E-002  -1.6014066300466201E-002   3.3834378004275356E-002
   5.1368750845962541E-002  -1.5318317959116756E-002   3.4100952828729131E-002
   5.4824455717716949E-002  -1.6381843888641140E-002   3.9369954546514305E-002
   5.2789816773563342E-002  -1.5790304080013196E-002   3.9090648183454799E-002
   5.0755177829409664E-002  -1.5186813192066696E-002   3.9000434885655653E-002
   4.8720538885256015E-002  -1.4571371224801658E-002   3.9099314653116515E-002
   4.6685899941102421E-002  -1.3943978178218158E-002   3.9387287485837585E-002
   4.9393151884121814E-002  -1.4798239736026800E-002   4.4524491464197138E-002
   4.7546333070571919E-002  -1.4242976818490766E-002   4.4263527916118879E-002
   4.5699514257022060E-002  -1.3686455622860850E-002   4.4189111563987742E-002
   4.3852695443472207E-002  -1.3128676149137226E-002   4.4301242407804128E-002
   4.2005876629922362E-002  -1.2569638397319685E-002   4.4599920447567977E-002
   4.3974859121458071E-002  -1.3214635583412293E-002   4.9648097891400178E-002
   4.2313314569199123E-002  -1.2695649556968142E-002   4.9394784357078447E-002
   4.0651770016940189E-002  -1.2186098053654906E-002   4.9325472149390898E-002
   3.8990225464681248E-002  -1.1685981073472521E-002   4.9440161268337973E-002
   3.7328680912422307E-002  -1.1195298616421046E-002   4.9738851713919729E-002
   5.6054429344502721E-002  -1.6692657740015215E-002   2.8740916476242162E-002
   5.3842591349089974E-002  -1.5920266295151669E-002   2.8421619632851391E-002
   5.1630753353677256E-002  -1.5164635914560548E-002   2.8271530919482535E-002
   4.9418915358264551E-002  -1.4425766598240776E-002   2.8290650336134940E-002
   4.7207077362851846E-002  -1.3703658346193748E-002   2.8478977882809120E-002
   5.1368750845962541E-002  -1.5318317959116756E-002   3.4100952828729131E-002
   4.9327938577254635E-002  -1.4614490475887004E-002   3.3774677845174045E-002
   4.7287126308546742E-002  -1.3917148589440653E-002   3.3621246185007239E-002
   4.5246314039838816E-002  -1.3226292299776884E-002   3.3640657848228166E-002
   4.3205501771131000E-002  -1.2541921606896378E-002   3.3832912834837248E-002
   4.6685899941102421E-002  -1.3943978178218158E-002   3.9387287485837585E-002
   4.4819748592465680E-002  -1.3308714656622381E-002   3.9064309829607527E-002
   4.2953597243828988E-002  -1.2669661264320689E-002   3.8917810690131630E-002
   4.1087445895192282E-002  -1.2026818001312767E-002   3.8947790067410275E-002
   3.9221294546555610E-002  -1.1380184867598925E-002   3.9154247961443248E-002
   4.2005876629922362E-002  -1.2569638397319685E-002   4.4599920447567977E-002
   4.0318021394723208E-002  -1.2002938837357681E-002   4.4290515586151512E-002
   3.8630166159524110E-002  -1.1422173939200732E-002   4.4161224434855789E-002
   3.6942310924324949E-002  -1.0827343702848652E-002   4.4212046993680781E-002
   3.5254455689125858E-002  -1.0218448128301624E-002   4.4442983262626579E-002
   3.7328680912422307E-002  -1.1195298616421046E-002   4.9738851713919729E-002
   3.5822756984027121E-002  -1.0697163018093064E-002   4.9453295114806117E-002
   3.4316833055631962E-002  -1.0174686614080844E-002   4.9351487419179524E-002
   3.2810909127236790E-002  -9.6278694043847070E-003   4.9433428627040296E-002
   3.1304985198841617E-002  -9.0567113890041018E-003   4.9699118738388171E-002
   4.7207077362851846E-002  -1.3703658346193748E-002   2.8478977882809120E-002
   4.4543758914038112E-002  -1.2850364367060552E-002   2.7649265624533625E-002
   4.1880440465224406E-002  -1.1717937869483566E-002   2.6994450536181075E-002
   3.9217122016410713E-002  -1.0306378853463045E-002   2.6514532617751038E-002
   3.6553803567596965E-002  -8.6156873189986438E-003   2.6209511869244251E-002
   4.3205501771131000E-002  -1.2541921606896378E-002   3.3832912834837248E-002
   4.0724135768936520E-002  -1.1759737006964144E-002   3.3268247185068600E-002
   3.8242769766742055E-002  -1.0775438996145525E-002   3.2892589258615545E-002
   3.5761403764547610E-002  -9.5890275744404674E-003   3.2705939055478306E-002
   3.3280037762353110E-002  -8.2005027418491361E-003   3.2708296575657103E-002
   3.9221294546555610E-002  -1.1380184867598925E-002   3.9154247961443248E-002
   3.6935991544373201E-002  -1.0669109646867625E-002   3.8777609812624070E-002
   3.4650688542190798E-002  -9.8329401228073113E-003   3.8604089940513668E-002
   3.2365385540008451E-002  -8.8716762954179993E-003   3.8633688345111925E-002
   3.0080082537826042E-002  -7.7853181646995173E-003   3.8866405026418083E-002
   3.5254455689125858E-002  -1.0218448128301624E-002   4.4442983262626579E-002
   3.3179326240348340E-002  -9.5784822867710506E-003   4.4177353507200090E-002
   3.1104196791570837E-002  -8.8904412494689063E-003   4.4128952581874818E-002
   2.9029067342793365E-002  -8.1543250163953092E-003   4.4297780486650562E-002
   2.6953937894015761E-002  -7.3701335875499541E-003   4.4683837221527745E-002
   3.1304985198841617E-002  -9.0567113890041018E-003   4.9699118738388171E-002
   2.9454139856861794E-002  -8.4878549266746983E-003   4.9467478268796328E-002
   2.7603294514881957E-002  -7.9479423761309176E-003   4.9467177182698774E-002
   2.5752449172902113E-002  -7.4369737373729469E-003   4.9698215480095065E-002
   2.3901603830922324E-002  -6.9549490104003908E-003   5.0160593160985867E-002
   5.7152173573538780E-002   0.0000000000000000        3.4691291796612324E-002
   5.7942228285746807E-002  -2.0846853130594379E-003   3.8343535881440620E-002
   5.8732282997954841E-002  -4.1382036034619332E-003   4.2209033684197796E-002
   5.9522337710162881E-002  -6.1605548712074867E-003   4.6287785204883823E-002
   6.0312392422370902E-002  -8.1517391162961115E-003   5.0579790443498696E-002
   4.8652564220799527E-002   0.0000000000000000        3.2789658022657611E-002
   4.9590726549265191E-002  -1.7098365909889992E-003   3.6965417318016357E-002
   5.0528888877730854E-002  -3.4333489169129528E-003   4.1224138127961510E-002
   5.1467051206196518E-002  -5.1705369777718529E-003   4.5565820452493050E-002
   5.2405213534662182E-002  -6.9214007735657092E-003   4.9990464291610984E-002
   4.0732870536400956E-002   0.0000000000000000        3.1285294349569281E-002
   4.1688848277781798E-002  -1.3349878689185618E-003   3.5939726097866574E-002
   4.2644826019162634E-002  -2.7284942303639672E-003   4.0546827157407810E-002
   4.3600803760543469E-002  -4.1805190843362122E-003   4.5106597528192995E-002
   4.4556781501924311E-002  -5.6910624308353025E-003   4.9619037210222108E-002
   3.3393092520343060E-002   0.0000000000000000        3.0178200777347331E-002
   3.4236593471296602E-002  -9.6013914684812463E-004   3.5266462220991279E-002
   3.5080094422250165E-002  -2.0236395438149833E-003   4.0177100772536722E-002
   3.5923595373203707E-002  -3.1905011909005758E-003   4.4910116431983629E-002
   3.6767096324157263E-002  -4.4607240881049011E-003   4.9465509199332056E-002
   2.6633230172625845E-002   0.0000000000000000        2.9468377305991764E-002
   2.7233962129809650E-002  -5.8529042477768571E-004   3.4945625687390486E-002
   2.7834694086993454E-002  -1.3187848572660012E-003   4.0114958973348241E-002
   2.8435426044177259E-002  -2.2004832974649360E-003   4.4976377163865003E-002
   2.9036158001361060E-002  -3.2303857453744962E-003   4.9529880258940791E-002
   6.0312392422370902E-002  -8.1517391162961115E-003   5.0579790443498696E-002
   6.0612672441144967E-002  -1.0030510757106294E-002   5.1517792377548707E-002
   6.0912952459919040E-002  -1.1715624212016522E-002   5.2243707112710411E-002
   6.1213232478693091E-002  -1.3207079481026850E-002   5.2757534648983813E-002
   6.1513512497467164E-002  -1.4504876564137195E-002   5.3059274986368962E-002
   5.2405213534662182E-002  -6.9214007735657092E-003   4.9990464291610984E-002
   5.2532199823068775E-002  -8.5850224920345306E-003   5.1216915586895152E-002
   5.2659186111475367E-002  -1.0060484320918339E-002   5.2308866620332635E-002
   5.2786172399881953E-002  -1.1347786260217162E-002   5.3266317391923446E-002
   5.2913158688288539E-002  -1.2446928309930952E-002   5.4089267901667626E-002
   4.4556781501924311E-002  -5.6910624308353025E-003   4.9619037210222108E-002
   4.4588060997005061E-002  -7.1395342269627744E-003   5.1128439570425462E-002
   4.4619340492085817E-002  -8.4053444298201746E-003   5.2580928605823779E-002
   4.4650619987166566E-002  -9.4884930394074762E-003   5.3976504316417095E-002
   4.4681899482247323E-002  -1.0388980055724702E-002   5.5315166702205376E-002
   3.6767096324157263E-002  -4.4607240881049011E-003   4.9465509199332056E-002
   3.6780255962953826E-002  -5.6940459618910182E-003   5.1252364328139663E-002
   3.6793415601750389E-002  -6.7502045387219864E-003   5.3059893069183899E-002
   3.6806575240546952E-002  -7.6291998185977960E-003   5.4888095422464735E-002
   3.6819734879343508E-002  -8.3310318015184549E-003   5.6736971387982289E-002
   2.9036158001361060E-002  -3.2303857453744962E-003   4.9529880258940791E-002
   2.9108784720915069E-002  -4.2485576968192594E-003   5.1588689860037756E-002
   2.9181411440469075E-002  -5.0950646476238251E-003   5.3745760010412993E-002
   2.9254038160023085E-002  -5.7699065977881228E-003   5.6001090710066481E-002
   2.9326664879577101E-002  -6.2730835473122151E-003   5.8354681958998254E-002
   6.1513512497467164E-002  -1.4504876564137195E-002   5.3059274986368962E-002
   6.0193660960046927E-002  -1.5511589488823519E-002   5.1648410254983013E-002
   5.8873809422626724E-002  -1.6129792282561745E-002   5.0686830990641883E-002
   5.7553957885206501E-002  -1.6359484945351842E-002   5.0174537193345359E-002
   5.6234106347786278E-002  -1.6200667477193870E-002   5.0111528863093807E-002
   5.2913158688288539E-002  -1.2446928309930952E-002   5.4089267901667626E-002
   5.1990707300641141E-002  -1.3298236332917088E-002   5.3343621603556393E-002
   5.1068255912993743E-002  -1.3842036192033037E-002   5.2943490137945894E-002
   5.0145804525346345E-002  -1.4078327887278657E-002   5.2888873504836405E-002
   4.9223353137698947E-002  -1.4007111418654031E-002   5.3179771704227760E-002
   4.4681899482247323E-002  -1.0388980055724702E-002   5.5315166702205376E-002
   4.4053077609828864E-002  -1.1084883177010682E-002   5.5153736870290883E-002
   4.3424255737410419E-002  -1.1554280101504272E-002   5.5234051236333410E-002
   4.2795433864991947E-002  -1.1797170829205441E-002   5.5556109800332959E-002
   4.2166611992573509E-002  -1.1813555360114233E-002   5.6119912562289459E-002
   3.6819734879343508E-002  -8.3310318015184549E-003   5.6736971387982289E-002
   3.6380771887610137E-002  -8.8715300211042701E-003   5.7078756055186690E-002
   3.5941808895876760E-002  -9.2665240109755485E-003   5.7558514285804309E-002
   3.5502845904143390E-002  -9.5160137711322694E-003   5.8176246079834966E-002
   3.5063882912409999E-002  -9.6199993015744431E-003   5.8931951437278793E-002
   2.9326664879577101E-002  -6.2730835473122151E-003   5.8354681958998254E-002
   2.8973790133984920E-002  -6.6581768651978561E-003   5.9118679158243731E-002
   2.8620915388392742E-002  -6.9787679204467937E-003   5.9916879286358526E-002
   2.8268040642800564E-002  -7.2348567130590593E-003   6.0749282343342599E-002
   2.7915165897208383E-002  -7.4264432430346250E-003   6.1615888329195900E-002
   5.6234106347786278E-002  -1.6200667477193870E-002   5.0111528863093807E-002
   5.4742295204594921E-002  -1.5853214002437707E-002   4.9812505079240330E-002
   5.3250484061403550E-002  -1.5516998645433475E-002   4.9680118071355250E-002
   5.1758672918212185E-002  -1.5192021406181210E-002   4.9714367839438320E-002
   5.0266861775020821E-002  -1.4878282284680661E-002   4.9915254383489843E-002
   4.9223353137698947E-002  -1.4007111418654031E-002   5.3179771704227760E-002
   4.7904638730167565E-002  -1.3775272951522352E-002   5.2842468802723933E-002
   4.6585924322636169E-002  -1.3529698651246789E-002   5.2684722596571844E-002
   4.5267209915104800E-002  -1.3270388517827310E-002   5.2706533085771418E-002
   4.3948495507573390E-002  -1.2997342551263891E-002   5.2907900270322744E-002
   4.2166611992573509E-002  -1.1813555360114233E-002   5.6119912562289459E-002
   4.1033914240085512E-002  -1.1697331900607004E-002   5.5769304494031086E-002
   3.9901216487597521E-002  -1.1542398657060020E-002   5.5611173040507798E-002
   3.8768518735109538E-002  -1.1348755629473397E-002   5.5645518201719632E-002
   3.7635820982621540E-002  -1.1116402817847051E-002   5.5872339977666448E-002
   3.5063882912409999E-002  -9.6199993015744431E-003   5.8931951437278793E-002
   3.4130121734348789E-002  -9.6193908496916107E-003   5.8593012153161726E-002
   3.3196360556287559E-002  -9.5550986628732508E-003   5.8459469403162941E-002
   3.2262599378226356E-002  -9.4271227411195056E-003   5.8531323187282776E-002
   3.1328838200165132E-002  -9.2354630844301913E-003   5.8808573505521038E-002
   2.7915165897208383E-002  -7.4264432430346250E-003   6.1615888329195900E-002
   2.7193261212957363E-002  -7.5414497987762452E-003   6.1313591780115723E-002
   2.6471356528706330E-002  -7.5677986686865581E-003   6.1229611684537402E-002
   2.5749451844455297E-002  -7.5054898527656243E-003   6.1363948042461001E-002
   2.5027547160204264E-002  -7.3545233510134422E-003   6.1716600853886444E-002
   5.0266861775020821E-002  -1.4878282284680661E-002   4.9915254383489843E-002
   4.8693861111630141E-002  -1.4543214318882919E-002   4.9507430918655976E-002
   4.7120860448239460E-002  -1.4154250546739099E-002   4.9326963681696437E-002
   4.5547859784848765E-002  -1.3711390968248796E-002   4.9373852672611192E-002
   4.3974859121458071E-002  -1.3214635583412293E-002   4.9648097891400178E-002
   4.3948495507573390E-002  -1.2997342551263891E-002   5.2907900270322744E-002
   4.2596914818934732E-002  -1.2696363938506691E-002   5.2547844927657086E-002
   4.1245334130296060E-002  -1.2353255866506013E-002   5.2403273306621229E-002
   3.9893753441657388E-002  -1.1968018335261656E-002   5.2474185407214956E-002
   3.8542172753018744E-002  -1.1540651344773889E-002   5.2760581229438608E-002
   3.7635820982621540E-002  -1.1116402817847051E-002   5.5872339977666448E-002
   3.6493787762490321E-002  -1.0849513558130394E-002   5.5548286410066247E-002
   3.5351754542359129E-002  -1.0552261186272987E-002   5.5427844057851242E-002
   3.4209721322227923E-002  -1.0224645702274601E-002   5.5511012921021431E-002
   3.3067688102096725E-002  -9.8666671061354294E-003   5.5797792999576851E-002
   3.1328838200165132E-002  -9.2354630844301913E-003   5.8808573505521038E-002
   3.0384479942296868E-002  -9.0026631777541319E-003   5.8508755365883618E-002
   2.9440121684428597E-002  -8.7512665060399310E-003   5.8400675935386774E-002
   2.8495763426560343E-002  -8.4812730692875298E-003   5.8484335214030542E-002
   2.7551405168692089E-002  -8.1926828674969976E-003   5.8759733201815212E-002
   2.5027547160204264E-002  -7.3545233510134422E-003   6.1716600853886444E-002
   2.4268991358354398E-002  -7.1558127973778696E-003   6.1429251795108997E-002
   2.3510435556504533E-002  -6.9502718258069168E-003   6.1321768939227694E-002
   2.2751879754654668E-002  -6.7379004363003724E-003   6.1394152286242482E-002
   2.1993323952804789E-002  -6.5186986288585103E-003   6.1646401836153497E-002
   4.3974859121458071E-002  -1.3214635583412293E-002   4.9648097891400178E-002
   4.2313314569199123E-002  -1.2695649556968142E-002   4.9394784357078447E-002
   4.0651770016940189E-002  -1.2186098053654906E-002   4.9325472149390898E-002
   3.8990225464681248E-002  -1.1685981073472521E-002   4.9440161268337973E-002
   3.7328680912422307E-002  -1.1195298616421046E-002   4.9738851713919729E-002
   3.8542172753018744E-002  -1.1540651344773889E-002   5.2760581229438608E-002
   3.7069051815095524E-002  -1.1093718034577260E-002   5.2463676028856876E-002
   3.5595930877172333E-002  -1.0649781544206330E-002   5.2359616730312239E-002
   3.4122809939249120E-002  -1.0208841873661476E-002   5.2448403333804468E-002
   3.2649689001325935E-002  -9.7708990229423143E-003   5.2730035839333805E-002
   3.3067688102096725E-002  -9.8666671061354294E-003   5.5797792999576851E-002
   3.1791835353911752E-002  -9.4917865121862538E-003   5.5463733836040516E-002
   3.0515982605726768E-002  -9.1134650347579130E-003   5.5331365149943489E-002
   2.9240129857541805E-002  -8.7317026738503740E-003   5.5400686941286109E-002
   2.7964277109356839E-002  -8.3464994294635553E-003   5.5671699210067968E-002
   2.7551405168692089E-002  -8.1926828674969976E-003   5.8759733201815212E-002
   2.6481665185647783E-002  -7.8898549897953099E-003   5.8394957778629061E-002
   2.5411925202603523E-002  -7.5771485253093886E-003   5.8240717408284889E-002
   2.4342185219559258E-002  -7.2545634740392726E-003   5.8297012090782627E-002
   2.3272445236514984E-002  -6.9220998359847546E-003   5.8563841826122259E-002
   2.1993323952804789E-002  -6.5186986288585103E-003   6.1646401836153497E-002
   2.1138541310303696E-002  -6.2879234674044215E-003   6.1257347856622735E-002
   2.0283758667802590E-002  -6.0408320158608642E-003   6.1087673505336448E-002
   1.9428976025301491E-002  -5.7774242742281851E-003   6.1137378782294416E-002
   1.8574193382800377E-002  -5.4977002425060650E-003   6.1406463687496970E-002
   3.7328680912422307E-002  -1.1195298616421046E-002   4.9738851713919729E-002
   3.5822756984027121E-002  -1.0697163018093064E-002   4.9453295114806117E-002
   3.4316833055631962E-002  -1.0174686614080844E-002   4.9351487419179524E-002
   3.2810909127236790E-002  -9.6278694043847070E-003   4.9433428627040296E-002
   3.1304985198841617E-002  -9.0567113890041018E-003   4.9699118738388171E-002
   3.2649689001325935E-002  -9.7708990229423143E-003   5.2730035839333805E-002
   3.1325367740375476E-002  -9.3253866820647013E-003   5.2457151326218532E-002
   3.0001046479425066E-002  -8.8617385410439536E-003   5.2363723244505680E-002
   2.8676725218474638E-002  -8.3799545998803522E-003   5.2449751594195022E-002
   2.7352403957524182E-002  -7.8800348585738034E-003   5.2715236375286800E-002
   2.7964277109356839E-002  -8.3464994294635553E-003   5.5671699210067968E-002
   2.6817266043766344E-002  -7.9536103460362967E-003   5.5405281777409957E-002
   2.5670254978175835E-002  -7.5487904680071119E-003   5.5314028304069639E-002
   2.4523243912585341E-002  -7.1320397953763288E-003   5.5397938790046647E-002
   2.3376232846994825E-002  -6.7033583281435050E-003   5.5657013235341307E-002
   2.3272445236514984E-002  -6.9220998359847546E-003   5.8563841826122259E-002
   2.2298451894199624E-002  -6.5818340100080239E-003   5.8297686468380586E-002
   2.1324458551884265E-002  -6.2358423949703291E-003   5.8202402597871364E-002
   2.0350465209568906E-002  -5.8841249908721397E-003   5.8277990214595024E-002
   1.9376471867253546E-002  -5.5266817977133176E-003   5.8524449318551282E-002
   1.8574193382800377E-002  -5.4977002425060650E-003   6.1406463687496970E-002
   1.7768925291675355E-002  -5.2100576739795290E-003   6.1134365399129975E-002
   1.6963657200550340E-002  -4.9228943219335325E-003   6.1028846125911085E-002
   1.6158389109425308E-002  -4.6362101863679887E-003   6.1089905867840091E-002
   1.5353121018300303E-002  -4.3500052672828526E-003   6.1317544624917064E-002
   3.1304985198841617E-002  -9.0567113890041018E-003   4.9699118738388171E-002
   2.9454139856861794E-002  -8.4878549266746983E-003   4.9467478268796328E-002
   2.7603294514881957E-002  -7.9479423761309176E-003   4.9467177182698774E-002
   2.5752449172902113E-002  -7.4369737373729469E-003   4.9698215480095065E-002
   2.3901603830922324E-002  -6.9549490104003908E-003   5.0160593160985867E-002
   2.7352403957524182E-002  -7.8800348585738034E-003   5.2715236375286800E-002
   2.5726274612459882E-002  -7.3797637076379596E-003   5.2430194203569730E-002
   2.4100145267395574E-002  -6.8969255375861682E-003   5.2363244642189111E-002
   2.2474015922331215E-002  -6.4315203484188246E-003   5.2514387691145997E-002
   2.0847886577266939E-002  -5.9835481401353530E-003   5.2883623350439279E-002
   2.3376232846994825E-002  -6.7033583281435050E-003   5.5657013235341307E-002
   2.1961572725688792E-002  -6.2716724886012765E-003   5.5330080292400025E-002
   2.0546912604382721E-002  -5.8459086990414882E-003   5.5207993186638576E-002
   1.9132252483076657E-002  -5.4260669594646781E-003   5.5290751918056512E-002
   1.7717592361770645E-002  -5.0121472698703151E-003   5.5578356486654434E-002
   1.9376471867253546E-002  -5.5266817977133176E-003   5.8524449318551282E-002
   1.8160034196548588E-002  -5.1635812695645655E-003   5.8167136535287635E-002
   1.6943596525843617E-002  -4.7948918604970511E-003   5.8001422816046311E-002
   1.5727158855138642E-002  -4.4206135705105992E-003   5.8027308160827518E-002
   1.4510721184433660E-002  -4.0407463996052773E-003   5.8244792569631484E-002
   1.5353121018300303E-002  -4.3500052672828526E-003   6.1317544624917064E-002
   1.4321659025039166E-002  -4.0554900505280211E-003   6.0941362932232346E-002
   1.3290197031778070E-002  -3.7438750219522671E-003   6.0743533530413035E-002
   1.2258735038516953E-002  -3.4151601815566000E-003   6.0724056419458869E-002
   1.1227273045255837E-002  -3.0693455293402394E-003   6.0882931599370194E-002
   2.6633230172625845E-002   0.0000000000000000        2.9468377305991764E-002
   2.7233962129809650E-002  -5.8529042477768571E-004   3.4945625687390486E-002
   2.7834694086993454E-002  -1.3187848572660012E-003   4.0114958973348241E-002
   2.8435426044177259E-002  -2.2004832974649360E-003   4.4976377163865003E-002
   2.9036158001361060E-002  -3.2303857453744962E-003   4.9529880258940791E-002
   2.0116224901507135E-002   0.0000000000000000        2.9021087437802871E-002
   2.0448474789767464E-002  -4.3896781838203159E-004   3.4313888823793492E-002
   2.0780724678027787E-002  -9.8908864261731001E-004   3.9377641167378123E-002
   2.1112974566288113E-002  -1.6503624727058326E-003   4.4212344468556798E-002
   2.1445224454548439E-002  -2.4227893086475986E-003   4.8817998727329476E-002
   1.3505018115244754E-002   0.0000000000000000        2.8701594675080946E-002
   1.3647651987616603E-002  -2.9264521198637573E-004   3.3847000067520845E-002
   1.3790285859988453E-002  -6.5939242796861884E-004   3.8842222470589750E-002
   1.3932919732360301E-002  -1.1002416479467250E-003   4.3687261884287683E-002
   1.4075553604732147E-002  -1.6151928719206981E-003   4.8382118308614636E-002
   6.7996098138386994E-003   0.0000000000000000        2.8509899017825989E-002
   6.8314937233570714E-003  -1.4632260559072031E-004   3.3544959418572523E-002
   6.8633776328754434E-003  -3.2969621331992768E-004   3.8508702882983088E-002
   6.8952615423938154E-003  -5.5012082318762296E-004   4.3401129411057678E-002
   6.9271454519121865E-003  -8.0759643519380075E-004   4.8222239002796298E-002
  -2.7110284503417681E-012   0.0000000000000000        2.8446000466037992E-002
  -3.0111321422388038E-012   8.0493424425842619E-013   3.3407766876948568E-002
  -3.3112356172954049E-012   1.3287617534052387E-012   3.8377082404558172E-002
  -3.6113387670913544E-012   1.5714877316108655E-012   4.3353947048866782E-002
  -3.9114427842490418E-012   1.5331026378961887E-012   4.8338360809874428E-002
   2.9036158001361060E-002  -3.2303857453744962E-003   4.9529880258940791E-002
   2.9108784720915069E-002  -4.2485576968192594E-003   5.1588689860037756E-002
   2.9181411440469075E-002  -5.0950646476238251E-003   5.3745760010412993E-002
   2.9254038160023085E-002  -5.7699065977881228E-003   5.6001090710066481E-002
   2.9326664879577101E-002  -6.2730835473122151E-003   5.8354681958998254E-002
   2.1445224454548439E-002  -2.4227893086475986E-003   4.8817998727329476E-002
   2.1587007416086254E-002  -3.1864182722909258E-003   5.1219173593673478E-002
   2.1728790377624065E-002  -3.8212984854841597E-003   5.3660400394706806E-002
   2.1870573339161870E-002  -4.3274299482272734E-003   5.6141679130429487E-002
   2.2012356300699688E-002  -4.7048126605202661E-003   5.8663009800841465E-002
   1.4075553604732147E-002  -1.6151928719206981E-003   4.8382118308614636E-002
   1.4228284193664833E-002  -2.1242788477626056E-003   5.1082742190015573E-002
   1.4381014782597517E-002  -2.5475323233445225E-003   5.3765209391516890E-002
   1.4533745371530203E-002  -2.8849532986664310E-003   5.6429519913118571E-002
   1.4686475960462885E-002  -3.1365417737283414E-003   5.9075673754820750E-002
   6.9271454519121865E-003  -8.0759643519380075E-004   4.8222239002796298E-002
   7.0326150536508128E-003  -1.0621394232342856E-003   5.1179395649064013E-002
   7.1380846553894409E-003  -1.2737661612048782E-003   5.4060187000843203E-002
   7.2435542571280646E-003  -1.4424766491055851E-003   5.6864613058133881E-002
   7.3490238588666927E-003  -1.5682708869364115E-003   5.9592673820936019E-002
  -3.9114427842490418E-012   1.5331026378961887E-012   4.8338360809874428E-002
  -3.9558040003384587E-012   1.2940516713744188E-012   5.1509133970818841E-002
  -4.0001658669491791E-012   9.3477374278616576E-013   5.4545333222685795E-002
  -4.0445261072566407E-012   4.5525578749525120E-013   5.7446958565475298E-002
  -4.0888889496493164E-012  -1.4447470997325240E-013   6.0214009999187350E-002
   2.9326664879577101E-002  -6.2730835473122151E-003   5.8354681958998254E-002
   2.8973790133984920E-002  -6.6581768651978561E-003   5.9118679158243731E-002
   2.8620915388392742E-002  -6.9787679204467937E-003   5.9916879286358526E-002
   2.8268040642800564E-002  -7.2348567130590593E-003   6.0749282343342599E-002
   2.7915165897208383E-002  -7.4264432430346250E-003   6.1615888329195900E-002
   2.2012356300699688E-002  -4.7048126605202661E-003   5.8663009800841465E-002
   2.1707188423505747E-002  -4.9936326494031472E-003   5.9485378657759956E-002
   2.1402020546311795E-002  -5.2340759419159562E-003   6.0368958322605630E-002
   2.1096852669117847E-002  -5.4261425380586351E-003   6.1313748795378542E-002
   2.0791684791923913E-002  -5.5698324378311848E-003   6.2319750076078623E-002
   1.4686475960462885E-002  -3.1365417737283414E-003   5.9075673754820750E-002
   1.4456022830725102E-002  -3.3290884336085094E-003   5.9940288703145647E-002
   1.4225569700987328E-002  -3.4893839633851178E-003   6.0893122338455646E-002
   1.3995116571249548E-002  -3.6174283630582239E-003   6.1934174660750775E-002
   1.3764663441511761E-002  -3.7132216326277862E-003   6.3063445670031054E-002
   7.3490238588666927E-003  -1.5682708869364115E-003   5.9592673820936019E-002
   7.2202933556430099E-003  -1.6645442178138221E-003   6.0483409294400714E-002
   7.0915628524193296E-003  -1.7446919848543214E-003   6.1489371333908506E-002
   6.9628323491956442E-003  -1.8087141880577993E-003   6.2610559939459326E-002
   6.8341018459719648E-003  -1.8566108274243667E-003   6.3846975111053209E-002
  -4.0888889496493164E-012  -1.4447470997325240E-013   6.0214009999187350E-002
  -1.7405434732387093E-012  -2.0191591454388202E-012   6.1114740431525309E-002
   6.0780373789537379E-013  -6.3234400354827969E-012   6.2157705308964209E-002
   2.9561487806251119E-012  -1.3057388070086828E-011   6.3342904631504160E-002
   5.3044964254400639E-012  -2.2220933426631007E-011   6.4670338399145086E-002
   2.7915165897208383E-002  -7.4264432430346250E-003   6.1615888329195900E-002
   2.7193261212957363E-002  -7.5414497987762452E-003   6.1313591780115723E-002
   2.6471356528706330E-002  -7.5677986686865581E-003   6.1229611684537402E-002
   2.5749451844455297E-002  -7.5054898527656243E-003   6.1363948042461001E-002
   2.5027547160204264E-002  -7.3545233510134422E-003   6.1716600853886444E-002
   2.0791684791923913E-002  -5.5698324378311848E-003   6.2319750076078623E-002
   2.0278636491401644E-002  -5.6560873573508683E-003   6.2182028687081149E-002
   1.9765588190879389E-002  -5.6758490127346642E-003   6.2243703612039403E-002
   1.9252539890357134E-002  -5.6291174039826992E-003   6.2504774850953154E-002
   1.8739491589834865E-002  -5.5158925310950235E-003   6.2965242403822758E-002
   1.3764663441511761E-002  -3.7132216326277862E-003   6.3063445670031054E-002
   1.3441551385172048E-002  -3.7707249159254497E-003   6.3068135019420934E-002
   1.3118439328832339E-002  -3.7838993567828015E-003   6.3253300543220120E-002
   1.2795327272492619E-002  -3.7527449551998443E-003   6.3618942241428847E-002
   1.2472215216152917E-002  -3.6772617111766326E-003   6.4165060114046962E-002
   6.8341018459719648E-003  -1.8566108274243667E-003   6.3846975111053209E-002
   6.6820058942685719E-003  -1.8853624745000658E-003   6.3971910777134808E-002
   6.5299099425651782E-003  -1.8919497008308955E-003   6.4258402478079610E-002
   6.3778139908617880E-003  -1.8763725064170236E-003   6.4706450213887559E-002
   6.2257180391583847E-003  -1.8386308912582416E-003   6.5316053984558892E-002
   5.3044964254400639E-012  -2.2220933426631007E-011   6.4670338399145086E-002
   1.8691203099163722E-011  -3.3074702698865366E-011   6.4893355960222929E-002
   3.2077908038163905E-011  -4.4879048394230736E-011   6.5259009416617830E-002
   4.5464614711887563E-011  -5.7634051177368750E-011   6.5767298768329693E-002
   5.8851319650887746E-011  -7.1339850693519224E-011   6.6418224015358546E-002
   2.5027547160204264E-002  -7.3545233510134422E-003   6.1716600853886444E-002
   2.4268991358354398E-002  -7.1558127973778696E-003   6.1429251795108997E-002
   2.3510435556504533E-002  -6.9502718258069168E-003   6.1321768939227694E-002
   2.2751879754654668E-002  -6.7379004363003724E-003   6.1394152286242482E-002
   2.1993323952804789E-002  -6.5186986288585103E-003   6.1646401836153497E-002
   1.8739491589834865E-002  -5.5158925310950235E-003   6.2965242403822758E-002
   1.8163245176687957E-002  -5.3668596181058875E-003   6.2707092344540874E-002
   1.7586998763541042E-002  -5.2127038890496663E-003   6.2633694859768704E-002
   1.7010752350394141E-002  -5.0534253439264466E-003   6.2745049949506401E-002
   1.6434505937247226E-002  -4.8890239827360515E-003   6.3041157613753840E-002
   1.2472215216152917E-002  -3.6772617111766326E-003   6.4165060114046962E-002
   1.2083164563322613E-002  -3.5779064388339332E-003   6.3934401452392195E-002
   1.1694113910492309E-002  -3.4751359522925060E-003   6.3893381736860849E-002
   1.1305063257662012E-002  -3.3689502515524116E-003   6.4042000967452939E-002
   1.0916012604831715E-002  -3.2593493366136206E-003   6.4380259144168589E-002
   6.2257180391583847E-003  -1.8386308912582416E-003   6.5316053984558892E-002
   6.0287495182583580E-003  -1.7889532595619234E-003   6.5111179118662793E-002
   5.8317809973583252E-003  -1.7375680155353006E-003   6.5100829570503893E-002
   5.6348124764582942E-003  -1.6844751591784035E-003   6.5285005340082108E-002
   5.4378439555582588E-003  -1.6296746904910647E-003   6.5663706427397397E-002
   5.8851319650887746E-011  -7.1339850693519224E-011   6.6418224015358546E-002
   4.1495206576369625E-011  -8.0289969117686155E-011   6.6237425343352918E-002
   2.4139090032404553E-011  -7.8778129852796752E-011   6.6256038360698113E-002
   6.7829752231629570E-012  -6.6804404022513530E-011   6.6474063067394007E-002
  -1.0573139586078639E-011  -4.4368675400363600E-011   6.6891499463440640E-002
   2.1993323952804789E-002  -6.5186986288585103E-003   6.1646401836153497E-002
   2.1138541310303696E-002  -6.2879234674044215E-003   6.1257347856622735E-002
   2.0283758667802590E-002  -6.0408320158608642E-003   6.1087673505336448E-002
   1.9428976025301491E-002  -5.7774242742281851E-003   6.1137378782294416E-002
   1.8574193382800377E-002  -5.4977002425060650E-003   6.1406463687496970E-002
   1.6434505937247226E-002  -4.8890239827360515E-003   6.3041157613753840E-002
   1.5797681928733827E-002  -4.7159426048796471E-003   6.2705284076785744E-002
   1.5160857920220441E-002  -4.5306240097576639E-003   6.2585948179548684E-002
   1.4524033911707049E-002  -4.3330681973707784E-003   6.2683149922042589E-002
   1.3887209903193656E-002  -4.1232751677183210E-003   6.2996889304267500E-002
   1.0916012604831715E-002  -3.2593493366136206E-003   6.4380259144168589E-002
   1.0494305241792644E-002  -3.1439617423548449E-003   6.4093486976939104E-002
   1.0072597878753569E-002  -3.0204160036546857E-003   6.4020410460927213E-002
   9.6508905157144925E-003  -2.8887121205133717E-003   6.4161029596132929E-002
   9.2291831526754263E-003  -2.7488500929306325E-003   6.4515344382556447E-002
   5.4378439555582588E-003  -1.6296746904910647E-003   6.5663706427397397E-002
   5.2284112494801081E-003  -1.5719808798300289E-003   6.5421956557082647E-002
   5.0189785434019609E-003  -1.5102079975516797E-003   6.5391060349472035E-002
   4.8095458373238172E-003  -1.4443560436559096E-003   6.5571017804565770E-002
   4.6001131312456639E-003  -1.3744250181428330E-003   6.5961828922363644E-002
  -1.0573139586078639E-011  -4.4368675400363600E-011   6.6891499463440640E-002
  -4.8203753488795797E-011  -1.7305240573861624E-011   6.6690692817216540E-002
  -8.5834370860959908E-011   8.5514650915996526E-012   6.6697897845183235E-002
  -1.2346498302895359E-010   3.3201517923853174E-011   6.6913114547340835E-002
  -1.6109560213584118E-010   5.6644799961702574E-011   6.7336342923689230E-002
   1.8574193382800377E-002  -5.4977002425060650E-003   6.1406463687496970E-002
   1.7768925291675355E-002  -5.2100576739795290E-003   6.1134365399129975E-002
   1.6963657200550340E-002  -4.9228943219335325E-003   6.1028846125911085E-002
   1.6158389109425308E-002  -4.6362101863679887E-003   6.1089905867840091E-002
   1.5353121018300303E-002  -4.3500052672828526E-003   6.1317544624917064E-002
   1.3887209903193656E-002  -4.1232751677183210E-003   6.2996889304267500E-002
   1.3257205327019739E-002  -3.9075432371965813E-003   6.2762012928788913E-002
   1.2627200750845821E-002  -3.6921707222011824E-003   6.2711084568064512E-002
   1.1997196174671893E-002  -3.4771576227321799E-003   6.2844104222094327E-002
   1.1367191598497986E-002  -3.2625039387897958E-003   6.3161071890878551E-002
   9.2291831526754263E-003  -2.7488500929306325E-003   6.4515344382556447E-002
   8.7918110910589382E-003  -2.6050288004135225E-003   6.4317809720919994E-002
   8.3544390294424589E-003  -2.4614471224687837E-003   6.4321592073644102E-002
   7.9170669678259725E-003  -2.3181050590964838E-003   6.4526691440728839E-002
   7.4796949062094845E-003  -2.1750026102966558E-003   6.4933107822174166E-002
   4.6001131312456639E-003  -1.3744250181428330E-003   6.5961828922363644E-002
   4.3727425837929582E-003  -1.3025143636304637E-003   6.5801755775523454E-002
   4.1453720363402533E-003  -1.2307235227364093E-003   6.5860368642650199E-002
   3.9180014888875467E-003  -1.1590524954606758E-003   6.6137667523743962E-002
   3.6906309414348418E-003  -1.0875012818035018E-003   6.6633652418804507E-002
  -1.6109560213584118E-010   5.6644799961702574E-011   6.7336342923689230E-002
  -1.9477819357405224E-010   7.3152539581400333E-011   6.7213851092599364E-002
  -2.2846079195115720E-010   7.6996006792562355E-011   6.7327414275082570E-002
  -2.6214339032826217E-010   6.8175003836712378E-011   6.7677032471139140E-002
  -2.9582598176647323E-010   4.6689596633342489E-011   6.8262705680769031E-002
   1.5353121018300303E-002  -4.3500052672828526E-003   6.1317544624917064E-002
   1.4321659025039166E-002  -4.0554900505280211E-003   6.0941362932232346E-002
   1.3290197031778070E-002  -3.7438750219522671E-003   6.0743533530413035E-002
   1.2258735038516953E-002  -3.4151601815566000E-003   6.0724056419458869E-002
   1.1227273045255837E-002  -3.0693455293402394E-003   6.0882931599370194E-002
   1.1367191598497986E-002  -3.2625039387897958E-003   6.3161071890878551E-002
   1.0533960196978366E-002  -3.0416175407441404E-003   6.2918163554360390E-002
   9.7007287954587740E-003  -2.8079062989662257E-003   6.2893364110459815E-002
   8.8674973939391680E-003  -2.5613702134557083E-003   6.3086673559177117E-002
   8.0342659924195481E-003  -2.3020092842125361E-003   6.3498091900512477E-002
   7.4796949062094845E-003  -2.1750026102966558E-003   6.4933107822174166E-002
   6.8844506981838756E-003  -2.0277450309606759E-003   6.4819197873734843E-002
   6.2892064901582563E-003  -1.8719375759800247E-003   6.4963153419665604E-002
   5.6939622821326179E-003  -1.7075802453547628E-003   6.5364974459966432E-002
   5.0987180741070004E-003  -1.5346730390848329E-003   6.6024660994637885E-002
   3.6906309414348418E-003  -1.0875012818035018E-003   6.6633652418804507E-002
   3.3731305286556611E-003  -1.0138725211771699E-003   6.6644465890355720E-002
   3.0556301158764900E-003  -9.3596885299395902E-004   6.6952901458029734E-002
   2.7381297030973080E-003  -8.5379027725389963E-004   6.7558959121826356E-002
   2.4206292903181312E-003  -7.6733679395712961E-004   6.8462638881745752E-002
  -2.9582598176647323E-010   4.6689596633342489E-011   6.8262705680769031E-002
  -3.1160624081039145E-010  -1.1393552767913206E-011   6.8393967604223171E-002
  -3.2738649291541577E-010  -1.3000768517290595E-010   6.8862608225552596E-002
  -3.4316675369405747E-010  -3.0915301221789981E-010   6.9668627544757181E-002
  -3.5894701100325221E-010  -5.4882942635003928E-010   7.0812025561836744E-002
  -2.7110284503417681E-012   0.0000000000000000        2.8446000466037992E-002
  -3.0111321422388038E-012   8.0493424425842619E-013   3.3407766876948568E-002
  -3.3112356172954049E-012   1.3287617534052387E-012   3.8377082404558172E-002
  -3.6113387670913544E-012   1.5714877316108655E-012   4.3353947048866782E-002
  -3.9114427842490418E-012   1.5331026378961887E-012   4.8338360809874428E-002
  -6.7996098191449843E-003   0.0000000000000000        2.8509899019648292E-002
  -6.8314937292735332E-003   1.4632260711342372E-004   3.3544959420104374E-002
  -6.8633776394020829E-003   3.2969621590347390E-004   3.8508702884204535E-002
  -6.8952615495306291E-003   5.5012082637014709E-004   4.3401129411948784E-002
  -6.9271454596591770E-003   8.0759643851345021E-004   4.8222239003337122E-002
  -1.3505018120203723E-002   0.0000000000000000        2.8701594678588217E-002
  -1.3647651993215654E-002   2.9264521342191319E-004   3.3847000070547535E-002
  -1.3790285866227586E-002   6.5939243047818518E-004   3.8842222473095996E-002
  -1.3932919739239517E-002   1.1002416511688090E-003   4.3687261886233598E-002
  -1.4075553612251447E-002   1.6151928754937948E-003   4.8382118309960365E-002
  -2.0116224905887246E-002   0.0000000000000000        2.9021087442857762E-002
  -2.0448474794837503E-002   4.3896781973040222E-004   3.4313888828278051E-002
  -2.0780724683787749E-002   9.8908864505289342E-004   3.9377641171232540E-002
  -2.1112974572738002E-002   1.6503624759674732E-003   4.4212344471721253E-002
  -2.1445224461688263E-002   2.4227893124741410E-003   4.8817998729744162E-002
  -2.6633230176195552E-002   0.0000000000000000        2.9468377312456932E-002
  -2.7233962134139065E-002   5.8529042603889126E-004   3.4945625693295922E-002
  -2.7834694092082581E-002   1.3187848596276069E-003   4.0114958978614175E-002
  -2.8435426050026094E-002   2.2004833007661338E-003   4.4976377168411699E-002
  -2.9036158007969610E-002   3.2303857494544877E-003   4.9529880262688501E-002
  -3.9114427842490418E-012   1.5331026378961887E-012   4.8338360809874428E-002
  -3.9558040003384587E-012   1.2940516713744188E-012   5.1509133970818841E-002
  -4.0001658669491791E-012   9.3477374278616576E-013   5.4545333222685795E-002
  -4.0445261072566407E-012   4.5525578749525120E-013   5.7446958565475298E-002
  -4.0888889496493164E-012  -1.4447470997325240E-013   6.0214009999187350E-002
  -6.9271454596591770E-003   8.0759643851345021E-004   4.8222239003337122E-002
  -7.0326150615222802E-003   1.0621394263436593E-003   5.1179395649484198E-002
  -7.1380846633853851E-003   1.2737661638710985E-003   5.4060187001071243E-002
  -7.2435542652484891E-003   1.4424766510957201E-003   5.6864613058098250E-002
  -7.3490238671115940E-003   1.5682708880175797E-003   5.9592673820565184E-002
  -1.4075553612251447E-002   1.6151928754937948E-003   4.8382118309960365E-002
  -1.4228284201415880E-002   2.1242788513932843E-003   5.1082742191127538E-002
  -1.4381014790580307E-002   2.5475323268074235E-003   5.3765209392252093E-002
  -1.4533745379744736E-002   2.8849533017361881E-003   5.6429519913334059E-002
  -1.4686475968909159E-002   3.1365417761796376E-003   5.9075673754373392E-002
  -2.1445224461688263E-002   2.4227893124741410E-003   4.8817998729744162E-002
  -2.1587007423636589E-002   3.1864182764428971E-003   5.1219173595748874E-002
  -2.1728790385584930E-002   3.8212984897437446E-003   5.3660400396228401E-002
  -2.1870573347533253E-002   4.3274299523766652E-003   5.6141679131182717E-002
  -2.2012356309481583E-002   4.7048126643416798E-003   5.8663009800611864E-002
  -2.9036158007969610E-002   3.2303857494544877E-003   4.9529880262688501E-002
  -2.9108784728184425E-002   4.2485577014925212E-003   5.1588689863348199E-002
  -2.9181411448399242E-002   5.0950646526800748E-003   5.3745760013000118E-002
  -2.9254038168614060E-002   5.7699066030171284E-003   5.6001090711644247E-002
  -2.9326664888828881E-002   6.2730835525037568E-003   5.8354681959280626E-002
  -4.0888889496493164E-012  -1.4447470997325240E-013   6.0214009999187350E-002
  -1.7405434732387093E-012  -2.0191591454388202E-012   6.1114740431525309E-002
   6.0780373789537379E-013  -6.3234400354827969E-012   6.2157705308964209E-002
   2.9561487806251119E-012  -1.3057388070086828E-011   6.3342904631504160E-002
   5.3044964254400639E-012  -2.2220933426631007E-011   6.4670338399145086E-002
  -7.3490238671115940E-003   1.5682708880175797E-003   5.9592673820565184E-002
  -7.2202933595370737E-003   1.6645442159532904E-003   6.0483409289203913E-002
  -7.0915628519625509E-003   1.7446919762195302E-003   6.1489371323193973E-002
  -6.9628323443880358E-003   1.8087141688163532E-003   6.2610559922535405E-002
  -6.8341018368135095E-003   1.8566107937436210E-003   6.3846975087228142E-002
  -1.4686475968909159E-002   3.1365417761796376E-003   5.9075673754373392E-002
  -1.4456022835858109E-002   3.3290884339257382E-003   5.9940288694073030E-002
  -1.4225569702807054E-002   3.4893839587625273E-003   6.0893122319374368E-002
  -1.3995116569756003E-002   3.6174283506900246E-003   6.1934174630277450E-002
  -1.3764663436704945E-002   3.7132216097081963E-003   6.3063445626782205E-002
  -2.2012356309481583E-002   4.7048126643416798E-003   5.8663009800611864E-002
  -2.1707188430703645E-002   4.9936326518981800E-003   5.9485378646132590E-002
  -2.1402020551925693E-002   5.2340759413054896E-003   6.0368958297505347E-002
  -2.1096852673147745E-002   5.4261425325637172E-003   6.1313748754730259E-002
  -2.0791684794369793E-002   5.5698324256727334E-003   6.2319750017807179E-002
  -2.9326664888828881E-002   6.2730835525037568E-003   5.8354681959280626E-002
  -2.8973790144073683E-002   6.6581768698706217E-003   5.9118679145382602E-002
  -2.8620915399318481E-002   6.9787679238485032E-003   5.9916879257587000E-002
  -2.8268040654563276E-002   7.2348567144374324E-003   6.0749282295893860E-002
  -2.7915165909808078E-002   7.4264432416373261E-003   6.1615888260303092E-002
   5.3044964254400639E-012  -2.2220933426631007E-011   6.4670338399145086E-002
   1.8691203099163722E-011  -3.3074702698865366E-011   6.4893355960222929E-002
   3.2077908038163905E-011  -4.4879048394230736E-011   6.5259009416617830E-002
   4.5464614711887563E-011  -5.7634051177368750E-011   6.5767298768329693E-002
   5.8851319650887746E-011  -7.1339850693519224E-011   6.6418224015358546E-002
  -6.8341018368135095E-003   1.8566107937436210E-003   6.3846975087228142E-002
  -6.6820058596963145E-003   1.8853624231094102E-003   6.3971910746744035E-002
  -6.5299098825791161E-003   1.8919496290216269E-003   6.4258402438403819E-002
  -6.3778139054619159E-003   1.8763724114802564E-003   6.4706450162207746E-002
  -6.2257179283447227E-003   1.8386307704853222E-003   6.5316053918155509E-002
  -1.3764663436704945E-002   3.7132216097081963E-003   6.3063445626782205E-002
  -1.3441551359030239E-002   3.7707248792934502E-003   6.3068134962233097E-002
  -1.3118439281355537E-002   3.7838993029223039E-003   6.3253300466655046E-002
  -1.2795327203680831E-002   3.7527448805946060E-003   6.3618942140047999E-002
  -1.2472215126006127E-002   3.6772616123105090E-003   6.4165059982411926E-002
  -2.0791684794369793E-002   5.5698324256727334E-003   6.2319750017807179E-002
  -2.0278636479310573E-002   5.6560873354775127E-003   6.2182028606690254E-002
  -1.9765588164251342E-002   5.6758489768229245E-003   6.2243703501371379E-002
  -1.9252539849192122E-002   5.6291173497089904E-003   6.2504774701850521E-002
  -1.8739491534132898E-002   5.5158924541356888E-003   6.2965242208127659E-002
  -2.7915165909808078E-002   7.4264432416373261E-003   6.1615888260303092E-002
  -2.7193261220537321E-002   7.5414497916616030E-003   6.1313591680115465E-002
  -2.6471356531266553E-002   7.5677986507236006E-003   6.1229611542552853E-002
  -2.5749451841995789E-002   7.5054898188233743E-003   6.1363947847615299E-002
  -2.5027547152725031E-002   7.3545232959608686E-003   6.1716600595302762E-002
   5.8851319650887746E-011  -7.1339850693519224E-011   6.6418224015358546E-002
   4.1495206576369625E-011  -8.0289969117686155E-011   6.6237425343352918E-002
   2.4139090032404553E-011  -7.8778129852796752E-011   6.6256038360698113E-002
   6.7829752231629570E-012  -6.6804404022513530E-011   6.6474063067394007E-002
  -1.0573139586078639E-011  -4.4368675400363600E-011   6.6891499463440640E-002
  -6.2257179283447227E-003   1.8386307704853222E-003   6.5316053918155509E-002
  -6.0287494401574521E-003   1.7889531205825815E-003   6.5111179059927193E-002
  -5.8317809519701815E-003   1.7375678763179303E-003   6.5100829523434892E-002
  -5.6348124637829074E-003   1.6844750376912507E-003   6.5285005308678590E-002
  -5.4378439755956402E-003   1.6296746047026189E-003   6.5663706415658329E-002
  -1.2472215126006127E-002   3.6772616123105090E-003   6.4165059982411926E-002
  -1.2083164499890189E-002   3.5779063214552292E-003   6.3934401333136923E-002
  -1.1694113873774253E-002   3.4751358314139939E-003   6.3893381637983221E-002
  -1.1305063247658322E-002   3.3689501421868785E-003   6.4042000896950835E-002
  -1.0916012621542391E-002   3.2593492537739410E-003   6.4380259110039667E-002
  -1.8739491534132898E-002   5.5158924541356888E-003   6.2965242208127659E-002
  -1.8163245137703021E-002   5.3668595223278007E-003   6.2707092162982037E-002
  -1.7586998741273150E-002   5.2127037865101113E-003   6.2633694704343074E-002
  -1.7010752344843273E-002   5.0534252466825757E-003   6.2745049832210686E-002
  -1.6434505948413405E-002   4.8890239028451382E-003   6.3041157546584792E-002
  -2.5027547152725031E-002   7.3545232959608686E-003   6.1716600595302762E-002
  -2.4268991353595948E-002   7.1558127232004276E-003   6.1429251549462688E-002
  -2.3510435554466851E-002   6.9502717416060900E-003   6.1321768722514464E-002
  -2.2751879755337757E-002   6.7379003511781679E-003   6.1394152114458062E-002
  -2.1993323956208670E-002   6.5186985519165019E-003   6.1646401725293509E-002
  -1.0573139586078639E-011  -4.4368675400363600E-011   6.6891499463440640E-002
  -4.8203753488795797E-011  -1.7305240573861624E-011   6.6690692817216540E-002
  -8.5834370860959908E-011   8.5514650915996526E-012   6.6697897845183235E-002
  -1.2346498302895359E-010   3.3201517923853174E-011   6.6913114547340835E-002
  -1.6109560213584118E-010   5.6644799961702574E-011   6.7336342923689230E-002
  -5.4378439755956402E-003   1.6296746047026189E-003   6.5663706415658329E-002
  -5.2284113413714525E-003   1.5719808379846406E-003   6.5421956549022234E-002
  -5.0189787071472560E-003   1.5102079981699837E-003   6.5391060351905048E-002
  -4.8095460729230674E-003   1.4443560852589205E-003   6.5571017824306549E-002
  -4.6001134386988787E-003   1.3744250992509532E-003   6.5961828966226765E-002
  -1.0916012621542391E-002   3.2593492537739410E-003   6.4380259110039667E-002
  -1.0494305320135460E-002   3.1439616932746467E-003   6.4093486951101730E-002
  -1.0072598018728521E-002   3.0204159877887798E-003   6.4020410457010540E-002
  -9.6508907173215846E-003   2.8887121373163786E-003   6.4161029627766014E-002
  -9.2291834159146571E-003   2.7488501418572175E-003   6.4515344463368249E-002
  -1.6434505948413405E-002   4.8890239028451382E-003   6.3041157546584792E-002
  -1.5797681984495774E-002   4.7159425485647569E-003   6.2705284023454863E-002
  -1.5160858020578162E-002   4.5306239774073817E-003   6.2585948160499699E-002
  -1.4524034056660542E-002   4.3330681893738090E-003   6.2683149957719272E-002
  -1.3887210092742918E-002   4.1232751844634818E-003   6.2996889415113305E-002
  -2.1993323956208670E-002   6.5186985519165019E-003   6.1646401725293509E-002
  -2.1138541334452421E-002   6.2879234038545062E-003   6.1257347766081799E-002
  -2.0283758712696175E-002   6.0408319670261224E-003   6.1087673462372705E-002
  -1.9428976090939930E-002   5.7774242414312740E-003   6.1137378814166171E-002
  -1.8574193469183681E-002   5.4977002270696351E-003   6.1406463821462254E-002
  -1.6109560213584118E-010   5.6644799961702574E-011   6.7336342923689230E-002
  -1.9477819357405224E-010   7.3152539581400333E-011   6.7213851092599364E-002
  -2.2846079195115720E-010   7.6996006792562355E-011   6.7327414275082570E-002
  -2.6214339032826217E-010   6.8175003836712378E-011   6.7677032471139140E-002
  -2.9582598176647323E-010   4.6689596633342489E-011   6.8262705680769031E-002
  -4.6001134386988787E-003   1.3744250992509532E-003   6.5961828966226765E-002
  -4.3727429561120600E-003   1.3025144731847738E-003   6.5801755828378161E-002
  -4.1453724735252429E-003   1.2307236400982968E-003   6.5860368709495104E-002
  -3.9180019909384241E-003   1.1590525999916196E-003   6.6137667609577677E-002
  -3.6906315083516140E-003   1.0875013528647837E-003   6.6633652528625686E-002
  -9.2291834159146571E-003   2.7488501418572175E-003   6.4515344463368249E-002
  -8.7918114116661561E-003   2.6050288732168136E-003   6.4317809824405131E-002
  -8.3544394074176638E-003   2.4614472032004828E-003   6.4321592209799883E-002
  -7.9170674031691715E-003   2.3181051318081815E-003   6.4526691619552365E-002
  -7.4796953989206792E-003   2.1750026590399429E-003   6.4933108053662744E-002
  -1.3887210092742918E-002   4.1232751844634818E-003   6.2996889415113305E-002
  -1.3257205561440489E-002   3.9075432732489507E-003   6.2762013080680037E-002
  -1.2627201030138056E-002   3.6921707663026930E-003   6.2711084775996920E-002
  -1.1997196498835608E-002   3.4771576636248259E-003   6.2844104501063744E-002
  -1.1367191967533188E-002   3.2625039652150051E-003   6.3161072255880649E-002
  -1.8574193469183681E-002   5.4977002270696351E-003   6.1406463821462254E-002
  -1.7768925405435041E-002   5.2100576732810600E-003   6.1134365597202978E-002
  -1.6963657341686401E-002   4.9228943294049726E-003   6.1028846408086090E-002
  -1.6158389277937769E-002   4.6362101954414182E-003   6.1089906254111551E-002
  -1.5353121214189129E-002   4.3500052713902337E-003   6.1317545135279261E-002
  -2.9582598176647323E-010   4.6689596633342489E-011   6.8262705680769031E-002
  -3.1160624081039145E-010  -1.1393552767913206E-011   6.8393967604223171E-002
  -3.2738649291541577E-010  -1.3000768517290595E-010   6.8862608225552596E-002
  -3.4316675369405747E-010  -3.0915301221789981E-010   6.9668627544757181E-002
  -3.5894701100325221E-010  -5.4882942635003928E-010   7.0812025561836744E-002
  -3.6906315083516140E-003   1.0875013528647837E-003   6.6633652528625686E-002
  -3.3731311260593484E-003   1.0138724981994807E-003   6.6644465939939751E-002
  -3.0556307437671053E-003   9.3596863547747156E-004   6.6952901449523872E-002
  -2.7381303614748449E-003   8.5378976469900961E-004   6.7558959057377882E-002
  -2.4206299791825966E-003   7.6733588586364032E-004   6.8462638763501782E-002
  -7.4796953989206792E-003   2.1750026590399429E-003   6.4933108053662744E-002
  -6.8844512181611955E-003   2.0277450077924586E-003   6.4819198005311454E-002
  -6.2892070374017273E-003   1.8719374009628573E-003   6.4963153455624811E-002
  -5.6939628566422366E-003   1.7075798385510332E-003   6.5364974404602580E-002
  -5.0987186758827616E-003   1.5346723205568180E-003   6.6024660852245121E-002
  -1.1367191967533188E-002   3.2625039652150051E-003   6.3161072255880649E-002
  -1.0533960587911765E-002   3.0416175173855753E-003   6.2918163800338184E-002
  -9.7007292082903502E-003   2.8079061664481840E-003   6.2893364243855096E-002
  -8.8674978286689340E-003   2.5613699124028893E-003   6.3086673586431108E-002
  -8.0342664490475110E-003   2.3020087552499957E-003   6.3498091828066663E-002
  -1.5353121214189129E-002   4.3500052713902337E-003   6.1317545135279261E-002
  -1.4321659235311052E-002   4.0554900269784699E-003   6.0941363325020037E-002
  -1.3290197256432983E-002   3.7438749319334413E-003   6.0743533814214906E-002
  -1.2258735277554920E-002   3.4151599862550057E-003   6.0724056602863716E-002
  -1.1227273298676843E-002   3.0693451899430624E-003   6.0882931690966702E-002
  -2.6633230176195552E-002   0.0000000000000000        2.9468377312456932E-002
  -2.7233962134139065E-002   5.8529042603889126E-004   3.4945625693295922E-002
  -2.7834694092082581E-002   1.3187848596276069E-003   4.0114958978614175E-002
  -2.8435426050026094E-002   2.2004833007661338E-003   4.4976377168411699E-002
  -2.9036158007969610E-002   3.2303857494544877E-003   4.9529880262688501E-002
  -3.3393092522953485E-002   0.0000000000000000        3.0178200785026761E-002
  -3.4236593474707956E-002   9.6013914789423640E-004   3.5266462228094528E-002
  -3.5080094426462434E-002   2.0236395458255937E-003   4.0177100779061094E-002
  -3.5923595378216919E-002   3.1905011937940755E-003   4.4910116437926459E-002
  -3.6767096329971383E-002   4.4607240917996773E-003   4.9465509204690658E-002
  -4.0732870537985869E-002   0.0000000000000000        3.1285294358208281E-002
  -4.1688848280131779E-002   1.3349878697495802E-003   3.5939726105992130E-002
  -4.2644826022277676E-002   2.7284942320235867E-003   4.0546827165094307E-002
  -4.3600803764423587E-002   4.1805190868220172E-003   4.5106597535514825E-002
  -4.4556781506569498E-002   5.6910624341448696E-003   4.9619037217253692E-002
  -4.8652564221292723E-002   0.0000000000000000        3.2789658032001498E-002
  -4.9590726550410517E-002   1.7098365916049239E-003   3.6965417326988728E-002
  -5.0528888879528319E-002   3.4333489182215753E-003   4.1224138136713814E-002
  -5.1467051208646121E-002   5.1705369798499623E-003   4.5565820461176798E-002
  -5.2405213537763916E-002   6.9214007764900644E-003   4.9990464300377652E-002
  -5.7152173572874040E-002   0.0000000000000000        3.4691291806406406E-002
  -5.7942228285544198E-002   2.0846853134602683E-003   3.8343535891084315E-002
  -5.8732282998214355E-002   4.1382036044195682E-003   4.2209033693919630E-002
  -5.9522337710884506E-002   6.1605548728778988E-003   4.6287785214912371E-002
  -6.0312392423554656E-002   8.1517391188352540E-003   5.0579790454062495E-002
  -2.9036158007969610E-002   3.2303857494544877E-003   4.9529880262688501E-002
  -2.9108784728184425E-002   4.2485577014925212E-003   5.1588689863348199E-002
  -2.9181411448399242E-002   5.0950646526800748E-003   5.3745760013000118E-002
  -2.9254038168614060E-002   5.7699066030171284E-003   5.6001090711644247E-002
  -2.9326664888828881E-002   6.2730835525037568E-003   5.8354681959280626E-002
  -3.6767096329971383E-002   4.4607240917996773E-003   4.9465509204690658E-002
  -3.6780255969645757E-002   5.6940459662958836E-003   5.1252364333349038E-002
  -3.6793415609320125E-002   6.7502045437361161E-003   5.3059893074096101E-002
  -3.6806575248994493E-002   7.6291998241204226E-003   5.4888095426931835E-002
  -3.6819734888668854E-002   8.3310318074487771E-003   5.6736971391856253E-002
  -4.4556781506569498E-002   5.6910624341448696E-003   4.9619037217253692E-002
  -4.4588061002606955E-002   7.1395342310992347E-003   5.1128439577705298E-002
  -4.4619340498644425E-002   8.4053444347921644E-003   5.2580928613342022E-002
  -4.4650619994681895E-002   9.4884930452236865E-003   5.3976504324163892E-002
  -4.4681899490719351E-002   1.0388980062393780E-002   5.5315166710170845E-002
  -5.2405213537763916E-002   6.9214007764900644E-003   4.9990464300377652E-002
  -5.2532199827068041E-002   8.5850224959025893E-003   5.1216915596416987E-002
  -5.2659186116372159E-002   1.0060484325848218E-002   5.2308866630737923E-002
  -5.2786172405676283E-002   1.1347786266326945E-002   5.3266317403340382E-002
  -5.2913158694980388E-002   1.2446928317338799E-002   5.4089267914224491E-002
  -6.0312392423554656E-002   8.1517391188352540E-003   5.0579790454062495E-002
  -6.0612672443028988E-002   1.0030510760705953E-002   5.1517792389484118E-002
  -6.0912952462503306E-002   1.1715624216904271E-002   5.2243707126283762E-002
  -6.1213232481977624E-002   1.3207079487430223E-002   5.2757534664461425E-002
  -6.1513512501451949E-002   1.4504876572283810E-002   5.3059275004017088E-002
  -2.9326664888828881E-002   6.2730835525037568E-003   5.8354681959280626E-002
  -2.8973790144073683E-002   6.6581768698706217E-003   5.9118679145382602E-002
  -2.8620915399318481E-002   6.9787679238485032E-003   5.9916879257587000E-002
  -2.8268040654563276E-002   7.2348567144374324E-003   6.0749282295893860E-002
  -2.7915165909808078E-002   7.4264432416373261E-003   6.1615888260303092E-002
  -3.6819734888668854E-002   8.3310318074487771E-003   5.6736971391856253E-002
  -3.6380771900099661E-002   8.8715300275053789E-003   5.7078756047020993E-002
  -3.5941808911530454E-002   9.2665240180744707E-003   5.7558514263711329E-002
  -3.5502845922961240E-002   9.5160137791560247E-003   5.8176246041927254E-002
  -3.5063882934392047E-002   9.6199993107500548E-003   5.8931951381668707E-002
  -4.4681899490719351E-002   1.0388980062393780E-002   5.5315166710170845E-002
  -4.4053077622913009E-002   1.1084883185140122E-002   5.5153736868299871E-002
  -4.3424255755106667E-002   1.1554280112300423E-002   5.5234051223377607E-002
  -4.2795433887300290E-002   1.1797170843874645E-002   5.5556109775404081E-002
  -4.2166612019493954E-002   1.1813555379862811E-002   5.6119912524379229E-002
  -5.2913158694980388E-002   1.2446928317338799E-002   5.4089267914224491E-002
  -5.1990707312513741E-002   1.3298236342774859E-002   5.3343621609219211E-002
  -5.1068255930047095E-002   1.3842036206526397E-002   5.2943490136585787E-002
  -5.0145804547580455E-002   1.4078327908593249E-002   5.2888873496324242E-002
  -4.9223353165113809E-002   1.4007111448975554E-002   5.3179771688434567E-002
  -6.1513512501451949E-002   1.4504876572283810E-002   5.3059275004017088E-002
  -6.0193660968901858E-002   1.5511589500409609E-002   5.1648410269779024E-002
  -5.8873809436351773E-002   1.6129792300752351E-002   5.0686831003335930E-002
  -5.7553957903801682E-002   1.6359484973311880E-002   5.0174537204687855E-002
  -5.6234106371251598E-002   1.6200667518088324E-002   5.0111528873834826E-002
  -2.7915165909808078E-002   7.4264432416373261E-003   6.1615888260303092E-002
  -2.7193261220537321E-002   7.5414497916616030E-003   6.1313591680115465E-002
  -2.6471356531266553E-002   7.5677986507236006E-003   6.1229611542552853E-002
  -2.5749451841995789E-002   7.5054898188233743E-003   6.1363947847615299E-002
  -2.5027547152725031E-002   7.3545232959608686E-003   6.1716600595302762E-002
  -3.5063882934392047E-002   9.6199993107500548E-003   5.8931951381668707E-002
  -3.4130121761062941E-002   9.6193908584486926E-003   5.8593012067763725E-002
  -3.3196360587733842E-002   9.5550986678440974E-003   5.8459469279350321E-002
  -3.2262599414404722E-002   9.4271227389362972E-003   5.8531323016428535E-002
  -3.1328838241075636E-002   9.2354630717252917E-003   5.8808573278998466E-002
  -4.2166612019493954E-002   1.1813555379862811E-002   5.6119912524379229E-002
  -4.1033914279239900E-002   1.1697331925235865E-002   5.5769304429415842E-002
  -3.9901216538985859E-002   1.1542398684964622E-002   5.5611172942810691E-002
  -3.8768518798731812E-002   1.1348755659049248E-002   5.5645518064563741E-002
  -3.7635821058477764E-002   1.1116402847489659E-002   5.5872339794675069E-002
  -4.9223353165113809E-002   1.4007111448975554E-002   5.3179771688434567E-002
  -4.7904638775068203E-002   1.3775272992022983E-002   5.2842468765071864E-002
  -4.6585924385022633E-002   1.3529698702085244E-002   5.2684722532933916E-002
  -4.5267209994977062E-002   1.3270388579162240E-002   5.2706532992020910E-002
  -4.3948495604931470E-002   1.2997342623254027E-002   5.2907900142332660E-002
  -5.6234106371251598E-002   1.6200667518088324E-002   5.0111528873834826E-002
  -5.4742295248547880E-002   1.5853214058810114E-002   4.9812505074731755E-002
  -5.3250484125844155E-002   1.5516998719205706E-002   4.9680118049720112E-002
  -5.1758673003140424E-002   1.5192021499275151E-002   4.9714367798799917E-002
  -5.0266861880436720E-002   1.4878282399018450E-002   4.9915254321971192E-002
  -2.5027547152725031E-002   7.3545232959608686E-003   6.1716600595302762E-002
  -2.4268991353595948E-002   7.1558127232004276E-003   6.1429251549462688E-002
  -2.3510435554466851E-002   6.9502717416060900E-003   6.1321768722514464E-002
  -2.2751879755337757E-002   6.7379003511781679E-003   6.1394152114458062E-002
  -2.1993323956208670E-002   6.5186985519165019E-003   6.1646401725293509E-002
  -3.1328838241075636E-002   9.2354630717252917E-003   5.8808573278998466E-002
  -3.0384479971644895E-002   9.0026631534484008E-003   5.8508755169185508E-002
  -2.9440121702214165E-002   8.7512664713431873E-003   5.8400675781084030E-002
  -2.8495763432783452E-002   8.4812730254096077E-003   5.8484335114693878E-002
  -2.7551405163352718E-002   8.1926828156476394E-003   5.8759733170015177E-002
  -3.7635821058477764E-002   1.1116402847489659E-002   5.5872339794675069E-002
  -3.6493787815925854E-002   1.0849513583696457E-002   5.5548286265894690E-002
  -3.5351754573373931E-002   1.0552261201080257E-002   5.5427843961645296E-002
  -3.4209721330822007E-002   1.0224645699641103E-002   5.5511012881926856E-002
  -3.3067688088270104E-002   9.8666670793788602E-003   5.5797793026739387E-002
  -4.3948495604931470E-002   1.2997342623254027E-002   5.2907900142332660E-002
  -4.2596914886438797E-002   1.2696364013944542E-002   5.2547844839590178E-002
  -4.1245334167946117E-002   1.2353255930817257E-002   5.2403273264198275E-002
  -3.9893753449453472E-002   1.1968018373872543E-002   5.2474185416156852E-002
  -3.8542172730960784E-002   1.1540651343109984E-002   5.2760581295465965E-002
  -5.0266861880436720E-002   1.4878282399018450E-002   4.9915254321971192E-002
  -4.8693861183183709E-002   1.4543214444192487E-002   4.9507430890272014E-002
  -4.7120860485930754E-002   1.4154250660554396E-002   4.9326963688742897E-002
  -4.5547859788677772E-002   1.3711391048103989E-002   4.9373852717383926E-002
  -4.3974859091424803E-002   1.3214635606841274E-002   4.9648097976195016E-002
  -2.1993323956208670E-002   6.5186985519165019E-003   6.1646401725293509E-002
  -2.1138541334452421E-002   6.2879234038545062E-003   6.1257347766081799E-002
  -2.0283758712696175E-002   6.0408319670261224E-003   6.1087673462372705E-002
  -1.9428976090939930E-002   5.7774242414312740E-003   6.1137378814166171E-002
  -1.8574193469183681E-002   5.4977002270696351E-003   6.1406463821462254E-002
  -2.7551405163352718E-002   8.1926828156476394E-003   5.8759733170015177E-002
  -2.6481665175464530E-002   7.8898549323670880E-003   5.8394957767671882E-002
  -2.5411925187576331E-002   7.5771484658778074E-003   5.8240717442089904E-002
  -2.4342185199688133E-002   7.2545634161797472E-003   5.8297012193269153E-002
  -2.3272445211799941E-002   6.9220997832727948E-003   5.8563842021209761E-002
  -3.3067688088270104E-002   9.8666670793788602E-003   5.5797793026739387E-002
  -3.1791835312991235E-002   9.4917864608796004E-003   5.5463733886822165E-002
  -3.0515982537712375E-002   9.1134649647293814E-003   5.5331365244925032E-002
  -2.9240129762433516E-002   8.7317025909282760E-003   5.5400687101047917E-002
  -2.7964276987154642E-002   8.3464993394760101E-003   5.5671699455190751E-002
  -3.8542172730960784E-002   1.1540651343109984E-002   5.2760581295465965E-002
  -3.7069051747032546E-002   1.1093717989392092E-002   5.2463676123532657E-002
  -3.5595930763104314E-002   1.0649781463581177E-002   5.2359616870878187E-002
  -3.4122809779176075E-002   1.0208841765676638E-002   5.2448403537502436E-002
  -3.2649688795247836E-002   9.7708988956791976E-003   5.2730036123405280E-002
  -4.3974859091424803E-002   1.3214635606841274E-002   4.9648097976195016E-002
  -4.2313314477588487E-002   1.2695649517904667E-002   4.9394784477803405E-002
  -4.0651769863752150E-002   1.2186097962432613E-002   4.9325472319949354E-002
  -3.8990225249915814E-002   1.1685980940425410E-002   4.9440161502632612E-002
  -3.7328680636079498E-002   1.1195298451882385E-002   4.9738852025853375E-002
  -1.8574193469183681E-002   5.4977002270696351E-003   6.1406463821462254E-002
  -1.7768925405435041E-002   5.2100576732810600E-003   6.1134365597202978E-002
  -1.6963657341686401E-002   4.9228943294049726E-003   6.1028846408086090E-002
  -1.6158389277937769E-002   4.6362101954414182E-003   6.1089906254111551E-002
  -1.5353121214189129E-002   4.3500052713902337E-003   6.1317545135279261E-002
  -2.3272445211799941E-002   6.9220997832727948E-003   5.8563842021209761E-002
  -2.2298451878494469E-002   6.5818339659034497E-003   5.8297686710724689E-002
  -2.1324458545189013E-002   6.2358423628181142E-003   5.8202402904210873E-002
  -2.0350465211883551E-002   5.8841249740165143E-003   5.8277990601668432E-002
  -1.9376471878578085E-002   5.5266817994987782E-003   5.8524449803097178E-002
  -2.7964276987154642E-002   8.3464993394760101E-003   5.5671699455190751E-002
  -2.6817265915463410E-002   7.9536102585259644E-003   5.5405282062851238E-002
  -2.5670254843772160E-002   7.5487903962311378E-003   5.5314028643311954E-002
  -2.4523243772080927E-002   7.1320397525917196E-003   5.5397939196573029E-002
  -2.3376232700389684E-002   6.7033583276073505E-003   5.5657013722634305E-002
  -3.2649688795247836E-002   9.7708988956791976E-003   5.2730036123405280E-002
  -3.1325367516341816E-002   9.3253865511483333E-003   5.2457151653582806E-002
  -3.0001046237435849E-002   8.8617384296442760E-003   5.2363723625389616E-002
  -2.8676724958529846E-002   8.3799545311669249E-003   5.2449752038825542E-002
  -2.7352403679623861E-002   7.8800348557161309E-003   5.2715236893890752E-002
  -3.7328680636079498E-002   1.1195298451882385E-002   4.9738852025853375E-002
  -3.5822756681129803E-002   1.0697162843770813E-002   4.9453295482919213E-002
  -3.4316832726180066E-002   1.0174686463057289E-002   4.9351487850443437E-002
  -3.2810908771230357E-002   9.6278693097421007E-003   4.9433429128425646E-002
  -3.1304984816280634E-002   9.0567113838245228E-003   4.9699119316866269E-002
  -1.5353121214189129E-002   4.3500052713902337E-003   6.1317545135279261E-002
  -1.4321659235311052E-002   4.0554900269784699E-003   6.0941363325020037E-002
  -1.3290197256432983E-002   3.7438749319334413E-003   6.0743533814214906E-002
  -1.2258735277554920E-002   3.4151599862550057E-003   6.0724056602863716E-002
  -1.1227273298676843E-002   3.0693451899430624E-003   6.0882931690966702E-002
  -1.9376471878578085E-002   5.5266817994987782E-003   5.8524449803097178E-002
  -1.8160034218217165E-002   5.1635812901235090E-003   5.8167136850128032E-002
  -1.6943596557856256E-002   4.7948918967491982E-003   5.8001422960670401E-002
  -1.5727158897495326E-002   4.4206136193758461E-003   5.8027308134724939E-002
  -1.4510721237134407E-002   4.0407464580033414E-003   5.8244792372290521E-002
  -2.3376232700389684E-002   6.7033583276073505E-003   5.5657013722634305E-002
  -2.1961572594488232E-002   6.2716725532684370E-003   5.5330080593589515E-002
  -2.0546912488586790E-002   5.8459088615649066E-003   5.5207993292114253E-002
  -1.9132252382685400E-002   5.4260672524965772E-003   5.5290751818208042E-002
  -1.7717592276783888E-002   5.0121477260637315E-003   5.5578356171871568E-002
  -2.7352403679623861E-002   7.8800348557161309E-003   5.2715236893890752E-002
  -2.5726274364124238E-002   7.3797638164134205E-003   5.2430194555404749E-002
  -2.4100145048624604E-002   6.8969258263806392E-003   5.2363244808545574E-002
  -2.2474015733124908E-002   6.4315208856174739E-003   5.2514387653314003E-002
  -2.0847886417625323E-002   5.9835489941240105E-003   5.2883623089708592E-002
  -3.1304984816280634E-002   9.0567113838245228E-003   4.9699119316866269E-002
  -2.9454139527125153E-002   8.4878550795583485E-003   4.9467478735573278E-002
  -2.7603294237969644E-002   7.9479427911963579E-003   4.9467177509965127E-002
  -2.5752448948814108E-002   7.4369745187382007E-003   4.9698215640041551E-002
  -2.3901603659658655E-002   6.9549502621844006E-003   5.0160593125802899E-002
  -5.7152173572874040E-002   0.0000000000000000        3.4691291806406406E-002
  -5.7942228285544198E-002   2.0846853134602683E-003   3.8343535891084315E-002
  -5.8732282998214355E-002   4.1382036044195682E-003   4.2209033693919630E-002
  -5.9522337710884506E-002   6.1605548728778988E-003   4.6287785214912371E-002
  -6.0312392423554656E-002   8.1517391188352540E-003   5.0579790454062495E-002
  -6.5819998587494960E-002   0.0000000000000000        3.7213087840634984E-002
  -6.6625737607191662E-002   2.9144945539515158E-003   4.0835466041278801E-002
  -6.7431476626888365E-002   5.7713317283132441E-003   4.4213221909712101E-002
  -6.8237215646585081E-002   8.5705115230851822E-003   4.7346355445934907E-002
  -6.9042954666281797E-002   1.1312033938267341E-002   5.0234866649947203E-002
  -7.4244339259920661E-002   0.0000000000000000        4.0577938293899218E-002
  -7.5523638637011822E-002   3.7443037944427621E-003   4.4143960253420114E-002
  -7.6802938014102984E-002   7.4044598522069183E-003   4.7007483830362594E-002
  -7.8082237391194145E-002   1.0980468173292474E-002   4.9168509024726650E-002
  -7.9361536768285321E-002   1.4472328757699424E-002   5.0627035836512298E-002
  -8.2425195590151129E-002   0.0000000000000000        4.4785843166199123E-002
  -8.4635931375004664E-002   4.5741130349340091E-003   4.8269018527508270E-002
  -8.6846667159858199E-002   9.0375879761005907E-003   5.0591819455871101E-002
  -8.9057402944711733E-002   1.3390424823499765E-002   5.1754245951287602E-002
  -9.1268138729565254E-002   1.7632623577131495E-002   5.1756298013757793E-002
  -9.0362567578186365E-002   0.0000000000000000        4.9836802457534662E-002
  -9.3962615821170173E-002   5.4039222754252558E-003   5.3210640863543261E-002
  -9.7562664064153981E-002   1.0670716099994268E-002   5.4966228786237629E-002
 -0.10116271230713779        1.5800381473707048E-002   5.5103566225617746E-002
 -0.10476276055012160        2.0792918396563588E-002   5.3622653181683660E-002
  -6.0312392423554656E-002   8.1517391188352540E-003   5.0579790454062495E-002
  -6.0612672443028988E-002   1.0030510760705953E-002   5.1517792389484118E-002
  -6.0912952462503306E-002   1.1715624216904271E-002   5.2243707126283762E-002
  -6.1213232481977624E-002   1.3207079487430223E-002   5.2757534664461425E-002
  -6.1513512501451949E-002   1.4504876572283810E-002   5.3059275004017088E-002
  -6.9042954666281797E-002   1.1312033938267341E-002   5.0234866649947203E-002
  -6.9317680173895849E-002   1.3756616989138057E-002   4.9457550669221917E-002
  -6.9592405681509872E-002   1.5664978690975662E-002   4.8943430910839164E-002
  -6.9867131189123924E-002   1.7037119043780184E-002   4.8692507374798917E-002
  -7.0141856696737989E-002   1.7873038047551554E-002   4.8704780061101224E-002
  -7.9361536768285321E-002   1.4472328757699424E-002   5.0627035836512298E-002
  -7.9135424343074579E-002   1.7482723217570148E-002   4.7791838776279370E-002
  -7.8909311917863850E-002   1.9614333165047026E-002   4.5695121359353497E-002
  -7.8683199492653122E-002   2.0867158600130099E-002   4.4336883585734642E-002
  -7.8457087067442408E-002   2.1241199522819307E-002   4.3717125455422771E-002
  -9.1268138729565254E-002   1.7632623577131495E-002   5.1756298013757793E-002
  -9.0065904950565254E-002   2.1208829446002248E-002   4.6520656710656492E-002
  -8.8863671171565239E-002   2.3563687639118435E-002   4.2498778471826724E-002
  -8.7661437392565267E-002   2.4697198156480003E-002   3.9690663297268530E-002
  -8.6459203613565239E-002   2.4609360998087054E-002   3.8096311186981771E-002
 -0.10476276055012160        2.0792918396563588E-002   5.3622653181683660E-002
 -0.10210912199636783        2.4934935674434350E-002   4.5644004472353235E-002
  -9.9455483442614054E-002   2.7513042113189785E-002   3.9354402248258903E-002
  -9.6801844888860275E-002   2.8527237712829976E-002   3.4753846509400541E-002
  -9.4148206335106482E-002   2.7977522473354811E-002   3.1842337255778265E-002
  -6.1513512501451949E-002   1.4504876572283810E-002   5.3059275004017088E-002
  -6.0193660968901858E-002   1.5511589500409609E-002   5.1648410269779024E-002
  -5.8873809436351773E-002   1.6129792300752351E-002   5.0686831003335930E-002
  -5.7553957903801682E-002   1.6359484973311880E-002   5.0174537204687855E-002
  -5.6234106371251598E-002   1.6200667518088324E-002   5.0111528873834826E-002
  -7.0141856696737989E-002   1.7873038047551554E-002   4.8704780061101224E-002
  -6.8418346374057692E-002   1.8329503902861002E-002   4.7255804935942960E-002
  -6.6694836051377437E-002   1.8563284810279732E-002   4.6164861923250068E-002
  -6.4971325728697127E-002   1.8574380769807716E-002   4.5431951023022527E-002
  -6.3247815406016872E-002   1.8362791781444898E-002   4.5057072235260384E-002
  -7.8457087067442408E-002   2.1241199522819307E-002   4.3717125455422771E-002
  -7.6421171309961580E-002   2.1147418305312395E-002   4.2395865119236716E-002
  -7.4385255552480753E-002   2.0996777319807123E-002   4.1341383540186349E-002
  -7.2349339794999953E-002   2.0789276566303482E-002   4.0553680718271749E-002
  -7.0313424037519140E-002   2.0524916044801458E-002   4.0032756653492797E-002
  -8.6459203613565239E-002   2.4609360998087054E-002   3.8096311186981771E-002
  -8.4202135776613521E-002   2.3965332707763822E-002   3.7068590819660283E-002
  -8.1945067939661817E-002   2.3430269829334504E-002   3.6216395854144885E-002
  -7.9688000102710113E-002   2.3004172362799301E-002   3.5539726290435586E-002
  -7.7430932265758382E-002   2.2687040308157998E-002   3.5038582128532302E-002
  -9.4148206335106482E-002   2.7977522473354811E-002   3.1842337255778265E-002
  -9.1761239774013514E-002   2.6783247110215184E-002   3.1273982037213752E-002
  -8.9374273212920574E-002   2.5863762338861888E-002   3.0789898865125610E-002
  -8.6987306651827634E-002   2.5219068159295102E-002   3.0390087739513967E-002
  -8.4600340090734666E-002   2.4849164571514593E-002   3.0074548660378675E-002
  -5.6234106371251598E-002   1.6200667518088324E-002   5.0111528873834826E-002
  -5.4742295248547880E-002   1.5853214058810114E-002   4.9812505074731755E-002
  -5.3250484125844155E-002   1.5516998719205706E-002   4.9680118049720112E-002
  -5.1758673003140424E-002   1.5192021499275151E-002   4.9714367798799917E-002
  -5.0266861880436720E-002   1.4878282399018450E-002   4.9915254321971192E-002
  -6.3247815406016872E-002   1.8362791781444898E-002   4.5057072235260384E-002
  -6.1574697617985036E-002   1.8023682332963135E-002   4.4710259804320272E-002
  -5.9901579829953214E-002   1.7652216912134124E-002   4.4559423929944893E-002
  -5.8228462041921385E-002   1.7248395518957883E-002   4.4604564612134370E-002
  -5.6555344253889556E-002   1.6812218153434477E-002   4.4845681850888552E-002
  -7.0313424037519140E-002   2.0524916044801458E-002   4.0032756653492797E-002
  -6.8429659801685888E-002   2.0194150607116094E-002   3.9594561498694662E-002
  -6.6545895565852609E-002   1.9787435105062510E-002   3.9381682682934599E-002
  -6.4662131330019343E-002   1.9304769538640701E-002   3.9394120206212711E-002
  -6.2778367094186077E-002   1.8746153907850560E-002   3.9631874068528833E-002
  -7.7430932265758382E-002   2.2687040308157998E-002   3.5038582128532302E-002
  -7.5307181799650361E-002   2.2364618881269071E-002   3.4465410157855002E-002
  -7.3183431333542340E-002   2.1922653297990966E-002   3.4146894308689203E-002
  -7.1059680867434319E-002   2.1361143558323449E-002   3.4083034581034795E-002
  -6.8935930401326284E-002   2.0680089662266588E-002   3.4273830974891790E-002
  -8.4600340090734666E-002   2.4849164571514593E-002   3.0074548660378675E-002
  -8.2207263611878537E-002   2.4535087155422075E-002   2.9322805781801228E-002
  -7.9814187133022407E-002   2.4057871490919286E-002   2.8855058807208581E-002
  -7.7421110654166306E-002   2.3417517578006204E-002   2.8671307736600746E-002
  -7.5028034175310149E-002   2.2614025416682670E-002   2.8771552569977599E-002
  -5.0266861880436720E-002   1.4878282399018450E-002   4.9915254321971192E-002
  -4.8693861183183709E-002   1.4543214444192487E-002   4.9507430890272014E-002
  -4.7120860485930754E-002   1.4154250660554396E-002   4.9326963688742897E-002
  -4.5547859788677772E-002   1.3711391048103989E-002   4.9373852717383926E-002
  -4.3974859091424803E-002   1.3214635606841274E-002   4.9648097976195016E-002
  -5.6555344253889556E-002   1.6812218153434477E-002   4.4845681850888552E-002
  -5.4764796151928558E-002   1.6347077990243528E-002   4.4453776400983636E-002
  -5.2974248049967559E-002   1.5856368204064684E-002   4.4269609530324605E-002
  -5.1183699948006520E-002   1.5340088794898015E-002   4.4293181238911600E-002
  -4.9393151846045570E-002   1.4798239762743498E-002   4.4524491526744592E-002
  -6.2778367094186077E-002   1.8746153907850560E-002   3.9631874068528833E-002
  -6.0789889238441155E-002   1.8150941536294568E-002   3.9284212806242426E-002
  -5.8801411382696227E-002   1.7558485747575112E-002   3.9124672472277924E-002
  -5.6812933526951312E-002   1.6968786541692125E-002   3.9153253066635384E-002
  -5.4824455671206349E-002   1.6381843918645750E-002   3.9369954589314526E-002
  -6.8935930401326284E-002   2.0680089662266588E-002   3.4273830974891790E-002
  -6.6769140442721572E-002   1.9954805082345636E-002   3.3998740106048440E-002
  -6.4602350484116819E-002   1.9260603291085525E-002   3.3892152514602786E-002
  -6.2435560525512059E-002   1.8597484288486357E-002   3.3954068200554834E-002
  -6.0268770566907381E-002   1.7965448074548016E-002   3.4184487163904688E-002
  -7.5028034175310149E-002   2.2614025416682670E-002   2.8771552569977599E-002
  -7.2702549764769711E-002   2.1758668628396649E-002   2.8597358300401554E-002
  -7.0377065354229301E-002   2.0962720834595897E-002   2.8572049657299162E-002
  -6.8051580943688864E-002   2.0226182035280347E-002   2.8695626640670463E-002
  -6.5726096533148426E-002   1.9549052230450281E-002   2.8968089250515305E-002
  -4.3974859091424803E-002   1.3214635606841274E-002   4.9648097976195016E-002
  -4.2313314477588487E-002   1.2695649517904667E-002   4.9394784477803405E-002
  -4.0651769863752150E-002   1.2186097962432613E-002   4.9325472319949354E-002
  -3.8990225249915814E-002   1.1685980940425410E-002   4.9440161502632612E-002
  -3.7328680636079498E-002   1.1195298451882385E-002   4.9738852025853375E-002
  -4.9393151846045570E-002   1.4798239762743498E-002   4.4524491526744592E-002
  -4.7546332960120632E-002   1.4242976784449746E-002   4.4263528021451032E-002
  -4.5699514074195730E-002   1.3686455536865268E-002   4.4189111719797294E-002
  -4.3852695188270771E-002   1.3128676019990392E-002   4.4301242621783164E-002
  -4.2005876302345903E-002   1.2569638233824842E-002   4.4599920727408759E-002
  -5.4824455671206349E-002   1.6381843918645750E-002   3.9369954589314526E-002
  -5.2789816650090589E-002   1.5790304050994672E-002   3.9090648274363850E-002
  -5.0755177628974822E-002   1.5186813111297978E-002   3.9000435026155217E-002
  -4.8720538607859090E-002   1.4571371099555485E-002   3.9099314844688565E-002
  -4.6685899586743310E-002   1.3943978015767355E-002   3.9387287729963846E-002
  -6.0268770566907381E-002   1.7965448074548016E-002   3.4184487163904688E-002
  -5.8043765547498453E-002   1.7337631317539785E-002   3.3876145236541769E-002
  -5.5818760528089567E-002   1.6687170685730411E-002   3.3759442239023163E-002
  -5.3593755508680611E-002   1.6014066179120635E-002   3.3834378171348767E-002
  -5.1368750489271760E-002   1.5318317797709785E-002   3.4100953033518719E-002
  -6.5726096533148426E-002   1.9549052230450281E-002   2.8968089250515305E-002
  -6.3308179652344101E-002   1.8884958584084649E-002   2.8620018907984962E-002
  -6.0890262771539777E-002   1.8187528260163302E-002   2.8466133358401119E-002
  -5.8472345890735480E-002   1.7456761258685716E-002   2.8506432601764067E-002
  -5.6054429009931156E-002   1.6692657579652326E-002   2.8740916638073377E-002
  -3.7328680636079498E-002   1.1195298451882385E-002   4.9738852025853375E-002
  -3.5822756681129803E-002   1.0697162843770813E-002   4.9453295482919213E-002
  -3.4316832726180066E-002   1.0174686463057289E-002   4.9351487850443437E-002
  -3.2810908771230357E-002   9.6278693097421007E-003   4.9433429128425646E-002
  -3.1304984816280634E-002   9.0567113838245228E-003   4.9699119316866269E-002
  -4.2005876302345903E-002   1.2569638233824842E-002   4.4599920727408759E-002
  -4.0318021034056982E-002   1.2002938661722196E-002   4.4290515931631802E-002
  -3.8630165765767957E-002   1.1422173787035708E-002   4.4161224852075159E-002
  -3.6942310497478967E-002   1.0827343609765536E-002   4.4212047488738845E-002
  -3.5254455229190018E-002   1.0218448129911406E-002   4.4442983841622874E-002
  -4.6685899586743310E-002   1.3943978015767355E-002   3.9387287729963846E-002
  -4.4819748199352950E-002   1.3308714479673495E-002   3.9064310151362205E-002
  -4.2953596811962674E-002   1.2669661111014023E-002   3.8917811094743092E-002
  -4.1087445424572364E-002   1.2026817909789029E-002   3.8947790560106346E-002
  -3.9221294037182039E-002   1.1380184875998262E-002   3.9154248547451961E-002
  -5.1368750489271760E-002   1.5318317797709785E-002   3.4100953033518719E-002
  -4.9327938177017999E-002   1.4614490297624808E-002   3.3774678142110603E-002
  -4.7287125864764176E-002   1.3917148434992390E-002   3.3621246578447055E-002
  -4.5246313552510353E-002   1.3226292209812494E-002   3.3640658342528114E-002
  -4.3205501240256600E-002   1.2541921622085075E-002   3.3832913434353434E-002
  -5.6054429009931156E-002   1.6692657579652326E-002   2.8740916638073377E-002
  -5.3842590967051795E-002   1.5920266115576120E-002   2.8421619903876927E-002
  -5.1630752924172491E-002   1.5164635758970701E-002   2.8271531303187158E-002
  -4.9418914881293102E-002   1.4425766509836027E-002   2.8290650836003989E-002
  -4.7207076838413770E-002   1.3703658368171889E-002   2.8478978502327390E-002
  -3.1304984816280634E-002   9.0567113838245228E-003   4.9699119316866269E-002
  -2.9454139527125153E-002   8.4878550795583485E-003   4.9467478735573278E-002
  -2.7603294237969644E-002   7.9479427911963579E-003   4.9467177509965127E-002
  -2.5752448948814108E-002   7.4369745187382007E-003   4.9698215640041551E-002
  -2.3901603659658655E-002   6.9549502621844006E-003   5.0160593125802899E-002
  -3.5254455229190018E-002   1.0218448129911406E-002   4.4442983841622874E-002
  -3.3179325854242998E-002   9.5784824584444483E-003   4.4177354062985258E-002
  -3.1104196479295895E-002   8.8904417063354474E-003   4.4128953100245949E-002
  -2.9029067104348875E-002   8.1543258735838585E-003   4.4297780953404919E-002
  -2.6953937729401828E-002   7.3701349601902333E-003   4.4683837622462530E-002
  -3.9221294037182039E-002   1.1380184875998262E-002   3.9154248547451961E-002
  -3.6935991116229749E-002   1.0669109837330576E-002   3.8777610474923160E-002
  -3.4650688195277425E-002   9.8329406214743217E-003   3.8604090678506446E-002
  -3.2365385274325101E-002   8.8716772284294348E-003   3.8633689158201895E-002
  -3.0080082353372811E-002   7.7853196581962880E-003   3.8866405914009194E-002
  -4.3205501240256600E-002   1.2541921622085075E-002   3.3832913434353434E-002
  -4.0724135313085399E-002   1.1759737216216579E-002   3.3268247971387249E-002
  -3.8242769385914116E-002   1.0775439536613193E-002   3.2892590244746847E-002
  -3.5761403458742860E-002   9.5890285832751637E-003   3.2705940254432284E-002
  -3.3280037531571695E-002   8.2005043562021762E-003   3.2708298000443448E-002
  -4.7207076838413770E-002   1.3703658368171889E-002   2.8478978502327390E-002
  -4.4543758444809900E-002   1.2850364595102748E-002   2.7649266552377483E-002
  -4.1880440051206017E-002   1.1717938451752258E-002   2.6994451798967090E-002
  -3.9217121657602140E-002   1.0306379938120579E-002   2.6514534242095933E-002
  -3.6553803263998208E-002   8.6156890542081754E-003   2.6209513881764623E-002
  -9.0362567578186365E-002   0.0000000000000000        4.9836802457534662E-002
  -9.3962615821170173E-002   5.4039222754252558E-003   5.3210640863543261E-002
  -9.7562664064153981E-002   1.0670716099994268E-002   5.4966228786237629E-002
 -0.10116271230713779        1.5800381473707048E-002   5.5103566225617746E-002
 -0.10476276055012160        2.0792918396563588E-002   5.3622653181683660E-002
 -0.10329453272477315        0.0000000000000000        5.8664448702683260E-002
 -0.10683136962536674        1.0884501930293528E-002   5.2120209990519542E-002
 -0.11036820652596031        1.9172395742286439E-002   4.7320644446450531E-002
 -0.11390504342655390        2.4863681435978724E-002   4.4265752070476207E-002
 -0.11744188032714747        2.7958359011370414E-002   4.2955532862596568E-002
 -0.12645916853065831        0.0000000000000000        7.4202414436422323E-002
 -0.12656987043745271        1.6365081585161805E-002   5.5280618938641911E-002
 -0.12668057234424715        2.7674075384578601E-002   4.1466420260365143E-002
 -0.12679127425104153        3.3926981398250414E-002   3.2759818401591985E-002
 -0.12690197615783599        3.5123799626177232E-002   2.9160813362322478E-002
 -0.15985647499584180        0.0000000000000000        9.6450699658751859E-002
 -0.15317811825742814        2.1845661240030075E-002   6.2691867707910368E-002
 -0.14649976151901445        3.6175755026870780E-002   3.7403556227981458E-002
 -0.13982140478060076        4.2990281360522124E-002   2.0585765218965102E-002
 -0.13314304804218705        4.2289240240984044E-002   1.2238494680861307E-002
 -0.20348645212032368        0.0000000000000000       0.12540930436967185     
 -0.18665611308529298        2.7326240894898345E-002   7.4353956298324891E-002
 -0.16982577405026228        4.4677434669162942E-002   3.5132052349299461E-002
 -0.15299543501523155        5.2053581322793779E-002   7.7435925225955438E-003
 -0.13616509598020085        4.9454680855790883E-002  -7.8114231817869237E-003
 -0.10476276055012160        2.0792918396563588E-002   5.3622653181683660E-002
 -0.10210912199636783        2.4934935674434350E-002   4.5644004472353235E-002
  -9.9455483442614054E-002   2.7513042113189785E-002   3.9354402248258903E-002
  -9.6801844888860275E-002   2.8527237712829976E-002   3.4753846509400541E-002
  -9.4148206335106482E-002   2.7977522473354811E-002   3.1842337255778265E-002
 -0.11744188032714747        2.7958359011370414E-002   4.2955532862596568E-002
 -0.11348690395202771        2.9430739913669110E-002   3.6702251402233176E-002
 -0.10953192757690795        3.0255135588082419E-002   3.1362599099365722E-002
 -0.10557695120178821        3.0431546034610332E-002   2.6936575953994169E-002
 -0.10162197482666843        2.9959971253252907E-002   2.3424181966118601E-002
 -0.12690197615783599        3.5123799626177232E-002   2.9160813362322478E-002
 -0.12242107928909030        3.3926544152903824E-002   2.5548824762155978E-002
 -0.11794018242034467        3.2997229062975038E-002   2.2075047991745346E-002
 -0.11345928555159900        3.2335854356390734E-002   1.8739483051090560E-002
 -0.10897838868285335        3.1942420033151023E-002   1.5542129940191640E-002
 -0.13314304804218705        4.2289240240984044E-002   1.2238494680861307E-002
 -0.12891164800755564        3.8422348392138581E-002   1.2183724552121654E-002
 -0.12468024797292418        3.5739322537867602E-002   1.1491748925397772E-002
 -0.12044884793829275        3.4240162678171149E-002   1.0162567800689797E-002
 -0.11621744790366126        3.3924868813049174E-002   8.1961811779974365E-003
 -0.13616509598020085        4.9454680855790883E-002  -7.8114231817869237E-003
 -0.13295861010742366        4.2918152631373337E-002  -3.3930492278697599E-003
 -0.12975212423464649        3.8481416012760207E-002  -3.8729809967682181E-004
 -0.12654563836186927        3.6144470999951543E-002   1.2058302027916170E-003
 -0.12333915248909214        3.5907317592947269E-002   1.3863356795358328E-003
  -9.4148206335106482E-002   2.7977522473354811E-002   3.1842337255778265E-002
  -9.1761239774013514E-002   2.6783247110215184E-002   3.1273982037213752E-002
  -8.9374273212920574E-002   2.5863762338861888E-002   3.0789898865125610E-002
  -8.6987306651827634E-002   2.5219068159295102E-002   3.0390087739513967E-002
  -8.4600340090734666E-002   2.4849164571514593E-002   3.0074548660378675E-002
 -0.10162197482666843        2.9959971253252907E-002   2.3424181966118601E-002
  -9.9137541438545862E-002   2.9189596482656996E-002   2.3148964084081729E-002
  -9.6653108050423320E-002   2.8469606961469534E-002   2.2984407809627613E-002
  -9.4168674662300722E-002   2.7800002689690542E-002   2.2930513142756261E-002
  -9.1684241274178194E-002   2.7180783667319991E-002   2.2987280083467815E-002
 -0.10897838868285335        3.1942420033151023E-002   1.5542129940191640E-002
 -0.10637009890659481        3.1595945855098895E-002   1.5335644052304462E-002
 -0.10376180913033622        3.1075451584077176E-002   1.5266209333106465E-002
 -0.10115351935407767        3.0380937220086092E-002   1.5333825782597557E-002
  -9.8545229577819082E-002   2.9512402763125445E-002   1.5538493400777939E-002
 -0.11621744790366126        3.3924868813049174E-002   8.1961811779974365E-003
 -0.11345891217816034        3.4002295227540752E-002   7.8340219418819232E-003
 -0.11070037645265943        3.3681296206684863E-002   7.6353034355619983E-003
 -0.10794184072715847        3.2961871750481583E-002   7.6000256590378450E-003
 -0.10518330500165755        3.1844021858930913E-002   7.7281886123089678E-003
 -0.12333915248909214        3.5907317592947269E-002   1.3863356795358328E-003
 -0.12040398125324248        3.6408644599982554E-002   6.4409775281418225E-004
 -0.11746881001739277        3.6287140829292498E-002   9.1690116994488924E-005
 -0.11453363878154307        3.5542806280877116E-002  -2.7088722792329226E-004
 -0.11159846754569341        3.4175640954736297E-002  -4.4363428193899823E-004
  -8.4600340090734666E-002   2.4849164571514593E-002   3.0074548660378675E-002
  -8.2207263611878537E-002   2.4535087155422075E-002   2.9322805781801228E-002
  -7.9814187133022407E-002   2.4057871490919286E-002   2.8855058807208581E-002
  -7.7421110654166306E-002   2.3417517578006204E-002   2.8671307736600746E-002
  -7.5028034175310149E-002   2.2614025416682670E-002   2.8771552569977599E-002
  -9.1684241274178194E-002   2.7180783667319991E-002   2.2987280083467815E-002
  -8.9034725337692799E-002   2.6562645482850929E-002   2.2325212727329492E-002
  -8.6385209401207447E-002   2.5896283724776446E-002   2.1892028382464859E-002
  -8.3735693464722052E-002   2.5181698393096384E-002   2.1687727048873964E-002
  -8.1086177528236700E-002   2.4418889487810902E-002   2.1712308726556773E-002
  -9.8545229577819082E-002   2.9512402763125445E-002   1.5538493400777939E-002
  -9.5694387076415588E-002   2.8590203810279713E-002   1.5081016241883481E-002
  -9.2843544575012038E-002   2.7734695958633496E-002   1.4797309201551902E-002
  -8.9992702073608558E-002   2.6945879208186616E-002   1.4687372279782764E-002
  -8.7141859572204994E-002   2.6223753558939189E-002   1.4751205476576268E-002
 -0.10518330500165755        3.1844021858930913E-002   7.7281886123089678E-003
 -0.10218624882804690        3.0617762137708518E-002   7.5902163254634308E-003
  -9.9189192654436251E-002   2.9573108192490517E-002   7.5709012644694304E-003
  -9.6192136480825571E-002   2.8710060023276765E-002   7.6702434293272979E-003
  -9.3195080307214948E-002   2.8028617630067393E-002   7.8882428200364035E-003
 -0.11159846754569341        3.4175640954736297E-002  -4.4363428193899823E-004
 -0.10851031059258676        3.2645320465137351E-002  -1.4718702193083910E-004
 -0.10542215363948004        3.1411520426347733E-002   2.1280457121794494E-004
 -0.10233399668637339        3.0474240838367077E-002   6.3634049750720817E-004
  -9.9245839733266672E-002   2.9833481701195652E-002   1.1234207569369992E-003
  -7.5028034175310149E-002   2.2614025416682670E-002   2.8771552569977599E-002
  -7.2702549764769711E-002   2.1758668628396649E-002   2.8597358300401554E-002
  -7.0377065354229301E-002   2.0962720834595897E-002   2.8572049657299162E-002
  -6.8051580943688864E-002   2.0226182035280347E-002   2.8695626640670463E-002
  -6.5726096533148426E-002   1.9549052230450281E-002   2.8968089250515305E-002
  -8.1086177528236700E-002   2.4418889487810902E-002   2.1712308726556773E-002
  -7.8610104967510419E-002   2.3637148788587928E-002   2.1577162779759115E-002
  -7.6134032406784152E-002   2.2865768075095480E-002   2.1594307506859478E-002
  -7.3657959846057899E-002   2.2104747347333583E-002   2.1763742907857903E-002
  -7.1181887285331619E-002   2.1354086605302192E-002   2.2085468982754569E-002
  -8.7141859572204994E-002   2.6223753558939189E-002   1.4751205476576268E-002
  -8.4511793813868474E-002   2.5515628948779262E-002   1.4606058843802325E-002
  -8.1881728055531927E-002   2.4768815315595001E-002   1.4616607932350756E-002
  -7.9251662297195366E-002   2.3983312659386732E-002   1.4782852742221648E-002
  -7.6621596538858833E-002   2.3159120980153963E-002   1.5104793273415004E-002
  -9.3195080307214948E-002   2.8028617630067393E-002   7.8882428200364035E-003
  -9.0407616303843766E-002   2.7394109108970541E-002   7.6840464925310749E-003
  -8.7620152300472515E-002   2.6671862556094692E-002   7.6389509337729863E-003
  -8.4832688297101305E-002   2.5861877971439760E-002   7.7529561437615505E-003
  -8.2045224293730096E-002   2.4964155355005749E-002   8.0260621224968777E-003
  -9.9245839733266672E-002   2.9833481701195652E-002   1.1234207569369992E-003
  -9.6297572437436418E-002   2.9272589269161736E-002   8.1112572594591037E-004
  -9.3349305141606082E-002   2.8574909796594147E-002   6.6133651112594560E-004
  -9.0401037845775814E-002   2.7740443283493007E-002   6.7405311247724711E-004
  -8.7452770549945491E-002   2.6769189729857756E-002   8.4927553000024858E-004
  -6.5726096533148426E-002   1.9549052230450281E-002   2.8968089250515305E-002
  -6.3308179652344101E-002   1.8884958584084649E-002   2.8620018907984962E-002
  -6.0890262771539777E-002   1.8187528260163302E-002   2.8466133358401119E-002
  -5.8472345890735480E-002   1.7456761258685716E-002   2.8506432601764067E-002
  -5.6054429009931156E-002   1.6692657579652326E-002   2.8740916638073377E-002
  -7.1181887285331619E-002   2.1354086605302192E-002   2.2085468982754569E-002
  -6.8569831915026663E-002   2.0606022026354254E-002   2.1734181666874491E-002
  -6.5957776544721861E-002   1.9852789787843189E-002   2.1576986537049064E-002
  -6.3345721174416975E-002   1.9094389889768922E-002   2.1613883593278226E-002
  -6.0733665804112102E-002   1.8330822332131291E-002   2.1844872835561802E-002
  -7.6621596538858833E-002   2.3159120980153963E-002   1.5104793273415004E-002
  -7.3815495285945373E-002   2.2327085468623928E-002   1.4778458002178127E-002
  -7.1009394033031970E-002   2.1518051315523236E-002   1.4646122310103732E-002
  -6.8203292780118552E-002   2.0732018520852012E-002   1.4707786197191947E-002
  -6.5397191527205120E-002   1.9968987084610479E-002   1.4963449663442749E-002
  -8.2045224293730096E-002   2.4964155355005749E-002   8.0260621224968777E-003
  -7.9045169765100162E-002   2.4048148910893595E-002   7.7528479138957510E-003
  -7.6045115236470132E-002   2.3183312843203147E-002   7.6735406775651615E-003
  -7.3045060707840143E-002   2.2369647151935384E-002   7.7881404135049974E-003
  -7.0045006179210126E-002   2.1607151837089528E-002   8.0966471217157054E-003
  -8.7452770549945491E-002   2.6769189729857756E-002   8.4927553000024858E-004
  -8.4258855352490891E-002   2.5769212353163096E-002   6.5735140202766162E-004
  -8.1064940155036347E-002   2.4848574370883364E-002   6.5924163943334446E-004
  -7.7871024957581719E-002   2.4007275783018499E-002   8.5494624221783139E-004
  -7.4677109760127203E-002   2.3245316589568632E-002   1.2444652103807963E-003
  -5.6054429009931156E-002   1.6692657579652326E-002   2.8740916638073377E-002
  -5.3842590967051795E-002   1.5920266115576120E-002   2.8421619903876927E-002
  -5.1630752924172491E-002   1.5164635758970701E-002   2.8271531303187158E-002
  -4.9418914881293102E-002   1.4425766509836027E-002   2.8290650836003989E-002
  -4.7207076838413770E-002   1.3703658368171889E-002   2.8478978502327390E-002
  -6.0733665804112102E-002   1.8330822332131291E-002   2.1844872835561802E-002
  -5.8353700396633804E-002   1.7567269747218756E-002   2.1551185759787789E-002
  -5.5973734989155519E-002   1.6808914767319702E-002   2.1424545279704971E-002
  -5.3593769581677289E-002   1.6055757392433697E-002   2.1464951395313389E-002
  -5.1213804174198990E-002   1.5307797622561403E-002   2.1672404106613252E-002
  -6.5397191527205120E-002   1.9968987084610479E-002   1.4963449663442749E-002
  -6.2851260292943217E-002   1.9214273378861418E-002   1.4683808743633509E-002
  -6.0305329058681280E-002   1.8453193775668314E-002   1.4569052881700538E-002
  -5.7759397824419287E-002   1.7685748275031589E-002   1.4619182077643136E-002
  -5.5213466590157391E-002   1.6911936876950973E-002   1.4834196331461963E-002
  -7.0045006179210126E-002   2.1607151837089528E-002   8.0966471217157054E-003
  -6.7335270655979926E-002   2.0861277010504206E-002   7.8194888554142528E-003
  -6.4625535132749656E-002   2.0097472784017509E-002   7.7050541091735099E-003
  -6.1915799609519435E-002   1.9315739157629536E-002   7.7533428829934525E-003
  -5.9206064086289180E-002   1.8516076131340181E-002   7.9643551768740703E-003
  -7.4677109760127203E-002   2.3245316589568632E-002   1.2444652103807963E-003
  -7.1805731485743984E-002   2.2508280642146605E-002   9.5822609512968837E-004
  -6.8934353211360766E-002   2.1741751792366093E-002   8.3254896212417440E-004
  -6.6062974936977520E-002   2.0945730040227248E-002   8.6743381136365066E-004
  -6.3191596662594329E-002   2.0120215385729945E-002   1.0628806428485404E-003
  -4.7207076838413770E-002   1.3703658368171889E-002   2.8478978502327390E-002
  -4.4543758444809900E-002   1.2850364595102748E-002   2.7649266552377483E-002
  -4.1880440051206017E-002   1.1717938451752258E-002   2.6994451798967090E-002
  -3.9217121657602140E-002   1.0306379938120579E-002   2.6514534242095933E-002
  -3.6553803263998208E-002   8.6156890542081754E-003   2.6209513881764623E-002
  -5.1213804174198990E-002   1.5307797622561403E-002   2.1672404106613252E-002
  -4.8395424215861141E-002   1.4603457736249659E-002   2.0731376340597851E-002
  -4.5577044257523305E-002   1.3981160012045579E-002   1.9925574507510618E-002
  -4.2758664299185525E-002   1.3440904449949262E-002   1.9254998607352330E-002
  -3.9940284340847620E-002   1.2982691049961081E-002   1.8719648640121989E-002
  -5.5213466590157391E-002   1.6911936876950973E-002   1.4834196331461963E-002
  -5.2279696330696762E-002   1.6356550877396597E-002   1.4143027281770165E-002
  -4.9345926071236015E-002   1.6244381572338748E-002   1.3547412901395578E-002
  -4.6412155811775345E-002   1.6575428961777949E-002   1.3047353190338007E-002
  -4.3478385552314522E-002   1.7349693045713765E-002   1.2642848148598174E-002
  -5.9206064086289180E-002   1.8516076131340181E-002   7.9643551768740703E-003
  -5.6196574789316750E-002   1.8109644018543189E-002   7.8842193758941262E-003
  -5.3187085492344362E-002   1.8507603132631882E-002   7.8599669806207161E-003
  -5.0177596195371856E-002   1.9709953473606413E-002   7.8915979910534721E-003
  -4.7168106898399537E-002   2.1716695041466505E-002   7.9791124071925956E-003
  -6.3191596662594329E-002   2.0120215385729945E-002   1.0628806428485404E-003
  -6.0146059591721257E-002   1.9862737159690447E-002   1.9549526229701852E-003
  -5.7100522520848018E-002   2.0770824692925210E-002   2.8632367451872365E-003
  -5.4054985449974835E-002   2.2844477985434923E-002   3.7877330094990697E-003
  -5.1009448379101707E-002   2.6083697037219356E-002   4.7284414159063370E-003
 </DataArray>
 </PointData>
 </Piece>
 <Piece  NumberOfPoints="          1600 "  NumberOfCells="         1024 ">
 <Points>
 <DataArray  type="Float64" NumberOfComponents="3"  format="ascii" >
  0.50000000000000000        0.0000000000000000        0.0000000000000000     
  0.53125000000000000        0.0000000000000000        0.0000000000000000     
  0.56250000000000000        0.0000000000000000        0.0000000000000000     
  0.59375000000000000        0.0000000000000000        0.0000000000000000     
  0.62500000000000000        0.0000000000000000        0.0000000000000000     
  0.50000000000000000        3.1250000000000000E-002   0.0000000000000000     
  0.53125000000000000        3.1250000000000000E-002   0.0000000000000000     
  0.56250000000000000        3.1250000000000000E-002   0.0000000000000000     
  0.59375000000000000        3.1250000000000000E-002   0.0000000000000000     
  0.62500000000000000        3.1250000000000000E-002   0.0000000000000000     
  0.50000000000000000        6.2500000000000000E-002   0.0000000000000000     
  0.53125000000000000        6.2500000000000000E-002   0.0000000000000000     
  0.56250000000000000        6.2500000000000000E-002   0.0000000000000000     
  0.59375000000000000        6.2500000000000000E-002   0.0000000000000000     
  0.62500000000000000        6.2500000000000000E-002   0.0000000000000000     
  0.50000000000000000        9.3750000000000000E-002   0.0000000000000000     
  0.53125000000000000        9.3750000000000000E-002   0.0000000000000000     
  0.56250000000000000        9.3750000000000000E-002   0.0000000000000000     
  0.59375000000000000        9.3750000000000000E-002   0.0000000000000000     
  0.62500000000000000        9.3750000000000000E-002   0.0000000000000000     
  0.50000000000000000       0.12500000000000000        0.0000000000000000     
  0.53125000000000000       0.12500000000000000        0.0000000000000000     
  0.56250000000000000       0.12500000000000000        0.0000000000000000     
  0.59375000000000000       0.12500000000000000        0.0000000000000000     
  0.62500000000000000       0.12500000000000000        0.0000000000000000     
  0.62500000000000000        0.0000000000000000        0.0000000000000000     
  0.65625000000000000        0.0000000000000000        0.0000000000000000     
  0.68750000000000000        0.0000000000000000        0.0000000000000000     
  0.71875000000000000        0.0000000000000000        0.0000000000000000     
  0.75000000000000000        0.0000000000000000        0.0000000000000000     
  0.62500000000000000        3.1250000000000000E-002   0.0000000000000000     
  0.65625000000000000        3.1250000000000000E-002   0.0000000000000000     
  0.68750000000000000        3.1250000000000000E-002   0.0000000000000000     
  0.71875000000000000        3.1250000000000000E-002   0.0000000000000000     
  0.75000000000000000        3.1250000000000000E-002   0.0000000000000000     
  0.62500000000000000        6.2500000000000000E-002   0.0000000000000000     
  0.65625000000000000        6.2500000000000000E-002   0.0000000000000000     
  0.68750000000000000        6.2500000000000000E-002   0.0000000000000000     
  0.71875000000000000        6.2500000000000000E-002   0.0000000000000000     
  0.75000000000000000        6.2500000000000000E-002   0.0000000000000000     
  0.62500000000000000        9.3750000000000000E-002   0.0000000000000000     
  0.65625000000000000        9.3750000000000000E-002   0.0000000000000000     
  0.68750000000000000        9.3750000000000000E-002   0.0000000000000000     
  0.71875000000000000        9.3750000000000000E-002   0.0000000000000000     
  0.75000000000000000        9.3750000000000000E-002   0.0000000000000000     
  0.62500000000000000       0.12500000000000000        0.0000000000000000     
  0.65625000000000000       0.12500000000000000        0.0000000000000000     
  0.68750000000000000       0.12500000000000000        0.0000000000000000     
  0.71875000000000000       0.12500000000000000        0.0000000000000000     
  0.75000000000000000       0.12500000000000000        0.0000000000000000     
  0.75000000000000000        0.0000000000000000        0.0000000000000000     
  0.78125000000000000        0.0000000000000000        0.0000000000000000     
  0.81250000000000000        0.0000000000000000        0.0000000000000000     
  0.84375000000000000        0.0000000000000000        0.0000000000000000     
  0.87500000000000000        0.0000000000000000        0.0000000000000000     
  0.75000000000000000        3.1250000000000000E-002   0.0000000000000000     
  0.78125000000000000        3.1250000000000000E-002   0.0000000000000000     
  0.81250000000000000        3.1250000000000000E-002   0.0000000000000000     
  0.84375000000000000        3.1250000000000000E-002   0.0000000000000000     
  0.87500000000000000        3.1250000000000000E-002   0.0000000000000000     
  0.75000000000000000        6.2500000000000000E-002   0.0000000000000000     
  0.78125000000000000        6.2500000000000000E-002   0.0000000000000000     
  0.81250000000000000        6.2500000000000000E-002   0.0000000000000000     
  0.84375000000000000        6.2500000000000000E-002   0.0000000000000000     
  0.87500000000000000        6.2500000000000000E-002   0.0000000000000000     
  0.75000000000000000        9.3750000000000000E-002   0.0000000000000000     
  0.78125000000000000        9.3750000000000000E-002   0.0000000000000000     
  0.81250000000000000        9.3750000000000000E-002   0.0000000000000000     
  0.84375000000000000        9.3750000000000000E-002   0.0000000000000000     
  0.87500000000000000        9.3750000000000000E-002   0.0000000000000000     
  0.75000000000000000       0.12500000000000000        0.0000000000000000     
  0.78125000000000000       0.12500000000000000        0.0000000000000000     
  0.81250000000000000       0.12500000000000000        0.0000000000000000     
  0.84375000000000000       0.12500000000000000        0.0000000000000000     
  0.87500000000000000       0.12500000000000000        0.0000000000000000     
  0.87500000000000000        0.0000000000000000        0.0000000000000000     
  0.90625000000000000        0.0000000000000000        0.0000000000000000     
  0.93750000000000000        0.0000000000000000        0.0000000000000000     
  0.96875000000000000        0.0000000000000000        0.0000000000000000     
   1.0000000000000000        0.0000000000000000        0.0000000000000000     
  0.87500000000000000        3.1250000000000000E-002   0.0000000000000000     
  0.90625000000000000        3.1250000000000000E-002   0.0000000000000000     
  0.93750000000000000        3.1250000000000000E-002   0.0000000000000000     
  0.96875000000000000        3.1250000000000000E-002   0.0000000000000000     
   1.0000000000000000        3.1250000000000000E-002   0.0000000000000000     
  0.87500000000000000        6.2500000000000000E-002   0.0000000000000000     
  0.90625000000000000        6.2500000000000000E-002   0.0000000000000000     
  0.93750000000000000        6.2500000000000000E-002   0.0000000000000000     
  0.96875000000000000        6.2500000000000000E-002   0.0000000000000000     
   1.0000000000000000        6.2500000000000000E-002   0.0000000000000000     
  0.87500000000000000        9.3750000000000000E-002   0.0000000000000000     
  0.90625000000000000        9.3750000000000000E-002   0.0000000000000000     
  0.93750000000000000        9.3750000000000000E-002   0.0000000000000000     
  0.96875000000000000        9.3750000000000000E-002   0.0000000000000000     
   1.0000000000000000        9.3750000000000000E-002   0.0000000000000000     
  0.87500000000000000       0.12500000000000000        0.0000000000000000     
  0.90625000000000000       0.12500000000000000        0.0000000000000000     
  0.93750000000000000       0.12500000000000000        0.0000000000000000     
  0.96875000000000000       0.12500000000000000        0.0000000000000000     
   1.0000000000000000       0.12500000000000000        0.0000000000000000     
   1.0000000000000000        0.0000000000000000        0.0000000000000000     
   1.0312500000000000        0.0000000000000000        0.0000000000000000     
   1.0625000000000000        0.0000000000000000        0.0000000000000000     
   1.0937500000000000        0.0000000000000000        0.0000000000000000     
   1.1250000000000000        0.0000000000000000        0.0000000000000000     
   1.0000000000000000        3.1250000000000000E-002   0.0000000000000000     
   1.0312500000000000        3.1250000000000000E-002   0.0000000000000000     
   1.0625000000000000        3.1250000000000000E-002   0.0000000000000000     
   1.0937500000000000        3.1250000000000000E-002   0.0000000000000000     
   1.1250000000000000        3.1250000000000000E-002   0.0000000000000000     
   1.0000000000000000        6.2500000000000000E-002   0.0000000000000000     
   1.0312500000000000        6.2500000000000000E-002   0.0000000000000000     
   1.0625000000000000        6.2500000000000000E-002   0.0000000000000000     
   1.0937500000000000        6.2500000000000000E-002   0.0000000000000000     
   1.1250000000000000        6.2500000000000000E-002   0.0000000000000000     
   1.0000000000000000        9.3750000000000000E-002   0.0000000000000000     
   1.0312500000000000        9.3750000000000000E-002   0.0000000000000000     
   1.0625000000000000        9.3750000000000000E-002   0.0000000000000000     
   1.0937500000000000        9.3750000000000000E-002   0.0000000000000000     
   1.1250000000000000        9.3750000000000000E-002   0.0000000000000000     
   1.0000000000000000       0.12500000000000000        0.0000000000000000     
   1.0312500000000000       0.12500000000000000        0.0000000000000000     
   1.0625000000000000       0.12500000000000000        0.0000000000000000     
   1.0937500000000000       0.12500000000000000        0.0000000000000000     
   1.1250000000000000       0.12500000000000000        0.0000000000000000     
   1.1250000000000000        0.0000000000000000        0.0000000000000000     
   1.1562500000000000        0.0000000000000000        0.0000000000000000     
   1.1875000000000000        0.0000000000000000        0.0000000000000000     
   1.2187500000000000        0.0000000000000000        0.0000000000000000     
   1.2500000000000000        0.0000000000000000        0.0000000000000000     
   1.1250000000000000        3.1250000000000000E-002   0.0000000000000000     
   1.1562500000000000        3.1250000000000000E-002   0.0000000000000000     
   1.1875000000000000        3.1250000000000000E-002   0.0000000000000000     
   1.2187500000000000        3.1250000000000000E-002   0.0000000000000000     
   1.2500000000000000        3.1250000000000000E-002   0.0000000000000000     
   1.1250000000000000        6.2500000000000000E-002   0.0000000000000000     
   1.1562500000000000        6.2500000000000000E-002   0.0000000000000000     
   1.1875000000000000        6.2500000000000000E-002   0.0000000000000000     
   1.2187500000000000        6.2500000000000000E-002   0.0000000000000000     
   1.2500000000000000        6.2500000000000000E-002   0.0000000000000000     
   1.1250000000000000        9.3750000000000000E-002   0.0000000000000000     
   1.1562500000000000        9.3750000000000000E-002   0.0000000000000000     
   1.1875000000000000        9.3750000000000000E-002   0.0000000000000000     
   1.2187500000000000        9.3750000000000000E-002   0.0000000000000000     
   1.2500000000000000        9.3750000000000000E-002   0.0000000000000000     
   1.1250000000000000       0.12500000000000000        0.0000000000000000     
   1.1562500000000000       0.12500000000000000        0.0000000000000000     
   1.1875000000000000       0.12500000000000000        0.0000000000000000     
   1.2187500000000000       0.12500000000000000        0.0000000000000000     
   1.2500000000000000       0.12500000000000000        0.0000000000000000     
   1.2500000000000000        0.0000000000000000        0.0000000000000000     
   1.2812500000000000        0.0000000000000000        0.0000000000000000     
   1.3125000000000000        0.0000000000000000        0.0000000000000000     
   1.3437500000000000        0.0000000000000000        0.0000000000000000     
   1.3750000000000000        0.0000000000000000        0.0000000000000000     
   1.2500000000000000        3.1250000000000000E-002   0.0000000000000000     
   1.2812500000000000        3.1250000000000000E-002   0.0000000000000000     
   1.3125000000000000        3.1250000000000000E-002   0.0000000000000000     
   1.3437500000000000        3.1250000000000000E-002   0.0000000000000000     
   1.3750000000000000        3.1250000000000000E-002   0.0000000000000000     
   1.2500000000000000        6.2500000000000000E-002   0.0000000000000000     
   1.2812500000000000        6.2500000000000000E-002   0.0000000000000000     
   1.3125000000000000        6.2500000000000000E-002   0.0000000000000000     
   1.3437500000000000        6.2500000000000000E-002   0.0000000000000000     
   1.3750000000000000        6.2500000000000000E-002   0.0000000000000000     
   1.2500000000000000        9.3750000000000000E-002   0.0000000000000000     
   1.2812500000000000        9.3750000000000000E-002   0.0000000000000000     
   1.3125000000000000        9.3750000000000000E-002   0.0000000000000000     
   1.3437500000000000        9.3750000000000000E-002   0.0000000000000000     
   1.3750000000000000        9.3750000000000000E-002   0.0000000000000000     
   1.2500000000000000       0.12500000000000000        0.0000000000000000     
   1.2812500000000000       0.12500000000000000        0.0000000000000000     
   1.3125000000000000       0.12500000000000000        0.0000000000000000     
   1.3437500000000000       0.12500000000000000        0.0000000000000000     
   1.3750000000000000       0.12500000000000000        0.0000000000000000     
   1.3750000000000000        0.0000000000000000        0.0000000000000000     
   1.4062500000000000        0.0000000000000000        0.0000000000000000     
   1.4375000000000000        0.0000000000000000        0.0000000000000000     
   1.4687500000000000        0.0000000000000000        0.0000000000000000     
   1.5000000000000000        0.0000000000000000        0.0000000000000000     
   1.3750000000000000        3.1250000000000000E-002   0.0000000000000000     
   1.4062500000000000        3.1250000000000000E-002   0.0000000000000000     
   1.4375000000000000        3.1250000000000000E-002   0.0000000000000000     
   1.4687500000000000        3.1250000000000000E-002   0.0000000000000000     
   1.5000000000000000        3.1250000000000000E-002   0.0000000000000000     
   1.3750000000000000        6.2500000000000000E-002   0.0000000000000000     
   1.4062500000000000        6.2500000000000000E-002   0.0000000000000000     
   1.4375000000000000        6.2500000000000000E-002   0.0000000000000000     
   1.4687500000000000        6.2500000000000000E-002   0.0000000000000000     
   1.5000000000000000        6.2500000000000000E-002   0.0000000000000000     
   1.3750000000000000        9.3750000000000000E-002   0.0000000000000000     
   1.4062500000000000        9.3750000000000000E-002   0.0000000000000000     
   1.4375000000000000        9.3750000000000000E-002   0.0000000000000000     
   1.4687500000000000        9.3750000000000000E-002   0.0000000000000000     
   1.5000000000000000        9.3750000000000000E-002   0.0000000000000000     
   1.3750000000000000       0.12500000000000000        0.0000000000000000     
   1.4062500000000000       0.12500000000000000        0.0000000000000000     
   1.4375000000000000       0.12500000000000000        0.0000000000000000     
   1.4687500000000000       0.12500000000000000        0.0000000000000000     
   1.5000000000000000       0.12500000000000000        0.0000000000000000     
  0.50000000000000000       0.12500000000000000        0.0000000000000000     
  0.53125000000000000       0.12500000000000000        0.0000000000000000     
  0.56250000000000000       0.12500000000000000        0.0000000000000000     
  0.59375000000000000       0.12500000000000000        0.0000000000000000     
  0.62500000000000000       0.12500000000000000        0.0000000000000000     
  0.50000000000000000       0.15625000000000000        0.0000000000000000     
  0.53125000000000000       0.15625000000000000        0.0000000000000000     
  0.56250000000000000       0.15625000000000000        0.0000000000000000     
  0.59375000000000000       0.15625000000000000        0.0000000000000000     
  0.62500000000000000       0.15625000000000000        0.0000000000000000     
  0.50000000000000000       0.18750000000000000        0.0000000000000000     
  0.53125000000000000       0.18750000000000000        0.0000000000000000     
  0.56250000000000000       0.18750000000000000        0.0000000000000000     
  0.59375000000000000       0.18750000000000000        0.0000000000000000     
  0.62500000000000000       0.18750000000000000        0.0000000000000000     
  0.50000000000000000       0.21875000000000000        0.0000000000000000     
  0.53125000000000000       0.21875000000000000        0.0000000000000000     
  0.56250000000000000       0.21875000000000000        0.0000000000000000     
  0.59375000000000000       0.21875000000000000        0.0000000000000000     
  0.62500000000000000       0.21875000000000000        0.0000000000000000     
  0.50000000000000000       0.25000000000000000        0.0000000000000000     
  0.53125000000000000       0.25000000000000000        0.0000000000000000     
  0.56250000000000000       0.25000000000000000        0.0000000000000000     
  0.59375000000000000       0.25000000000000000        0.0000000000000000     
  0.62500000000000000       0.25000000000000000        0.0000000000000000     
  0.62500000000000000       0.12500000000000000        0.0000000000000000     
  0.65625000000000000       0.12500000000000000        0.0000000000000000     
  0.68750000000000000       0.12500000000000000        0.0000000000000000     
  0.71875000000000000       0.12500000000000000        0.0000000000000000     
  0.75000000000000000       0.12500000000000000        0.0000000000000000     
  0.62500000000000000       0.15625000000000000        0.0000000000000000     
  0.65625000000000000       0.15625000000000000        0.0000000000000000     
  0.68750000000000000       0.15625000000000000        0.0000000000000000     
  0.71875000000000000       0.15625000000000000        0.0000000000000000     
  0.75000000000000000       0.15625000000000000        0.0000000000000000     
  0.62500000000000000       0.18750000000000000        0.0000000000000000     
  0.65625000000000000       0.18750000000000000        0.0000000000000000     
  0.68750000000000000       0.18750000000000000        0.0000000000000000     
  0.71875000000000000       0.18750000000000000        0.0000000000000000     
  0.75000000000000000       0.18750000000000000        0.0000000000000000     
  0.62500000000000000       0.21875000000000000        0.0000000000000000     
  0.65625000000000000       0.21875000000000000        0.0000000000000000     
  0.68750000000000000       0.21875000000000000        0.0000000000000000     
  0.71875000000000000       0.21875000000000000        0.0000000000000000     
  0.75000000000000000       0.21875000000000000        0.0000000000000000     
  0.62500000000000000       0.25000000000000000        0.0000000000000000     
  0.65625000000000000       0.25000000000000000        0.0000000000000000     
  0.68750000000000000       0.25000000000000000        0.0000000000000000     
  0.71875000000000000       0.25000000000000000        0.0000000000000000     
  0.75000000000000000       0.25000000000000000        0.0000000000000000     
  0.75000000000000000       0.12500000000000000        0.0000000000000000     
  0.78125000000000000       0.12500000000000000        0.0000000000000000     
  0.81250000000000000       0.12500000000000000        0.0000000000000000     
  0.84375000000000000       0.12500000000000000        0.0000000000000000     
  0.87500000000000000       0.12500000000000000        0.0000000000000000     
  0.75000000000000000       0.15625000000000000        0.0000000000000000     
  0.78125000000000000       0.15625000000000000        0.0000000000000000     
  0.81250000000000000       0.15625000000000000        0.0000000000000000     
  0.84375000000000000       0.15625000000000000        0.0000000000000000     
  0.87500000000000000       0.15625000000000000        0.0000000000000000     
  0.75000000000000000       0.18750000000000000        0.0000000000000000     
  0.78125000000000000       0.18750000000000000        0.0000000000000000     
  0.81250000000000000       0.18750000000000000        0.0000000000000000     
  0.84375000000000000       0.18750000000000000        0.0000000000000000     
  0.87500000000000000       0.18750000000000000        0.0000000000000000     
  0.75000000000000000       0.21875000000000000        0.0000000000000000     
  0.78125000000000000       0.21875000000000000        0.0000000000000000     
  0.81250000000000000       0.21875000000000000        0.0000000000000000     
  0.84375000000000000       0.21875000000000000        0.0000000000000000     
  0.87500000000000000       0.21875000000000000        0.0000000000000000     
  0.75000000000000000       0.25000000000000000        0.0000000000000000     
  0.78125000000000000       0.25000000000000000        0.0000000000000000     
  0.81250000000000000       0.25000000000000000        0.0000000000000000     
  0.84375000000000000       0.25000000000000000        0.0000000000000000     
  0.87500000000000000       0.25000000000000000        0.0000000000000000     
  0.87500000000000000       0.12500000000000000        0.0000000000000000     
  0.90625000000000000       0.12500000000000000        0.0000000000000000     
  0.93750000000000000       0.12500000000000000        0.0000000000000000     
  0.96875000000000000       0.12500000000000000        0.0000000000000000     
   1.0000000000000000       0.12500000000000000        0.0000000000000000     
  0.87500000000000000       0.15625000000000000        0.0000000000000000     
  0.90625000000000000       0.15625000000000000        0.0000000000000000     
  0.93750000000000000       0.15625000000000000        0.0000000000000000     
  0.96875000000000000       0.15625000000000000        0.0000000000000000     
   1.0000000000000000       0.15625000000000000        0.0000000000000000     
  0.87500000000000000       0.18750000000000000        0.0000000000000000     
  0.90625000000000000       0.18750000000000000        0.0000000000000000     
  0.93750000000000000       0.18750000000000000        0.0000000000000000     
  0.96875000000000000       0.18750000000000000        0.0000000000000000     
   1.0000000000000000       0.18750000000000000        0.0000000000000000     
  0.87500000000000000       0.21875000000000000        0.0000000000000000     
  0.90625000000000000       0.21875000000000000        0.0000000000000000     
  0.93750000000000000       0.21875000000000000        0.0000000000000000     
  0.96875000000000000       0.21875000000000000        0.0000000000000000     
   1.0000000000000000       0.21875000000000000        0.0000000000000000     
  0.87500000000000000       0.25000000000000000        0.0000000000000000     
  0.90625000000000000       0.25000000000000000        0.0000000000000000     
  0.93750000000000000       0.25000000000000000        0.0000000000000000     
  0.96875000000000000       0.25000000000000000        0.0000000000000000     
   1.0000000000000000       0.25000000000000000        0.0000000000000000     
   1.0000000000000000       0.12500000000000000        0.0000000000000000     
   1.0312500000000000       0.12500000000000000        0.0000000000000000     
   1.0625000000000000       0.12500000000000000        0.0000000000000000     
   1.0937500000000000       0.12500000000000000        0.0000000000000000     
   1.1250000000000000       0.12500000000000000        0.0000000000000000     
   1.0000000000000000       0.15625000000000000        0.0000000000000000     
   1.0312500000000000       0.15625000000000000        0.0000000000000000     
   1.0625000000000000       0.15625000000000000        0.0000000000000000     
   1.0937500000000000       0.15625000000000000        0.0000000000000000     
   1.1250000000000000       0.15625000000000000        0.0000000000000000     
   1.0000000000000000       0.18750000000000000        0.0000000000000000     
   1.0312500000000000       0.18750000000000000        0.0000000000000000     
   1.0625000000000000       0.18750000000000000        0.0000000000000000     
   1.0937500000000000       0.18750000000000000        0.0000000000000000     
   1.1250000000000000       0.18750000000000000        0.0000000000000000     
   1.0000000000000000       0.21875000000000000        0.0000000000000000     
   1.0312500000000000       0.21875000000000000        0.0000000000000000     
   1.0625000000000000       0.21875000000000000        0.0000000000000000     
   1.0937500000000000       0.21875000000000000        0.0000000000000000     
   1.1250000000000000       0.21875000000000000        0.0000000000000000     
   1.0000000000000000       0.25000000000000000        0.0000000000000000     
   1.0312500000000000       0.25000000000000000        0.0000000000000000     
   1.0625000000000000       0.25000000000000000        0.0000000000000000     
   1.0937500000000000       0.25000000000000000        0.0000000000000000     
   1.1250000000000000       0.25000000000000000        0.0000000000000000     
   1.1250000000000000       0.12500000000000000        0.0000000000000000     
   1.1562500000000000       0.12500000000000000        0.0000000000000000     
   1.1875000000000000       0.12500000000000000        0.0000000000000000     
   1.2187500000000000       0.12500000000000000        0.0000000000000000     
   1.2500000000000000       0.12500000000000000        0.0000000000000000     
   1.1250000000000000       0.15625000000000000        0.0000000000000000     
   1.1562500000000000       0.15625000000000000        0.0000000000000000     
   1.1875000000000000       0.15625000000000000        0.0000000000000000     
   1.2187500000000000       0.15625000000000000        0.0000000000000000     
   1.2500000000000000       0.15625000000000000        0.0000000000000000     
   1.1250000000000000       0.18750000000000000        0.0000000000000000     
   1.1562500000000000       0.18750000000000000        0.0000000000000000     
   1.1875000000000000       0.18750000000000000        0.0000000000000000     
   1.2187500000000000       0.18750000000000000        0.0000000000000000     
   1.2500000000000000       0.18750000000000000        0.0000000000000000     
   1.1250000000000000       0.21875000000000000        0.0000000000000000     
   1.1562500000000000       0.21875000000000000        0.0000000000000000     
   1.1875000000000000       0.21875000000000000        0.0000000000000000     
   1.2187500000000000       0.21875000000000000        0.0000000000000000     
   1.2500000000000000       0.21875000000000000        0.0000000000000000     
   1.1250000000000000       0.25000000000000000        0.0000000000000000     
   1.1562500000000000       0.25000000000000000        0.0000000000000000     
   1.1875000000000000       0.25000000000000000        0.0000000000000000     
   1.2187500000000000       0.25000000000000000        0.0000000000000000     
   1.2500000000000000       0.25000000000000000        0.0000000000000000     
   1.2500000000000000       0.12500000000000000        0.0000000000000000     
   1.2812500000000000       0.12500000000000000        0.0000000000000000     
   1.3125000000000000       0.12500000000000000        0.0000000000000000     
   1.3437500000000000       0.12500000000000000        0.0000000000000000     
   1.3750000000000000       0.12500000000000000        0.0000000000000000     
   1.2500000000000000       0.15625000000000000        0.0000000000000000     
   1.2812500000000000       0.15625000000000000        0.0000000000000000     
   1.3125000000000000       0.15625000000000000        0.0000000000000000     
   1.3437500000000000       0.15625000000000000        0.0000000000000000     
   1.3750000000000000       0.15625000000000000        0.0000000000000000     
   1.2500000000000000       0.18750000000000000        0.0000000000000000     
   1.2812500000000000       0.18750000000000000        0.0000000000000000     
   1.3125000000000000       0.18750000000000000        0.0000000000000000     
   1.3437500000000000       0.18750000000000000        0.0000000000000000     
   1.3750000000000000       0.18750000000000000        0.0000000000000000     
   1.2500000000000000       0.21875000000000000        0.0000000000000000     
   1.2812500000000000       0.21875000000000000        0.0000000000000000     
   1.3125000000000000       0.21875000000000000        0.0000000000000000     
   1.3437500000000000       0.21875000000000000        0.0000000000000000     
   1.3750000000000000       0.21875000000000000        0.0000000000000000     
   1.2500000000000000       0.25000000000000000        0.0000000000000000     
   1.2812500000000000       0.25000000000000000        0.0000000000000000     
   1.3125000000000000       0.25000000000000000        0.0000000000000000     
   1.3437500000000000       0.25000000000000000        0.0000000000000000     
   1.3750000000000000       0.25000000000000000        0.0000000000000000     
   1.3750000000000000       0.12500000000000000        0.0000000000000000     
   1.4062500000000000       0.12500000000000000        0.0000000000000000     
   1.4375000000000000       0.12500000000000000        0.0000000000000000     
   1.4687500000000000       0.12500000000000000        0.0000000000000000     
   1.5000000000000000       0.12500000000000000        0.0000000000000000     
   1.3750000000000000       0.15625000000000000        0.0000000000000000     
   1.4062500000000000       0.15625000000000000        0.0000000000000000     
   1.4375000000000000       0.15625000000000000        0.0000000000000000     
   1.4687500000000000       0.15625000000000000        0.0000000000000000     
   1.5000000000000000       0.15625000000000000        0.0000000000000000     
   1.3750000000000000       0.18750000000000000        0.0000000000000000     
   1.4062500000000000       0.18750000000000000        0.0000000000000000     
   1.4375000000000000       0.18750000000000000        0.0000000000000000     
   1.4687500000000000       0.18750000000000000        0.0000000000000000     
   1.5000000000000000       0.18750000000000000        0.0000000000000000     
   1.3750000000000000       0.21875000000000000        0.0000000000000000     
   1.4062500000000000       0.21875000000000000        0.0000000000000000     
   1.4375000000000000       0.21875000000000000        0.0000000000000000     
   1.4687500000000000       0.21875000000000000        0.0000000000000000     
   1.5000000000000000       0.21875000000000000        0.0000000000000000     
   1.3750000000000000       0.25000000000000000        0.0000000000000000     
   1.4062500000000000       0.25000000000000000        0.0000000000000000     
   1.4375000000000000       0.25000000000000000        0.0000000000000000     
   1.4687500000000000       0.25000000000000000        0.0000000000000000     
   1.5000000000000000       0.25000000000000000        0.0000000000000000     
  0.50000000000000000       0.25000000000000000        0.0000000000000000     
  0.53125000000000000       0.25000000000000000        0.0000000000000000     
  0.56250000000000000       0.25000000000000000        0.0000000000000000     
  0.59375000000000000       0.25000000000000000        0.0000000000000000     
  0.62500000000000000       0.25000000000000000        0.0000000000000000     
  0.50000000000000000       0.28125000000000000        0.0000000000000000     
  0.53125000000000000       0.28125000000000000        0.0000000000000000     
  0.56250000000000000       0.28125000000000000        0.0000000000000000     
  0.59375000000000000       0.28125000000000000        0.0000000000000000     
  0.62500000000000000       0.28125000000000000        0.0000000000000000     
  0.50000000000000000       0.31250000000000000        0.0000000000000000     
  0.53125000000000000       0.31250000000000000        0.0000000000000000     
  0.56250000000000000       0.31250000000000000        0.0000000000000000     
  0.59375000000000000       0.31250000000000000        0.0000000000000000     
  0.62500000000000000       0.31250000000000000        0.0000000000000000     
  0.50000000000000000       0.34375000000000000        0.0000000000000000     
  0.53125000000000000       0.34375000000000000        0.0000000000000000     
  0.56250000000000000       0.34375000000000000        0.0000000000000000     
  0.59375000000000000       0.34375000000000000        0.0000000000000000     
  0.62500000000000000       0.34375000000000000        0.0000000000000000     
  0.50000000000000000       0.37500000000000000        0.0000000000000000     
  0.53125000000000000       0.37500000000000000        0.0000000000000000     
  0.56250000000000000       0.37500000000000000        0.0000000000000000     
  0.59375000000000000       0.37500000000000000        0.0000000000000000     
  0.62500000000000000       0.37500000000000000        0.0000000000000000     
  0.62500000000000000       0.25000000000000000        0.0000000000000000     
  0.65625000000000000       0.25000000000000000        0.0000000000000000     
  0.68750000000000000       0.25000000000000000        0.0000000000000000     
  0.71875000000000000       0.25000000000000000        0.0000000000000000     
  0.75000000000000000       0.25000000000000000        0.0000000000000000     
  0.62500000000000000       0.28125000000000000        0.0000000000000000     
  0.65625000000000000       0.28125000000000000        0.0000000000000000     
  0.68750000000000000       0.28125000000000000        0.0000000000000000     
  0.71875000000000000       0.28125000000000000        0.0000000000000000     
  0.75000000000000000       0.28125000000000000        0.0000000000000000     
  0.62500000000000000       0.31250000000000000        0.0000000000000000     
  0.65625000000000000       0.31250000000000000        0.0000000000000000     
  0.68750000000000000       0.31250000000000000        0.0000000000000000     
  0.71875000000000000       0.31250000000000000        0.0000000000000000     
  0.75000000000000000       0.31250000000000000        0.0000000000000000     
  0.62500000000000000       0.34375000000000000        0.0000000000000000     
  0.65625000000000000       0.34375000000000000        0.0000000000000000     
  0.68750000000000000       0.34375000000000000        0.0000000000000000     
  0.71875000000000000       0.34375000000000000        0.0000000000000000     
  0.75000000000000000       0.34375000000000000        0.0000000000000000     
  0.62500000000000000       0.37500000000000000        0.0000000000000000     
  0.65625000000000000       0.37500000000000000        0.0000000000000000     
  0.68750000000000000       0.37500000000000000        0.0000000000000000     
  0.71875000000000000       0.37500000000000000        0.0000000000000000     
  0.75000000000000000       0.37500000000000000        0.0000000000000000     
  0.75000000000000000       0.25000000000000000        0.0000000000000000     
  0.78125000000000000       0.25000000000000000        0.0000000000000000     
  0.81250000000000000       0.25000000000000000        0.0000000000000000     
  0.84375000000000000       0.25000000000000000        0.0000000000000000     
  0.87500000000000000       0.25000000000000000        0.0000000000000000     
  0.75000000000000000       0.28125000000000000        0.0000000000000000     
  0.78125000000000000       0.28125000000000000        0.0000000000000000     
  0.81250000000000000       0.28125000000000000        0.0000000000000000     
  0.84375000000000000       0.28125000000000000        0.0000000000000000     
  0.87500000000000000       0.28125000000000000        0.0000000000000000     
  0.75000000000000000       0.31250000000000000        0.0000000000000000     
  0.78125000000000000       0.31250000000000000        0.0000000000000000     
  0.81250000000000000       0.31250000000000000        0.0000000000000000     
  0.84375000000000000       0.31250000000000000        0.0000000000000000     
  0.87500000000000000       0.31250000000000000        0.0000000000000000     
  0.75000000000000000       0.34375000000000000        0.0000000000000000     
  0.78125000000000000       0.34375000000000000        0.0000000000000000     
  0.81250000000000000       0.34375000000000000        0.0000000000000000     
  0.84375000000000000       0.34375000000000000        0.0000000000000000     
  0.87500000000000000       0.34375000000000000        0.0000000000000000     
  0.75000000000000000       0.37500000000000000        0.0000000000000000     
  0.78125000000000000       0.37500000000000000        0.0000000000000000     
  0.81250000000000000       0.37500000000000000        0.0000000000000000     
  0.84375000000000000       0.37500000000000000        0.0000000000000000     
  0.87500000000000000       0.37500000000000000        0.0000000000000000     
  0.87500000000000000       0.25000000000000000        0.0000000000000000     
  0.90625000000000000       0.25000000000000000        0.0000000000000000     
  0.93750000000000000       0.25000000000000000        0.0000000000000000     
  0.96875000000000000       0.25000000000000000        0.0000000000000000     
   1.0000000000000000       0.25000000000000000        0.0000000000000000     
  0.87500000000000000       0.28125000000000000        0.0000000000000000     
  0.90625000000000000       0.28125000000000000        0.0000000000000000     
  0.93750000000000000       0.28125000000000000        0.0000000000000000     
  0.96875000000000000       0.28125000000000000        0.0000000000000000     
   1.0000000000000000       0.28125000000000000        0.0000000000000000     
  0.87500000000000000       0.31250000000000000        0.0000000000000000     
  0.90625000000000000       0.31250000000000000        0.0000000000000000     
  0.93750000000000000       0.31250000000000000        0.0000000000000000     
  0.96875000000000000       0.31250000000000000        0.0000000000000000     
   1.0000000000000000       0.31250000000000000        0.0000000000000000     
  0.87500000000000000       0.34375000000000000        0.0000000000000000     
  0.90625000000000000       0.34375000000000000        0.0000000000000000     
  0.93750000000000000       0.34375000000000000        0.0000000000000000     
  0.96875000000000000       0.34375000000000000        0.0000000000000000     
   1.0000000000000000       0.34375000000000000        0.0000000000000000     
  0.87500000000000000       0.37500000000000000        0.0000000000000000     
  0.90625000000000000       0.37500000000000000        0.0000000000000000     
  0.93750000000000000       0.37500000000000000        0.0000000000000000     
  0.96875000000000000       0.37500000000000000        0.0000000000000000     
   1.0000000000000000       0.37500000000000000        0.0000000000000000     
   1.0000000000000000       0.25000000000000000        0.0000000000000000     
   1.0312500000000000       0.25000000000000000        0.0000000000000000     
   1.0625000000000000       0.25000000000000000        0.0000000000000000     
   1.0937500000000000       0.25000000000000000        0.0000000000000000     
   1.1250000000000000       0.25000000000000000        0.0000000000000000     
   1.0000000000000000       0.28125000000000000        0.0000000000000000     
   1.0312500000000000       0.28125000000000000        0.0000000000000000     
   1.0625000000000000       0.28125000000000000        0.0000000000000000     
   1.0937500000000000       0.28125000000000000        0.0000000000000000     
   1.1250000000000000       0.28125000000000000        0.0000000000000000     
   1.0000000000000000       0.31250000000000000        0.0000000000000000     
   1.0312500000000000       0.31250000000000000        0.0000000000000000     
   1.0625000000000000       0.31250000000000000        0.0000000000000000     
   1.0937500000000000       0.31250000000000000        0.0000000000000000     
   1.1250000000000000       0.31250000000000000        0.0000000000000000     
   1.0000000000000000       0.34375000000000000        0.0000000000000000     
   1.0312500000000000       0.34375000000000000        0.0000000000000000     
   1.0625000000000000       0.34375000000000000        0.0000000000000000     
   1.0937500000000000       0.34375000000000000        0.0000000000000000     
   1.1250000000000000       0.34375000000000000        0.0000000000000000     
   1.0000000000000000       0.37500000000000000        0.0000000000000000     
   1.0312500000000000       0.37500000000000000        0.0000000000000000     
   1.0625000000000000       0.37500000000000000        0.0000000000000000     
   1.0937500000000000       0.37500000000000000        0.0000000000000000     
   1.1250000000000000       0.37500000000000000        0.0000000000000000     
   1.1250000000000000       0.25000000000000000        0.0000000000000000     
   1.1562500000000000       0.25000000000000000        0.0000000000000000     
   1.1875000000000000       0.25000000000000000        0.0000000000000000     
   1.2187500000000000       0.25000000000000000        0.0000000000000000     
   1.2500000000000000       0.25000000000000000        0.0000000000000000     
   1.1250000000000000       0.28125000000000000        0.0000000000000000     
   1.1562500000000000       0.28125000000000000        0.0000000000000000     
   1.1875000000000000       0.28125000000000000        0.0000000000000000     
   1.2187500000000000       0.28125000000000000        0.0000000000000000     
   1.2500000000000000       0.28125000000000000        0.0000000000000000     
   1.1250000000000000       0.31250000000000000        0.0000000000000000     
   1.1562500000000000       0.31250000000000000        0.0000000000000000     
   1.1875000000000000       0.31250000000000000        0.0000000000000000     
   1.2187500000000000       0.31250000000000000        0.0000000000000000     
   1.2500000000000000       0.31250000000000000        0.0000000000000000     
   1.1250000000000000       0.34375000000000000        0.0000000000000000     
   1.1562500000000000       0.34375000000000000        0.0000000000000000     
   1.1875000000000000       0.34375000000000000        0.0000000000000000     
   1.2187500000000000       0.34375000000000000        0.0000000000000000     
   1.2500000000000000       0.34375000000000000        0.0000000000000000     
   1.1250000000000000       0.37500000000000000        0.0000000000000000     
   1.1562500000000000       0.37500000000000000        0.0000000000000000     
   1.1875000000000000       0.37500000000000000        0.0000000000000000     
   1.2187500000000000       0.37500000000000000        0.0000000000000000     
   1.2500000000000000       0.37500000000000000        0.0000000000000000     
   1.2500000000000000       0.25000000000000000        0.0000000000000000     
   1.2812500000000000       0.25000000000000000        0.0000000000000000     
   1.3125000000000000       0.25000000000000000        0.0000000000000000     
   1.3437500000000000       0.25000000000000000        0.0000000000000000     
   1.3750000000000000       0.25000000000000000        0.0000000000000000     
   1.2500000000000000       0.28125000000000000        0.0000000000000000     
   1.2812500000000000       0.28125000000000000        0.0000000000000000     
   1.3125000000000000       0.28125000000000000        0.0000000000000000     
   1.3437500000000000       0.28125000000000000        0.0000000000000000     
   1.3750000000000000       0.28125000000000000        0.0000000000000000     
   1.2500000000000000       0.31250000000000000        0.0000000000000000     
   1.2812500000000000       0.31250000000000000        0.0000000000000000     
   1.3125000000000000       0.31250000000000000        0.0000000000000000     
   1.3437500000000000       0.31250000000000000        0.0000000000000000     
   1.3750000000000000       0.31250000000000000        0.0000000000000000     
   1.2500000000000000       0.34375000000000000        0.0000000000000000     
   1.2812500000000000       0.34375000000000000        0.0000000000000000     
   1.3125000000000000       0.34375000000000000        0.0000000000000000     
   1.3437500000000000       0.34375000000000000        0.0000000000000000     
   1.3750000000000000       0.34375000000000000        0.0000000000000000     
   1.2500000000000000       0.37500000000000000        0.0000000000000000     
   1.2812500000000000       0.37500000000000000        0.0000000000000000     
   1.3125000000000000       0.37500000000000000        0.0000000000000000     
   1.3437500000000000       0.37500000000000000        0.0000000000000000     
   1.3750000000000000       0.37500000000000000        0.0000000000000000     
   1.3750000000000000       0.25000000000000000        0.0000000000000000     
   1.4062500000000000       0.25000000000000000        0.0000000000000000     
   1.4375000000000000       0.25000000000000000        0.0000000000000000     
   1.4687500000000000       0.25000000000000000        0.0000000000000000     
   1.5000000000000000       0.25000000000000000        0.0000000000000000     
   1.3750000000000000       0.28125000000000000        0.0000000000000000     
   1.4062500000000000       0.28125000000000000        0.0000000000000000     
   1.4375000000000000       0.28125000000000000        0.0000000000000000     
   1.4687500000000000       0.28125000000000000        0.0000000000000000     
   1.5000000000000000       0.28125000000000000        0.0000000000000000     
   1.3750000000000000       0.31250000000000000        0.0000000000000000     
   1.4062500000000000       0.31250000000000000        0.0000000000000000     
   1.4375000000000000       0.31250000000000000        0.0000000000000000     
   1.4687500000000000       0.31250000000000000        0.0000000000000000     
   1.5000000000000000       0.31250000000000000        0.0000000000000000     
   1.3750000000000000       0.34375000000000000        0.0000000000000000     
   1.4062500000000000       0.34375000000000000        0.0000000000000000     
   1.4375000000000000       0.34375000000000000        0.0000000000000000     
   1.4687500000000000       0.34375000000000000        0.0000000000000000     
   1.5000000000000000       0.34375000000000000        0.0000000000000000     
   1.3750000000000000       0.37500000000000000        0.0000000000000000     
   1.4062500000000000       0.37500000000000000        0.0000000000000000     
   1.4375000000000000       0.37500000000000000        0.0000000000000000     
   1.4687500000000000       0.37500000000000000        0.0000000000000000     
   1.5000000000000000       0.37500000000000000        0.0000000000000000     
  0.50000000000000000       0.37500000000000000        0.0000000000000000     
  0.53125000000000000       0.37500000000000000        0.0000000000000000     
  0.56250000000000000       0.37500000000000000        0.0000000000000000     
  0.59375000000000000       0.37500000000000000        0.0000000000000000     
  0.62500000000000000       0.37500000000000000        0.0000000000000000     
  0.50000000000000000       0.40625000000000000        0.0000000000000000     
  0.53125000000000000       0.40625000000000000        0.0000000000000000     
  0.56250000000000000       0.40625000000000000        0.0000000000000000     
  0.59375000000000000       0.40625000000000000        0.0000000000000000     
  0.62500000000000000       0.40625000000000000        0.0000000000000000     
  0.50000000000000000       0.43750000000000000        0.0000000000000000     
  0.53125000000000000       0.43750000000000000        0.0000000000000000     
  0.56250000000000000       0.43750000000000000        0.0000000000000000     
  0.59375000000000000       0.43750000000000000        0.0000000000000000     
  0.62500000000000000       0.43750000000000000        0.0000000000000000     
  0.50000000000000000       0.46875000000000000        0.0000000000000000     
  0.53125000000000000       0.46875000000000000        0.0000000000000000     
  0.56250000000000000       0.46875000000000000        0.0000000000000000     
  0.59375000000000000       0.46875000000000000        0.0000000000000000     
  0.62500000000000000       0.46875000000000000        0.0000000000000000     
  0.50000000000000000       0.50000000000000000        0.0000000000000000     
  0.53125000000000000       0.50000000000000000        0.0000000000000000     
  0.56250000000000000       0.50000000000000000        0.0000000000000000     
  0.59375000000000000       0.50000000000000000        0.0000000000000000     
  0.62500000000000000       0.50000000000000000        0.0000000000000000     
  0.62500000000000000       0.37500000000000000        0.0000000000000000     
  0.65625000000000000       0.37500000000000000        0.0000000000000000     
  0.68750000000000000       0.37500000000000000        0.0000000000000000     
  0.71875000000000000       0.37500000000000000        0.0000000000000000     
  0.75000000000000000       0.37500000000000000        0.0000000000000000     
  0.62500000000000000       0.40625000000000000        0.0000000000000000     
  0.65625000000000000       0.40625000000000000        0.0000000000000000     
  0.68750000000000000       0.40625000000000000        0.0000000000000000     
  0.71875000000000000       0.40625000000000000        0.0000000000000000     
  0.75000000000000000       0.40625000000000000        0.0000000000000000     
  0.62500000000000000       0.43750000000000000        0.0000000000000000     
  0.65625000000000000       0.43750000000000000        0.0000000000000000     
  0.68750000000000000       0.43750000000000000        0.0000000000000000     
  0.71875000000000000       0.43750000000000000        0.0000000000000000     
  0.75000000000000000       0.43750000000000000        0.0000000000000000     
  0.62500000000000000       0.46875000000000000        0.0000000000000000     
  0.65625000000000000       0.46875000000000000        0.0000000000000000     
  0.68750000000000000       0.46875000000000000        0.0000000000000000     
  0.71875000000000000       0.46875000000000000        0.0000000000000000     
  0.75000000000000000       0.46875000000000000        0.0000000000000000     
  0.62500000000000000       0.50000000000000000        0.0000000000000000     
  0.65625000000000000       0.50000000000000000        0.0000000000000000     
  0.68750000000000000       0.50000000000000000        0.0000000000000000     
  0.71875000000000000       0.50000000000000000        0.0000000000000000     
  0.75000000000000000       0.50000000000000000        0.0000000000000000     
  0.75000000000000000       0.37500000000000000        0.0000000000000000     
  0.78125000000000000       0.37500000000000000        0.0000000000000000     
  0.81250000000000000       0.37500000000000000        0.0000000000000000     
  0.84375000000000000       0.37500000000000000        0.0000000000000000     
  0.87500000000000000       0.37500000000000000        0.0000000000000000     
  0.75000000000000000       0.40625000000000000        0.0000000000000000     
  0.78125000000000000       0.40625000000000000        0.0000000000000000     
  0.81250000000000000       0.40625000000000000        0.0000000000000000     
  0.84375000000000000       0.40625000000000000        0.0000000000000000     
  0.87500000000000000       0.40625000000000000        0.0000000000000000     
  0.75000000000000000       0.43750000000000000        0.0000000000000000     
  0.78125000000000000       0.43750000000000000        0.0000000000000000     
  0.81250000000000000       0.43750000000000000        0.0000000000000000     
  0.84375000000000000       0.43750000000000000        0.0000000000000000     
  0.87500000000000000       0.43750000000000000        0.0000000000000000     
  0.75000000000000000       0.46875000000000000        0.0000000000000000     
  0.78125000000000000       0.46875000000000000        0.0000000000000000     
  0.81250000000000000       0.46875000000000000        0.0000000000000000     
  0.84375000000000000       0.46875000000000000        0.0000000000000000     
  0.87500000000000000       0.46875000000000000        0.0000000000000000     
  0.75000000000000000       0.50000000000000000        0.0000000000000000     
  0.78125000000000000       0.50000000000000000        0.0000000000000000     
  0.81250000000000000       0.50000000000000000        0.0000000000000000     
  0.84375000000000000       0.50000000000000000        0.0000000000000000     
  0.87500000000000000       0.50000000000000000        0.0000000000000000     
  0.87500000000000000       0.37500000000000000        0.0000000000000000     
  0.90625000000000000       0.37500000000000000        0.0000000000000000     
  0.93750000000000000       0.37500000000000000        0.0000000000000000     
  0.96875000000000000       0.37500000000000000        0.0000000000000000     
   1.0000000000000000       0.37500000000000000        0.0000000000000000     
  0.87500000000000000       0.40625000000000000        0.0000000000000000     
  0.90625000000000000       0.40625000000000000        0.0000000000000000     
  0.93750000000000000       0.40625000000000000        0.0000000000000000     
  0.96875000000000000       0.40625000000000000        0.0000000000000000     
   1.0000000000000000       0.40625000000000000        0.0000000000000000     
  0.87500000000000000       0.43750000000000000        0.0000000000000000     
  0.90625000000000000       0.43750000000000000        0.0000000000000000     
  0.93750000000000000       0.43750000000000000        0.0000000000000000     
  0.96875000000000000       0.43750000000000000        0.0000000000000000     
   1.0000000000000000       0.43750000000000000        0.0000000000000000     
  0.87500000000000000       0.46875000000000000        0.0000000000000000     
  0.90625000000000000       0.46875000000000000        0.0000000000000000     
  0.93750000000000000       0.46875000000000000        0.0000000000000000     
  0.96875000000000000       0.46875000000000000        0.0000000000000000     
   1.0000000000000000       0.46875000000000000        0.0000000000000000     
  0.87500000000000000       0.50000000000000000        0.0000000000000000     
  0.90625000000000000       0.50000000000000000        0.0000000000000000     
  0.93750000000000000       0.50000000000000000        0.0000000000000000     
  0.96875000000000000       0.50000000000000000        0.0000000000000000     
   1.0000000000000000       0.50000000000000000        0.0000000000000000     
   1.0000000000000000       0.37500000000000000        0.0000000000000000     
   1.0312500000000000       0.37500000000000000        0.0000000000000000     
   1.0625000000000000       0.37500000000000000        0.0000000000000000     
   1.0937500000000000       0.37500000000000000        0.0000000000000000     
   1.1250000000000000       0.37500000000000000        0.0000000000000000     
   1.0000000000000000       0.40625000000000000        0.0000000000000000     
   1.0312500000000000       0.40625000000000000        0.0000000000000000     
   1.0625000000000000       0.40625000000000000        0.0000000000000000     
   1.0937500000000000       0.40625000000000000        0.0000000000000000     
   1.1250000000000000       0.40625000000000000        0.0000000000000000     
   1.0000000000000000       0.43750000000000000        0.0000000000000000     
   1.0312500000000000       0.43750000000000000        0.0000000000000000     
   1.0625000000000000       0.43750000000000000        0.0000000000000000     
   1.0937500000000000       0.43750000000000000        0.0000000000000000     
   1.1250000000000000       0.43750000000000000        0.0000000000000000     
   1.0000000000000000       0.46875000000000000        0.0000000000000000     
   1.0312500000000000       0.46875000000000000        0.0000000000000000     
   1.0625000000000000       0.46875000000000000        0.0000000000000000     
   1.0937500000000000       0.46875000000000000        0.0000000000000000     
   1.1250000000000000       0.46875000000000000        0.0000000000000000     
   1.0000000000000000       0.50000000000000000        0.0000000000000000     
   1.0312500000000000       0.50000000000000000        0.0000000000000000     
   1.0625000000000000       0.50000000000000000        0.0000000000000000     
   1.0937500000000000       0.50000000000000000        0.0000000000000000     
   1.1250000000000000       0.50000000000000000        0.0000000000000000     
   1.1250000000000000       0.37500000000000000        0.0000000000000000     
   1.1562500000000000       0.37500000000000000        0.0000000000000000     
   1.1875000000000000       0.37500000000000000        0.0000000000000000     
   1.2187500000000000       0.37500000000000000        0.0000000000000000     
   1.2500000000000000       0.37500000000000000        0.0000000000000000     
   1.1250000000000000       0.40625000000000000        0.0000000000000000     
   1.1562500000000000       0.40625000000000000        0.0000000000000000     
   1.1875000000000000       0.40625000000000000        0.0000000000000000     
   1.2187500000000000       0.40625000000000000        0.0000000000000000     
   1.2500000000000000       0.40625000000000000        0.0000000000000000     
   1.1250000000000000       0.43750000000000000        0.0000000000000000     
   1.1562500000000000       0.43750000000000000        0.0000000000000000     
   1.1875000000000000       0.43750000000000000        0.0000000000000000     
   1.2187500000000000       0.43750000000000000        0.0000000000000000     
   1.2500000000000000       0.43750000000000000        0.0000000000000000     
   1.1250000000000000       0.46875000000000000        0.0000000000000000     
   1.1562500000000000       0.46875000000000000        0.0000000000000000     
   1.1875000000000000       0.46875000000000000        0.0000000000000000     
   1.2187500000000000       0.46875000000000000        0.0000000000000000     
   1.2500000000000000       0.46875000000000000        0.0000000000000000     
   1.1250000000000000       0.50000000000000000        0.0000000000000000     
   1.1562500000000000       0.50000000000000000        0.0000000000000000     
   1.1875000000000000       0.50000000000000000        0.0000000000000000     
   1.2187500000000000       0.50000000000000000        0.0000000000000000     
   1.2500000000000000       0.50000000000000000        0.0000000000000000     
   1.2500000000000000       0.37500000000000000        0.0000000000000000     
   1.2812500000000000       0.37500000000000000        0.0000000000000000     
   1.3125000000000000       0.37500000000000000        0.0000000000000000     
   1.3437500000000000       0.37500000000000000        0.0000000000000000     
   1.3750000000000000       0.37500000000000000        0.0000000000000000     
   1.2500000000000000       0.40625000000000000        0.0000000000000000     
   1.2812500000000000       0.40625000000000000        0.0000000000000000     
   1.3125000000000000       0.40625000000000000        0.0000000000000000     
   1.3437500000000000       0.40625000000000000        0.0000000000000000     
   1.3750000000000000       0.40625000000000000        0.0000000000000000     
   1.2500000000000000       0.43750000000000000        0.0000000000000000     
   1.2812500000000000       0.43750000000000000        0.0000000000000000     
   1.3125000000000000       0.43750000000000000        0.0000000000000000     
   1.3437500000000000       0.43750000000000000        0.0000000000000000     
   1.3750000000000000       0.43750000000000000        0.0000000000000000     
   1.2500000000000000       0.46875000000000000        0.0000000000000000     
   1.2812500000000000       0.46875000000000000        0.0000000000000000     
   1.3125000000000000       0.46875000000000000        0.0000000000000000     
   1.3437500000000000       0.46875000000000000        0.0000000000000000     
   1.3750000000000000       0.46875000000000000        0.0000000000000000     
   1.2500000000000000       0.50000000000000000        0.0000000000000000     
   1.2812500000000000       0.50000000000000000        0.0000000000000000     
   1.3125000000000000       0.50000000000000000        0.0000000000000000     
   1.3437500000000000       0.50000000000000000        0.0000000000000000     
   1.3750000000000000       0.50000000000000000        0.0000000000000000     
   1.3750000000000000       0.37500000000000000        0.0000000000000000     
   1.4062500000000000       0.37500000000000000        0.0000000000000000     
   1.4375000000000000       0.37500000000000000        0.0000000000000000     
   1.4687500000000000       0.37500000000000000        0.0000000000000000     
   1.5000000000000000       0.37500000000000000        0.0000000000000000     
   1.3750000000000000       0.40625000000000000        0.0000000000000000     
   1.4062500000000000       0.40625000000000000        0.0000000000000000     
   1.4375000000000000       0.40625000000000000        0.0000000000000000     
   1.4687500000000000       0.40625000000000000        0.0000000000000000     
   1.5000000000000000       0.40625000000000000        0.0000000000000000     
   1.3750000000000000       0.43750000000000000        0.0000000000000000     
   1.4062500000000000       0.43750000000000000        0.0000000000000000     
   1.4375000000000000       0.43750000000000000        0.0000000000000000     
   1.4687500000000000       0.43750000000000000        0.0000000000000000     
   1.5000000000000000       0.43750000000000000        0.0000000000000000     
   1.3750000000000000       0.46875000000000000        0.0000000000000000     
   1.4062500000000000       0.46875000000000000        0.0000000000000000     
   1.4375000000000000       0.46875000000000000        0.0000000000000000     
   1.4687500000000000       0.46875000000000000        0.0000000000000000     
   1.5000000000000000       0.46875000000000000        0.0000000000000000     
   1.3750000000000000       0.50000000000000000        0.0000000000000000     
   1.4062500000000000       0.50000000000000000        0.0000000000000000     
   1.4375000000000000       0.50000000000000000        0.0000000000000000     
   1.4687500000000000       0.50000000000000000        0.0000000000000000     
   1.5000000000000000       0.50000000000000000        0.0000000000000000     
  0.50000000000000000       0.50000000000000000        0.0000000000000000     
  0.53125000000000000       0.50000000000000000        0.0000000000000000     
  0.56250000000000000       0.50000000000000000        0.0000000000000000     
  0.59375000000000000       0.50000000000000000        0.0000000000000000     
  0.62500000000000000       0.50000000000000000        0.0000000000000000     
  0.50000000000000000       0.53125000000000000        0.0000000000000000     
  0.53125000000000000       0.53125000000000000        0.0000000000000000     
  0.56250000000000000       0.53125000000000000        0.0000000000000000     
  0.59375000000000000       0.53125000000000000        0.0000000000000000     
  0.62500000000000000       0.53125000000000000        0.0000000000000000     
  0.50000000000000000       0.56250000000000000        0.0000000000000000     
  0.53125000000000000       0.56250000000000000        0.0000000000000000     
  0.56250000000000000       0.56250000000000000        0.0000000000000000     
  0.59375000000000000       0.56250000000000000        0.0000000000000000     
  0.62500000000000000       0.56250000000000000        0.0000000000000000     
  0.50000000000000000       0.59375000000000000        0.0000000000000000     
  0.53125000000000000       0.59375000000000000        0.0000000000000000     
  0.56250000000000000       0.59375000000000000        0.0000000000000000     
  0.59375000000000000       0.59375000000000000        0.0000000000000000     
  0.62500000000000000       0.59375000000000000        0.0000000000000000     
  0.50000000000000000       0.62500000000000000        0.0000000000000000     
  0.53125000000000000       0.62500000000000000        0.0000000000000000     
  0.56250000000000000       0.62500000000000000        0.0000000000000000     
  0.59375000000000000       0.62500000000000000        0.0000000000000000     
  0.62500000000000000       0.62500000000000000        0.0000000000000000     
  0.62500000000000000       0.50000000000000000        0.0000000000000000     
  0.65625000000000000       0.50000000000000000        0.0000000000000000     
  0.68750000000000000       0.50000000000000000        0.0000000000000000     
  0.71875000000000000       0.50000000000000000        0.0000000000000000     
  0.75000000000000000       0.50000000000000000        0.0000000000000000     
  0.62500000000000000       0.53125000000000000        0.0000000000000000     
  0.65625000000000000       0.53125000000000000        0.0000000000000000     
  0.68750000000000000       0.53125000000000000        0.0000000000000000     
  0.71875000000000000       0.53125000000000000        0.0000000000000000     
  0.75000000000000000       0.53125000000000000        0.0000000000000000     
  0.62500000000000000       0.56250000000000000        0.0000000000000000     
  0.65625000000000000       0.56250000000000000        0.0000000000000000     
  0.68750000000000000       0.56250000000000000        0.0000000000000000     
  0.71875000000000000       0.56250000000000000        0.0000000000000000     
  0.75000000000000000       0.56250000000000000        0.0000000000000000     
  0.62500000000000000       0.59375000000000000        0.0000000000000000     
  0.65625000000000000       0.59375000000000000        0.0000000000000000     
  0.68750000000000000       0.59375000000000000        0.0000000000000000     
  0.71875000000000000       0.59375000000000000        0.0000000000000000     
  0.75000000000000000       0.59375000000000000        0.0000000000000000     
  0.62500000000000000       0.62500000000000000        0.0000000000000000     
  0.65625000000000000       0.62500000000000000        0.0000000000000000     
  0.68750000000000000       0.62500000000000000        0.0000000000000000     
  0.71875000000000000       0.62500000000000000        0.0000000000000000     
  0.75000000000000000       0.62500000000000000        0.0000000000000000     
  0.75000000000000000       0.50000000000000000        0.0000000000000000     
  0.78125000000000000       0.50000000000000000        0.0000000000000000     
  0.81250000000000000       0.50000000000000000        0.0000000000000000     
  0.84375000000000000       0.50000000000000000        0.0000000000000000     
  0.87500000000000000       0.50000000000000000        0.0000000000000000     
  0.75000000000000000       0.53125000000000000        0.0000000000000000     
  0.78125000000000000       0.53125000000000000        0.0000000000000000     
  0.81250000000000000       0.53125000000000000        0.0000000000000000     
  0.84375000000000000       0.53125000000000000        0.0000000000000000     
  0.87500000000000000       0.53125000000000000        0.0000000000000000     
  0.75000000000000000       0.56250000000000000        0.0000000000000000     
  0.78125000000000000       0.56250000000000000        0.0000000000000000     
  0.81250000000000000       0.56250000000000000        0.0000000000000000     
  0.84375000000000000       0.56250000000000000        0.0000000000000000     
  0.87500000000000000       0.56250000000000000        0.0000000000000000     
  0.75000000000000000       0.59375000000000000        0.0000000000000000     
  0.78125000000000000       0.59375000000000000        0.0000000000000000     
  0.81250000000000000       0.59375000000000000        0.0000000000000000     
  0.84375000000000000       0.59375000000000000        0.0000000000000000     
  0.87500000000000000       0.59375000000000000        0.0000000000000000     
  0.75000000000000000       0.62500000000000000        0.0000000000000000     
  0.78125000000000000       0.62500000000000000        0.0000000000000000     
  0.81250000000000000       0.62500000000000000        0.0000000000000000     
  0.84375000000000000       0.62500000000000000        0.0000000000000000     
  0.87500000000000000       0.62500000000000000        0.0000000000000000     
  0.87500000000000000       0.50000000000000000        0.0000000000000000     
  0.90625000000000000       0.50000000000000000        0.0000000000000000     
  0.93750000000000000       0.50000000000000000        0.0000000000000000     
  0.96875000000000000       0.50000000000000000        0.0000000000000000     
   1.0000000000000000       0.50000000000000000        0.0000000000000000     
  0.87500000000000000       0.53125000000000000        0.0000000000000000     
  0.90625000000000000       0.53125000000000000        0.0000000000000000     
  0.93750000000000000       0.53125000000000000        0.0000000000000000     
  0.96875000000000000       0.53125000000000000        0.0000000000000000     
   1.0000000000000000       0.53125000000000000        0.0000000000000000     
  0.87500000000000000       0.56250000000000000        0.0000000000000000     
  0.90625000000000000       0.56250000000000000        0.0000000000000000     
  0.93750000000000000       0.56250000000000000        0.0000000000000000     
  0.96875000000000000       0.56250000000000000        0.0000000000000000     
   1.0000000000000000       0.56250000000000000        0.0000000000000000     
  0.87500000000000000       0.59375000000000000        0.0000000000000000     
  0.90625000000000000       0.59375000000000000        0.0000000000000000     
  0.93750000000000000       0.59375000000000000        0.0000000000000000     
  0.96875000000000000       0.59375000000000000        0.0000000000000000     
   1.0000000000000000       0.59375000000000000        0.0000000000000000     
  0.87500000000000000       0.62500000000000000        0.0000000000000000     
  0.90625000000000000       0.62500000000000000        0.0000000000000000     
  0.93750000000000000       0.62500000000000000        0.0000000000000000     
  0.96875000000000000       0.62500000000000000        0.0000000000000000     
   1.0000000000000000       0.62500000000000000        0.0000000000000000     
   1.0000000000000000       0.50000000000000000        0.0000000000000000     
   1.0312500000000000       0.50000000000000000        0.0000000000000000     
   1.0625000000000000       0.50000000000000000        0.0000000000000000     
   1.0937500000000000       0.50000000000000000        0.0000000000000000     
   1.1250000000000000       0.50000000000000000        0.0000000000000000     
   1.0000000000000000       0.53125000000000000        0.0000000000000000     
   1.0312500000000000       0.53125000000000000        0.0000000000000000     
   1.0625000000000000       0.53125000000000000        0.0000000000000000     
   1.0937500000000000       0.53125000000000000        0.0000000000000000     
   1.1250000000000000       0.53125000000000000        0.0000000000000000     
   1.0000000000000000       0.56250000000000000        0.0000000000000000     
   1.0312500000000000       0.56250000000000000        0.0000000000000000     
   1.0625000000000000       0.56250000000000000        0.0000000000000000     
   1.0937500000000000       0.56250000000000000        0.0000000000000000     
   1.1250000000000000       0.56250000000000000        0.0000000000000000     
   1.0000000000000000       0.59375000000000000        0.0000000000000000     
   1.0312500000000000       0.59375000000000000        0.0000000000000000     
   1.0625000000000000       0.59375000000000000        0.0000000000000000     
   1.0937500000000000       0.59375000000000000        0.0000000000000000     
   1.1250000000000000       0.59375000000000000        0.0000000000000000     
   1.0000000000000000       0.62500000000000000        0.0000000000000000     
   1.0312500000000000       0.62500000000000000        0.0000000000000000     
   1.0625000000000000       0.62500000000000000        0.0000000000000000     
   1.0937500000000000       0.62500000000000000        0.0000000000000000     
   1.1250000000000000       0.62500000000000000        0.0000000000000000     
   1.1250000000000000       0.50000000000000000        0.0000000000000000     
   1.1562500000000000       0.50000000000000000        0.0000000000000000     
   1.1875000000000000       0.50000000000000000        0.0000000000000000     
   1.2187500000000000       0.50000000000000000        0.0000000000000000     
   1.2500000000000000       0.50000000000000000        0.0000000000000000     
   1.1250000000000000       0.53125000000000000        0.0000000000000000     
   1.1562500000000000       0.53125000000000000        0.0000000000000000     
   1.1875000000000000       0.53125000000000000        0.0000000000000000     
   1.2187500000000000       0.53125000000000000        0.0000000000000000     
   1.2500000000000000       0.53125000000000000        0.0000000000000000     
   1.1250000000000000       0.56250000000000000        0.0000000000000000     
   1.1562500000000000       0.56250000000000000        0.0000000000000000     
   1.1875000000000000       0.56250000000000000        0.0000000000000000     
   1.2187500000000000       0.56250000000000000        0.0000000000000000     
   1.2500000000000000       0.56250000000000000        0.0000000000000000     
   1.1250000000000000       0.59375000000000000        0.0000000000000000     
   1.1562500000000000       0.59375000000000000        0.0000000000000000     
   1.1875000000000000       0.59375000000000000        0.0000000000000000     
   1.2187500000000000       0.59375000000000000        0.0000000000000000     
   1.2500000000000000       0.59375000000000000        0.0000000000000000     
   1.1250000000000000       0.62500000000000000        0.0000000000000000     
   1.1562500000000000       0.62500000000000000        0.0000000000000000     
   1.1875000000000000       0.62500000000000000        0.0000000000000000     
   1.2187500000000000       0.62500000000000000        0.0000000000000000     
   1.2500000000000000       0.62500000000000000        0.0000000000000000     
   1.2500000000000000       0.50000000000000000        0.0000000000000000     
   1.2812500000000000       0.50000000000000000        0.0000000000000000     
   1.3125000000000000       0.50000000000000000        0.0000000000000000     
   1.3437500000000000       0.50000000000000000        0.0000000000000000     
   1.3750000000000000       0.50000000000000000        0.0000000000000000     
   1.2500000000000000       0.53125000000000000        0.0000000000000000     
   1.2812500000000000       0.53125000000000000        0.0000000000000000     
   1.3125000000000000       0.53125000000000000        0.0000000000000000     
   1.3437500000000000       0.53125000000000000        0.0000000000000000     
   1.3750000000000000       0.53125000000000000        0.0000000000000000     
   1.2500000000000000       0.56250000000000000        0.0000000000000000     
   1.2812500000000000       0.56250000000000000        0.0000000000000000     
   1.3125000000000000       0.56250000000000000        0.0000000000000000     
   1.3437500000000000       0.56250000000000000        0.0000000000000000     
   1.3750000000000000       0.56250000000000000        0.0000000000000000     
   1.2500000000000000       0.59375000000000000        0.0000000000000000     
   1.2812500000000000       0.59375000000000000        0.0000000000000000     
   1.3125000000000000       0.59375000000000000        0.0000000000000000     
   1.3437500000000000       0.59375000000000000        0.0000000000000000     
   1.3750000000000000       0.59375000000000000        0.0000000000000000     
   1.2500000000000000       0.62500000000000000        0.0000000000000000     
   1.2812500000000000       0.62500000000000000        0.0000000000000000     
   1.3125000000000000       0.62500000000000000        0.0000000000000000     
   1.3437500000000000       0.62500000000000000        0.0000000000000000     
   1.3750000000000000       0.62500000000000000        0.0000000000000000     
   1.3750000000000000       0.50000000000000000        0.0000000000000000     
   1.4062500000000000       0.50000000000000000        0.0000000000000000     
   1.4375000000000000       0.50000000000000000        0.0000000000000000     
   1.4687500000000000       0.50000000000000000        0.0000000000000000     
   1.5000000000000000       0.50000000000000000        0.0000000000000000     
   1.3750000000000000       0.53125000000000000        0.0000000000000000     
   1.4062500000000000       0.53125000000000000        0.0000000000000000     
   1.4375000000000000       0.53125000000000000        0.0000000000000000     
   1.4687500000000000       0.53125000000000000        0.0000000000000000     
   1.5000000000000000       0.53125000000000000        0.0000000000000000     
   1.3750000000000000       0.56250000000000000        0.0000000000000000     
   1.4062500000000000       0.56250000000000000        0.0000000000000000     
   1.4375000000000000       0.56250000000000000        0.0000000000000000     
   1.4687500000000000       0.56250000000000000        0.0000000000000000     
   1.5000000000000000       0.56250000000000000        0.0000000000000000     
   1.3750000000000000       0.59375000000000000        0.0000000000000000     
   1.4062500000000000       0.59375000000000000        0.0000000000000000     
   1.4375000000000000       0.59375000000000000        0.0000000000000000     
   1.4687500000000000       0.59375000000000000        0.0000000000000000     
   1.5000000000000000       0.59375000000000000        0.0000000000000000     
   1.3750000000000000       0.62500000000000000        0.0000000000000000     
   1.4062500000000000       0.62500000000000000        0.0000000000000000     
   1.4375000000000000       0.62500000000000000        0.0000000000000000     
   1.4687500000000000       0.62500000000000000        0.0000000000000000     
   1.5000000000000000       0.62500000000000000        0.0000000000000000     
  0.50000000000000000       0.62500000000000000        0.0000000000000000     
  0.53125000000000000       0.62500000000000000        0.0000000000000000     
  0.56250000000000000       0.62500000000000000        0.0000000000000000     
  0.59375000000000000       0.62500000000000000        0.0000000000000000     
  0.62500000000000000       0.62500000000000000        0.0000000000000000     
  0.50000000000000000       0.65625000000000000        0.0000000000000000     
  0.53125000000000000       0.65625000000000000        0.0000000000000000     
  0.56250000000000000       0.65625000000000000        0.0000000000000000     
  0.59375000000000000       0.65625000000000000        0.0000000000000000     
  0.62500000000000000       0.65625000000000000        0.0000000000000000     
  0.50000000000000000       0.68750000000000000        0.0000000000000000     
  0.53125000000000000       0.68750000000000000        0.0000000000000000     
  0.56250000000000000       0.68750000000000000        0.0000000000000000     
  0.59375000000000000       0.68750000000000000        0.0000000000000000     
  0.62500000000000000       0.68750000000000000        0.0000000000000000     
  0.50000000000000000       0.71875000000000000        0.0000000000000000     
  0.53125000000000000       0.71875000000000000        0.0000000000000000     
  0.56250000000000000       0.71875000000000000        0.0000000000000000     
  0.59375000000000000       0.71875000000000000        0.0000000000000000     
  0.62500000000000000       0.71875000000000000        0.0000000000000000     
  0.50000000000000000       0.75000000000000000        0.0000000000000000     
  0.53125000000000000       0.75000000000000000        0.0000000000000000     
  0.56250000000000000       0.75000000000000000        0.0000000000000000     
  0.59375000000000000       0.75000000000000000        0.0000000000000000     
  0.62500000000000000       0.75000000000000000        0.0000000000000000     
  0.62500000000000000       0.62500000000000000        0.0000000000000000     
  0.65625000000000000       0.62500000000000000        0.0000000000000000     
  0.68750000000000000       0.62500000000000000        0.0000000000000000     
  0.71875000000000000       0.62500000000000000        0.0000000000000000     
  0.75000000000000000       0.62500000000000000        0.0000000000000000     
  0.62500000000000000       0.65625000000000000        0.0000000000000000     
  0.65625000000000000       0.65625000000000000        0.0000000000000000     
  0.68750000000000000       0.65625000000000000        0.0000000000000000     
  0.71875000000000000       0.65625000000000000        0.0000000000000000     
  0.75000000000000000       0.65625000000000000        0.0000000000000000     
  0.62500000000000000       0.68750000000000000        0.0000000000000000     
  0.65625000000000000       0.68750000000000000        0.0000000000000000     
  0.68750000000000000       0.68750000000000000        0.0000000000000000     
  0.71875000000000000       0.68750000000000000        0.0000000000000000     
  0.75000000000000000       0.68750000000000000        0.0000000000000000     
  0.62500000000000000       0.71875000000000000        0.0000000000000000     
  0.65625000000000000       0.71875000000000000        0.0000000000000000     
  0.68750000000000000       0.71875000000000000        0.0000000000000000     
  0.71875000000000000       0.71875000000000000        0.0000000000000000     
  0.75000000000000000       0.71875000000000000        0.0000000000000000     
  0.62500000000000000       0.75000000000000000        0.0000000000000000     
  0.65625000000000000       0.75000000000000000        0.0000000000000000     
  0.68750000000000000       0.75000000000000000        0.0000000000000000     
  0.71875000000000000       0.75000000000000000        0.0000000000000000     
  0.75000000000000000       0.75000000000000000        0.0000000000000000     
  0.75000000000000000       0.62500000000000000        0.0000000000000000     
  0.78125000000000000       0.62500000000000000        0.0000000000000000     
  0.81250000000000000       0.62500000000000000        0.0000000000000000     
  0.84375000000000000       0.62500000000000000        0.0000000000000000     
  0.87500000000000000       0.62500000000000000        0.0000000000000000     
  0.75000000000000000       0.65625000000000000        0.0000000000000000     
  0.78125000000000000       0.65625000000000000        0.0000000000000000     
  0.81250000000000000       0.65625000000000000        0.0000000000000000     
  0.84375000000000000       0.65625000000000000        0.0000000000000000     
  0.87500000000000000       0.65625000000000000        0.0000000000000000     
  0.75000000000000000       0.68750000000000000        0.0000000000000000     
  0.78125000000000000       0.68750000000000000        0.0000000000000000     
  0.81250000000000000       0.68750000000000000        0.0000000000000000     
  0.84375000000000000       0.68750000000000000        0.0000000000000000     
  0.87500000000000000       0.68750000000000000        0.0000000000000000     
  0.75000000000000000       0.71875000000000000        0.0000000000000000     
  0.78125000000000000       0.71875000000000000        0.0000000000000000     
  0.81250000000000000       0.71875000000000000        0.0000000000000000     
  0.84375000000000000       0.71875000000000000        0.0000000000000000     
  0.87500000000000000       0.71875000000000000        0.0000000000000000     
  0.75000000000000000       0.75000000000000000        0.0000000000000000     
  0.78125000000000000       0.75000000000000000        0.0000000000000000     
  0.81250000000000000       0.75000000000000000        0.0000000000000000     
  0.84375000000000000       0.75000000000000000        0.0000000000000000     
  0.87500000000000000       0.75000000000000000        0.0000000000000000     
  0.87500000000000000       0.62500000000000000        0.0000000000000000     
  0.90625000000000000       0.62500000000000000        0.0000000000000000     
  0.93750000000000000       0.62500000000000000        0.0000000000000000     
  0.96875000000000000       0.62500000000000000        0.0000000000000000     
   1.0000000000000000       0.62500000000000000        0.0000000000000000     
  0.87500000000000000       0.65625000000000000        0.0000000000000000     
  0.90625000000000000       0.65625000000000000        0.0000000000000000     
  0.93750000000000000       0.65625000000000000        0.0000000000000000     
  0.96875000000000000       0.65625000000000000        0.0000000000000000     
   1.0000000000000000       0.65625000000000000        0.0000000000000000     
  0.87500000000000000       0.68750000000000000        0.0000000000000000     
  0.90625000000000000       0.68750000000000000        0.0000000000000000     
  0.93750000000000000       0.68750000000000000        0.0000000000000000     
  0.96875000000000000       0.68750000000000000        0.0000000000000000     
   1.0000000000000000       0.68750000000000000        0.0000000000000000     
  0.87500000000000000       0.71875000000000000        0.0000000000000000     
  0.90625000000000000       0.71875000000000000        0.0000000000000000     
  0.93750000000000000       0.71875000000000000        0.0000000000000000     
  0.96875000000000000       0.71875000000000000        0.0000000000000000     
   1.0000000000000000       0.71875000000000000        0.0000000000000000     
  0.87500000000000000       0.75000000000000000        0.0000000000000000     
  0.90625000000000000       0.75000000000000000        0.0000000000000000     
  0.93750000000000000       0.75000000000000000        0.0000000000000000     
  0.96875000000000000       0.75000000000000000        0.0000000000000000     
   1.0000000000000000       0.75000000000000000        0.0000000000000000     
   1.0000000000000000       0.62500000000000000        0.0000000000000000     
   1.0312500000000000       0.62500000000000000        0.0000000000000000     
   1.0625000000000000       0.62500000000000000        0.0000000000000000     
   1.0937500000000000       0.62500000000000000        0.0000000000000000     
   1.1250000000000000       0.62500000000000000        0.0000000000000000     
   1.0000000000000000       0.65625000000000000        0.0000000000000000     
   1.0312500000000000       0.65625000000000000        0.0000000000000000     
   1.0625000000000000       0.65625000000000000        0.0000000000000000     
   1.0937500000000000       0.65625000000000000        0.0000000000000000     
   1.1250000000000000       0.65625000000000000        0.0000000000000000     
   1.0000000000000000       0.68750000000000000        0.0000000000000000     
   1.0312500000000000       0.68750000000000000        0.0000000000000000     
   1.0625000000000000       0.68750000000000000        0.0000000000000000     
   1.0937500000000000       0.68750000000000000        0.0000000000000000     
   1.1250000000000000       0.68750000000000000        0.0000000000000000     
   1.0000000000000000       0.71875000000000000        0.0000000000000000     
   1.0312500000000000       0.71875000000000000        0.0000000000000000     
   1.0625000000000000       0.71875000000000000        0.0000000000000000     
   1.0937500000000000       0.71875000000000000        0.0000000000000000     
   1.1250000000000000       0.71875000000000000        0.0000000000000000     
   1.0000000000000000       0.75000000000000000        0.0000000000000000     
   1.0312500000000000       0.75000000000000000        0.0000000000000000     
   1.0625000000000000       0.75000000000000000        0.0000000000000000     
   1.0937500000000000       0.75000000000000000        0.0000000000000000     
   1.1250000000000000       0.75000000000000000        0.0000000000000000     
   1.1250000000000000       0.62500000000000000        0.0000000000000000     
   1.1562500000000000       0.62500000000000000        0.0000000000000000     
   1.1875000000000000       0.62500000000000000        0.0000000000000000     
   1.2187500000000000       0.62500000000000000        0.0000000000000000     
   1.2500000000000000       0.62500000000000000        0.0000000000000000     
   1.1250000000000000       0.65625000000000000        0.0000000000000000     
   1.1562500000000000       0.65625000000000000        0.0000000000000000     
   1.1875000000000000       0.65625000000000000        0.0000000000000000     
   1.2187500000000000       0.65625000000000000        0.0000000000000000     
   1.2500000000000000       0.65625000000000000        0.0000000000000000     
   1.1250000000000000       0.68750000000000000        0.0000000000000000     
   1.1562500000000000       0.68750000000000000        0.0000000000000000     
   1.1875000000000000       0.68750000000000000        0.0000000000000000     
   1.2187500000000000       0.68750000000000000        0.0000000000000000     
   1.2500000000000000       0.68750000000000000        0.0000000000000000     
   1.1250000000000000       0.71875000000000000        0.0000000000000000     
   1.1562500000000000       0.71875000000000000        0.0000000000000000     
   1.1875000000000000       0.71875000000000000        0.0000000000000000     
   1.2187500000000000       0.71875000000000000        0.0000000000000000     
   1.2500000000000000       0.71875000000000000        0.0000000000000000     
   1.1250000000000000       0.75000000000000000        0.0000000000000000     
   1.1562500000000000       0.75000000000000000        0.0000000000000000     
   1.1875000000000000       0.75000000000000000        0.0000000000000000     
   1.2187500000000000       0.75000000000000000        0.0000000000000000     
   1.2500000000000000       0.75000000000000000        0.0000000000000000     
   1.2500000000000000       0.62500000000000000        0.0000000000000000     
   1.2812500000000000       0.62500000000000000        0.0000000000000000     
   1.3125000000000000       0.62500000000000000        0.0000000000000000     
   1.3437500000000000       0.62500000000000000        0.0000000000000000     
   1.3750000000000000       0.62500000000000000        0.0000000000000000     
   1.2500000000000000       0.65625000000000000        0.0000000000000000     
   1.2812500000000000       0.65625000000000000        0.0000000000000000     
   1.3125000000000000       0.65625000000000000        0.0000000000000000     
   1.3437500000000000       0.65625000000000000        0.0000000000000000     
   1.3750000000000000       0.65625000000000000        0.0000000000000000     
   1.2500000000000000       0.68750000000000000        0.0000000000000000     
   1.2812500000000000       0.68750000000000000        0.0000000000000000     
   1.3125000000000000       0.68750000000000000        0.0000000000000000     
   1.3437500000000000       0.68750000000000000        0.0000000000000000     
   1.3750000000000000       0.68750000000000000        0.0000000000000000     
   1.2500000000000000       0.71875000000000000        0.0000000000000000     
   1.2812500000000000       0.71875000000000000        0.0000000000000000     
   1.3125000000000000       0.71875000000000000        0.0000000000000000     
   1.3437500000000000       0.71875000000000000        0.0000000000000000     
   1.3750000000000000       0.71875000000000000        0.0000000000000000     
   1.2500000000000000       0.75000000000000000        0.0000000000000000     
   1.2812500000000000       0.75000000000000000        0.0000000000000000     
   1.3125000000000000       0.75000000000000000        0.0000000000000000     
   1.3437500000000000       0.75000000000000000        0.0000000000000000     
   1.3750000000000000       0.75000000000000000        0.0000000000000000     
   1.3750000000000000       0.62500000000000000        0.0000000000000000     
   1.4062500000000000       0.62500000000000000        0.0000000000000000     
   1.4375000000000000       0.62500000000000000        0.0000000000000000     
   1.4687500000000000       0.62500000000000000        0.0000000000000000     
   1.5000000000000000       0.62500000000000000        0.0000000000000000     
   1.3750000000000000       0.65625000000000000        0.0000000000000000     
   1.4062500000000000       0.65625000000000000        0.0000000000000000     
   1.4375000000000000       0.65625000000000000        0.0000000000000000     
   1.4687500000000000       0.65625000000000000        0.0000000000000000     
   1.5000000000000000       0.65625000000000000        0.0000000000000000     
   1.3750000000000000       0.68750000000000000        0.0000000000000000     
   1.4062500000000000       0.68750000000000000        0.0000000000000000     
   1.4375000000000000       0.68750000000000000        0.0000000000000000     
   1.4687500000000000       0.68750000000000000        0.0000000000000000     
   1.5000000000000000       0.68750000000000000        0.0000000000000000     
   1.3750000000000000       0.71875000000000000        0.0000000000000000     
   1.4062500000000000       0.71875000000000000        0.0000000000000000     
   1.4375000000000000       0.71875000000000000        0.0000000000000000     
   1.4687500000000000       0.71875000000000000        0.0000000000000000     
   1.5000000000000000       0.71875000000000000        0.0000000000000000     
   1.3750000000000000       0.75000000000000000        0.0000000000000000     
   1.4062500000000000       0.75000000000000000        0.0000000000000000     
   1.4375000000000000       0.75000000000000000        0.0000000000000000     
   1.4687500000000000       0.75000000000000000        0.0000000000000000     
   1.5000000000000000       0.75000000000000000        0.0000000000000000     
  0.50000000000000000       0.75000000000000000        0.0000000000000000     
  0.53125000000000000       0.75000000000000000        0.0000000000000000     
  0.56250000000000000       0.75000000000000000        0.0000000000000000     
  0.59375000000000000       0.75000000000000000        0.0000000000000000     
  0.62500000000000000       0.75000000000000000        0.0000000000000000     
  0.50000000000000000       0.78125000000000000        0.0000000000000000     
  0.53125000000000000       0.78125000000000000        0.0000000000000000     
  0.56250000000000000       0.78125000000000000        0.0000000000000000     
  0.59375000000000000       0.78125000000000000        0.0000000000000000     
  0.62500000000000000       0.78125000000000000        0.0000000000000000     
  0.50000000000000000       0.81250000000000000        0.0000000000000000     
  0.53125000000000000       0.81250000000000000        0.0000000000000000     
  0.56250000000000000       0.81250000000000000        0.0000000000000000     
  0.59375000000000000       0.81250000000000000        0.0000000000000000     
  0.62500000000000000       0.81250000000000000        0.0000000000000000     
  0.50000000000000000       0.84375000000000000        0.0000000000000000     
  0.53125000000000000       0.84375000000000000        0.0000000000000000     
  0.56250000000000000       0.84375000000000000        0.0000000000000000     
  0.59375000000000000       0.84375000000000000        0.0000000000000000     
  0.62500000000000000       0.84375000000000000        0.0000000000000000     
  0.50000000000000000       0.87500000000000000        0.0000000000000000     
  0.53125000000000000       0.87500000000000000        0.0000000000000000     
  0.56250000000000000       0.87500000000000000        0.0000000000000000     
  0.59375000000000000       0.87500000000000000        0.0000000000000000     
  0.62500000000000000       0.87500000000000000        0.0000000000000000     
  0.62500000000000000       0.75000000000000000        0.0000000000000000     
  0.65625000000000000       0.75000000000000000        0.0000000000000000     
  0.68750000000000000       0.75000000000000000        0.0000000000000000     
  0.71875000000000000       0.75000000000000000        0.0000000000000000     
  0.75000000000000000       0.75000000000000000        0.0000000000000000     
  0.62500000000000000       0.78125000000000000        0.0000000000000000     
  0.65625000000000000       0.78125000000000000        0.0000000000000000     
  0.68750000000000000       0.78125000000000000        0.0000000000000000     
  0.71875000000000000       0.78125000000000000        0.0000000000000000     
  0.75000000000000000       0.78125000000000000        0.0000000000000000     
  0.62500000000000000       0.81250000000000000        0.0000000000000000     
  0.65625000000000000       0.81250000000000000        0.0000000000000000     
  0.68750000000000000       0.81250000000000000        0.0000000000000000     
  0.71875000000000000       0.81250000000000000        0.0000000000000000     
  0.75000000000000000       0.81250000000000000        0.0000000000000000     
  0.62500000000000000       0.84375000000000000        0.0000000000000000     
  0.65625000000000000       0.84375000000000000        0.0000000000000000     
  0.68750000000000000       0.84375000000000000        0.0000000000000000     
  0.71875000000000000       0.84375000000000000        0.0000000000000000     
  0.75000000000000000       0.84375000000000000        0.0000000000000000     
  0.62500000000000000       0.87500000000000000        0.0000000000000000     
  0.65625000000000000       0.87500000000000000        0.0000000000000000     
  0.68750000000000000       0.87500000000000000        0.0000000000000000     
  0.71875000000000000       0.87500000000000000        0.0000000000000000     
  0.75000000000000000       0.87500000000000000        0.0000000000000000     
  0.75000000000000000       0.75000000000000000        0.0000000000000000     
  0.78125000000000000       0.75000000000000000        0.0000000000000000     
  0.81250000000000000       0.75000000000000000        0.0000000000000000     
  0.84375000000000000       0.75000000000000000        0.0000000000000000     
  0.87500000000000000       0.75000000000000000        0.0000000000000000     
  0.75000000000000000       0.78125000000000000        0.0000000000000000     
  0.78125000000000000       0.78125000000000000        0.0000000000000000     
  0.81250000000000000       0.78125000000000000        0.0000000000000000     
  0.84375000000000000       0.78125000000000000        0.0000000000000000     
  0.87500000000000000       0.78125000000000000        0.0000000000000000     
  0.75000000000000000       0.81250000000000000        0.0000000000000000     
  0.78125000000000000       0.81250000000000000        0.0000000000000000     
  0.81250000000000000       0.81250000000000000        0.0000000000000000     
  0.84375000000000000       0.81250000000000000        0.0000000000000000     
  0.87500000000000000       0.81250000000000000        0.0000000000000000     
  0.75000000000000000       0.84375000000000000        0.0000000000000000     
  0.78125000000000000       0.84375000000000000        0.0000000000000000     
  0.81250000000000000       0.84375000000000000        0.0000000000000000     
  0.84375000000000000       0.84375000000000000        0.0000000000000000     
  0.87500000000000000       0.84375000000000000        0.0000000000000000     
  0.75000000000000000       0.87500000000000000        0.0000000000000000     
  0.78125000000000000       0.87500000000000000        0.0000000000000000     
  0.81250000000000000       0.87500000000000000        0.0000000000000000     
  0.84375000000000000       0.87500000000000000        0.0000000000000000     
  0.87500000000000000       0.87500000000000000        0.0000000000000000     
  0.87500000000000000       0.75000000000000000        0.0000000000000000     
  0.90625000000000000       0.75000000000000000        0.0000000000000000     
  0.93750000000000000       0.75000000000000000        0.0000000000000000     
  0.96875000000000000       0.75000000000000000        0.0000000000000000     
   1.0000000000000000       0.75000000000000000        0.0000000000000000     
  0.87500000000000000       0.78125000000000000        0.0000000000000000     
  0.90625000000000000       0.78125000000000000        0.0000000000000000     
  0.93750000000000000       0.78125000000000000        0.0000000000000000     
  0.96875000000000000       0.78125000000000000        0.0000000000000000     
   1.0000000000000000       0.78125000000000000        0.0000000000000000     
  0.87500000000000000       0.81250000000000000        0.0000000000000000     
  0.90625000000000000       0.81250000000000000        0.0000000000000000     
  0.93750000000000000       0.81250000000000000        0.0000000000000000     
  0.96875000000000000       0.81250000000000000        0.0000000000000000     
   1.0000000000000000       0.81250000000000000        0.0000000000000000     
  0.87500000000000000       0.84375000000000000        0.0000000000000000     
  0.90625000000000000       0.84375000000000000        0.0000000000000000     
  0.93750000000000000       0.84375000000000000        0.0000000000000000     
  0.96875000000000000       0.84375000000000000        0.0000000000000000     
   1.0000000000000000       0.84375000000000000        0.0000000000000000     
  0.87500000000000000       0.87500000000000000        0.0000000000000000     
  0.90625000000000000       0.87500000000000000        0.0000000000000000     
  0.93750000000000000       0.87500000000000000        0.0000000000000000     
  0.96875000000000000       0.87500000000000000        0.0000000000000000     
   1.0000000000000000       0.87500000000000000        0.0000000000000000     
   1.0000000000000000       0.75000000000000000        0.0000000000000000     
   1.0312500000000000       0.75000000000000000        0.0000000000000000     
   1.0625000000000000       0.75000000000000000        0.0000000000000000     
   1.0937500000000000       0.75000000000000000        0.0000000000000000     
   1.1250000000000000       0.75000000000000000        0.0000000000000000     
   1.0000000000000000       0.78125000000000000        0.0000000000000000     
   1.0312500000000000       0.78125000000000000        0.0000000000000000     
   1.0625000000000000       0.78125000000000000        0.0000000000000000     
   1.0937500000000000       0.78125000000000000        0.0000000000000000     
   1.1250000000000000       0.78125000000000000        0.0000000000000000     
   1.0000000000000000       0.81250000000000000        0.0000000000000000     
   1.0312500000000000       0.81250000000000000        0.0000000000000000     
   1.0625000000000000       0.81250000000000000        0.0000000000000000     
   1.0937500000000000       0.81250000000000000        0.0000000000000000     
   1.1250000000000000       0.81250000000000000        0.0000000000000000     
   1.0000000000000000       0.84375000000000000        0.0000000000000000     
   1.0312500000000000       0.84375000000000000        0.0000000000000000     
   1.0625000000000000       0.84375000000000000        0.0000000000000000     
   1.0937500000000000       0.84375000000000000        0.0000000000000000     
   1.1250000000000000       0.84375000000000000        0.0000000000000000     
   1.0000000000000000       0.87500000000000000        0.0000000000000000     
   1.0312500000000000       0.87500000000000000        0.0000000000000000     
   1.0625000000000000       0.87500000000000000        0.0000000000000000     
   1.0937500000000000       0.87500000000000000        0.0000000000000000     
   1.1250000000000000       0.87500000000000000        0.0000000000000000     
   1.1250000000000000       0.75000000000000000        0.0000000000000000     
   1.1562500000000000       0.75000000000000000        0.0000000000000000     
   1.1875000000000000       0.75000000000000000        0.0000000000000000     
   1.2187500000000000       0.75000000000000000        0.0000000000000000     
   1.2500000000000000       0.75000000000000000        0.0000000000000000     
   1.1250000000000000       0.78125000000000000        0.0000000000000000     
   1.1562500000000000       0.78125000000000000        0.0000000000000000     
   1.1875000000000000       0.78125000000000000        0.0000000000000000     
   1.2187500000000000       0.78125000000000000        0.0000000000000000     
   1.2500000000000000       0.78125000000000000        0.0000000000000000     
   1.1250000000000000       0.81250000000000000        0.0000000000000000     
   1.1562500000000000       0.81250000000000000        0.0000000000000000     
   1.1875000000000000       0.81250000000000000        0.0000000000000000     
   1.2187500000000000       0.81250000000000000        0.0000000000000000     
   1.2500000000000000       0.81250000000000000        0.0000000000000000     
   1.1250000000000000       0.84375000000000000        0.0000000000000000     
   1.1562500000000000       0.84375000000000000        0.0000000000000000     
   1.1875000000000000       0.84375000000000000        0.0000000000000000     
   1.2187500000000000       0.84375000000000000        0.0000000000000000     
   1.2500000000000000       0.84375000000000000        0.0000000000000000     
   1.1250000000000000       0.87500000000000000        0.0000000000000000     
   1.1562500000000000       0.87500000000000000        0.0000000000000000     
   1.1875000000000000       0.87500000000000000        0.0000000000000000     
   1.2187500000000000       0.87500000000000000        0.0000000000000000     
   1.2500000000000000       0.87500000000000000        0.0000000000000000     
   1.2500000000000000       0.75000000000000000        0.0000000000000000     
   1.2812500000000000       0.75000000000000000        0.0000000000000000     
   1.3125000000000000       0.75000000000000000        0.0000000000000000     
   1.3437500000000000       0.75000000000000000        0.0000000000000000     
   1.3750000000000000       0.75000000000000000        0.0000000000000000     
   1.2500000000000000       0.78125000000000000        0.0000000000000000     
   1.2812500000000000       0.78125000000000000        0.0000000000000000     
   1.3125000000000000       0.78125000000000000        0.0000000000000000     
   1.3437500000000000       0.78125000000000000        0.0000000000000000     
   1.3750000000000000       0.78125000000000000        0.0000000000000000     
   1.2500000000000000       0.81250000000000000        0.0000000000000000     
   1.2812500000000000       0.81250000000000000        0.0000000000000000     
   1.3125000000000000       0.81250000000000000        0.0000000000000000     
   1.3437500000000000       0.81250000000000000        0.0000000000000000     
   1.3750000000000000       0.81250000000000000        0.0000000000000000     
   1.2500000000000000       0.84375000000000000        0.0000000000000000     
   1.2812500000000000       0.84375000000000000        0.0000000000000000     
   1.3125000000000000       0.84375000000000000        0.0000000000000000     
   1.3437500000000000       0.84375000000000000        0.0000000000000000     
   1.3750000000000000       0.84375000000000000        0.0000000000000000     
   1.2500000000000000       0.87500000000000000        0.0000000000000000     
   1.2812500000000000       0.87500000000000000        0.0000000000000000     
   1.3125000000000000       0.87500000000000000        0.0000000000000000     
   1.3437500000000000       0.87500000000000000        0.0000000000000000     
   1.3750000000000000       0.87500000000000000        0.0000000000000000     
   1.3750000000000000       0.75000000000000000        0.0000000000000000     
   1.4062500000000000       0.75000000000000000        0.0000000000000000     
   1.4375000000000000       0.75000000000000000        0.0000000000000000     
   1.4687500000000000       0.75000000000000000        0.0000000000000000     
   1.5000000000000000       0.75000000000000000        0.0000000000000000     
   1.3750000000000000       0.78125000000000000        0.0000000000000000     
   1.4062500000000000       0.78125000000000000        0.0000000000000000     
   1.4375000000000000       0.78125000000000000        0.0000000000000000     
   1.4687500000000000       0.78125000000000000        0.0000000000000000     
   1.5000000000000000       0.78125000000000000        0.0000000000000000     
   1.3750000000000000       0.81250000000000000        0.0000000000000000     
   1.4062500000000000       0.81250000000000000        0.0000000000000000     
   1.4375000000000000       0.81250000000000000        0.0000000000000000     
   1.4687500000000000       0.81250000000000000        0.0000000000000000     
   1.5000000000000000       0.81250000000000000        0.0000000000000000     
   1.3750000000000000       0.84375000000000000        0.0000000000000000     
   1.4062500000000000       0.84375000000000000        0.0000000000000000     
   1.4375000000000000       0.84375000000000000        0.0000000000000000     
   1.4687500000000000       0.84375000000000000        0.0000000000000000     
   1.5000000000000000       0.84375000000000000        0.0000000000000000     
   1.3750000000000000       0.87500000000000000        0.0000000000000000     
   1.4062500000000000       0.87500000000000000        0.0000000000000000     
   1.4375000000000000       0.87500000000000000        0.0000000000000000     
   1.4687500000000000       0.87500000000000000        0.0000000000000000     
   1.5000000000000000       0.87500000000000000        0.0000000000000000     
  0.50000000000000000       0.87500000000000000        0.0000000000000000     
  0.53125000000000000       0.87500000000000000        0.0000000000000000     
  0.56250000000000000       0.87500000000000000        0.0000000000000000     
  0.59375000000000000       0.87500000000000000        0.0000000000000000     
  0.62500000000000000       0.87500000000000000        0.0000000000000000     
  0.50000000000000000       0.90625000000000000        0.0000000000000000     
  0.53125000000000000       0.90625000000000000        0.0000000000000000     
  0.56250000000000000       0.90625000000000000        0.0000000000000000     
  0.59375000000000000       0.90625000000000000        0.0000000000000000     
  0.62500000000000000       0.90625000000000000        0.0000000000000000     
  0.50000000000000000       0.93750000000000000        0.0000000000000000     
  0.53125000000000000       0.93750000000000000        0.0000000000000000     
  0.56250000000000000       0.93750000000000000        0.0000000000000000     
  0.59375000000000000       0.93750000000000000        0.0000000000000000     
  0.62500000000000000       0.93750000000000000        0.0000000000000000     
  0.50000000000000000       0.96875000000000000        0.0000000000000000     
  0.53125000000000000       0.96875000000000000        0.0000000000000000     
  0.56250000000000000       0.96875000000000000        0.0000000000000000     
  0.59375000000000000       0.96875000000000000        0.0000000000000000     
  0.62500000000000000       0.96875000000000000        0.0000000000000000     
  0.50000000000000000        1.0000000000000000        0.0000000000000000     
  0.53125000000000000        1.0000000000000000        0.0000000000000000     
  0.56250000000000000        1.0000000000000000        0.0000000000000000     
  0.59375000000000000        1.0000000000000000        0.0000000000000000     
  0.62500000000000000        1.0000000000000000        0.0000000000000000     
  0.62500000000000000       0.87500000000000000        0.0000000000000000     
  0.65625000000000000       0.87500000000000000        0.0000000000000000     
  0.68750000000000000       0.87500000000000000        0.0000000000000000     
  0.71875000000000000       0.87500000000000000        0.0000000000000000     
  0.75000000000000000       0.87500000000000000        0.0000000000000000     
  0.62500000000000000       0.90625000000000000        0.0000000000000000     
  0.65625000000000000       0.90625000000000000        0.0000000000000000     
  0.68750000000000000       0.90625000000000000        0.0000000000000000     
  0.71875000000000000       0.90625000000000000        0.0000000000000000     
  0.75000000000000000       0.90625000000000000        0.0000000000000000     
  0.62500000000000000       0.93750000000000000        0.0000000000000000     
  0.65625000000000000       0.93750000000000000        0.0000000000000000     
  0.68750000000000000       0.93750000000000000        0.0000000000000000     
  0.71875000000000000       0.93750000000000000        0.0000000000000000     
  0.75000000000000000       0.93750000000000000        0.0000000000000000     
  0.62500000000000000       0.96875000000000000        0.0000000000000000     
  0.65625000000000000       0.96875000000000000        0.0000000000000000     
  0.68750000000000000       0.96875000000000000        0.0000000000000000     
  0.71875000000000000       0.96875000000000000        0.0000000000000000     
  0.75000000000000000       0.96875000000000000        0.0000000000000000     
  0.62500000000000000        1.0000000000000000        0.0000000000000000     
  0.65625000000000000        1.0000000000000000        0.0000000000000000     
  0.68750000000000000        1.0000000000000000        0.0000000000000000     
  0.71875000000000000        1.0000000000000000        0.0000000000000000     
  0.75000000000000000        1.0000000000000000        0.0000000000000000     
  0.75000000000000000       0.87500000000000000        0.0000000000000000     
  0.78125000000000000       0.87500000000000000        0.0000000000000000     
  0.81250000000000000       0.87500000000000000        0.0000000000000000     
  0.84375000000000000       0.87500000000000000        0.0000000000000000     
  0.87500000000000000       0.87500000000000000        0.0000000000000000     
  0.75000000000000000       0.90625000000000000        0.0000000000000000     
  0.78125000000000000       0.90625000000000000        0.0000000000000000     
  0.81250000000000000       0.90625000000000000        0.0000000000000000     
  0.84375000000000000       0.90625000000000000        0.0000000000000000     
  0.87500000000000000       0.90625000000000000        0.0000000000000000     
  0.75000000000000000       0.93750000000000000        0.0000000000000000     
  0.78125000000000000       0.93750000000000000        0.0000000000000000     
  0.81250000000000000       0.93750000000000000        0.0000000000000000     
  0.84375000000000000       0.93750000000000000        0.0000000000000000     
  0.87500000000000000       0.93750000000000000        0.0000000000000000     
  0.75000000000000000       0.96875000000000000        0.0000000000000000     
  0.78125000000000000       0.96875000000000000        0.0000000000000000     
  0.81250000000000000       0.96875000000000000        0.0000000000000000     
  0.84375000000000000       0.96875000000000000        0.0000000000000000     
  0.87500000000000000       0.96875000000000000        0.0000000000000000     
  0.75000000000000000        1.0000000000000000        0.0000000000000000     
  0.78125000000000000        1.0000000000000000        0.0000000000000000     
  0.81250000000000000        1.0000000000000000        0.0000000000000000     
  0.84375000000000000        1.0000000000000000        0.0000000000000000     
  0.87500000000000000        1.0000000000000000        0.0000000000000000     
  0.87500000000000000       0.87500000000000000        0.0000000000000000     
  0.90625000000000000       0.87500000000000000        0.0000000000000000     
  0.93750000000000000       0.87500000000000000        0.0000000000000000     
  0.96875000000000000       0.87500000000000000        0.0000000000000000     
   1.0000000000000000       0.87500000000000000        0.0000000000000000     
  0.87500000000000000       0.90625000000000000        0.0000000000000000     
  0.90625000000000000       0.90625000000000000        0.0000000000000000     
  0.93750000000000000       0.90625000000000000        0.0000000000000000     
  0.96875000000000000       0.90625000000000000        0.0000000000000000     
   1.0000000000000000       0.90625000000000000        0.0000000000000000     
  0.87500000000000000       0.93750000000000000        0.0000000000000000     
  0.90625000000000000       0.93750000000000000        0.0000000000000000     
  0.93750000000000000       0.93750000000000000        0.0000000000000000     
  0.96875000000000000       0.93750000000000000        0.0000000000000000     
   1.0000000000000000       0.93750000000000000        0.0000000000000000     
  0.87500000000000000       0.96875000000000000        0.0000000000000000     
  0.90625000000000000       0.96875000000000000        0.0000000000000000     
  0.93750000000000000       0.96875000000000000        0.0000000000000000     
  0.96875000000000000       0.96875000000000000        0.0000000000000000     
   1.0000000000000000       0.96875000000000000        0.0000000000000000     
  0.87500000000000000        1.0000000000000000        0.0000000000000000     
  0.90625000000000000        1.0000000000000000        0.0000000000000000     
  0.93750000000000000        1.0000000000000000        0.0000000000000000     
  0.96875000000000000        1.0000000000000000        0.0000000000000000     
   1.0000000000000000        1.0000000000000000        0.0000000000000000     
   1.0000000000000000       0.87500000000000000        0.0000000000000000     
   1.0312500000000000       0.87500000000000000        0.0000000000000000     
   1.0625000000000000       0.87500000000000000        0.0000000000000000     
   1.0937500000000000       0.87500000000000000        0.0000000000000000     
   1.1250000000000000       0.87500000000000000        0.0000000000000000     
   1.0000000000000000       0.90625000000000000        0.0000000000000000     
   1.0312500000000000       0.90625000000000000        0.0000000000000000     
   1.0625000000000000       0.90625000000000000        0.0000000000000000     
   1.0937500000000000       0.90625000000000000        0.0000000000000000     
   1.1250000000000000       0.90625000000000000        0.0000000000000000     
   1.0000000000000000       0.93750000000000000        0.0000000000000000     
   1.0312500000000000       0.93750000000000000        0.0000000000000000     
   1.0625000000000000       0.93750000000000000        0.0000000000000000     
   1.0937500000000000       0.93750000000000000        0.0000000000000000     
   1.1250000000000000       0.93750000000000000        0.0000000000000000     
   1.0000000000000000       0.96875000000000000        0.0000000000000000     
   1.0312500000000000       0.96875000000000000        0.0000000000000000     
   1.0625000000000000       0.96875000000000000        0.0000000000000000     
   1.0937500000000000       0.96875000000000000        0.0000000000000000     
   1.1250000000000000       0.96875000000000000        0.0000000000000000     
   1.0000000000000000        1.0000000000000000        0.0000000000000000     
   1.0312500000000000        1.0000000000000000        0.0000000000000000     
   1.0625000000000000        1.0000000000000000        0.0000000000000000     
   1.0937500000000000        1.0000000000000000        0.0000000000000000     
   1.1250000000000000        1.0000000000000000        0.0000000000000000     
   1.1250000000000000       0.87500000000000000        0.0000000000000000     
   1.1562500000000000       0.87500000000000000        0.0000000000000000     
   1.1875000000000000       0.87500000000000000        0.0000000000000000     
   1.2187500000000000       0.87500000000000000        0.0000000000000000     
   1.2500000000000000       0.87500000000000000        0.0000000000000000     
   1.1250000000000000       0.90625000000000000        0.0000000000000000     
   1.1562500000000000       0.90625000000000000        0.0000000000000000     
   1.1875000000000000       0.90625000000000000        0.0000000000000000     
   1.2187500000000000       0.90625000000000000        0.0000000000000000     
   1.2500000000000000       0.90625000000000000        0.0000000000000000     
   1.1250000000000000       0.93750000000000000        0.0000000000000000     
   1.1562500000000000       0.93750000000000000        0.0000000000000000     
   1.1875000000000000       0.93750000000000000        0.0000000000000000     
   1.2187500000000000       0.93750000000000000        0.0000000000000000     
   1.2500000000000000       0.93750000000000000        0.0000000000000000     
   1.1250000000000000       0.96875000000000000        0.0000000000000000     
   1.1562500000000000       0.96875000000000000        0.0000000000000000     
   1.1875000000000000       0.96875000000000000        0.0000000000000000     
   1.2187500000000000       0.96875000000000000        0.0000000000000000     
   1.2500000000000000       0.96875000000000000        0.0000000000000000     
   1.1250000000000000        1.0000000000000000        0.0000000000000000     
   1.1562500000000000        1.0000000000000000        0.0000000000000000     
   1.1875000000000000        1.0000000000000000        0.0000000000000000     
   1.2187500000000000        1.0000000000000000        0.0000000000000000     
   1.2500000000000000        1.0000000000000000        0.0000000000000000     
   1.2500000000000000       0.87500000000000000        0.0000000000000000     
   1.2812500000000000       0.87500000000000000        0.0000000000000000     
   1.3125000000000000       0.87500000000000000        0.0000000000000000     
   1.3437500000000000       0.87500000000000000        0.0000000000000000     
   1.3750000000000000       0.87500000000000000        0.0000000000000000     
   1.2500000000000000       0.90625000000000000        0.0000000000000000     
   1.2812500000000000       0.90625000000000000        0.0000000000000000     
   1.3125000000000000       0.90625000000000000        0.0000000000000000     
   1.3437500000000000       0.90625000000000000        0.0000000000000000     
   1.3750000000000000       0.90625000000000000        0.0000000000000000     
   1.2500000000000000       0.93750000000000000        0.0000000000000000     
   1.2812500000000000       0.93750000000000000        0.0000000000000000     
   1.3125000000000000       0.93750000000000000        0.0000000000000000     
   1.3437500000000000       0.93750000000000000        0.0000000000000000     
   1.3750000000000000       0.93750000000000000        0.0000000000000000     
   1.2500000000000000       0.96875000000000000        0.0000000000000000     
   1.2812500000000000       0.96875000000000000        0.0000000000000000     
   1.3125000000000000       0.96875000000000000        0.0000000000000000     
   1.3437500000000000       0.96875000000000000        0.0000000000000000     
   1.3750000000000000       0.96875000000000000        0.0000000000000000     
   1.2500000000000000        1.0000000000000000        0.0000000000000000     
   1.2812500000000000        1.0000000000000000        0.0000000000000000     
   1.3125000000000000        1.0000000000000000        0.0000000000000000     
   1.3437500000000000        1.0000000000000000        0.0000000000000000     
   1.3750000000000000        1.0000000000000000        0.0000000000000000     
   1.3750000000000000       0.87500000000000000        0.0000000000000000     
   1.4062500000000000       0.87500000000000000        0.0000000000000000     
   1.4375000000000000       0.87500000000000000        0.0000000000000000     
   1.4687500000000000       0.87500000000000000        0.0000000000000000     
   1.5000000000000000       0.87500000000000000        0.0000000000000000     
   1.3750000000000000       0.90625000000000000        0.0000000000000000     
   1.4062500000000000       0.90625000000000000        0.0000000000000000     
   1.4375000000000000       0.90625000000000000        0.0000000000000000     
   1.4687500000000000       0.90625000000000000        0.0000000000000000     
   1.5000000000000000       0.90625000000000000        0.0000000000000000     
   1.3750000000000000       0.93750000000000000        0.0000000000000000     
   1.4062500000000000       0.93750000000000000        0.0000000000000000     
   1.4375000000000000       0.93750000000000000        0.0000000000000000     
   1.4687500000000000       0.93750000000000000        0.0000000000000000     
   1.5000000000000000       0.93750000000000000        0.0000000000000000     
   1.3750000000000000       0.96875000000000000        0.0000000000000000     
   1.4062500000000000       0.96875000000000000        0.0000000000000000     
   1.4375000000000000       0.96875000000000000        0.0000000000000000     
   1.4687500000000000       0.96875000000000000        0.0000000000000000     
   1.5000000000000000       0.96875000000000000        0.0000000000000000     
   1.3750000000000000        1.0000000000000000        0.0000000000000000     
   1.4062500000000000        1.0000000000000000        0.0000000000000000     
   1.4375000000000000        1.0000000000000000        0.0000000000000000     
   1.4687500000000000        1.0000000000000000        0.0000000000000000     
   1.5000000000000000        1.0000000000000000        0.0000000000000000     
 </DataArray>
 </Points>
 <Cells>
 <DataArray  type="Int32"  Name="connectivity"  format="ascii">
           0           1           6           5
           1           2           7           6
           2           3           8           7
           3           4           9           8
           5           6          11          10
           6           7          12          11
           7           8          13          12
           8           9          14          13
          10          11          16          15
          11          12          17          16
          12          13          18          17
          13          14          19          18
          15          16          21          20
          16          17          22          21
          17          18          23          22
          18          19          24          23
          25          26          31          30
          26          27          32          31
          27          28          33          32
          28          29          34          33
          30          31          36          35
          31          32          37          36
          32          33          38          37
          33          34          39          38
          35          36          41          40
          36          37          42          41
          37          38          43          42
          38          39          44          43
          40          41          46          45
          41          42          47          46
          42          43          48          47
          43          44          49          48
          50          51          56          55
          51          52          57          56
          52          53          58          57
          53          54          59          58
          55          56          61          60
          56          57          62          61
          57          58          63          62
          58          59          64          63
          60          61          66          65
          61          62          67          66
          62          63          68          67
          63          64          69          68
          65          66          71          70
          66          67          72          71
          67          68          73          72
          68          69          74          73
          75          76          81          80
          76          77          82          81
          77          78          83          82
          78          79          84          83
          80          81          86          85
          81          82          87          86
          82          83          88          87
          83          84          89          88
          85          86          91          90
          86          87          92          91
          87          88          93          92
          88          89          94          93
          90          91          96          95
          91          92          97          96
          92          93          98          97
          93          94          99          98
         100         101         106         105
         101         102         107         106
         102         103         108         107
         103         104         109         108
         105         106         111         110
         106         107         112         111
         107         108         113         112
         108         109         114         113
         110         111         116         115
         111         112         117         116
         112         113         118         117
         113         114         119         118
         115         116         121         120
         116         117         122         121
         117         118         123         122
         118         119         124         123
         125         126         131         130
         126         127         132         131
         127         128         133         132
         128         129         134         133
         130         131         136         135
         131         132         137         136
         132         133         138         137
         133         134         139         138
         135         136         141         140
         136         137         142         141
         137         138         143         142
         138         139         144         143
         140         141         146         145
         141         142         147         146
         142         143         148         147
         143         144         149         148
         150         151         156         155
         151         152         157         156
         152         153         158         157
         153         154         159         158
         155         156         161         160
         156         157         162         161
         157         158         163         162
         158         159         164         163
         160         161         166         165
         161         162         167         166
         162         163         168         167
         163         164         169         168
         165         166         171         170
         166         167         172         171
         167         168         173         172
         168         169         174         173
         175         176         181         180
         176         177         182         181
         177         178         183         182
         178         179         184         183
         180         181         186         185
         181         182         187         186
         182         183         188         187
         183         184         189         188
         185         186         191         190
         186         187         192         191
         187         188         193         192
         188         189         194         193
         190         191         196         195
         191         192         197         196
         192         193         198         197
         193         194         199         198
         200         201         206         205
         201         202         207         206
         202         203         208         207
         203         204         209         208
         205         206         211         210
         206         207         212         211
         207         208         213         212
         208         209         214         213
         210         211         216         215
         211         212         217         216
         212         213         218         217
         213         214         219         218
         215         216         221         220
         216         217         222         221
         217         218         223         222
         218         219         224         223
         225         226         231         230
         226         227         232         231
         227         228         233         232
         228         229         234         233
         230         231         236         235
         231         232         237         236
         232         233         238         237
         233         234         239         238
         235         236         241         240
         236         237         242         241
         237         238         243         242
         238         239         244         243
         240         241         246         245
         241         242         247         246
         242         243         248         247
         243         244         249         248
         250         251         256         255
         251         252         257         256
         252         253         258         257
         253         254         259         258
         255         256         261         260
         256         257         262         261
         257         258         263         262
         258         259         264         263
         260         261         266         265
         261         262         267         266
         262         263         268         267
         263         264         269         268
         265         266         271         270
         266         267         272         271
         267         268         273         272
         268         269         274         273
         275         276         281         280
         276         277         282         281
         277         278         283         282
         278         279         284         283
         280         281         286         285
         281         282         287         286
         282         283         288         287
         283         284         289         288
         285         286         291         290
         286         287         292         291
         287         288         293         292
         288         289         294         293
         290         291         296         295
         291         292         297         296
         292         293         298         297
         293         294         299         298
         300         301         306         305
         301         302         307         306
         302         303         308         307
         303         304         309         308
         305         306         311         310
         306         307         312         311
         307         308         313         312
         308         309         314         313
         310         311         316         315
         311         312         317         316
         312         313         318         317
         313         314         319         318
         315         316         321         320
         316         317         322         321
         317         318         323         322
         318         319         324         323
         325         326         331         330
         326         327         332         331
         327         328         333         332
         328         329         334         333
         330         331         336         335
         331         332         337         336
         332         333         338         337
         333         334         339         338
         335         336         341         340
         336         337         342         341
         337         338         343         342
         338         339         344         343
         340         341         346         345
         341         342         347         346
         342         343         348         347
         343         344         349         348
         350         351         356         355
         351         352         357         356
         352         353         358         357
         353         354         359         358
         355         356         361         360
         356         357         362         361
         357         358         363         362
         358         359         364         363
         360         361         366         365
         361         362         367         366
         362         363         368         367
         363         364         369         368
         365         366         371         370
         366         367         372         371
         367         368         373         372
         368         369         374         373
         375         376         381         380
         376         377         382         381
         377         378         383         382
         378         379         384         383
         380         381         386         385
         381         382         387         386
         382         383         388         387
         383         384         389         388
         385         386         391         390
         386         387         392         391
         387         388         393         392
         388         389         394         393
         390         391         396         395
         391         392         397         396
         392         393         398         397
         393         394         399         398
         400         401         406         405
         401         402         407         406
         402         403         408         407
         403         404         409         408
         405         406         411         410
         406         407         412         411
         407         408         413         412
         408         409         414         413
         410         411         416         415
         411         412         417         416
         412         413         418         417
         413         414         419         418
         415         416         421         420
         416         417         422         421
         417         418         423         422
         418         419         424         423
         425         426         431         430
         426         427         432         431
         427         428         433         432
         428         429         434         433
         430         431         436         435
         431         432         437         436
         432         433         438         437
         433         434         439         438
         435         436         441         440
         436         437         442         441
         437         438         443         442
         438         439         444         443
         440         441         446         445
         441         442         447         446
         442         443         448         447
         443         444         449         448
         450         451         456         455
         451         452         457         456
         452         453         458         457
         453         454         459         458
         455         456         461         460
         456         457         462         461
         457         458         463         462
         458         459         464         463
         460         461         466         465
         461         462         467         466
         462         463         468         467
         463         464         469         468
         465         466         471         470
         466         467         472         471
         467         468         473         472
         468         469         474         473
         475         476         481         480
         476         477         482         481
         477         478         483         482
         478         479         484         483
         480         481         486         485
         481         482         487         486
         482         483         488         487
         483         484         489         488
         485         486         491         490
         486         487         492         491
         487         488         493         492
         488         489         494         493
         490         491         496         495
         491         492         497         496
         492         493         498         497
         493         494         499         498
         500         501         506         505
         501         502         507         506
         502         503         508         507
         503         504         509         508
         505         506         511         510
         506         507         512         511
         507         508         513         512
         508         509         514         513
         510         511         516         515
         511         512         517         516
         512         513         518         517
         513         514         519         518
         515         516         521         520
         516         517         522         521
         517         518         523         522
         518         519         524         523
         525         526         531         530
         526         527         532         531
         527         528         533         532
         528         529         534         533
         530         531         536         535
         531         532         537         536
         532         533         538         537
         533         534         539         538
         535         536         541         540
         536         537         542         541
         537         538         543         542
         538         539         544         543
         540         541         546         545
         541         542         547         546
         542         543         548         547
         543         544         549         548
         550         551         556         555
         551         552         557         556
         552         553         558         557
         553         554         559         558
         555         556         561         560
         556         557         562         561
         557         558         563         562
         558         559         564         563
         560         561         566         565
         561         562         567         566
         562         563         568         567
         563         564         569         568
         565         566         571         570
         566         567         572         571
         567         568         573         572
         568         569         574         573
         575         576         581         580
         576         577         582         581
         577         578         583         582
         578         579         584         583
         580         581         586         585
         581         582         587         586
         582         583         588         587
         583         584         589         588
         585         586         591         590
         586         587         592         591
         587         588         593         592
         588         589         594         593
         590         591         596         595
         591         592         597         596
         592         593         598         597
         593         594         599         598
         600         601         606         605
         601         602         607         606
         602         603         608         607
         603         604         609         608
         605         606         611         610
         606         607         612         611
         607         608         613         612
         608         609         614         613
         610         611         616         615
         611         612         617         616
         612         613         618         617
         613         614         619         618
         615         616         621         620
         616         617         622         621
         617         618         623         622
         618         619         624         623
         625         626         631         630
         626         627         632         631
         627         628         633         632
         628         629         634         633
         630         631         636         635
         631         632         637         636
         632         633         638         637
         633         634         639         638
         635         636         641         640
         636         637         642         641
         637         638         643         642
         638         639         644         643
         640         641         646         645
         641         642         647         646
         642         643         648         647
         643         644         649         648
         650         651         656         655
         651         652         657         656
         652         653         658         657
         653         654         659         658
         655         656         661         660
         656         657         662         661
         657         658         663         662
         658         659         664         663
         660         661         666         665
         661         662         667         666
         662         663         668         667
         663         664         669         668
         665         666         671         670
         666         667         672         671
         667         668         673         672
         668         669         674         673
         675         676         681         680
         676         677         682         681
         677         678         683         682
         678         679         684         683
         680         681         686         685
         681         682         687         686
         682         683         688         687
         683         684         689         688
         685         686         691         690
         686         687         692         691
         687         688         693         692
         688         689         694         693
         690         691         696         695
         691         692         697         696
         692         693         698         697
         693         694         699         698
         700         701         706         705
         701         702         707         706
         702         703         708         707
         703         704         709         708
         705         706         711         710
         706         707         712         711
         707         708         713         712
         708         709         714         713
         710         711         716         715
         711         712         717         716
         712         713         718         717
         713         714         719         718
         715         716         721         720
         716         717         722         721
         717         718         723         722
         718         719         724         723
         725         726         731         730
         726         727         732         731
         727         728         733         732
         728         729         734         733
         730         731         736         735
         731         732         737         736
         732         733         738         737
         733         734         739         738
         735         736         741         740
         736         737         742         741
         737         738         743         742
         738         739         744         743
         740         741         746         745
         741         742         747         746
         742         743         748         747
         743         744         749         748
         750         751         756         755
         751         752         757         756
         752         753         758         757
         753         754         759         758
         755         756         761         760
         756         757         762         761
         757         758         763         762
         758         759         764         763
         760         761         766         765
         761         762         767         766
         762         763         768         767
         763         764         769         768
         765         766         771         770
         766         767         772         771
         767         768         773         772
         768         769         774         773
         775         776         781         780
         776         777         782         781
         777         778         783         782
         778         779         784         783
         780         781         786         785
         781         782         787         786
         782         783         788         787
         783         784         789         788
         785         786         791         790
         786         787         792         791
         787         788         793         792
         788         789         794         793
         790         791         796         795
         791         792         797         796
         792         793         798         797
         793         794         799         798
         800         801         806         805
         801         802         807         806
         802         803         808         807
         803         804         809         808
         805         806         811         810
         806         807         812         811
         807         808         813         812
         808         809         814         813
         810         811         816         815
         811         812         817         816
         812         813         818         817
         813         814         819         818
         815         816         821         820
         816         817         822         821
         817         818         823         822
         818         819         824         823
         825         826         831         830
         826         827         832         831
         827         828         833         832
         828         829         834         833
         830         831         836         835
         831         832         837         836
         832         833         838         837
         833         834         839         838
         835         836         841         840
         836         837         842         841
         837         838         843         842
         838         839         844         843
         840         841         846         845
         841         842         847         846
         842         843         848         847
         843         844         849         848
         850         851         856         855
         851         852         857         856
         852         853         858         857
         853         854         859         858
         855         856         861         860
         856         857         862         861
         857         858         863         862
         858         859         864         863
         860         861         866         865
         861         862         867         866
         862         863         868         867
         863         864         869         868
         865         866         871         870
         866         867         872         871
         867         868         873         872
         868         869         874         873
         875         876         881         880
         876         877         882         881
         877         878         883         882
         878         879         884         883
         880         881         886         885
         881         882         887         886
         882         883         888         887
         883         884         889         888
         885         886         891         890
         886         887         892         891
         887         888         893         892
         888         889         894         893
         890         891         896         895
         891         892         897         896
         892         893         898         897
         893         894         899         898
         900         901         906         905
         901         902         907         906
         902         903         908         907
         903         904         909         908
         905         906         911         910
         906         907         912         911
         907         908         913         912
         908         909         914         913
         910         911         916         915
         911         912         917         916
         912         913         918         917
         913         914         919         918
         915         916         921         920
         916         917         922         921
         917         918         923         922
         918         919         924         923
         925         926         931         930
         926         927         932         931
         927         928         933         932
         928         929         934         933
         930         931         936         935
         931         932         937         936
         932         933         938         937
         933         934         939         938
         935         936         941         940
         936         937         942         941
         937         938         943         942
         938         939         944         943
         940         941         946         945
         941         942         947         946
         942         943         948         947
         943         944         949         948
         950         951         956         955
         951         952         957         956
         952         953         958         957
         953         954         959         958
         955         956         961         960
         956         957         962         961
         957         958         963         962
         958         959         964         963
         960         961         966         965
         961         962         967         966
         962         963         968         967
         963         964         969         968
         965         966         971         970
         966         967         972         971
         967         968         973         972
         968         969         974         973
         975         976         981         980
         976         977         982         981
         977         978         983         982
         978         979         984         983
         980         981         986         985
         981         982         987         986
         982         983         988         987
         983         984         989         988
         985         986         991         990
         986         987         992         991
         987         988         993         992
         988         989         994         993
         990         991         996         995
         991         992         997         996
         992         993         998         997
         993         994         999         998
        1000        1001        1006        1005
        1001        1002        1007        1006
        1002        1003        1008        1007
        1003        1004        1009        1008
        1005        1006        1011        1010
        1006        1007        1012        1011
        1007        1008        1013        1012
        1008        1009        1014        1013
        1010        1011        1016        1015
        1011        1012        1017        1016
        1012        1013        1018        1017
        1013        1014        1019        1018
        1015        1016        1021        1020
        1016        1017        1022        1021
        1017        1018        1023        1022
        1018        1019        1024        1023
        1025        1026        1031        1030
        1026        1027        1032        1031
        1027        1028        1033        1032
        1028        1029        1034        1033
        1030        1031        1036        1035
        1031        1032        1037        1036
        1032        1033        1038        1037
        1033        1034        1039        1038
        1035        1036        1041        1040
        1036        1037        1042        1041
        1037        1038        1043        1042
        1038        1039        1044        1043
        1040        1041        1046        1045
        1041        1042        1047        1046
        1042        1043        1048        1047
        1043        1044        1049        1048
        1050        1051        1056        1055
        1051        1052        1057        1056
        1052        1053        1058        1057
        1053        1054        1059        1058
        1055        1056        1061        1060
        1056        1057        1062        1061
        1057        1058        1063        1062
        1058        1059        1064        1063
        1060        1061        1066        1065
        1061        1062        1067        1066
        1062        1063        1068        1067
        1063        1064        1069        1068
        1065        1066        1071        1070
        1066        1067        1072        1071
        1067        1068        1073        1072
        1068        1069        1074        1073
        1075        1076        1081        1080
        1076        1077        1082        1081
        1077        1078        1083        1082
        1078        1079        1084        1083
        1080        1081        1086        1085
        1081        1082        1087        1086
        1082        1083        1088        1087
        1083        1084        1089        1088
        1085        1086        1091        1090
        1086        1087        1092        1091
        1087        1088        1093        1092
        1088        1089        1094        1093
        1090        1091        1096        1095
        1091        1092        1097        1096
        1092        1093        1098        1097
        1093        1094        1099        1098
        1100        1101        1106        1105
        1101        1102        1107        1106
        1102        1103        1108        1107
        1103        1104        1109        1108
        1105        1106        1111        1110
        1106        1107        1112        1111
        1107        1108        1113        1112
        1108        1109        1114        1113
        1110        1111        1116        1115
        1111        1112        1117        1116
        1112        1113        1118        1117
        1113        1114        1119        1118
        1115        1116        1121        1120
        1116        1117        1122        1121
        1117        1118        1123        1122
        1118        1119        1124        1123
        1125        1126        1131        1130
        1126        1127        1132        1131
        1127        1128        1133        1132
        1128        1129        1134        1133
        1130        1131        1136        1135
        1131        1132        1137        1136
        1132        1133        1138        1137
        1133        1134        1139        1138
        1135        1136        1141        1140
        1136        1137        1142        1141
        1137        1138        1143        1142
        1138        1139        1144        1143
        1140        1141        1146        1145
        1141        1142        1147        1146
        1142        1143        1148        1147
        1143        1144        1149        1148
        1150        1151        1156        1155
        1151        1152        1157        1156
        1152        1153        1158        1157
        1153        1154        1159        1158
        1155        1156        1161        1160
        1156        1157        1162        1161
        1157        1158        1163        1162
        1158        1159        1164        1163
        1160        1161        1166        1165
        1161        1162        1167        1166
        1162        1163        1168        1167
        1163        1164        1169        1168
        1165        1166        1171        1170
        1166        1167        1172        1171
        1167        1168        1173        1172
        1168        1169        1174        1173
        1175        1176        1181        1180
        1176        1177        1182        1181
        1177        1178        1183        1182
        1178        1179        1184        1183
        1180        1181        1186        1185
        1181        1182        1187        1186
        1182        1183        1188        1187
        1183        1184        1189        1188
        1185        1186        1191        1190
        1186        1187        1192        1191
        1187        1188        1193        1192
        1188        1189        1194        1193
        1190        1191        1196        1195
        1191        1192        1197        1196
        1192        1193        1198        1197
        1193        1194        1199        1198
        1200        1201        1206        1205
        1201        1202        1207        1206
        1202        1203        1208        1207
        1203        1204        1209        1208
        1205        1206        1211        1210
        1206        1207        1212        1211
        1207        1208        1213        1212
        1208        1209        1214        1213
        1210        1211        1216        1215
        1211        1212        1217        1216
        1212        1213        1218        1217
        1213        1214        1219        1218
        1215        1216        1221        1220
        1216        1217        1222        1221
        1217        1218        1223        1222
        1218        1219        1224        1223
        1225        1226        1231        1230
        1226        1227        1232        1231
        1227        1228        1233        1232
        1228        1229        1234        1233
        1230        1231        1236        1235
        1231        1232        1237        1236
        1232        1233        1238        1237
        1233        1234        1239        1238
        1235        1236        1241        1240
        1236        1237        1242        1241
        1237        1238        1243        1242
        1238        1239        1244        1243
        1240        1241        1246        1245
        1241        1242        1247        1246
        1242        1243        1248        1247
        1243        1244        1249        1248
        1250        1251        1256        1255
        1251        1252        1257        1256
        1252        1253        1258        1257
        1253        1254        1259        1258
        1255        1256        1261        1260
        1256        1257        1262        1261
        1257        1258        1263        1262
        1258        1259        1264        1263
        1260        1261        1266        1265
        1261        1262        1267        1266
        1262        1263        1268        1267
        1263        1264        1269        1268
        1265        1266        1271        1270
        1266        1267        1272        1271
        1267        1268        1273        1272
        1268        1269        1274        1273
        1275        1276        1281        1280
        1276        1277        1282        1281
        1277        1278        1283        1282
        1278        1279        1284        1283
        1280        1281        1286        1285
        1281        1282        1287        1286
        1282        1283        1288        1287
        1283        1284        1289        1288
        1285        1286        1291        1290
        1286        1287        1292        1291
        1287        1288        1293        1292
        1288        1289        1294        1293
        1290        1291        1296        1295
        1291        1292        1297        1296
        1292        1293        1298        1297
        1293        1294        1299        1298
        1300        1301        1306        1305
        1301        1302        1307        1306
        1302        1303        1308        1307
        1303        1304        1309        1308
        1305        1306        1311        1310
        1306        1307        1312        1311
        1307        1308        1313        1312
        1308        1309        1314        1313
        1310        1311        1316        1315
        1311        1312        1317        1316
        1312        1313        1318        1317
        1313        1314        1319        1318
        1315        1316        1321        1320
        1316        1317        1322        1321
        1317        1318        1323        1322
        1318        1319        1324        1323
        1325        1326        1331        1330
        1326        1327        1332        1331
        1327        1328        1333        1332
        1328        1329        1334        1333
        1330        1331        1336        1335
        1331        1332        1337        1336
        1332        1333        1338        1337
        1333        1334        1339        1338
        1335        1336        1341        1340
        1336        1337        1342        1341
        1337        1338        1343        1342
        1338        1339        1344        1343
        1340        1341        1346        1345
        1341        1342        1347        1346
        1342        1343        1348        1347
        1343        1344        1349        1348
        1350        1351        1356        1355
        1351        1352        1357        1356
        1352        1353        1358        1357
        1353        1354        1359        1358
        1355        1356        1361        1360
        1356        1357        1362        1361
        1357        1358        1363        1362
        1358        1359        1364        1363
        1360        1361        1366        1365
        1361        1362        1367        1366
        1362        1363        1368        1367
        1363        1364        1369        1368
        1365        1366        1371        1370
        1366        1367        1372        1371
        1367        1368        1373        1372
        1368        1369        1374        1373
        1375        1376        1381        1380
        1376        1377        1382        1381
        1377        1378        1383        1382
        1378        1379        1384        1383
        1380        1381        1386        1385
        1381        1382        1387        1386
        1382        1383        1388        1387
        1383        1384        1389        1388
        1385        1386        1391        1390
        1386        1387        1392        1391
        1387        1388        1393        1392
        1388        1389        1394        1393
        1390        1391        1396        1395
        1391        1392        1397        1396
        1392        1393        1398        1397
        1393        1394        1399        1398
        1400        1401        1406        1405
        1401        1402        1407        1406
        1402        1403        1408        1407
        1403        1404        1409        1408
        1405        1406        1411        1410
        1406        1407        1412        1411
        1407        1408        1413        1412
        1408        1409        1414        1413
        1410        1411        1416        1415
        1411        1412        1417        1416
        1412        1413        1418        1417
        1413        1414        1419        1418
        1415        1416        1421        1420
        1416        1417        1422        1421
        1417        1418        1423        1422
        1418        1419        1424        1423
        1425        1426        1431        1430
        1426        1427        1432        1431
        1427        1428        1433        1432
        1428        1429        1434        1433
        1430        1431        1436        1435
        1431        1432        1437        1436
        1432        1433        1438        1437
        1433        1434        1439        1438
        1435        1436        1441        1440
        1436        1437        1442        1441
        1437        1438        1443        1442
        1438        1439        1444        1443
        1440        1441        1446        1445
        1441        1442        1447        1446
        1442        1443        1448        1447
        1443        1444        1449        1448
        1450        1451        1456        1455
        1451        1452        1457        1456
        1452        1453        1458        1457
        1453        1454        1459        1458
        1455        1456        1461        1460
        1456        1457        1462        1461
        1457        1458        1463        1462
        1458        1459        1464        1463
        1460        1461        1466        1465
        1461        1462        1467        1466
        1462        1463        1468        1467
        1463        1464        1469        1468
        1465        1466        1471        1470
        1466        1467        1472        1471
        1467        1468        1473        1472
        1468        1469        1474        1473
        1475        1476        1481        1480
        1476        1477        1482        1481
        1477        1478        1483        1482
        1478        1479        1484        1483
        1480        1481        1486        1485
        1481        1482        1487        1486
        1482        1483        1488        1487
        1483        1484        1489        1488
        1485        1486        1491        1490
        1486        1487        1492        1491
        1487        1488        1493        1492
        1488        1489        1494        1493
        1490        1491        1496        1495
        1491        1492        1497        1496
        1492        1493        1498        1497
        1493        1494        1499        1498
        1500        1501        1506        1505
        1501        1502        1507        1506
        1502        1503        1508        1507
        1503        1504        1509        1508
        1505        1506        1511        1510
        1506        1507        1512        1511
        1507        1508        1513        1512
        1508        1509        1514        1513
        1510        1511        1516        1515
        1511        1512        1517        1516
        1512        1513        1518        1517
        1513        1514        1519        1518
        1515        1516        1521        1520
        1516        1517        1522        1521
        1517        1518        1523        1522
        1518        1519        1524        1523
        1525        1526        1531        1530
        1526        1527        1532        1531
        1527        1528        1533        1532
        1528        1529        1534        1533
        1530        1531        1536        1535
        1531        1532        1537        1536
        1532        1533        1538        1537
        1533        1534        1539        1538
        1535        1536        1541        1540
        1536        1537        1542        1541
        1537        1538        1543        1542
        1538        1539        1544        1543
        1540        1541        1546        1545
        1541        1542        1547        1546
        1542        1543        1548        1547
        1543        1544        1549        1548
        1550        1551        1556        1555
        1551        1552        1557        1556
        1552        1553        1558        1557
        1553        1554        1559        1558
        1555        1556        1561        1560
        1556        1557        1562        1561
        1557        1558        1563        1562
        1558        1559        1564        1563
        1560        1561        1566        1565
        1561        1562        1567        1566
        1562        1563        1568        1567
        1563        1564        1569        1568
        1565        1566        1571        1570
        1566        1567        1572        1571
        1567        1568        1573        1572
        1568        1569        1574        1573
        1575        1576        1581        1580
        1576        1577        1582        1581
        1577        1578        1583        1582
        1578        1579        1584        1583
        1580        1581        1586        1585
        1581        1582        1587        1586
        1582        1583        1588        1587
        1583        1584        1589        1588
        1585        1586        1591        1590
        1586        1587        1592        1591
        1587        1588        1593        1592
        1588        1589        1594        1593
        1590        1591        1596        1595
        1591        1592        1597        1596
        1592        1593        1598        1597
        1593        1594        1599        1598
 </DataArray>
 <DataArray  type="Int32"  Name="offsets"  format="ascii"> 
           4
           8
          12
          16
          20
          24
          28
          32
          36
          40
          44
          48
          52
          56
          60
          64
          68
          72
          76
          80
          84
          88
          92
          96
         100
         104
         108
         112
         116
         120
         124
         128
         132
         136
         140
         144
         148
         152
         156
         160
         164
         168
         172
         176
         180
         184
         188
         192
         196
         200
         204
         208
         212
         216
         220
         224
         228
         232
         236
         240
         244
         248
         252
         256
         260
         264
         268
         272
         276
         280
         284
         288
         292
         296
         300
         304
         308
         312
         316
         320
         324
         328
         332
         336
         340
         344
         348
         352
         356
         360
         364
         368
         372
         376
         380
         384
         388
         392
         396
         400
         404
         408
         412
         416
         420
         424
         428
         432
         436
         440
         444
         448
         452
         456
         460
         464
         468
         472
         476
         480
         484
         488
         492
         496
         500
         504
         508
         512
         516
         520
         524
         528
         532
         536
         540
         544
         548
         552
         556
         560
         564
         568
         572
         576
         580
         584
         588
         592
         596
         600
         604
         608
         612
         616
         620
         624
         628
         632
         636
         640
         644
         648
         652
         656
         660
         664
         668
         672
         676
         680
         684
         688
         692
         696
         700
         704
         708
         712
         716
         720
         724
         728
         732
         736
         740
         744
         748
         752
         756
         760
         764
         768
         772
         776
         780
         784
         788
         792
         796
         800
         804
         808
         812
         816
         820
         824
         828
         832
         836
         840
         844
         848
         852
         856
         860
         864
         868
         872
         876
         880
         884
         888
         892
         896
         900
         904
         908
         912
         916
         920
         924
         928
         932
         936
         940
         944
         948
         952
         956
         960
         964
         968
         972
         976
         980
         984
         988
         992
         996
        1000
        1004
        1008
        1012
        1016
        1020
        1024
        1028
        1032
        1036
        1040
        1044
        1048
        1052
        1056
        1060
        1064
        1068
        1072
        1076
        1080
        1084
        1088
        1092
        1096
        1100
        1104
        1108
        1112
        1116
        1120
        1124
        1128
        1132
        1136
        1140
        1144
        1148
        1152
        1156
        1160
        1164
        1168
        1172
        1176
        1180
        1184
        1188
        1192
        1196
        1200
        1204
        1208
        1212
        1216
        1220
        1224
        1228
        1232
        1236
        1240
        1244
        1248
        1252
        1256
        1260
        1264
        1268
        1272
        1276
        1280
        1284
        1288
        1292
        1296
        1300
        1304
        1308
        1312
        1316
        1320
        1324
        1328
        1332
        1336
        1340
        1344
        1348
        1352
        1356
        1360
        1364
        1368
        1372
        1376
        1380
        1384
        1388
        1392
        1396
        1400
        1404
        1408
        1412
        1416
        1420
        1424
        1428
        1432
        1436
        1440
        1444
        1448
        1452
        1456
        1460
        1464
        1468
        1472
        1476
        1480
        1484
        1488
        1492
        1496
        1500
        1504
        1508
        1512
        1516
        1520
        1524
        1528
        1532
        1536
        1540
        1544
        1548
        1552
        1556
        1560
        1564
        1568
        1572
        1576
        1580
        1584
        1588
        1592
        1596
        1600
        1604
        1608
        1612
        1616
        1620
        1624
        1628
        1632
        1636
        1640
        1644
        1648
        1652
        1656
        1660
        1664
        1668
        1672
        1676
        1680
        1684
        1688
        1692
        1696
        1700
        1704
        1708
        1712
        1716
        1720
        1724
        1728
        1732
        1736
        1740
        1744
        1748
        1752
        1756
        1760
        1764
        1768
        1772
        1776
        1780
        1784
        1788
        1792
        1796
        1800
        1804
        1808
        1812
        1816
        1820
        1824
        1828
        1832
        1836
        1840
        1844
        1848
        1852
        1856
        1860
        1864
        1868
        1872
        1876
        1880
        1884
        1888
        1892
        1896
        1900
        1904
        1908
        1912
        1916
        1920
        1924
        1928
        1932
        1936
        1940
        1944
        1948
        1952
        1956
        1960
        1964
        1968
        1972
        1976
        1980
        1984
        1988
        1992
        1996
        2000
        2004
        2008
        2012
        2016
        2020
        2024
        2028
        2032
        2036
        2040
        2044
        2048
        2052
        2056
        2060
        2064
        2068
        2072
        2076
        2080
        2084
        2088
        2092
        2096
        2100
        2104
        2108
        2112
        2116
        2120
        2124
        2128
        2132
        2136
        2140
        2144
        2148
        2152
        2156
        2160
        2164
        2168
        2172
        2176
        2180
        2184
        2188
        2192
        2196
        2200
        2204
        2208
        2212
        2216
        2220
        2224
        2228
        2232
        2236
        2240
        2244
        2248
        2252
        2256
        2260
        2264
        2268
        2272
        2276
        2280
        2284
        2288
        2292
        2296
        2300
        2304
        2308
        2312
        2316
        2320
        2324
        2328
        2332
        2336
        2340
        2344
        2348
        2352
        2356
        2360
        2364
        2368
        2372
        2376
        2380
        2384
        2388
        2392
        2396
        2400
        2404
        2408
        2412
        2416
        2420
        2424
        2428
        2432
        2436
        2440
        2444
        2448
        2452
        2456
        2460
        2464
        2468
        2472
        2476
        2480
        2484
        2488
        2492
        2496
        2500
        2504
        2508
        2512
        2516
        2520
        2524
        2528
        2532
        2536
        2540
        2544
        2548
        2552
        2556
        2560
        2564
        2568
        2572
        2576
        2580
        2584
        2588
        2592
        2596
        2600
        2604
        2608
        2612
        2616
        2620
        2624
        2628
        2632
        2636
        2640
        2644
        2648
        2652
        2656
        2660
        2664
        2668
        2672
        2676
        2680
        2684
        2688
        2692
        2696
        2700
        2704
        2708
        2712
        2716
        2720
        2724
        2728
        2732
        2736
        2740
        2744
        2748
        2752
        2756
        2760
        2764
        2768
        2772
        2776
        2780
        2784
        2788
        2792
        2796
        2800
        2804
        2808
        2812
        2816
        2820
        2824
        2828
        2832
        2836
        2840
        2844
        2848
        2852
        2856
        2860
        2864
        2868
        2872
        2876
        2880
        2884
        2888
        2892
        2896
        2900
        2904
        2908
        2912
        2916
        2920
        2924
        2928
        2932
        2936
        2940
        2944
        2948
        2952
        2956
        2960
        2964
        2968
        2972
        2976
        2980
        2984
        2988
        2992
        2996
        3000
        3004
        3008
        3012
        3016
        3020
        3024
        3028
        3032
        3036
        3040
        3044
        3048
        3052
        3056
        3060
        3064
        3068
        3072
        3076
        3080
        3084
        3088
        3092
        3096
        3100
        3104
        3108
        3112
        3116
        3120
        3124
        3128
        3132
        3136
        3140
        3144
        3148
        3152
        3156
        3160
        3164
        3168
        3172
        3176
        3180
        3184
        3188
        3192
        3196
        3200
        3204
        3208
        3212
        3216
        3220
        3224
        3228
        3232
        3236
        3240
        3244
        3248
        3252
        3256
        3260
        3264
        3268
        3272
        3276
        3280
        3284
        3288
        3292
        3296
        3300
        3304
        3308
        3312
        3316
        3320
        3324
        3328
        3332
        3336
        3340
        3344
        3348
        3352
        3356
        3360
        3364
        3368
        3372
        3376
        3380
        3384
        3388
        3392
        3396
        3400
        3404
        3408
        3412
        3416
        3420
        3424
        3428
        3432
        3436
        3440
        3444
        3448
        3452
        3456
        3460
        3464
        3468
        3472
        3476
        3480
        3484
        3488
        3492
        3496
        3500
        3504
        3508
        3512
        3516
        3520
        3524
        3528
        3532
        3536
        3540
        3544
        3548
        3552
        3556
        3560
        3564
        3568
        3572
        3576
        3580
        3584
        3588
        3592
        3596
        3600
        3604
        3608
        3612
        3616
        3620
        3624
        3628
        3632
        3636
        3640
        3644
        3648
        3652
        3656
        3660
        3664
        3668
        3672
        3676
        3680
        3684
        3688
        3692
        3696
        3700
        3704
        3708
        3712
        3716
        3720
        3724
        3728
        3732
        3736
        3740
        3744
        3748
        3752
        3756
        3760
        3764
        3768
        3772
        3776
        3780
        3784
        3788
        3792
        3796
        3800
        3804
        3808
        3812
        3816
        3820
        3824
        3828
        3832
        3836
        3840
        3844
        3848
        3852
        3856
        3860
        3864
        3868
        3872
        3876
        3880
        3884
        3888
        3892
        3896
        3900
        3904
        3908
        3912
        3916
        3920
        3924
        3928
        3932
        3936
        3940
        3944
        3948
        3952
        3956
        3960
        3964
        3968
        3972
        3976
        3980
        3984
        3988
        3992
        3996
        4000
        4004
        4008
        4012
        4016
        4020
        4024
        4028
        4032
        4036
        4040
        4044
        4048
        4052
        4056
        4060
        4064
        4068
        4072
        4076
        4080
        4084
        4088
        4092
        4096
 </DataArray>
 <DataArray  type="UInt8"  Name="types"  format="ascii">
 9
 9
 9
 9
 9
 9
 9
 9
 9
 9
 9
 9
 9
 9
 9
 9
 9
 9
 9
 9
 9
 9
 9
 9
 9
 9
 9
 9
 9
 9
 9
 9
 9
 9
 9
 9
 9
 9
 9
 9
 9
 9
 9
 9
 9
 9
 9
 9
 9
 9
 9
 9
 9
 9
 9
 9
 9
 9
 9
 9
 9
 9
 9
 9
 9
 9
 9
 9
 9
 9
 9
 9
 9
 9
 9
 9
 9
 9
 9
 9
 9
 9
 9
 9
 9
 9
 9
 9
 9
 9
 9
 9
 9
 9
 9
 9
 9
 9
 9
 9
 9
 9
 9
 9
 9
 9
 9
 9
 9
 9
 9
 9
 9
 9
 9
 9
 9
 9
 9
 9
 9
 9
 9
 9
 9
 9
 9
 9
 9
 9
 9
 9
 9
 9
 9
 9
 9
 9
 9
 9
 9
 9
 9
 9
 9
 9
 9
 9
 9
 9
 9
 9
 9
 9
 9
 9
 9
 9
 9
 9
 9
 9
 9
 9
 9
 9
 9
 9
 9
 9
 9
 9
 9
 9
 9
 9
 9
 9
 9
 9
 9
 9
 9
 9
 9
 9
 9
 9
 9
 9
 9
 9
 9
 9
 9
 9
 9
 9
 9
 9
 9
 9
 9
 9
 9
 9
 9
 9
 9
 9
 9
 9
 9
 9
 9
 9
 9
 9
 9
 9
 9
 9
 9
 9
 9
 9
 9
 9
 9
 9
 9
 9
 9
 9
 9
 9
 9
 9
 9
 9
 9
 9
 9
 9
 9
 9
 9
 9
 9
 9
 9
 9
 9
 9
 9
 9
 9
 9
 9
 9
 9
 9
 9
 9
 9
 9
 9
 9
 9
 9
 9
 9
 9
 9
 9
 9
 9
 9
 9
 9
 9
 9
 9
 9
 9
 9
 9
 9
 9
 9
 9
 9
 9
 9
 9
 9
 9
 9
 9
 9
 9
 9
 9
 9
 9
 9
 9
 9
 9
 9
 9
 9
 9
 9
 9
 9
 9
 9
 9
 9
 9
 9
 9
 9
 9
 9
 9
 9
 9
 9
 9
 9
 9
 9
 9
 9
 9
 9
 9
 9
 9
 9
 9
 9
 9
 9
 9
 9
 9
 9
 9
 9
 9
 9
 9
 9
 9
 9
 9
 9
 9
 9
 9
 9
 9
 9
 9
 9
 9
 9
 9
 9
 9
 9
 9
 9
 9
 9
 9
 9
 9
 9
 9
 9
 9
 9
 9
 9
 9
 9
 9
 9
 9
 9
 9
 9
 9
 9
 9
 9
 9
 9
 9
 9
 9
 9
 9
 9
 9
 9
 9
 9
 9
 9
 9
 9
 9
 9
 9
 9
 9
 9
 9
 9
 9
 9
 9
 9
 9
 9
 9
 9
 9
 9
 9
 9
 9
 9
 9
 9
 9
 9
 9
 9
 9
 9
 9
 9
 9
 9
 9
 9
 9
 9
 9
 9
 9
 9
 9
 9
 9
 9
 9
 9
 9
 9
 9
 9
 9
 9
 9
 9
 9
 9
 9
 9
 9
 9
 9
 9
 9
 9
 9
 9
 9
 9
 9
 9
 9
 9
 9
 9
 9
 9
 9
 9
 9
 9
 9
 9
 9
 9
 9
 9
 9
 9
 9
 9
 9
 9
 9
 9
 9
 9
 9
 9
 9
 9
 9
 9
 9
 9
 9
 9
 9
 9
 9
 9
 9
 9
 9
 9
 9
 9
 9
 9
 9
 9
 9
 9
 9
 9
 9
 9
 9
 9
 9
 9
 9
 9
 9
 9
 9
 9
 9
 9
 9
 9
 9
 9
 9
 9
 9
 9
 9
 9
 9
 9
 9
 9
 9
 9
 9
 9
 9
 9
 9
 9
 9
 9
 9
 9
 9
 9
 9
 9
 9
 9
 9
 9
 9
 9
 9
 9
 9
 9
 9
 9
 9
 9
 9
 9
 9
 9
 9
 9
 9
 9
 9
 9
 9
 9
 9
 9
 9
 9
 9
 9
 9
 9
 9
 9
 9
 9
 9
 9
 9
 9
 9
 9
 9
 9
 9
 9
 9
 9
 9
 9
 9
 9
 9
 9
 9
 9
 9
 9
 9
 9
 9
 9
 9
 9
 9
 9
 9
 9
 9
 9
 9
 9
 9
 9
 9
 9
 9
 9
 9
 9
 9
 9
 9
 9
 9
 9
 9
 9
 9
 9
 9
 9
 9
 9
 9
 9
 9
 9
 9
 9
 9
 9
 9
 9
 9
 9
 9
 9
 9
 9
 9
 9
 9
 9
 9
 9
 9
 9
 9
 9
 9
 9
 9
 9
 9
 9
 9
 9
 9
 9
 9
 9
 9
 9
 9
 9
 9
 9
 9
 9
 9
 9
 9
 9
 9
 9
 9
 9
 9
 9
 9
 9
 9
 9
 9
 9
 9
 9
 9
 9
 9
 9
 9
 9
 9
 9
 9
 9
 9
 9
 9
 9
 9
 9
 9
 9
 9
 9
 9
 9
 9
 9
 9
 9
 9
 9
 9
 9
 9
 9
 9
 9
 9
 9
 9
 9
 9
 9
 9
 9
 9
 9
 9
 9
 9
 9
 9
 9
 9
 9
 9
 9
 9
 9
 9
 9
 9
 9
 9
 9
 9
 9
 9
 9
 9
 9
 9
 9
 9
 9
 9
 9
 9
 9
 9
 9
 9
 9
 9
 9
 9
 9
 9
 9
 9
 9
 9
 9
 9
 9
 9
 9
 9
 9
 9
 9
 9
 9
 9
 9
 9
 9
 9
 9
 9
 9
 9
 9
 9
 9
 9
 9
 9
 9
 9
 9
 9
 9
 9
 9
 9
 9
 9
 9
 9
 9
 9
 9
 9
 9
 9
 9
 9
 9
 9
 9
 9
 9
 9
 9
 9
 9
 9
 9
 9
 9
 9
 9
 9
 9
 9
 9
 9
 9
 9
 9
 9
 9
 9
 9
 9
 9
 9
 9
 9
 9
 9
 9
 9
 9
 9
 9
 9
 9
 9
 9
 9
 9
 9
 9
 9
 9
 9
 9
 9
 9
 9
 9
 9
 9
 9
 9
 9
 9
 9
 9
 9
 9
 9
 9
 9
 9
 9
 9
 9
 9
 9
 9
 9
 9
 9
 9
 9
 9
 9
 9
 9
 9
 9
 9
 9
 9
 9
 9
 9
 9
 9
 9
 9
 9
 9
 9
 9
 9
 9
 9
 9
 9
 9
 9
 9
 9
 9
 9
 9
 9
 9
 9
 9
 9
 9
 9
 9
 9
 9
 9
 9
 9
 9
 9
 9
 9
 9
 9
 9
 9
 9
 9
 9
 9
 9
 9
 9
 9
 9
 9
 </DataArray>
 </Cells> 
 <PointData>
 <DataArray  type="Float64" Name="disp" NumberOfComponents="3" format="ascii">
   6.5534482432738322E-002   6.2299783867913329E-002   0.0000000000000000     
   6.8532058959324071E-002   6.7876780841180567E-002   0.0000000000000000     
   7.1446044924652730E-002   7.3580261467852640E-002   0.0000000000000000     
   7.4276440328724325E-002   7.9410225747929539E-002   0.0000000000000000     
   7.7023245171538843E-002   8.5366673681411293E-002   0.0000000000000000     
   6.0188428867956237E-002   6.1740083728337294E-002   0.0000000000000000     
   6.3053608064706779E-002   6.7209686450557263E-002   0.0000000000000000     
   6.5827284696719932E-002   7.2843989163074815E-002   0.0000000000000000     
   6.8509458763995681E-002   7.8642991865889966E-002   0.0000000000000000     
   7.1100130266534028E-002   8.4606694559002701E-002   0.0000000000000000     
   5.5102140874219024E-002   6.1113118063521529E-002   0.0000000000000000     
   5.7814427366015345E-002   6.6522773590234757E-002   0.0000000000000000     
   6.0432085129297729E-002   7.2121427014313857E-002   0.0000000000000000     
   6.2955114164066198E-002   7.7909078335758816E-002   0.0000000000000000     
   6.5383514470320758E-002   8.3885727554569647E-002   0.0000000000000000     
   5.0275618451526692E-002   6.0418886873466027E-002   0.0000000000000000     
   5.2814516863249734E-002   6.5816042260213051E-002   0.0000000000000000     
   5.5260446222386128E-002   7.1412575021569752E-002   0.0000000000000000     
   5.7613406528935887E-002   7.7208485157536089E-002   0.0000000000000000     
   5.9873397782898991E-002   8.3203772668112075E-002   0.0000000000000000     
   4.5708861599879233E-002   5.9657390158170787E-002   0.0000000000000000     
   4.8053876556409955E-002   6.5089492460492143E-002   0.0000000000000000     
   5.0312367975985123E-002   7.0717433184842485E-002   0.0000000000000000     
   5.2484335858604722E-002   7.6541212331221756E-002   0.0000000000000000     
   5.4569780204268760E-002   8.2560829899630025E-002   0.0000000000000000     
   7.7023245171538843E-002   8.5366673681411293E-002   0.0000000000000000     
   7.9683687294775679E-002   9.1465556700973269E-002   0.0000000000000000     
   8.2254994540114187E-002   9.7722826239290850E-002   0.0000000000000000     
   8.4737166907554395E-002  0.10413848229636406        0.0000000000000000     
   8.7130204397096289E-002  0.11071252487219288        0.0000000000000000     
   7.1100130266534028E-002   8.4606694559002701E-002   0.0000000000000000     
   7.3602400281033986E-002   9.0731577070775962E-002   0.0000000000000000     
   7.6019369884194526E-002   9.7014119229572704E-002   0.0000000000000000     
   7.8351039076015705E-002  0.10345432103539291        0.0000000000000000     
   8.0597407856497452E-002  0.11005218248823662        0.0000000000000000     
   6.5383514470320758E-002   8.3885727554569647E-002   0.0000000000000000     
   6.7724247091077341E-002   9.0035510662214213E-002   0.0000000000000000     
   6.9984273069351927E-002   9.6342563650160445E-002   0.0000000000000000     
   7.2163592405144528E-002  0.10280688651840833        0.0000000000000000     
   7.4262205098455131E-002  0.10942847926695788        0.0000000000000000     
   5.9873397782898991E-002   8.3203772668112075E-002   0.0000000000000000     
   6.2049227724905731E-002   8.9377357475287952E-002   0.0000000000000000     
   6.4149704095586360E-002   9.5708159501054033E-002   0.0000000000000000     
   6.6174826894940919E-002  0.10219617874541027        0.0000000000000000     
   6.8124596122969353E-002  0.10884141520835670        0.0000000000000000     
   5.4569780204268760E-002   8.2560829899630025E-002   0.0000000000000000     
   5.6577342182519155E-002   8.8757117509997277E-002   0.0000000000000000     
   5.8515662962897848E-002   9.5110906782253521E-002   0.0000000000000000     
   6.0384742545404824E-002  0.10162219771639877        0.0000000000000000     
   6.2184580930040104E-002  0.10829099031243303        0.0000000000000000     
   8.7130204397096289E-002  0.11071252487219288        0.0000000000000000     
   8.9429534383534265E-002  0.11743169408222909        0.0000000000000000     
   9.1630584241662649E-002  0.12428273004192451        0.0000000000000000     
   9.3733353971481484E-002  0.13126563275127912        0.0000000000000000     
   9.5737843572990741E-002  0.13838040221029294        0.0000000000000000     
   8.0597407856497452E-002  0.11005218248823662        0.0000000000000000     
   8.2754867769583795E-002  0.11679540042474398        0.0000000000000000     
   8.4819810359218747E-002  0.12367167168155525        0.0000000000000000     
   8.6792235625402295E-002  0.13068099625867041        0.0000000000000000     
   8.8672143568134437E-002  0.13782337415608947        0.0000000000000000     
   7.4262205098455131E-002  0.10942847926695788        0.0000000000000000     
   7.6277049156574336E-002  0.11619560177691245        0.0000000000000000     
   7.8205062586792759E-002  0.12309651392937533        0.0000000000000000     
   8.0046245389110399E-002  0.13013121572434658        0.0000000000000000     
   8.1800597563527228E-002  0.13729970716182616        0.0000000000000000     
   6.8124596122969353E-002  0.10884141520835670        0.0000000000000000     
   6.9996078544505888E-002  0.11563229813873445        0.0000000000000000     
   7.1786340924384684E-002  0.12255725678538477        0.0000000000000000     
   7.3495383262605754E-002  0.12961629114830761        0.0000000000000000     
   7.5123205559169112E-002  0.13680940122750299        0.0000000000000000     
   6.2184580930040104E-002  0.10829099031243303        0.0000000000000000     
   6.3911955933378423E-002  0.11510548951021003        0.0000000000000000     
   6.5563645371994522E-002  0.12205390024958354        0.0000000000000000     
   6.7139649245888416E-002  0.12913622253055351        0.0000000000000000     
   6.8639967555060091E-002  0.13635245635312002        0.0000000000000000     
   9.5737843572990741E-002  0.13838040221029294        0.0000000000000000     
   9.7647249077322737E-002  0.14561680027333498        0.0000000000000000     
   9.9464766515609745E-002  0.15296458879477437        0.0000000000000000     
  0.10119039588785179       0.16042376777461101        0.0000000000000000     
  0.10282413719404887       0.16799433721284496        0.0000000000000000     
   8.8672143568134437E-002  0.13782337415608947        0.0000000000000000     
   9.0462705892520312E-002  0.14508708315940158        0.0000000000000000     
   9.2167094303665015E-002  0.15246040105419592        0.0000000000000000     
   9.3785308801568601E-002  0.15994332784047241        0.0000000000000000     
   9.5317349386231015E-002  0.16753586351823116        0.0000000000000000     
   8.1800597563527228E-002  0.13729970716182616        0.0000000000000000     
   8.3471073460820389E-002  0.14458939043065769        0.0000000000000000     
   8.5060627431766997E-002  0.15198766771968478        0.0000000000000000     
   8.6569259476367039E-002  0.15949453902890739        0.0000000000000000     
   8.7996969594620500E-002  0.16711000435832557        0.0000000000000000     
   7.5123205559169112E-002  0.13680940122750299        0.0000000000000000     
   7.6672351782222994E-002  0.14412372208710331        0.0000000000000000     
   7.8145365899915664E-002  0.15154638879124097        0.0000000000000000     
   7.9542247912247094E-002  0.15907740133991588        0.0000000000000000     
   8.0862997819217325E-002  0.16671675973312819        0.0000000000000000     
   6.8639967555060091E-002  0.13635245635312002        0.0000000000000000     
   7.0066540856728102E-002  0.14369007812873849        0.0000000000000000     
   7.1421309708111003E-002  0.15113656426886449        0.0000000000000000     
   7.2704274109208794E-002  0.15869191477349801        0.0000000000000000     
   7.3915434060021462E-002  0.16635612964263902        0.0000000000000000     
  0.10282413719404887       0.16799433721284496        0.0000000000000000     
  0.10436923992274548       0.17566449816484281        0.0000000000000000     
  0.10582895356248620       0.18342245168597121        0.0000000000000000     
  0.10720327811327098       0.19126819777623003        0.0000000000000000     
  0.10849221357509983       0.19920173643561939        0.0000000000000000     
   9.5317349386231015E-002  0.16753586351823116        0.0000000000000000     
   9.6764463904416981E-002  0.17522802320662834        0.0000000000000000     
   9.8127900202891166E-002  0.18300982202482033        0.0000000000000000     
   9.9407658281653544E-002  0.19088125997280703        0.0000000000000000     
  0.10060373814070415       0.19884233705058851        0.0000000000000000     
   8.7996969594620500E-002  0.16711000435832557        0.0000000000000000     
   8.9343562592578016E-002  0.17482507749959106        0.0000000000000000     
   9.0608843276290194E-002  0.18263077224435567        0.0000000000000000     
   9.1792811645757033E-002  0.19052708859261944        0.0000000000000000     
   9.2895467700978521E-002  0.19851402654438233        0.0000000000000000     
   8.0862997819217325E-002  0.16671675973312819        0.0000000000000000     
   8.2106535987228613E-002  0.17445566104373095        0.0000000000000000     
   8.3271782782683337E-002  0.18228530234457729        0.0000000000000000     
   8.4358738205581457E-002  0.19020568363566723        0.0000000000000000     
   8.5367402255922945E-002  0.19821680491700086        0.0000000000000000     
   7.3915434060021462E-002  0.16635612964263902        0.0000000000000000     
   7.5053384088368813E-002  0.17411977383904789        0.0000000000000000     
   7.6116718722070570E-002  0.18197341232548506        0.0000000000000000     
   7.7105437961126760E-002  0.18991704510195048        0.0000000000000000     
   7.8019541805537412E-002  0.19795067216844406        0.0000000000000000     
  0.10849221357509983       0.19920173643561939        0.0000000000000000     
  0.10970070397356506       0.20722020927891135        0.0000000000000000     
  0.11083369333425896       0.21532075792087801        0.0000000000000000     
  0.11189118165718154       0.22350338236151940        0.0000000000000000     
  0.11287316894233279       0.23176808260083548        0.0000000000000000     
  0.10060373814070415       0.19884233705058851        0.0000000000000000     
  0.10172131548910422       0.20688704367110708        0.0000000000000000     
  0.10276556603591497       0.21500937024730507        0.0000000000000000     
  0.10373648978113638       0.22320931677918252        0.0000000000000000     
  0.10463408672476848       0.23148688326673938        0.0000000000000000     
   9.2895467700978521E-002  0.19851402654438233        0.0000000000000000     
   9.3921350537276946E-002  0.20658377577496581        0.0000000000000000     
   9.4874999249974543E-002  0.21472852595969139        0.0000000000000000     
   9.5756413839071269E-002  0.22294827709855891        0.0000000000000000     
   9.6565594304567182E-002  0.23124302919156864        0.0000000000000000     
   8.5367402255922945E-002  0.19821680491700086        0.0000000000000000     
   8.6300809118083216E-002  0.20631040559048752        0.0000000000000000     
   8.7161992976437647E-002  0.21447822505803682        0.0000000000000000     
   8.7950953830986181E-002  0.22272026331964867        0.0000000000000000     
   8.8667691681728888E-002  0.23103652037532313        0.0000000000000000     
   7.8019541805537412E-002  0.19795067216844406        0.0000000000000000     
   7.8859691231523060E-002  0.20606693311767230        0.0000000000000000     
   7.9626547215304308E-002  0.21425846754234154        0.0000000000000000     
   8.0320109756881169E-002  0.22252527544245174        0.0000000000000000     
   8.0940378856253617E-002  0.23086735681800294        0.0000000000000000     
  0.11287316894233279       0.23176808260083548        0.0000000000000000     
  0.11380790064260454       0.24013121034564178        0.0000000000000000     
  0.11472362221088861       0.24860911730275376        0.0000000000000000     
  0.11562033364718502       0.25720180347217148        0.0000000000000000     
  0.11649803495149377       0.26590926885389488        0.0000000000000000     
  0.10463408672476848       0.23148688326673938        0.0000000000000000     
  0.10546346614762861       0.23986551010345136        0.0000000000000000     
  0.10622973733053410       0.24836863768279424        0.0000000000000000     
  0.10693290027348498       0.25699626600476788        0.0000000000000000     
  0.10757295497648121       0.26574839506937237        0.0000000000000000     
   9.6565594304567182E-002  0.23124302919156864        0.0000000000000000     
   9.7293466364007153E-002  0.23963930103373995        0.0000000000000000     
   9.7930955734936043E-002  0.24816361142009261        0.0000000000000000     
   9.8478062417353823E-002  0.25681596035062648        0.0000000000000000     
   9.8934786411260578E-002  0.26559634782534181        0.0000000000000000     
   8.8667691681728888E-002  0.23103652037532313        0.0000000000000000     
   8.9297901291740173E-002  0.23945258313650741        0.0000000000000000     
   8.9827277424094409E-002  0.24799403851464882        0.0000000000000000     
   9.0255820078791626E-002  0.25666088650974739        0.0000000000000000     
   9.0583529255831810E-002  0.26545312712180313        0.0000000000000000     
   8.0940378856253617E-002  0.23086735681800294        0.0000000000000000     
   8.1476770930827627E-002  0.23930535641175379        0.0000000000000000     
   8.1918702398009191E-002  0.24785991896646298        0.0000000000000000     
   8.2266173257798295E-002  0.25653104448213049        0.0000000000000000     
   8.2519183510194938E-002  0.26531873295875630        0.0000000000000000     
  0.11649803495149377       0.26590926885389488        0.0000000000000000     
  0.11729705554612728       0.27489617233482599        0.0000000000000000     
  0.11795772485339802       0.28432717280186670        0.0000000000000000     
  0.11848004287330596       0.29420227025501705        0.0000000000000000     
  0.11886400960585111       0.30452146469427699        0.0000000000000000     
  0.10757295497648121       0.26574839506937237        0.0000000000000000     
  0.10813089895853416       0.27475716014907930        0.0000000000000000     
  0.10858772973865512       0.28415469651636027        0.0000000000000000     
  0.10894344731684409       0.29394100417121516        0.0000000000000000     
  0.10919805169310107       0.30411608311364408        0.0000000000000000     
   9.8934786411260578E-002  0.26559634782534181        0.0000000000000000     
   9.9312122200815478E-002  0.27460302027657973        0.0000000000000000     
   9.9621064270177778E-002  0.28393422413668146        0.0000000000000000     
   9.9861612619347534E-002  0.29358995940564719        0.0000000000000000     
  0.10003376724832469       0.30357022608347684        0.0000000000000000     
   9.0583529255831810E-002  0.26545312712180313        0.0000000000000000     
   9.0840725272971198E-002  0.27443375271732712        0.0000000000000000     
   9.1057728447966044E-002  0.28366575566283042        0.0000000000000000     
   9.1234538780816291E-002  0.29314913595831321        0.0000000000000000     
   9.1371156271522008E-002  0.30288389360377532        0.0000000000000000     
   8.2519183510194938E-002  0.26531873295875630        0.0000000000000000     
   8.2716708175001374E-002  0.27424935747132151        0.0000000000000000     
   8.2897722272019872E-002  0.28334929109480711        0.0000000000000000     
   8.3062225801250403E-002  0.29261853382921310        0.0000000000000000     
   8.3210218762693022E-002  0.30205708567453948        0.0000000000000000     
   4.5708861599879233E-002   5.9657390158170787E-002   0.0000000000000000     
   4.8053876556409955E-002   6.5089492460492143E-002   0.0000000000000000     
   5.0312367975985123E-002   7.0717433184842485E-002   0.0000000000000000     
   5.2484335858604722E-002   7.6541212331221756E-002   0.0000000000000000     
   5.4569780204268760E-002   8.2560829899630025E-002   0.0000000000000000     
   4.1330612738877601E-002   5.8904617397392278E-002   0.0000000000000000     
   4.3474101702418763E-002   6.4389001272305582E-002   0.0000000000000000     
   4.5539475029608416E-002   7.0060336943170098E-002   0.0000000000000000     
   4.7526732720446566E-002   7.5918624409985799E-002   0.0000000000000000     
   4.9435874774933199E-002   8.1963863672752754E-002   0.0000000000000000     
   3.7069614288122749E-002   5.8236558070886950E-002   0.0000000000000000     
   3.9016787558198866E-002   6.3760445776886887E-002   0.0000000000000000     
   4.0893392022769703E-002   6.9465621735590621E-002   0.0000000000000000     
   4.2699427681835239E-002   7.5352085946998146E-002   0.0000000000000000     
   4.4434894535395487E-002   8.1419838411109488E-002   0.0000000000000000     
   3.2925866247614691E-002   5.7653212178654822E-002   0.0000000000000000     
   3.4681934123750292E-002   6.3203825974236086E-002   0.0000000000000000     
   3.6374118955468979E-002   6.8933287562104095E-002   0.0000000000000000     
   3.8002420742770750E-002   7.4841596942258809E-002   0.0000000000000000     
   3.9566839485655612E-002   8.0928754114700255E-002   0.0000000000000000     
   2.8899368617353403E-002   5.7154579720695875E-002   0.0000000000000000     
   3.0469541399073014E-002   6.2719141864353178E-002   0.0000000000000000     
   3.1981655827706248E-002   6.8463334422710465E-002   0.0000000000000000     
   3.3435711903253104E-002   7.4387157395767761E-002   0.0000000000000000     
   3.4831709625713574E-002   8.0490610783525068E-002   0.0000000000000000     
   5.4569780204268760E-002   8.2560829899630025E-002   0.0000000000000000     
   5.6577342182519155E-002   8.8757117509997277E-002   0.0000000000000000     
   5.8515662962897848E-002   9.5110906782253521E-002   0.0000000000000000     
   6.0384742545404824E-002  0.10162219771639877        0.0000000000000000     
   6.2184580930040104E-002  0.10829099031243303        0.0000000000000000     
   4.9435874774933199E-002   8.1963863672752754E-002   0.0000000000000000     
   5.1274460790583981E-002   8.8181520990411974E-002   0.0000000000000000     
   5.3050050364914544E-002   9.4557062621904581E-002   0.0000000000000000     
   5.4762643497924875E-002  0.10109048856723053        0.0000000000000000     
   5.6412240189614979E-002  0.10778179882638990        0.0000000000000000     
   4.4434894535395487E-002   8.1419838411109488E-002   0.0000000000000000     
   4.6106453875766576E-002   8.7657298140601955E-002   0.0000000000000000     
   4.7720766995264625E-002   9.4052884148152924E-002   0.0000000000000000     
   4.9277833893889629E-002  0.10060659643376239        0.0000000000000000     
   5.0777654571641601E-002  0.10731843499743030        0.0000000000000000     
   3.9566839485655612E-002   8.0928754114700255E-002   0.0000000000000000     
   4.1073321438066926E-002   8.7184448960567262E-002   0.0000000000000000     
   4.2527812853948091E-002   9.3598371360998592E-002   0.0000000000000000     
   4.3930313733299101E-002  0.10017052131599424        0.0000000000000000     
   4.5280824076119941E-002  0.10690089882555426        0.0000000000000000     
   3.4831709625713574E-002   8.0490610783525068E-002   0.0000000000000000     
   3.6175063477485059E-002   8.6762973450307812E-002   0.0000000000000000     
   3.7471187940964962E-002   9.3193524260441529E-002   0.0000000000000000     
   3.8720083016153276E-002   9.9782263213926164E-002   0.0000000000000000     
   3.9921748703050007E-002  0.10652919031076176        0.0000000000000000     
   6.2184580930040104E-002  0.10829099031243303        0.0000000000000000     
   6.3911955933378423E-002  0.11510548951021003        0.0000000000000000     
   6.5563645371994522E-002  0.12205390024958354        0.0000000000000000     
   6.7139649245888416E-002  0.12913622253055351        0.0000000000000000     
   6.8639967555060091E-002  0.13635245635312002        0.0000000000000000     
   5.6412240189614979E-002  0.10778179882638990        0.0000000000000000     
   5.7995265915935755E-002  0.11461887554109368        0.0000000000000000     
   5.9508146152838032E-002  0.12158960085305294        0.0000000000000000     
   6.0950880900321816E-002  0.12869397476226771        0.0000000000000000     
   6.2323470158387129E-002  0.13593199726873792        0.0000000000000000     
   5.0777654571641601E-002  0.10731843499743030        0.0000000000000000     
   5.2216593084921666E-002  0.11417615588113988        0.0000000000000000     
   5.3591013490130950E-002  0.12116751512687432        0.0000000000000000     
   5.4900915787269453E-002  0.12829251273463349        0.0000000000000000     
   5.6146299976337188E-002  0.13555114870441753        0.0000000000000000     
   4.5280824076119941E-002  0.10690089882555426        0.0000000000000000     
   4.6575937440336154E-002  0.11377733053034871        0.0000000000000000     
   4.7812247383873276E-002  0.12078764307104760        0.0000000000000000     
   4.8989753906731326E-002  0.12793183644765097        0.0000000000000000     
   5.0108457008910277E-002  0.13520991066015881        0.0000000000000000     
   3.9921748703050007E-002  0.10652919031076176        0.0000000000000000     
   4.1073298982179228E-002  0.11342239948872006        0.0000000000000000     
   4.2171847834065031E-002  0.12044998468557283        0.0000000000000000     
   4.3217395258707422E-002  0.12761194590132008        0.0000000000000000     
   4.4209941256106389E-002  0.13490828313596179        0.0000000000000000     
   6.8639967555060091E-002  0.13635245635312002        0.0000000000000000     
   7.0066540856728102E-002  0.14369007812873849        0.0000000000000000     
   7.1421309708111003E-002  0.15113656426886449        0.0000000000000000     
   7.2704274109208794E-002  0.15869191477349801        0.0000000000000000     
   7.3915434060021462E-002  0.16635612964263902        0.0000000000000000     
   6.2323470158387129E-002  0.13593199726873792        0.0000000000000000     
   6.3627235425945727E-002  0.14329167404217313        0.0000000000000000     
   6.4863498201909398E-002  0.15076101075228282        0.0000000000000000     
   6.6032258486278139E-002  0.15834000739906690        0.0000000000000000     
   6.7133516279051952E-002  0.16602866398252544        0.0000000000000000     
   5.6146299976337188E-002  0.13555114870441753        0.0000000000000000     
   5.7328030231485860E-002  0.14293172531401721        0.0000000000000000     
   5.8446970726867178E-002  0.15042254484122330        0.0000000000000000     
   5.9503121462481157E-002  0.15802360728603584        0.0000000000000000     
   6.0496482438327781E-002  0.16573491264845489        0.0000000000000000     
   5.0108457008910277E-002  0.13520991066015881        0.0000000000000000     
   5.1168925273348508E-002  0.14261023194427067        0.0000000000000000     
   5.2171727282984352E-002  0.15012116653568600        0.0000000000000000     
   5.3116863037817826E-002  0.15774271443440488        0.0000000000000000     
   5.4004332537848927E-002  0.16547487564042729        0.0000000000000000     
   4.4209941256106389E-002  0.13490828313596179        0.0000000000000000     
   4.5149920551533655E-002  0.14232719393293353        0.0000000000000000     
   4.6037767870260912E-002  0.14985687583567092        0.0000000000000000     
   4.6873483212288174E-002  0.15749732884417394        0.0000000000000000     
   4.7657066577615433E-002  0.16524855295844262        0.0000000000000000     
   7.3915434060021462E-002  0.16635612964263902        0.0000000000000000     
   7.5053384088368813E-002  0.17411977383904789        0.0000000000000000     
   7.6116718722070570E-002  0.18197341232548506        0.0000000000000000     
   7.7105437961126760E-002  0.18991704510195048        0.0000000000000000     
   7.8019541805537412E-002  0.19795067216844406        0.0000000000000000     
   6.7133516279051952E-002  0.16602866398252544        0.0000000000000000     
   6.8165793354586085E-002  0.17381665687632974        0.0000000000000000     
   6.9127611487235757E-002  0.18169366245415100        0.0000000000000000     
   7.0018970677000955E-002  0.18965968071598921        0.0000000000000000     
   7.0839870923881720E-002  0.19771471166184440        0.0000000000000000     
   6.0496482438327781E-002  0.16573491264845489        0.0000000000000000     
   6.1425450244467973E-002  0.17354555114636405        0.0000000000000000     
   6.2288421470962703E-002  0.18144461299764697        0.0000000000000000     
   6.3085396117811957E-002  0.18943209820230369        0.0000000000000000     
   6.3816374185015692E-002  0.19750800676033420        0.0000000000000000     
   5.4004332537848927E-002  0.16547487564042729        0.0000000000000000     
   5.4832354758014533E-002  0.17330645664915079        0.0000000000000000     
   5.5599148673251456E-002  0.18122626395597297        0.0000000000000000     
   5.6304714283559723E-002  0.18923429756089388        0.0000000000000000     
   5.6949051588939321E-002  0.19733055746391348        0.0000000000000000     
   4.7657066577615433E-002  0.16524855295844262        0.0000000000000000     
   4.8386506895225702E-002  0.17309937338468998        0.0000000000000000     
   4.9059793094101987E-002  0.18103861532912902        0.0000000000000000     
   4.9676925174244289E-002  0.18906627879175980        0.0000000000000000     
   5.0237903135652615E-002  0.19718236377258228        0.0000000000000000     
   7.8019541805537412E-002  0.19795067216844406        0.0000000000000000     
   7.8859691231523060E-002  0.20606693311767230        0.0000000000000000     
   7.9626547215304308E-002  0.21425846754234154        0.0000000000000000     
   8.0320109756881169E-002  0.22252527544245174        0.0000000000000000     
   8.0940378856253617E-002  0.23086735681800294        0.0000000000000000     
   7.0839870923881720E-002  0.19771471166184440        0.0000000000000000     
   7.1588685791351997E-002  0.20585251428981508        0.0000000000000000     
   7.2263788842885771E-002  0.21406684759799968        0.0000000000000000     
   7.2865180078483041E-002  0.22235771158639833        0.0000000000000000     
   7.3392859498143781E-002  0.23072510625501097        0.0000000000000000     
   6.3816374185015692E-002  0.19750800676033420        0.0000000000000000     
   6.4478481711325586E-002  0.20566630504021072        0.0000000000000000     
   6.5068844735493236E-002  0.21390095941040557        0.0000000000000000     
   6.5587463257518672E-002  0.22221196987091862        0.0000000000000000     
   6.6034337277401864E-002  0.23059933642175004        0.0000000000000000     
   5.6949051588939321E-002  0.19733055746391348        0.0000000000000000     
   5.7529078991443813E-002  0.20550830536885936        0.0000000000000000     
   5.8041714893126727E-002  0.21376080297955913        0.0000000000000000     
   5.8486959293988075E-002  0.22208805029601278        0.0000000000000000     
   5.8864812194027845E-002  0.23049004731822020        0.0000000000000000     
   5.0237903135652615E-002  0.19718236377258228        0.0000000000000000     
   5.0740477631706672E-002  0.20537851527576093        0.0000000000000000     
   5.1182399315786220E-002  0.21364637830546040        0.0000000000000000     
   5.1563668187891230E-002  0.22198595286168057        0.0000000000000000     
   5.1884284248021731E-002  0.23039723894442149        0.0000000000000000     
   8.0940378856253617E-002  0.23086735681800294        0.0000000000000000     
   8.1476770930827627E-002  0.23930535641175379        0.0000000000000000     
   8.1918702398009191E-002  0.24785991896646298        0.0000000000000000     
   8.2266173257798295E-002  0.25653104448213049        0.0000000000000000     
   8.2519183510194938E-002  0.26531873295875630        0.0000000000000000     
   7.3392859498143781E-002  0.23072510625501097        0.0000000000000000     
   7.3843560610327652E-002  0.23918264920424837        0.0000000000000000     
   7.4214016923494275E-002  0.24774395803452148        0.0000000000000000     
   7.4504228437643663E-002  0.25640903274583027        0.0000000000000000     
   7.4714195152775775E-002  0.26517787333817472        0.0000000000000000     
   6.6034337277401864E-002  0.23059933642175004        0.0000000000000000     
   6.6411755659298313E-002  0.23906948985876053        0.0000000000000000     
   6.6722007267363520E-002  0.24762886097781089        0.0000000000000000     
   6.6965092101597470E-002  0.25627744977890127        0.0000000000000000     
   6.7141010162000164E-002  0.26501525626203160        0.0000000000000000     
   5.8864812194027845E-002  0.23049004731822020        0.0000000000000000     
   5.9181356077739597E-002  0.23896587837529018        0.0000000000000000     
   5.9442673429616892E-002  0.24751462779633129        0.0000000000000000     
   5.9648764249659723E-002  0.25613629558134349        0.0000000000000000     
   5.9799628537868098E-002  0.26483088173032687        0.0000000000000000     
   5.1884284248021731E-002  0.23039723894442149        0.0000000000000000     
   5.2152361865651510E-002  0.23887181475383740        0.0000000000000000     
   5.2376015410254419E-002  0.24740125849008252        0.0000000000000000     
   5.2555244881830436E-002  0.25598557015315693        0.0000000000000000     
   5.2690050280379555E-002  0.26462474974306055        0.0000000000000000     
   8.2519183510194938E-002  0.26531873295875630        0.0000000000000000     
   8.2716708175001374E-002  0.27424935747132151        0.0000000000000000     
   8.2897722272019872E-002  0.28334929109480711        0.0000000000000000     
   8.3062225801250403E-002  0.29261853382921310        0.0000000000000000     
   8.3210218762693022E-002  0.30205708567453948        0.0000000000000000     
   7.4714195152775775E-002  0.26517787333817472        0.0000000000000000     
   7.4884872215183668E-002  0.27404415290608225        0.0000000000000000     
   7.5057214771160355E-002  0.28300154454408039        0.0000000000000000     
   7.5231222820705809E-002  0.29205004825216896        0.0000000000000000     
   7.5406896363820031E-002  0.30118966403034814        0.0000000000000000     
   6.7141010162000164E-002  0.26501525626203160        0.0000000000000000     
   6.7290018701795823E-002  0.27381245738912852        0.0000000000000000     
   6.7452374974208557E-002  0.28263923012211889        0.0000000000000000     
   6.7628078979238435E-002  0.29149557446100266        0.0000000000000000     
   6.7817130716885429E-002  0.30038149040577994        0.0000000000000000     
   5.9799628537868098E-002  0.26483088173032687        0.0000000000000000     
   5.9932147634837757E-002  0.27355427092046020        0.0000000000000000     
   6.0083202881164498E-002  0.28226234782892279        0.0000000000000000     
   6.0252794276848293E-002  0.29095511245571437        0.0000000000000000     
   6.0440921821889163E-002  0.29963256480083506        0.0000000000000000     
   5.2690050280379555E-002  0.26462474974306055        0.0000000000000000     
   5.2811259014309560E-002  0.27326959350007751        0.0000000000000000     
   5.2949698492028172E-002  0.28187089766449197        0.0000000000000000     
   5.3105368713535411E-002  0.29042866223630392        0.0000000000000000     
   5.3278269678831258E-002  0.29894288721551332        0.0000000000000000     
   2.8899368617353403E-002   5.7154579720695875E-002   0.0000000000000000     
   3.0469541399073014E-002   6.2719141864353178E-002   0.0000000000000000     
   3.1981655827706248E-002   6.8463334422710465E-002   0.0000000000000000     
   3.3435711903253104E-002   7.4387157395767761E-002   0.0000000000000000     
   3.4831709625713574E-002   8.0490610783525068E-002   0.0000000000000000     
   2.4998664380755618E-002   5.6726610257342783E-002   0.0000000000000000     
   2.6380669532571909E-002   6.2298536705955657E-002   0.0000000000000000     
   2.7710816642803480E-002   6.8052231598524512E-002   0.0000000000000000     
   2.8989105711450344E-002   7.3987694935049322E-002   0.0000000000000000     
   3.0215536738512485E-002   8.0104926715530114E-002   0.0000000000000000     
   2.1232296521238054E-002   5.6355253348928214E-002   0.0000000000000000     
   2.2416378672651838E-002   6.1934153757761040E-002   0.0000000000000000     
   2.3556415404082667E-002   6.7696448370660897E-002   0.0000000000000000     
   2.4652406715530546E-002   7.3642137187627812E-002   0.0000000000000000     
   2.5704352606995474E-002   7.9771220208661731E-002   0.0000000000000000     
   1.7600265038800703E-002   5.6040508995452154E-002   0.0000000000000000     
   1.8576668819312796E-002   6.1625993019769336E-002   0.0000000000000000     
   1.9518452111543797E-002   6.7395984739119660E-002   0.0000000000000000     
   2.0425614915493717E-002   7.3350484153503176E-002   0.0000000000000000     
   2.1298157231162535E-002   7.9489491262919820E-002   0.0000000000000000     
   1.4102569933443571E-002   5.5782377196914618E-002   0.0000000000000000     
   1.4861539972554790E-002   6.1374054491980523E-002   0.0000000000000000     
   1.5596926765186880E-002   6.7150840703900816E-002   0.0000000000000000     
   1.6308730311339840E-002   7.3112735832675455E-002   0.0000000000000000     
   1.6996950611013667E-002   7.9259739878304480E-002   0.0000000000000000     
   3.4831709625713574E-002   8.0490610783525068E-002   0.0000000000000000     
   3.6175063477485059E-002   8.6762973450307812E-002   0.0000000000000000     
   3.7471187940964962E-002   9.3193524260441529E-002   0.0000000000000000     
   3.8720083016153276E-002   9.9782263213926164E-002   0.0000000000000000     
   3.9921748703050007E-002  0.10652919031076176        0.0000000000000000     
   3.0215536738512485E-002   8.0104926715530114E-002   0.0000000000000000     
   3.1394871258378171E-002   8.6392113027434672E-002   0.0000000000000000     
   3.2531870805435660E-002   9.2837439958230683E-002   0.0000000000000000     
   3.3626535379684942E-002   9.9440907507918189E-002   0.0000000000000000     
   3.4678864981126024E-002  0.10620251567649718        0.0000000000000000     
   2.5704352606995474E-002   7.9771220208661731E-002   0.0000000000000000     
   2.6715936045103483E-002   8.6071109109558758E-002   0.0000000000000000     
   2.7690839996480615E-002   9.2529215566114958E-002   0.0000000000000000     
   2.8629064461126858E-002   9.9145539578330347E-002   0.0000000000000000     
   2.9530609439042229E-002  0.10592008114620487        0.0000000000000000     
   2.1298157231162535E-002   7.9489491262919820E-002   0.0000000000000000     
   2.2138257837660998E-002   8.5799961696680083E-002   0.0000000000000000     
   2.2948095514099823E-002   9.2268851084094342E-002   0.0000000000000000     
   2.3727670260479037E-002   9.8896159425162597E-002   0.0000000000000000     
   2.4476982076798607E-002  0.10568188671988483        0.0000000000000000     
   1.6996950611013667E-002   7.9259739878304480E-002   0.0000000000000000     
   1.7661836636050712E-002   8.5578670788798661E-002   0.0000000000000000     
   1.8303637358293309E-002   9.2056346512168846E-002   0.0000000000000000     
   1.8922352777741461E-002   9.8692767048414967E-002   0.0000000000000000     
   1.9517982894395169E-002  0.10548793239753709        0.0000000000000000     
   3.9921748703050007E-002  0.10652919031076176        0.0000000000000000     
   4.1073298982179228E-002  0.11342239948872006        0.0000000000000000     
   4.2171847834065031E-002  0.12044998468557283        0.0000000000000000     
   4.3217395258707422E-002  0.12761194590132008        0.0000000000000000     
   4.4209941256106389E-002  0.13490828313596179        0.0000000000000000     
   3.4678864981126024E-002  0.10620251567649718        0.0000000000000000     
   3.5686532390643573E-002  0.11311066067954603        0.0000000000000000     
   3.6647210389122262E-002  0.12015373873264315        0.0000000000000000     
   3.7560898976562070E-002  0.12733174983578849        0.0000000000000000     
   3.8427598152963025E-002  0.13464469398898210        0.0000000000000000     
   2.9530609439042229E-002  0.10592008114620487        0.0000000000000000     
   3.0393492345921883E-002  0.11284141202611864        0.0000000000000000     
   3.1215730597461001E-002  0.11989810397445165        0.0000000000000000     
   3.1997324193659596E-002  0.12709015699120396        0.0000000000000000     
   3.2738273134517645E-002  0.13441757107637553        0.0000000000000000     
   2.4476982076798607E-002  0.10568188671988483        0.0000000000000000     
   2.5194178848014157E-002  0.11261465352843783        0.0000000000000000     
   2.5877408459081281E-002  0.11968308041099839        0.0000000000000000     
   2.6526670909999984E-002  0.12688716736756642        0.0000000000000000     
   2.7141966200770272E-002  0.13422691439814199        0.0000000000000000     
   1.9517982894395169E-002  0.10548793239753709        0.0000000000000000     
   2.0088591896920395E-002  0.11243038518650371        0.0000000000000000     
   2.0632243973983087E-002  0.11950866804228330        0.0000000000000000     
   2.1148939125583254E-002  0.12672278096487591        0.0000000000000000     
   2.1638677351720891E-002  0.13407272395428155        0.0000000000000000     
   4.4209941256106389E-002  0.13490828313596179        0.0000000000000000     
   4.5149920551533655E-002  0.14232719393293353        0.0000000000000000     
   4.6037767870260912E-002  0.14985687583567092        0.0000000000000000     
   4.6873483212288174E-002  0.15749732884417394        0.0000000000000000     
   4.7657066577615433E-002  0.16524855295844262        0.0000000000000000     
   3.8427598152963025E-002  0.13464469398898210        0.0000000000000000     
   3.9247663222269656E-002  0.14208053485530400        0.0000000000000000     
   4.0021449488426529E-002  0.14962723609783421        0.0000000000000000     
   4.0748956951433664E-002  0.15728479771657272        0.0000000000000000     
   4.1430185611291026E-002  0.16505321971151951        0.0000000000000000     
   3.2738273134517645E-002  0.13441757107637553        0.0000000000000000     
   3.3438800441784843E-002  0.14186817828668025        0.0000000000000000     
   3.4099129137210880E-002  0.14942981067883199        0.0000000000000000     
   3.4719259220795759E-002  0.15710246825283075        0.0000000000000000     
   3.5299190692539457E-002  0.16488615100867651        0.0000000000000000     
   2.7141966200770272E-002  0.13422691439814199        0.0000000000000000     
   2.7723332210079228E-002  0.14169012422706218        0.0000000000000000     
   2.8270806816613956E-002  0.14926459957866423        0.0000000000000000     
   2.8784390020374459E-002  0.15695034045294803        0.0000000000000000     
   2.9264081821360741E-002  0.16474734684991360        0.0000000000000000     
   2.1638677351720891E-002  0.13407272395428155        0.0000000000000000     
   2.2101258527152796E-002  0.14154637267644993        0.0000000000000000     
   2.2536482526635759E-002  0.14913160279733093        0.0000000000000000     
   2.2944349350169785E-002  0.15682841431692454        0.0000000000000000     
   2.3324858997754869E-002  0.16463680723523078        0.0000000000000000     
   4.7657066577615433E-002  0.16524855295844262        0.0000000000000000     
   4.8386506895225702E-002  0.17309937338468998        0.0000000000000000     
   4.9059793094101987E-002  0.18103861532912902        0.0000000000000000     
   4.9676925174244289E-002  0.18906627879175980        0.0000000000000000     
   5.0237903135652615E-002  0.19718236377258228        0.0000000000000000     
   4.1430185611291026E-002  0.16505321971151951        0.0000000000000000     
   4.2062970360107220E-002  0.17292141637985081        0.0000000000000000     
   4.2645146089990836E-002  0.18087830201874264        0.0000000000000000     
   4.3176712800941881E-002  0.18892387662819510        0.0000000000000000     
   4.3657670492960342E-002  0.19705814020820817        0.0000000000000000     
   3.5299190692539457E-002  0.16488615100867651        0.0000000000000000     
   3.5836808856664785E-002  0.17276970066150238        0.0000000000000000     
   3.6329999017394539E-002  0.18074195892644140        0.0000000000000000     
   3.6778761174728704E-002  0.18880292580349353        0.0000000000000000     
   3.7183095328667301E-002  0.19695260129265887        0.0000000000000000     
   2.9264081821360741E-002  0.16474734684991360        0.0000000000000000     
   2.9708022384898405E-002  0.17264422622964479        0.0000000000000000     
   3.0114351876313093E-002  0.18062958605222526        0.0000000000000000     
   3.0483070295604781E-002  0.18870342631765516        0.0000000000000000     
   3.0814177642773485E-002  0.19686574702593437        0.0000000000000000     
   2.3324858997754869E-002  0.16463680723523078        0.0000000000000000     
   2.3676610944808080E-002  0.17254499308427787        0.0000000000000000     
   2.3998204666746490E-002  0.18054118339609423        0.0000000000000000     
   2.4289640163570096E-002  0.18862537817067984        0.0000000000000000     
   2.4550917435278905E-002  0.19679757740803466        0.0000000000000000     
   5.0237903135652615E-002  0.19718236377258228        0.0000000000000000     
   5.0740477631706672E-002  0.20537851527576093        0.0000000000000000     
   5.1182399315786220E-002  0.21364637830546040        0.0000000000000000     
   5.1563668187891230E-002  0.22198595286168057        0.0000000000000000     
   5.1884284248021731E-002  0.23039723894442149        0.0000000000000000     
   4.3657670492960342E-002  0.19705814020820817        0.0000000000000000     
   4.4086957755602729E-002  0.20527074817367943        0.0000000000000000     
   4.4463513178425555E-002  0.21355135593950642        0.0000000000000000     
   4.4787336761428813E-002  0.22189996350568916        0.0000000000000000     
   4.5058428504612509E-002  0.23031657087222770        0.0000000000000000     
   3.7183095328667301E-002  0.19695260129265887        0.0000000000000000     
   3.7542799486620523E-002  0.20517881747537864        0.0000000000000000     
   3.7857671655998563E-002  0.21346940643309423        0.0000000000000000     
   3.8127711836801442E-002  0.22182436816580559        0.0000000000000000     
   3.8352920029029160E-002  0.23024370267351274        0.0000000000000000     
   3.0814177642773485E-002  0.19686574702593437        0.0000000000000000     
   3.1108002824760034E-002  0.20510272318085870        0.0000000000000000     
   3.1364874748505252E-002  0.21340052978622381        0.0000000000000000     
   3.1584793414009132E-002  0.22175916684202979        0.0000000000000000     
   3.1767758821271690E-002  0.23017863434827654        0.0000000000000000     
   2.4550917435278905E-002  0.19679757740803466        0.0000000000000000     
   2.4782567770021281E-002  0.20504246529011952        0.0000000000000000     
   2.4985122455945606E-002  0.21334472599889526        0.0000000000000000     
   2.5158581493051880E-002  0.22170435953436179        0.0000000000000000     
   2.5302944881340095E-002  0.23012136589651924        0.0000000000000000     
   5.1884284248021731E-002  0.23039723894442149        0.0000000000000000     
   5.2152361865651510E-002  0.23887181475383740        0.0000000000000000     
   5.2376015410254419E-002  0.24740125849008252        0.0000000000000000     
   5.2555244881830436E-002  0.25598557015315693        0.0000000000000000     
   5.2690050280379555E-002  0.26462474974306055        0.0000000000000000     
   4.5058428504612509E-002  0.23031657087222770        0.0000000000000000     
   4.5285650943716733E-002  0.23878587662339640        0.0000000000000000     
   4.5477866614481610E-002  0.24729257934346952        0.0000000000000000     
   4.5635075516907125E-002  0.25583667903244717        0.0000000000000000     
   4.5757277650993286E-002  0.26441817569032933        0.0000000000000000     
   3.8352920029029160E-002  0.23024370267351274        0.0000000000000000     
   3.8542101232617934E-002  0.23870664161296132        0.0000000000000000     
   3.8704060447503998E-002  0.24719241664089700        0.0000000000000000     
   3.8838797673687350E-002  0.25570102775731979        0.0000000000000000     
   3.8946312911167992E-002  0.26423247496222962        0.0000000000000000     
   3.1767758821271690E-002  0.23017863434827654        0.0000000000000000     
   3.1921712732355105E-002  0.23863410972253232        0.0000000000000000     
   3.2054596909321581E-002  0.24710077038236505        0.0000000000000000     
   3.2166411352171104E-002  0.25557861632777479        0.0000000000000000     
   3.2257156060903680E-002  0.26406764755876166        0.0000000000000000     
   2.5302944881340095E-002  0.23012136589651924        0.0000000000000000     
   2.5424485442928253E-002  0.23856828095210927        0.0000000000000000     
   2.5529475999934350E-002  0.24701764056787359        0.0000000000000000     
   2.5617916552358379E-002  0.25546944474381228        0.0000000000000000     
   2.5689807100200343E-002  0.26392369347992523        0.0000000000000000     
   5.2690050280379555E-002  0.26462474974306055        0.0000000000000000     
   5.2811259014309560E-002  0.27326959350007751        0.0000000000000000     
   5.2949698492028172E-002  0.28187089766449197        0.0000000000000000     
   5.3105368713535411E-002  0.29042866223630392        0.0000000000000000     
   5.3278269678831258E-002  0.29894288721551332        0.0000000000000000     
   4.5757277650993286E-002  0.26441817569032933        0.0000000000000000     
   4.5868590323419806E-002  0.27298712943702569        0.0000000000000000     
   4.5993130840866404E-002  0.28149360039244609        0.0000000000000000     
   4.6130899203333110E-002  0.28993758855659052        0.0000000000000000     
   4.6281895410819889E-002  0.29831909392945899        0.0000000000000000     
   3.8946312911167992E-002  0.26423247496222962        0.0000000000000000     
   3.9045379045377158E-002  0.27273558304035012        0.0000000000000000     
   3.9154768961746092E-002  0.28115917677640478        0.0000000000000000     
   3.9274482660274772E-002  0.28950325617039335        0.0000000000000000     
   3.9404520140963219E-002  0.29776782122231626        0.0000000000000000     
   3.2257156060903680E-002  0.26406764755876166        0.0000000000000000     
   3.2341625180181605E-002  0.27251495431005085        0.0000000000000000     
   3.2434612854667172E-002  0.28086762681636779        0.0000000000000000     
   3.2536119084360396E-002  0.28912566507771259        0.0000000000000000     
   3.2646143869261249E-002  0.29728906909408503        0.0000000000000000     
   2.5689807100200343E-002  0.26392369347992523        0.0000000000000000     
   2.5757328727833147E-002  0.27232524324612783        0.0000000000000000     
   2.5832662519629693E-002  0.28061895051233543        0.0000000000000000     
   2.5915808475589972E-002  0.28880481527854795        0.0000000000000000     
   2.6006766595713989E-002  0.29688283754476541        0.0000000000000000     
   1.4102569933443571E-002   5.5782377196914618E-002   0.0000000000000000     
   1.4861539972554790E-002   6.1374054491980523E-002   0.0000000000000000     
   1.5596926765186880E-002   6.7150840703900816E-002   0.0000000000000000     
   1.6308730311339840E-002   7.3112735832675455E-002   0.0000000000000000     
   1.6996950611013667E-002   7.9259739878304480E-002   0.0000000000000000     
   1.0648264119483414E-002   5.5581279873786867E-002   0.0000000000000000     
   1.1193064961505720E-002   6.1178205502341411E-002   0.0000000000000000     
   1.1724639057700525E-002   6.6960541999675591E-002   0.0000000000000000     
   1.2242986408067829E-002   7.2928289365789364E-002   0.0000000000000000     
   1.2748107012607632E-002   7.9081447600682753E-002   0.0000000000000000     
   7.1464005112369892E-003   5.5437638946540163E-002   0.0000000000000000     
   7.4933166152934914E-003   6.1038313378798795E-002   0.0000000000000000     
   7.8343886817733559E-003   6.6824614361115281E-002   0.0000000000000000     
   8.1696167106765846E-003   7.2796541893489622E-002   0.0000000000000000     
   8.4990007020031757E-003   7.8954095975921845E-002   0.0000000000000000     
   3.5969791087042948E-003   5.5351454415174535E-002   0.0000000000000000     
   3.7622949339181019E-003   6.0954378121352668E-002   0.0000000000000000     
   3.9261756374053738E-003   6.6743057788219914E-002   0.0000000000000000     
   4.0886212191661078E-003   7.2717493415776241E-002   0.0000000000000000     
   4.2496316792003065E-003   7.8877685004021689E-002   0.0000000000000000     
  -8.8114667905897504E-011   5.5322726279689954E-002   0.0000000000000000     
  -8.2620445641251594E-011   6.0926399730003029E-002   0.0000000000000000     
  -7.5403424281382525E-011   6.6715872280989449E-002   0.0000000000000000     
  -6.6463601522360680E-011   7.2691143932649221E-002   0.0000000000000000     
  -5.5800979288644914E-011   7.8852214684982339E-002   0.0000000000000000     
   1.6996950611013667E-002   7.9259739878304480E-002   0.0000000000000000     
   1.7661836636050712E-002   8.5578670788798661E-002   0.0000000000000000     
   1.8303637358293309E-002   9.2056346512168846E-002   0.0000000000000000     
   1.8922352777741461E-002   9.8692767048414967E-002   0.0000000000000000     
   1.9517982894395169E-002  0.10548793239753709        0.0000000000000000     
   1.2748107012607632E-002   7.9081447600682753E-002   0.0000000000000000     
   1.3238627319478443E-002   8.5406853465771398E-002   0.0000000000000000     
   1.3713173776838781E-002   9.1891343722470931E-002   0.0000000000000000     
   1.4171746384688644E-002   9.8534918370781349E-002   0.0000000000000000     
   1.4614345143028033E-002  0.10533757741070264        0.0000000000000000     
   8.4990007020031757E-003   7.8954095975921845E-002   0.0000000000000000     
   8.8205847671500148E-003   8.5284126807455229E-002   0.0000000000000000     
   9.1324130175139857E-003   9.1773484587133108E-002   0.0000000000000000     
   9.4344854530950834E-003   9.8422169314955552E-002   0.0000000000000000     
   9.7268020738933165E-003  0.10523018099092249        0.0000000000000000     
   4.2496316792003065E-003   7.8877685004021689E-002   0.0000000000000000     
   4.4077089790654223E-003   8.5210490813850140E-002   0.0000000000000000     
   4.5613550803189152E-003   9.1702769106155435E-002   0.0000000000000000     
   4.7105699829607800E-003   9.8354519880937574E-002   0.0000000000000000     
   4.8553536869910202E-003  0.10516574313819663        0.0000000000000000     
  -5.5800979288644914E-011   7.8852214684982339E-002   0.0000000000000000     
  -4.4775329711282952E-011   8.5185945484956116E-002   0.0000000000000000     
  -3.4746425138162951E-011   9.1679197279537814E-002   0.0000000000000000     
  -2.5714268334000451E-011   9.8331970068727473E-002   0.0000000000000000     
  -1.7678855775138391E-011  0.10514426385252507        0.0000000000000000     
   1.9517982894395169E-002  0.10548793239753709        0.0000000000000000     
   2.0088591896920395E-002  0.11243038518650371        0.0000000000000000     
   2.0632243973983087E-002  0.11950866804228330        0.0000000000000000     
   2.1148939125583254E-002  0.12672278096487591        0.0000000000000000     
   2.1638677351720891E-002  0.13407272395428155        0.0000000000000000     
   1.4614345143028033E-002  0.10533757741070264        0.0000000000000000     
   1.5039012144426515E-002  0.11228773983015579        0.0000000000000000     
   1.5443789481453656E-002  0.11937382461706185        0.0000000000000000     
   1.5828677154109457E-002  0.12659583177142070        0.0000000000000000     
   1.6193675162393922E-002  0.13395376129323242        0.0000000000000000     
   9.7268020738933165E-003  0.10523018099092249        0.0000000000000000     
   1.0007720242318444E-002  0.11218585028923378        0.0000000000000000     
   1.0275597320780230E-002  0.11927750788408932        0.0000000000000000     
   1.0530433309278671E-002  0.12650515377548904        0.0000000000000000     
   1.0772228207813771E-002  0.13386878796343296        0.0000000000000000     
   4.8553536869910202E-003  0.10516574313819663        0.0000000000000000     
   4.9947161905961801E-003  0.11212471656373764        0.0000000000000000     
   5.1276674919628028E-003  0.11921971784336574        0.0000000000000000     
   5.2542075910908910E-003  0.12645074697708092        0.0000000000000000     
   5.3743364879804412E-003  0.13381780396488319        0.0000000000000000     
  -1.7678855775138391E-011  0.10514426385252507        0.0000000000000000     
  -1.0740277590903791E-011  0.11210433865366737        0.0000000000000000     
  -4.9986208748575844E-012  0.11920045449489114        0.0000000000000000     
  -4.5388530173912089E-013  0.12643261137619632        0.0000000000000000     
   2.8939294537122517E-012  0.13380080929758301        0.0000000000000000     
   2.1638677351720891E-002  0.13407272395428155        0.0000000000000000     
   2.2101258527152796E-002  0.14154637267644993        0.0000000000000000     
   2.2536482526635759E-002  0.14913160279733093        0.0000000000000000     
   2.2944349350169785E-002  0.15682841431692454        0.0000000000000000     
   2.3324858997754869E-002  0.16463680723523078        0.0000000000000000     
   1.6193675162393922E-002  0.13395376129323242        0.0000000000000000     
   1.6538397563129536E-002  0.14143559741720885        0.0000000000000000     
   1.6862458413138787E-002  0.14902932437806174        0.0000000000000000     
   1.7165857712421673E-002  0.15673494217579120        0.0000000000000000     
   1.7448595460978201E-002  0.16455245081039713        0.0000000000000000     
   1.0772228207813771E-002  0.13386878796343296        0.0000000000000000     
   1.1000567488133429E-002  0.14135647223170428        0.0000000000000000     
   1.1215036621985532E-002  0.14895626836408621        0.0000000000000000     
   1.1415635609370088E-002  0.15666817636057873        0.0000000000000000     
   1.1602364450287089E-002  0.16449219622118180        0.0000000000000000     
   5.3743364879804412E-003  0.13381780396488319        0.0000000000000000     
   5.4877683021644728E-003  0.14130899711993636        0.0000000000000000     
   5.5942171531759991E-003  0.14891243475540433        0.0000000000000000     
   5.6936830410150201E-003  0.15662811687128714        0.0000000000000000     
   5.7861659656815384E-003  0.16445604346758474        0.0000000000000000     
   2.8939294537122517E-012  0.13380080929758301        0.0000000000000000     
   5.2226699527591069E-012  0.14129317208190501        0.0000000000000000     
   6.7101870934727081E-012  0.14889782355201617        0.0000000000000000     
   7.3564787074487104E-012  0.15661476370791649        0.0000000000000000     
   7.1615452283679826E-012  0.16444399254960601        0.0000000000000000     
   2.3324858997754869E-002  0.16463680723523078        0.0000000000000000     
   2.3676610944808080E-002  0.17254499308427787        0.0000000000000000     
   2.3998204666746490E-002  0.18054118339609423        0.0000000000000000     
   2.4289640163570096E-002  0.18862537817067984        0.0000000000000000     
   2.4550917435278905E-002  0.19679757740803466        0.0000000000000000     
   1.7448595460978201E-002  0.16455245081039713        0.0000000000000000     
   1.7709779817979405E-002  0.17246964464492121        0.0000000000000000     
   1.7948518942596341E-002  0.18047431804240502        0.0000000000000000     
   1.8164812834829000E-002  0.18856647100284860        0.0000000000000000     
   1.8358661494677388E-002  0.19674610352625194        0.0000000000000000     
   1.1602364450287089E-002  0.16449219622118180        0.0000000000000000     
   1.1774734285997989E-002  0.17241582433109412        0.0000000000000000     
   1.1932256257764236E-002  0.18042655707551430        0.0000000000000000     
   1.2074930365585828E-002  0.18852439445444238        0.0000000000000000     
   1.2202756609462767E-002  0.19670933646787833        0.0000000000000000     
   5.7861659656815384E-003  0.16445604346758474        0.0000000000000000     
   5.8714743488638300E-003  0.17238353214279656        0.0000000000000000     
   5.9494166122501810E-003  0.18039790049542206        0.0000000000000000     
   6.0199927558405864E-003  0.18849914852546115        0.0000000000000000     
   6.0832027796350495E-003  0.19668727623291388        0.0000000000000000     
   7.1615452283679826E-012  0.16444399254960601        0.0000000000000000     
   6.5769284549738183E-012  0.17237276808002866        0.0000000000000000     
   6.0541720291532042E-012  0.18038834830212830        0.0000000000000000     
   5.5932715327822874E-012  0.18849073321590498        0.0000000000000000     
   5.1942300287322052E-012  0.19667992282135863        0.0000000000000000     
   2.4550917435278905E-002  0.19679757740803466        0.0000000000000000     
   2.4782567770021281E-002  0.20504246529011952        0.0000000000000000     
   2.4985122455945606E-002  0.21334472599889526        0.0000000000000000     
   2.5158581493051880E-002  0.22170435953436179        0.0000000000000000     
   2.5302944881340095E-002  0.23012136589651924        0.0000000000000000     
   1.8358661494677388E-002  0.19674610352625194        0.0000000000000000     
   1.8530591596314715E-002  0.20499666806239189        0.0000000000000000     
   1.8681129813914201E-002  0.21330161706104556        0.0000000000000000     
   1.8810276147475841E-002  0.22166095052221285        0.0000000000000000     
   1.8918030596999640E-002  0.23007466844589380        0.0000000000000000     
   1.2202756609462767E-002  0.19670933646787833        0.0000000000000000     
   1.2316171577550775E-002  0.20496395575690671        0.0000000000000000     
   1.2415611858005582E-002  0.21327082496261193        0.0000000000000000     
   1.2501077450827180E-002  0.22162994408499415        0.0000000000000000     
   1.2572568356015581E-002  0.23004131312405329        0.0000000000000000     
   6.0832027796350495E-003  0.19668727623291388        0.0000000000000000     
   6.1393077137294723E-003  0.20494432837366380        0.0000000000000000     
   6.1885685882197587E-003  0.21325234970359447        0.0000000000000000     
   6.2309854031059085E-003  0.22161134022270573        0.0000000000000000     
   6.2665581583879219E-003  0.23002129993099779        0.0000000000000000     
   5.1942300287322052E-012  0.19667992282135863        0.0000000000000000     
   4.8507983654161313E-012  0.20493778591266332        0.0000000000000000     
   4.5567250060024600E-012  0.21324619128399297        0.0000000000000000     
   4.3120136909886864E-012  0.22160513893534764        0.0000000000000000     
   4.1166614388188361E-012  0.23001462886672724        0.0000000000000000     
   2.5302944881340095E-002  0.23012136589651924        0.0000000000000000     
   2.5424485442928253E-002  0.23856828095210927        0.0000000000000000     
   2.5529475999934350E-002  0.24701764056787359        0.0000000000000000     
   2.5617916552358379E-002  0.25546944474381228        0.0000000000000000     
   2.5689807100200343E-002  0.26392369347992523        0.0000000000000000     
   1.8918030596999640E-002  0.23007466844589380        0.0000000000000000     
   1.9008720089985748E-002  0.23851361339300975        0.0000000000000000     
   1.9086671553934318E-002  0.24694862792448219        0.0000000000000000     
   1.9151884988845354E-002  0.25537971204031107        0.0000000000000000     
   1.9204360394718848E-002  0.26380686574049644        0.0000000000000000     
   1.2572568356015581E-002  0.23004131312405329        0.0000000000000000     
   1.2632717399175958E-002  0.23847456513655138        0.0000000000000000     
   1.2684157405913495E-002  0.24689933317925031        0.0000000000000000     
   1.2726888376228188E-002  0.25531561725215024        0.0000000000000000     
   1.2760910310120043E-002  0.26372341735525107        0.0000000000000000     
   6.2665581583879219E-003  0.23002129993099779        0.0000000000000000     
   6.2964773704988816E-003  0.23845113618273400        0.0000000000000000     
   6.3219335558718703E-003  0.24686975633217806        0.0000000000000000     
   6.3429267145068864E-003  0.25527716037932979        0.0000000000000000     
   6.3594568464039308E-003  0.26367334832418932        0.0000000000000000     
   4.1166614388188361E-012  0.23001462886672724        0.0000000000000000     
   3.9545216060088428E-012  0.23844332653155778        0.0000000000000000     
   3.8094526448248511E-012  0.24685989738326528        0.0000000000000000     
   3.6814468303263820E-012  0.25526434142184973        0.0000000000000000     
   3.5705115079831540E-012  0.26365665864731097        0.0000000000000000     
   2.5689807100200343E-002  0.26392369347992523        0.0000000000000000     
   2.5757328727833147E-002  0.27232524324612783        0.0000000000000000     
   2.5832662519629693E-002  0.28061895051233543        0.0000000000000000     
   2.5915808475589972E-002  0.28880481527854795        0.0000000000000000     
   2.6006766595713989E-002  0.29688283754476541        0.0000000000000000     
   1.9204360394718848E-002  0.26380686574049644        0.0000000000000000     
   1.9254069873116623E-002  0.27217277254426531        0.0000000000000000     
   1.9310985525600503E-002  0.28042011597084493        0.0000000000000000     
   1.9375107352170479E-002  0.28854889602023526        0.0000000000000000     
   1.9446435352826558E-002  0.29655911269243629        0.0000000000000000     
   1.2760910310120043E-002  0.26372341735525107        0.0000000000000000     
   1.2793428800816874E-002  0.27206386490014739        0.0000000000000000     
   1.2831649441546491E-002  0.28027809129843378        0.0000000000000000     
   1.2875572232308896E-002  0.28836609655011014        0.0000000000000000     
   1.2925197173104091E-002  0.29632788065517651        0.0000000000000000     
   6.3594568464039308E-003  0.26367334832418932        0.0000000000000000     
   6.3754055109338905E-003  0.27199852031377414        0.0000000000000000     
   6.3946542674676527E-003  0.28019287649510188        0.0000000000000000     
   6.4172031160052174E-003  0.28825641686817272        0.0000000000000000     
   6.4430520565465863E-003  0.29618914143298625        0.0000000000000000     
   3.5705115079831540E-012  0.26365665864731097        0.0000000000000000     
   3.4676801360933318E-012  0.27197673878514544        0.0000000000000000     
   3.3639915939659426E-012  0.28016447156084939        0.0000000000000000     
   3.2594470200132675E-012  0.28821985697442265        0.0000000000000000     
   3.1540438663602011E-012  0.29614289502586538        0.0000000000000000     
  -8.8114667905897504E-011   5.5322726279689954E-002   0.0000000000000000     
  -8.2620445641251594E-011   6.0926399730003029E-002   0.0000000000000000     
  -7.5403424281382525E-011   6.6715872280989449E-002   0.0000000000000000     
  -6.6463601522360680E-011   7.2691143932649221E-002   0.0000000000000000     
  -5.5800979288644914E-011   7.8852214684982339E-002   0.0000000000000000     
  -3.5969792742147270E-003   5.5351454531319594E-002   0.0000000000000000     
  -3.7622950894266767E-003   6.0954378198989016E-002   0.0000000000000000     
  -3.9261757795485998E-003   6.6743057836015265E-002   0.0000000000000000     
  -4.0886213445804950E-003   7.2717493442398334E-002   0.0000000000000000     
  -4.2496317845223640E-003   7.8877685018138244E-002   0.0000000000000000     
  -7.1464006445907113E-003   5.5437639161296598E-002   0.0000000000000000     
  -7.4933167416051114E-003   6.1038313522549778E-002   0.0000000000000000     
  -7.8343887979257162E-003   6.6824614449888714E-002   0.0000000000000000     
  -8.1696168135525198E-003   7.2796541943313378E-002   0.0000000000000000     
  -8.4990007884855300E-003   7.8954096002823812E-002   0.0000000000000000     
  -1.0648264199242618E-002   5.5581280169620967E-002   0.0000000000000000     
  -1.1193065039155752E-002   6.1178205700685308E-002   0.0000000000000000     
  -1.1724639130534772E-002   6.6960542122609781E-002   0.0000000000000000     
  -1.2242986473379680E-002   7.2928289435394367E-002   0.0000000000000000     
  -1.2748107067690480E-002   7.9081447639039112E-002   0.0000000000000000     
  -1.4102569938170452E-002   5.5782377556292714E-002   0.0000000000000000     
  -1.4861539982078596E-002   6.1374054733395619E-002   0.0000000000000000     
  -1.5596926777375768E-002   6.7150840854178495E-002   0.0000000000000000     
  -1.6308730324061972E-002   7.3112735918641314E-002   0.0000000000000000     
  -1.6996950622137207E-002   7.9259739926784104E-002   0.0000000000000000     
  -5.5800979288644914E-011   7.8852214684982339E-002   0.0000000000000000     
  -4.4775329711282952E-011   8.5185945484956116E-002   0.0000000000000000     
  -3.4746425138162951E-011   9.1679197279537814E-002   0.0000000000000000     
  -2.5714268334000451E-011   9.8331970068727473E-002   0.0000000000000000     
  -1.7678855775138391E-011  0.10514426385252507        0.0000000000000000     
  -4.2496317845223640E-003   7.8877685018138244E-002   0.0000000000000000     
  -4.4077090635479370E-003   8.5210490820731233E-002   0.0000000000000000     
  -4.5613551458309485E-003   9.1702769107673610E-002   0.0000000000000000     
  -4.7105700313713975E-003   9.8354519878965388E-002   0.0000000000000000     
  -4.8553537201692807E-003  0.10516574313460655        0.0000000000000000     
  -8.4990007884855300E-003   7.8954096002823812E-002   0.0000000000000000     
  -8.8205848364280928E-003   8.5284126821133538E-002   0.0000000000000000     
  -9.1324130710835651E-003   9.1773484590956134E-002   0.0000000000000000     
  -9.4344854924519415E-003   9.8422169312291544E-002   0.0000000000000000     
  -9.7268021005332238E-003  0.10523018098513980        0.0000000000000000     
  -1.2748107067690480E-002   7.9081447639039112E-002   0.0000000000000000     
  -1.3238627363415795E-002   8.5406853486163073E-002   0.0000000000000000     
  -1.3713173810504272E-002   9.1891343729385344E-002   0.0000000000000000     
  -1.4171746408955905E-002   9.8534918368705926E-002   0.0000000000000000     
  -1.4614345158770690E-002  0.10533757740412480        0.0000000000000000     
  -1.6996950622137207E-002   7.9259739926784104E-002   0.0000000000000000     
  -1.7661836644511049E-002   8.5578670815819768E-002   0.0000000000000000     
  -1.8303637364093076E-002   9.2056346522961227E-002   0.0000000000000000     
  -1.8922352780883278E-002   9.8692767048208507E-002   0.0000000000000000     
  -1.9517982894881668E-002  0.10548793239156157        0.0000000000000000     
  -1.7678855775138391E-011  0.10514426385252507        0.0000000000000000     
  -1.0740277590903791E-011  0.11210433865366737        0.0000000000000000     
  -4.9986208748575844E-012  0.11920045449489114        0.0000000000000000     
  -4.5388530173912089E-013  0.12643261137619632        0.0000000000000000     
   2.8939294537122517E-012  0.13380080929758301        0.0000000000000000     
  -4.8553537201692807E-003  0.10516574313460655        0.0000000000000000     
  -4.9947162106092199E-003  0.11212471655967360        0.0000000000000000     
  -5.1276675010758282E-003  0.11921971783924294        0.0000000000000000     
  -5.2542075915691057E-003  0.12645074697331468        0.0000000000000000     
  -5.3743364820890531E-003  0.13381780396188875        0.0000000000000000     
  -9.7268021005332238E-003  0.10523018098513980        0.0000000000000000     
  -1.0007720257928936E-002  0.11218585028240685        0.0000000000000000     
  -1.0275597327240605E-002  0.11927750787699869        0.0000000000000000     
  -1.0530433308468220E-002  0.12650515376891525        0.0000000000000000     
  -1.0772228201611795E-002  0.13386878795815665        0.0000000000000000     
  -1.4614345158770690E-002  0.10533757740412480        0.0000000000000000     
  -1.5039012152699437E-002  0.11228773982186720        0.0000000000000000     
  -1.5443789483492955E-002  0.11937382460815830        0.0000000000000000     
  -1.5828677151151237E-002  0.12659583176299813        0.0000000000000000     
  -1.6193675155674297E-002  0.13395376128638664        0.0000000000000000     
  -1.9517982894881668E-002  0.10548793239156157        0.0000000000000000     
  -2.0088591894920713E-002  0.11243038517805461        0.0000000000000000     
  -2.0632243969832872E-002  0.11950866803272182        0.0000000000000000     
  -2.1148939119618158E-002  0.12672278095556322        0.0000000000000000     
  -2.1638677344276561E-002  0.13407272394657879        0.0000000000000000     
   2.8939294537122517E-012  0.13380080929758301        0.0000000000000000     
   5.2226699527591069E-012  0.14129317208190501        0.0000000000000000     
   6.7101870934727081E-012  0.14889782355201617        0.0000000000000000     
   7.3564787074487104E-012  0.15661476370791649        0.0000000000000000     
   7.1615452283679826E-012  0.16444399254960601        0.0000000000000000     
  -5.3743364820890531E-003  0.13381780396188875        0.0000000000000000     
  -5.4877682918381661E-003  0.14130899711784270        0.0000000000000000     
  -5.5942171400189342E-003  0.14891243475405416        0.0000000000000000     
  -5.6936830266313635E-003  0.15662811687052308        0.0000000000000000     
  -5.7861659516754487E-003  0.16445604346724951        0.0000000000000000     
  -1.0772228201611795E-002  0.13386878795815665        0.0000000000000000     
  -1.1000567478164221E-002  0.14135647222798206        0.0000000000000000     
  -1.1215036609618397E-002  0.14895626836165096        0.0000000000000000     
  -1.1415635595974322E-002  0.15666817635916330        0.0000000000000000     
  -1.1602364437232003E-002  0.16449219622051914        0.0000000000000000     
  -1.6193675155674297E-002  0.13395376128638664        0.0000000000000000     
  -1.6538397553755496E-002  0.14143559741232303        0.0000000000000000     
  -1.6862458402088193E-002  0.14902932437480654        0.0000000000000000     
  -1.7165857700672409E-002  0.15673494217383718        0.0000000000000000     
  -1.7448595449508119E-002  0.16455245080941491        0.0000000000000000     
  -2.1638677344276561E-002  0.13407272394657879        0.0000000000000000     
  -2.2101258518611989E-002  0.14154637267086570        0.0000000000000000     
  -2.2536482517428336E-002  0.14913160279352097        0.0000000000000000     
  -2.2944349340725607E-002  0.15682841431454470        0.0000000000000000     
  -2.3324858988503800E-002  0.16463680723393684        0.0000000000000000     
   7.1615452283679826E-012  0.16444399254960601        0.0000000000000000     
   6.5769284549738183E-012  0.17237276808002866        0.0000000000000000     
   6.0541720291532042E-012  0.18038834830212830        0.0000000000000000     
   5.5932715327822874E-012  0.18849073321590498        0.0000000000000000     
   5.1942300287322052E-012  0.19667992282135863        0.0000000000000000     
  -5.7861659516754487E-003  0.16445604346724951        0.0000000000000000     
  -5.8714743359789597E-003  0.17238353214276075        0.0000000000000000     
  -5.9494166003696593E-003  0.18039790049558432        0.0000000000000000     
  -6.0199927448475483E-003  0.18849914852572014        0.0000000000000000     
  -6.0832027694126302E-003  0.19668727623316817        0.0000000000000000     
  -1.1602364437232003E-002  0.16449219622051914        0.0000000000000000     
  -1.1774734273920076E-002  0.17241582433096345        0.0000000000000000     
  -1.1932256246567179E-002  0.18042655707574143        0.0000000000000000     
  -1.2074930355173314E-002  0.18852439445485303        0.0000000000000000     
  -1.2202756599738475E-002  0.19670933646829822        0.0000000000000000     
  -1.7448595449508119E-002  0.16455245080941491        0.0000000000000000     
  -1.7709779807246417E-002  0.17246964464463671        0.0000000000000000     
  -1.7948518932538387E-002  0.18047431804259959        0.0000000000000000     
  -1.8164812825384010E-002  0.18856647100330362        0.0000000000000000     
  -1.8358661485783304E-002  0.19674610352674876        0.0000000000000000     
  -2.3324858988503800E-002  0.16463680723393684        0.0000000000000000     
  -2.3676610935957999E-002  0.17254499308378052        0.0000000000000000     
  -2.3998204658283281E-002  0.18054118339615888        0.0000000000000000     
  -2.4289640155479655E-002  0.18862537817107200        0.0000000000000000     
  -2.4550917427547118E-002  0.19679757740851975        0.0000000000000000     
   5.1942300287322052E-012  0.19667992282135863        0.0000000000000000     
   4.8507983654161313E-012  0.20493778591266332        0.0000000000000000     
   4.5567250060024600E-012  0.21324619128399297        0.0000000000000000     
   4.3120136909886864E-012  0.22160513893534764        0.0000000000000000     
   4.1166614388188361E-012  0.23001462886672724        0.0000000000000000     
  -6.0832027694126302E-003  0.19668727623316817        0.0000000000000000     
  -6.1393077041719890E-003  0.20494432837387519        0.0000000000000000     
  -6.1885685792327097E-003  0.21325234970378781        0.0000000000000000     
  -6.2309853945947949E-003  0.22161134022290604        0.0000000000000000     
  -6.2665581502582461E-003  0.23002129993122986        0.0000000000000000     
  -1.2202756599738475E-002  0.19670933646829822        0.0000000000000000     
  -1.2316171568425632E-002  0.20496395575726950        0.0000000000000000     
  -1.2415611849397741E-002  0.21327082496295918        0.0000000000000000     
  -1.2501077442654815E-002  0.22162994408536732        0.0000000000000000     
  -1.2572568348196844E-002  0.23004131312449391        0.0000000000000000     
  -1.8358661485783304E-002  0.19674610352674876        0.0000000000000000     
  -1.8530591587910133E-002  0.20499666806284614        0.0000000000000000     
  -1.8681129805938380E-002  0.21330161706150705        0.0000000000000000     
  -1.8810276139868045E-002  0.22166095052273144        0.0000000000000000     
  -1.8918030589699132E-002  0.23007466844651936        0.0000000000000000     
  -2.4550917427547118E-002  0.19679757740851975        0.0000000000000000     
  -2.4782567762625496E-002  0.20504246529060524        0.0000000000000000     
  -2.4985122448854612E-002  0.21334472599943147        0.0000000000000000     
  -2.5158581486234489E-002  0.22170435953499851        0.0000000000000000     
  -2.5302944874765108E-002  0.23012136589730625        0.0000000000000000     
   4.1166614388188361E-012  0.23001462886672724        0.0000000000000000     
   3.9545216060088428E-012  0.23844332653155778        0.0000000000000000     
   3.8094526448248511E-012  0.24685989738326528        0.0000000000000000     
   3.6814468303263820E-012  0.25526434142184973        0.0000000000000000     
   3.5705115079831540E-012  0.26365665864731097        0.0000000000000000     
  -6.2665581502582461E-003  0.23002129993122986        0.0000000000000000     
  -6.2964773626868519E-003  0.23845113618301086        0.0000000000000000     
  -6.3219335483444073E-003  0.24686975633250063        0.0000000000000000     
  -6.3429267072309115E-003  0.25527716037969916        0.0000000000000000     
  -6.3594568393463644E-003  0.26367334832460643        0.0000000000000000     
  -1.2572568348196844E-002  0.23004131312449391        0.0000000000000000     
  -1.2632717391654969E-002  0.23847456513708151        0.0000000000000000     
  -1.2684157398660348E-002  0.24689933317987273        0.0000000000000000     
  -1.2726888369212971E-002  0.25531561725286744        0.0000000000000000     
  -1.2760910303312847E-002  0.26372341735606580        0.0000000000000000     
  -1.8918030589699132E-002  0.23007466844651936        0.0000000000000000     
  -1.9008720082949838E-002  0.23851361339376970        0.0000000000000000     
  -1.9086671547138372E-002  0.24694862792538147        0.0000000000000000     
  -1.9151884982264736E-002  0.25537971204135457        0.0000000000000000     
  -1.9204360388328935E-002  0.26380686574168910        0.0000000000000000     
  -2.5302944874765108E-002  0.23012136589730625        0.0000000000000000     
  -2.5424485436571442E-002  0.23856828095307542        0.0000000000000000     
  -2.5529475993778483E-002  0.24701764056902689        0.0000000000000000     
  -2.5617916546386208E-002  0.25546944474516053        0.0000000000000000     
  -2.5689807094394630E-002  0.26392369348147637        0.0000000000000000     
   3.5705115079831540E-012  0.26365665864731097        0.0000000000000000     
   3.4676801360933318E-012  0.27197673878514544        0.0000000000000000     
   3.3639915939659426E-012  0.28016447156084939        0.0000000000000000     
   3.2594470200132675E-012  0.28821985697442265        0.0000000000000000     
   3.1540438663602011E-012  0.29614289502586538        0.0000000000000000     
  -6.3594568393463644E-003  0.26367334832460643        0.0000000000000000     
  -6.3754055040792105E-003  0.27199852031425209        0.0000000000000000     
  -6.3946542608178921E-003  0.28019287649566582        0.0000000000000000     
  -6.4172031095624067E-003  0.28825641686884751        0.0000000000000000     
  -6.4430520503127586E-003  0.29618914143379738        0.0000000000000000     
  -1.2760910303312847E-002  0.26372341735606580        0.0000000000000000     
  -1.2793428794204233E-002  0.27206386490108464        0.0000000000000000     
  -1.2831649435131393E-002  0.28027809129954090        0.0000000000000000     
  -1.2875572226094329E-002  0.28836609655143458        0.0000000000000000     
  -1.2925197167093044E-002  0.29632788065676563        0.0000000000000000     
  -1.9204360388328935E-002  0.26380686574168910        0.0000000000000000     
  -1.9254069866907385E-002  0.27217277254564309        0.0000000000000000     
  -1.9310985519576516E-002  0.28042011597247463        0.0000000000000000     
  -1.9375107346336320E-002  0.28854889602218370        0.0000000000000000     
  -1.9446435347186809E-002  0.29655911269477020        0.0000000000000000     
  -2.5689807094394630E-002  0.26392369348147637        0.0000000000000000     
  -2.5757328722188673E-002  0.27232524324792751        0.0000000000000000     
  -2.5832662514153254E-002  0.28061895051446706        0.0000000000000000     
  -2.5915808470288383E-002  0.28880481528109492        0.0000000000000000     
  -2.6006766590594060E-002  0.29688283754781114        0.0000000000000000     
  -1.4102569938170452E-002   5.5782377556292714E-002   0.0000000000000000     
  -1.4861539982078596E-002   6.1374054733395619E-002   0.0000000000000000     
  -1.5596926777375768E-002   6.7150840854178495E-002   0.0000000000000000     
  -1.6308730324061972E-002   7.3112735918641314E-002   0.0000000000000000     
  -1.6996950622137207E-002   7.9259739926784104E-002   0.0000000000000000     
  -1.7600264968441956E-002   5.6040509387192253E-002   0.0000000000000000     
  -1.8576668759871365E-002   6.1625993283840344E-002   0.0000000000000000     
  -1.9518452061749111E-002   6.7395984904617831E-002   0.0000000000000000     
  -2.0425614874075196E-002   7.3350484249524756E-002   0.0000000000000000     
  -2.1298157196849632E-002   7.9489491318561104E-002   0.0000000000000000     
  -2.1232296397124879E-002   5.6355253728200015E-002   0.0000000000000000     
  -2.2416378562031779E-002   6.1934154015179127E-002   0.0000000000000000     
  -2.3556415306955198E-002   6.7696448533950904E-002   0.0000000000000000     
  -2.4652406631895156E-002   7.3642137284515352E-002   0.0000000000000000     
  -2.5704352536851646E-002   7.9771220266872403E-002   0.0000000000000000     
  -2.4998664224219227E-002   5.6726610579315988E-002   0.0000000000000000     
  -2.6380669388559836E-002   6.2298536927411996E-002   0.0000000000000000     
  -2.7710816512994042E-002   6.8052231742177671E-002   0.0000000000000000     
  -2.8989105597521853E-002   7.3987695023613007E-002   0.0000000000000000     
  -3.0215536642143249E-002   8.0104926771718030E-002   0.0000000000000000     
  -2.8899368449724988E-002   5.7154579940540184E-002   0.0000000000000000     
  -3.0469541239455538E-002   6.2719142020538909E-002   0.0000000000000000     
  -3.1981655679865634E-002   6.8463334529298120E-002   0.0000000000000000     
  -3.3435711770955272E-002   7.4387157466817788E-002   0.0000000000000000     
  -3.4831709512724462E-002   8.0490610833097970E-002   0.0000000000000000     
  -1.6996950622137207E-002   7.9259739926784104E-002   0.0000000000000000     
  -1.7661836644511049E-002   8.5578670815819768E-002   0.0000000000000000     
  -1.8303637364093076E-002   9.2056346522961227E-002   0.0000000000000000     
  -1.8922352780883278E-002   9.8692767048208507E-002   0.0000000000000000     
  -1.9517982894881668E-002  0.10548793239156157        0.0000000000000000     
  -2.1298157196849632E-002   7.9489491318561104E-002   0.0000000000000000     
  -2.2138257809389550E-002   8.5799961729219998E-002   0.0000000000000000     
  -2.2948095491012122E-002   9.2268851098994631E-002   0.0000000000000000     
  -2.3727670241717350E-002   9.8896159427885016E-002   0.0000000000000000     
  -2.4476982061505219E-002  0.10568188671589114        0.0000000000000000     
  -2.5704352536851646E-002   7.9771220266872403E-002   0.0000000000000000     
  -2.6715935987727001E-002   8.6071109145480079E-002   0.0000000000000000     
  -2.7690839950423582E-002   9.2529215584796376E-002   0.0000000000000000     
  -2.8629064424941380E-002   9.9145539584821196E-002   0.0000000000000000     
  -2.9530609411280394E-002  0.10592008114555462        0.0000000000000000     
  -3.0215536642143249E-002   8.0104926771718030E-002   0.0000000000000000     
  -3.1394871179523408E-002   8.6392113064600040E-002   0.0000000000000000     
  -3.2531870742327440E-002   9.2837439980366379E-002   0.0000000000000000     
  -3.3626535330555388E-002   9.9440907519017033E-002   0.0000000000000000     
  -3.4678864944207202E-002  0.10620251568055201        0.0000000000000000     
  -3.4831709512724462E-002   8.0490610833097970E-002   0.0000000000000000     
  -3.6175063384778758E-002   8.6762973486579853E-002   0.0000000000000000     
  -3.7471187866723710E-002   9.3193524285704710E-002   0.0000000000000000     
  -3.8720082958559332E-002   9.9782263230472526E-002   0.0000000000000000     
  -3.9921748660285625E-002  0.10652919032088330        0.0000000000000000     
  -1.9517982894881668E-002  0.10548793239156157        0.0000000000000000     
  -2.0088591894920713E-002  0.11243038517805461        0.0000000000000000     
  -2.0632243969832872E-002  0.11950866803272182        0.0000000000000000     
  -2.1148939119618158E-002  0.12672278095556322        0.0000000000000000     
  -2.1638677344276561E-002  0.13407272394657879        0.0000000000000000     
  -2.4476982061505219E-002  0.10568188671589114        0.0000000000000000     
  -2.5194178835455303E-002  0.11261465352121898        0.0000000000000000     
  -2.5877408448647169E-002  0.11968308040207454        0.0000000000000000     
  -2.6526670901080806E-002  0.12688716735845779        0.0000000000000000     
  -2.7141966192756221E-002  0.13422691439036880        0.0000000000000000     
  -2.9530609411280394E-002  0.10592008114555462        0.0000000000000000     
  -3.0393492325165777E-002  0.11284141202161026        0.0000000000000000     
  -3.1215730582322649E-002  0.11989810396760175        0.0000000000000000     
  -3.1997324182751030E-002  0.12709015698352905        0.0000000000000000     
  -3.2738273126450904E-002  0.13441757106939223        0.0000000000000000     
  -3.4678864944207202E-002  0.10620251568055201        0.0000000000000000     
  -3.5686532364052115E-002  0.11311066067922845        0.0000000000000000     
  -3.6647210370859322E-002  0.12015373872930345        0.0000000000000000     
  -3.7560898964628830E-002  0.12733174983077702        0.0000000000000000     
  -3.8427598145360627E-002  0.13464469398364914        0.0000000000000000     
  -3.9921748660285625E-002  0.10652919032088330        0.0000000000000000     
  -4.1073298952114319E-002  0.11342239949407351        0.0000000000000000     
  -4.2171847814257174E-002  0.12044998468717963        0.0000000000000000     
  -4.3217395246714189E-002  0.12761194590020164        0.0000000000000000     
  -4.4209941249485379E-002  0.13490828313313957        0.0000000000000000     
  -2.1638677344276561E-002  0.13407272394657879        0.0000000000000000     
  -2.2101258518611989E-002  0.14154637267086570        0.0000000000000000     
  -2.2536482517428336E-002  0.14913160279352097        0.0000000000000000     
  -2.2944349340725607E-002  0.15682841431454470        0.0000000000000000     
  -2.3324858988503800E-002  0.16463680723393684        0.0000000000000000     
  -2.7141966192756221E-002  0.13422691439036880        0.0000000000000000     
  -2.7723332202593196E-002  0.14169012422124300        0.0000000000000000     
  -2.8270806809511509E-002  0.14926459957451593        0.0000000000000000     
  -2.8784390013511164E-002  0.15695034045018758        0.0000000000000000     
  -2.9264081814592165E-002  0.16474734684825795        0.0000000000000000     
  -3.2738273126450904E-002  0.13441757106939223        0.0000000000000000     
  -3.3438800435558594E-002  0.14186817828108800        0.0000000000000000     
  -3.4099129132210401E-002  0.14942981067451311        0.0000000000000000     
  -3.4719259216406312E-002  0.15710246824966753        0.0000000000000000     
  -3.5299190688146347E-002  0.16488615100655135        0.0000000000000000     
  -3.8427598145360627E-002  0.13464469398364914        0.0000000000000000     
  -3.9247663217508208E-002  0.14208053485040073        0.0000000000000000     
  -4.0021449485524996E-002  0.14962723609351258        0.0000000000000000     
  -4.0748956949411053E-002  0.15728479771298468        0.0000000000000000     
  -4.1430185609166330E-002  0.16505321970881703        0.0000000000000000     
  -4.4209941249485379E-002  0.13490828313313957        0.0000000000000000     
  -4.5149920548441996E-002  0.14232719392918117        0.0000000000000000     
  -4.6037767869455327E-002  0.14985687583151425        0.0000000000000000     
  -4.6873483212525373E-002  0.15749732884013887        0.0000000000000000     
  -4.7657066577652132E-002  0.16524855295505497        0.0000000000000000     
  -2.3324858988503800E-002  0.16463680723393684        0.0000000000000000     
  -2.3676610935957999E-002  0.17254499308378052        0.0000000000000000     
  -2.3998204658283281E-002  0.18054118339615888        0.0000000000000000     
  -2.4289640155479655E-002  0.18862537817107200        0.0000000000000000     
  -2.4550917427547118E-002  0.19679757740851975        0.0000000000000000     
  -2.9264081814592165E-002  0.16474734684825795        0.0000000000000000     
  -2.9708022378170846E-002  0.17264422622883832        0.0000000000000000     
  -3.0114351869663540E-002  0.18062958605203996        0.0000000000000000     
  -3.0483070289070248E-002  0.18870342631786288        0.0000000000000000     
  -3.0814177636390973E-002  0.19686574702630696        0.0000000000000000     
  -3.5299190688146347E-002  0.16488615100655135        0.0000000000000000     
  -3.5836808852001009E-002  0.17276970066025363        0.0000000000000000     
  -3.6329999012540824E-002  0.18074195892586353        0.0000000000000000     
  -3.6778761169765806E-002  0.18880292580338098        0.0000000000000000     
  -3.7183095323675946E-002  0.19695260129280609        0.0000000000000000     
  -4.1430185609166330E-002  0.16505321970881703        0.0000000000000000     
  -4.2062970357448493E-002  0.17292141637802638        0.0000000000000000     
  -4.2645146086915157E-002  0.18087830201762953        0.0000000000000000     
  -4.3176712797566338E-002  0.18892387662762647        0.0000000000000000     
  -4.3657670489402028E-002  0.19705814020801718        0.0000000000000000     
  -4.7657066577652132E-002  0.16524855295505497        0.0000000000000000     
  -4.8386506894513286E-002  0.17309937338215664        0.0000000000000000     
  -4.9059793092786512E-002  0.18103861532733806        0.0000000000000000     
  -4.9676925172471832E-002  0.18906627879059923        0.0000000000000000     
  -5.0237903133569219E-002  0.19718236377194015        0.0000000000000000     
  -2.4550917427547118E-002  0.19679757740851975        0.0000000000000000     
  -2.4782567762625496E-002  0.20504246529060524        0.0000000000000000     
  -2.4985122448854612E-002  0.21334472599943147        0.0000000000000000     
  -2.5158581486234489E-002  0.22170435953499851        0.0000000000000000     
  -2.5302944874765108E-002  0.23012136589730625        0.0000000000000000     
  -3.0814177636390973E-002  0.19686574702630696        0.0000000000000000     
  -3.1108002818548055E-002  0.20510272318130338        0.0000000000000000     
  -3.1364874742463814E-002  0.21340052978678312        0.0000000000000000     
  -3.1584793408138266E-002  0.22175916684274619        0.0000000000000000     
  -3.1767758815571416E-002  0.23017863434919258        0.0000000000000000     
  -3.7183095323675946E-002  0.19695260129280609        0.0000000000000000     
  -3.7542799481654156E-002  0.20517881747569716        0.0000000000000000     
  -3.7857671651083336E-002  0.21346940643361259        0.0000000000000000     
  -3.8127711831963521E-002  0.22182436816655243        0.0000000000000000     
  -3.8352920024294676E-002  0.23024370267451658        0.0000000000000000     
  -4.3657670489402028E-002  0.19705814020801718        0.0000000000000000     
  -4.4086957751943781E-002  0.20527074817378663        0.0000000000000000     
  -4.4463513174713191E-002  0.21355135593991997        0.0000000000000000     
  -4.4787336757710232E-002  0.22189996350641714        0.0000000000000000     
  -4.5058428500934909E-002  0.23031657087327817        0.0000000000000000     
  -5.0237903133569219E-002  0.19718236377194015        0.0000000000000000     
  -5.0740477629416969E-002  0.20537851527557183        0.0000000000000000     
  -5.1182399313353374E-002  0.21364637830570521        0.0000000000000000     
  -5.1563668185378414E-002  0.22198595286234041        0.0000000000000000     
  -5.1884284245492109E-002  0.23039723894547734        0.0000000000000000     
  -2.5302944874765108E-002  0.23012136589730625        0.0000000000000000     
  -2.5424485436571442E-002  0.23856828095307542        0.0000000000000000     
  -2.5529475993778483E-002  0.24701764056902689        0.0000000000000000     
  -2.5617916546386208E-002  0.25546944474516053        0.0000000000000000     
  -2.5689807094394630E-002  0.26392369348147637        0.0000000000000000     
  -3.1767758815571416E-002  0.23017863434919258        0.0000000000000000     
  -3.1921712726820844E-002  0.23863410972367427        0.0000000000000000     
  -3.2054596903944181E-002  0.24710077038374323        0.0000000000000000     
  -3.2166411346941419E-002  0.25557861632939938        0.0000000000000000     
  -3.2257156055812572E-002  0.26406764756064288        0.0000000000000000     
  -3.8352920024294676E-002  0.23024370267451658        0.0000000000000000     
  -3.8542101227999080E-002  0.23870664161424174        0.0000000000000000     
  -3.8704060442999011E-002  0.24719241664246472        0.0000000000000000     
  -3.8838797669294441E-002  0.25570102775918535        0.0000000000000000     
  -3.8946312906885390E-002  0.26423247496440372        0.0000000000000000     
  -4.5058428500934909E-002  0.23031657087327817        0.0000000000000000     
  -4.5285650940106170E-002  0.23878587662477790        0.0000000000000000     
  -4.5477866610942941E-002  0.24729257934519128        0.0000000000000000     
  -4.5635075513445263E-002  0.25583667903451834        0.0000000000000000     
  -4.5757277647613080E-002  0.26441817569275905        0.0000000000000000     
  -5.1884284245492109E-002  0.23039723894547734        0.0000000000000000     
  -5.2152361863142094E-002  0.23887181475528263        0.0000000000000000     
  -5.2376015407776005E-002  0.24740125849192302        0.0000000000000000     
  -5.2555244879393871E-002  0.25598557015539841        0.0000000000000000     
  -5.2690050277995663E-002  0.26462474974570882        0.0000000000000000     
  -2.5689807094394630E-002  0.26392369348147637        0.0000000000000000     
  -2.5757328722188673E-002  0.27232524324792751        0.0000000000000000     
  -2.5832662514153254E-002  0.28061895051446706        0.0000000000000000     
  -2.5915808470288383E-002  0.28880481528109492        0.0000000000000000     
  -2.6006766590594060E-002  0.29688283754781114        0.0000000000000000     
  -3.2257156055812572E-002  0.26406764756064288        0.0000000000000000     
  -3.2341625175229080E-002  0.27251495431224210        0.0000000000000000     
  -3.2434612849862446E-002  0.28086762681896582        0.0000000000000000     
  -3.2536119079712628E-002  0.28912566508081405        0.0000000000000000     
  -3.2646143864779674E-002  0.29728906909778663        0.0000000000000000     
  -3.8946312906885390E-002  0.26423247496440372        0.0000000000000000     
  -3.9045379041209603E-002  0.27273558304289108        0.0000000000000000     
  -3.9154768957704873E-002  0.28115917677941876        0.0000000000000000     
  -3.9274482656371179E-002  0.28950325617398676        0.0000000000000000     
  -3.9404520137208542E-002  0.29776782122659501        0.0000000000000000     
  -4.5757277647613080E-002  0.26441817569275905        0.0000000000000000     
  -4.5868590320130249E-002  0.27298712943987452        0.0000000000000000     
  -4.5993130837680571E-002  0.28149360039582588        0.0000000000000000     
  -4.6130899200264044E-002  0.28993758856061319        0.0000000000000000     
  -4.6281895407880656E-002  0.29831909393423628        0.0000000000000000     
  -5.2690050277995663E-002  0.26462474974570882        0.0000000000000000     
  -5.2811259011991005E-002  0.27326959350319235        0.0000000000000000     
  -5.2949698489789511E-002  0.28187089766818718        0.0000000000000000     
  -5.3105368711391182E-002  0.29042866224069325        0.0000000000000000     
  -5.3278269676796018E-002  0.29894288722071050        0.0000000000000000     
  -2.8899368449724988E-002   5.7154579940540184E-002   0.0000000000000000     
  -3.0469541239455538E-002   6.2719142020538909E-002   0.0000000000000000     
  -3.1981655679865634E-002   6.8463334529298120E-002   0.0000000000000000     
  -3.3435711770955272E-002   7.4387157466817788E-002   0.0000000000000000     
  -3.4831709512724462E-002   8.0490610833097970E-002   0.0000000000000000     
  -3.2925866085002684E-002   5.7653212276230187E-002   0.0000000000000000     
  -3.4681933963446668E-002   6.3203826051491108E-002   0.0000000000000000     
  -3.6374118803115668E-002   6.8933287623028999E-002   0.0000000000000000     
  -3.8002420604009678E-002   7.4841596990843862E-002   0.0000000000000000     
  -3.9566839366128703E-002   8.0928754154935695E-002   0.0000000000000000     
  -3.7069614141412813E-002   5.8236558050743598E-002   0.0000000000000000     
  -3.9016787409261011E-002   6.3760445777199831E-002   0.0000000000000000     
  -4.0893391878289845E-002   6.9465621751087087E-002   0.0000000000000000     
  -4.2699427548499320E-002   7.5352085972405336E-002   0.0000000000000000     
  -4.4434894419889417E-002   8.1419838441154635E-002   0.0000000000000000     
  -4.1330612618955390E-002   5.8904617264080424E-002   0.0000000000000000     
  -4.3474101576898572E-002   6.4389001197665080E-002   0.0000000000000000     
  -4.5539474905388178E-002   7.0060336913472340E-002   0.0000000000000000     
  -4.7526732604424186E-002   7.5918624411502281E-002   0.0000000000000000     
  -4.9435874674006605E-002   8.1963863691754860E-002   0.0000000000000000     
  -4.5708861517630400E-002   5.9657389916240658E-002   0.0000000000000000     
  -4.8053876466359342E-002   6.5089492312886826E-002   0.0000000000000000     
  -5.0312367884410646E-002   7.0717433110184816E-002   0.0000000000000000     
  -5.2484335771784275E-002   7.6541212308134640E-002   0.0000000000000000     
  -5.4569780128480266E-002   8.2560829906736299E-002   0.0000000000000000     
  -3.4831709512724462E-002   8.0490610833097970E-002   0.0000000000000000     
  -3.6175063384778758E-002   8.6762973486579853E-002   0.0000000000000000     
  -3.7471187866723710E-002   9.3193524285704710E-002   0.0000000000000000     
  -3.8720082958559332E-002   9.9782263230472526E-002   0.0000000000000000     
  -3.9921748660285625E-002  0.10652919032088330        0.0000000000000000     
  -3.9566839366128703E-002   8.0928754154935695E-002   0.0000000000000000     
  -4.1073321339750342E-002   8.7184448994562971E-002   0.0000000000000000     
  -4.2527812775152191E-002   9.3598371388984192E-002   0.0000000000000000     
  -4.3930313672334256E-002  0.10017052133819938        0.0000000000000000     
  -4.5280824031296525E-002  0.10690089884220852        0.0000000000000000     
  -4.4434894419889417E-002   8.1419838441154635E-002   0.0000000000000000     
  -4.6106453780695444E-002   8.7657298171692807E-002   0.0000000000000000     
  -4.7720766919152682E-002   9.4052884178377705E-002   0.0000000000000000     
  -4.9277833835261124E-002  0.10060659646120934        0.0000000000000000     
  -5.0777654529020770E-002  0.10731843502018772        0.0000000000000000     
  -4.9435874674006605E-002   8.1963863691754860E-002   0.0000000000000000     
  -5.1274460707614065E-002   8.8181521017969375E-002   0.0000000000000000     
  -5.3050050298725178E-002   9.4557062653885235E-002   0.0000000000000000     
  -5.4762643447339950E-002  0.10109048859950240        0.0000000000000000     
  -5.6412240153458366E-002  0.10778179885482089        0.0000000000000000     
  -5.4569780128480266E-002   8.2560829906736299E-002   0.0000000000000000     
  -5.6577342120506205E-002   8.8757117533392715E-002   0.0000000000000000     
  -5.8515662913869684E-002   9.5110906815506796E-002   0.0000000000000000     
  -6.0384742508570712E-002  0.10162219775307856        0.0000000000000000     
  -6.2184580904609293E-002  0.10829099034610803        0.0000000000000000     
  -3.9921748660285625E-002  0.10652919032088330        0.0000000000000000     
  -4.1073298952114319E-002  0.11342239949407351        0.0000000000000000     
  -4.2171847814257174E-002  0.12044998468717963        0.0000000000000000     
  -4.3217395246714189E-002  0.12761194590020164        0.0000000000000000     
  -4.4209941249485379E-002  0.13490828313313957        0.0000000000000000     
  -4.5280824031296525E-002  0.10690089884220852        0.0000000000000000     
  -4.6575937409468776E-002  0.11377733054187965        0.0000000000000000     
  -4.7812247364280774E-002  0.12078764307808081        0.0000000000000000     
  -4.8989753895732555E-002  0.12793183645081199        0.0000000000000000     
  -5.0108457003824054E-002  0.13520991066007321        0.0000000000000000     
  -5.0777654529020770E-002  0.10731843502018772        0.0000000000000000     
  -5.2216593056231886E-002  0.11417615589838102        0.0000000000000000     
  -5.3591013472694723E-002  0.12116751513885748        0.0000000000000000     
  -5.4900915778409269E-002  0.12829251274161710        0.0000000000000000     
  -5.6146299973375557E-002  0.13555114870665982        0.0000000000000000     
  -5.6412240153458366E-002  0.10778179885482089        0.0000000000000000     
  -5.7995265892403648E-002  0.11461887556357765        0.0000000000000000     
  -5.9508146139498987E-002  0.12158960086950966        0.0000000000000000     
  -6.0950880894744403E-002  0.12869397477261693        0.0000000000000000     
  -6.2323470158139896E-002  0.13593199727289945        0.0000000000000000     
  -6.2184580904609293E-002  0.10829099034610803        0.0000000000000000     
  -6.3911955917984042E-002  0.11510548953746950        0.0000000000000000     
  -6.5563645364693585E-002  0.12205390027003736        0.0000000000000000     
  -6.7139649244737920E-002  0.12913622254381155        0.0000000000000000     
  -6.8639967558117049E-002  0.13635245635879209        0.0000000000000000     
  -4.4209941249485379E-002  0.13490828313313957        0.0000000000000000     
  -4.5149920548441996E-002  0.14232719392918117        0.0000000000000000     
  -4.6037767869455327E-002  0.14985687583151425        0.0000000000000000     
  -4.6873483212525373E-002  0.15749732884013887        0.0000000000000000     
  -4.7657066577652132E-002  0.16524855295505497        0.0000000000000000     
  -5.0108457003824054E-002  0.13520991066007321        0.0000000000000000     
  -5.1168925272136588E-002  0.14261023194172751        0.0000000000000000     
  -5.2171727284251380E-002  0.15012116653163793        0.0000000000000000     
  -5.3116863040168445E-002  0.15774271442980448        0.0000000000000000     
  -5.4004332539887782E-002  0.16547487563622723        0.0000000000000000     
  -5.6146299973375557E-002  0.13555114870665982        0.0000000000000000     
  -5.7328030232368529E-002  0.14293172531233783        0.0000000000000000     
  -5.8446970730163139E-002  0.15042254483700315        0.0000000000000000     
  -5.9503121466759422E-002  0.15802360728065587        0.0000000000000000     
  -6.0496482442157329E-002  0.16573491264329585        0.0000000000000000     
  -6.2323470158139896E-002  0.13593199727289945        0.0000000000000000     
  -6.3627235429137827E-002  0.14329167404101215        0.0000000000000000     
  -6.4863498207190631E-002  0.15076101074761000        0.0000000000000000     
  -6.6032258492298254E-002  0.15834000739269286        0.0000000000000000     
  -6.7133516284460779E-002  0.16602866397626087        0.0000000000000000     
  -6.8639967558117049E-002  0.13635245635879209        0.0000000000000000     
  -7.0066540862444515E-002  0.14369007812775050        0.0000000000000000     
  -7.1421309715333822E-002  0.15113656426345834        0.0000000000000000     
  -7.2704274116785025E-002  0.15869191476591563        0.0000000000000000     
  -7.3915434066798111E-002  0.16635612963512231        0.0000000000000000     
  -4.7657066577652132E-002  0.16524855295505497        0.0000000000000000     
  -4.8386506894513286E-002  0.17309937338215664        0.0000000000000000     
  -4.9059793092786512E-002  0.18103861532733806        0.0000000000000000     
  -4.9676925172471832E-002  0.18906627879059923        0.0000000000000000     
  -5.0237903133569219E-002  0.19718236377194015        0.0000000000000000     
  -5.4004332539887782E-002  0.16547487563622723        0.0000000000000000     
  -5.4832354759129856E-002  0.17330645664579913        0.0000000000000000     
  -5.5599148673615081E-002  0.18122626395341326        0.0000000000000000     
  -5.6304714283343486E-002  0.18923429755906968        0.0000000000000000     
  -5.6949051588315064E-002  0.19733055746276829        0.0000000000000000     
  -6.0496482442157329E-002  0.16573491264329585        0.0000000000000000     
  -6.1425450247232630E-002  0.17354555114210857        0.0000000000000000     
  -6.2288421472861025E-002  0.18144461299427933        0.0000000000000000     
  -6.3085396119042500E-002  0.18943209819980814        0.0000000000000000     
  -6.3816374185777097E-002  0.19750800675869495        0.0000000000000000     
  -6.7133516284460779E-002  0.16602866397626087        0.0000000000000000     
  -6.8165793358821627E-002  0.17381665687108502        0.0000000000000000     
  -6.9127611490524335E-002  0.18169366244993623        0.0000000000000000     
  -7.0018970679568901E-002  0.18965968071281461        0.0000000000000000     
  -7.0839870925955326E-002  0.19771471165972004        0.0000000000000000     
  -7.3915434066798111E-002  0.16635612963512231        0.0000000000000000     
  -7.5053384093896836E-002  0.17411977383272845        0.0000000000000000     
  -7.6116718726605026E-002  0.18197341232038403        0.0000000000000000     
  -7.7105437964922668E-002  0.18991704509808913        0.0000000000000000     
  -7.8019541808849735E-002  0.19795067216584364        0.0000000000000000     
  -5.0237903133569219E-002  0.19718236377194015        0.0000000000000000     
  -5.0740477629416969E-002  0.20537851527557183        0.0000000000000000     
  -5.1182399313353374E-002  0.21364637830570521        0.0000000000000000     
  -5.1563668185378414E-002  0.22198595286234041        0.0000000000000000     
  -5.1884284245492109E-002  0.23039723894547734        0.0000000000000000     
  -5.6949051588315064E-002  0.19733055746276829        0.0000000000000000     
  -5.7529078990533500E-002  0.20550830536833878        0.0000000000000000     
  -5.8041714892002487E-002  0.21376080297961061        0.0000000000000000     
  -5.8486959292722025E-002  0.22208805029658379        0.0000000000000000     
  -5.8864812192692115E-002  0.23049004731925832        0.0000000000000000     
  -6.3816374185777097E-002  0.19750800675869495        0.0000000000000000     
  -6.4478481711753174E-002  0.20566630503937375        0.0000000000000000     
  -6.5068844735659132E-002  0.21390095941027842        0.0000000000000000     
  -6.5587463257494996E-002  0.22221196987140893        0.0000000000000000     
  -6.6034337277260741E-002  0.23059933642276534        0.0000000000000000     
  -7.0839870925955326E-002  0.19771471165972004        0.0000000000000000     
  -7.1588685793075993E-002  0.20585251428867674        0.0000000000000000     
  -7.2263788844323343E-002  0.21406684759770866        0.0000000000000000     
  -7.2865180079697361E-002  0.22235771158681586        0.0000000000000000     
  -7.3392859499198049E-002  0.23072510625599832        0.0000000000000000     
  -7.8019541808849735E-002  0.19795067216584364        0.0000000000000000     
  -7.8859691234501983E-002  0.20606693311624769        0.0000000000000000     
  -7.9626547217995100E-002  0.21425846754190134        0.0000000000000000     
  -8.0320109759329100E-002  0.22252527544280454        0.0000000000000000     
  -8.0940378858503970E-002  0.23086735681895734        0.0000000000000000     
  -5.1884284245492109E-002  0.23039723894547734        0.0000000000000000     
  -5.2152361863142094E-002  0.23887181475528263        0.0000000000000000     
  -5.2376015407776005E-002  0.24740125849192302        0.0000000000000000     
  -5.2555244879393871E-002  0.25598557015539841        0.0000000000000000     
  -5.2690050277995663E-002  0.26462474974570882        0.0000000000000000     
  -5.8864812192692115E-002  0.23049004731925832        0.0000000000000000     
  -5.9181356076378339E-002  0.23896587837677075        0.0000000000000000     
  -5.9442673428246287E-002  0.24751462779825764        0.0000000000000000     
  -5.9648764248295995E-002  0.25613629558371898        0.0000000000000000     
  -5.9799628536527427E-002  0.26483088173315478        0.0000000000000000     
  -6.6034337277260741E-002  0.23059933642276534        0.0000000000000000     
  -6.6411755659086386E-002  0.23906948986025692        0.0000000000000000     
  -6.6722007267101938E-002  0.24762886097979298        0.0000000000000000     
  -6.6965092101307369E-002  0.25627744978137357        0.0000000000000000     
  -6.7141010161702694E-002  0.26501525626499867        0.0000000000000000     
  -7.3392859499198049E-002  0.23072510625599832        0.0000000000000000     
  -7.3843560611266262E-002  0.23918264920574106        0.0000000000000000     
  -7.4214016924342915E-002  0.24774395803652896        0.0000000000000000     
  -7.4504228438427994E-002  0.25640903274836213        0.0000000000000000     
  -7.4714195153521470E-002  0.26517787334124049        0.0000000000000000     
  -8.0940378858503970E-002  0.23086735681895734        0.0000000000000000     
  -8.1476770932917941E-002  0.23930535641322323        0.0000000000000000     
  -8.1918702399969220E-002  0.24785991896846568        0.0000000000000000     
  -8.2266173259657821E-002  0.25653104448468467        0.0000000000000000     
  -8.2519183511983729E-002  0.26531873296188019        0.0000000000000000     
  -5.2690050277995663E-002  0.26462474974570882        0.0000000000000000     
  -5.2811259011991005E-002  0.27326959350319235        0.0000000000000000     
  -5.2949698489789511E-002  0.28187089766818718        0.0000000000000000     
  -5.3105368711391182E-002  0.29042866224069325        0.0000000000000000     
  -5.3278269676796018E-002  0.29894288722071050        0.0000000000000000     
  -5.9799628536527427E-002  0.26483088173315478        0.0000000000000000     
  -5.9932147633536367E-002  0.27355427092379814        0.0000000000000000     
  -6.0083202879918605E-002  0.28226234783288240        0.0000000000000000     
  -6.0252794275674107E-002  0.29095511246040745        0.0000000000000000     
  -6.0440921820802893E-002  0.29963256480637335        0.0000000000000000     
  -6.7141010161702694E-002  0.26501525626499867        0.0000000000000000     
  -6.7290018701510829E-002  0.27381245739264559        0.0000000000000000     
  -6.7452374973954690E-002  0.28263923012629155        0.0000000000000000     
  -6.7628078979034237E-002  0.29149557446593649        0.0000000000000000     
  -6.7817130716749524E-002  0.30038149041158063        0.0000000000000000     
  -7.4714195153521470E-002  0.26517787334124049        0.0000000000000000     
  -7.4884872215914416E-002  0.27404415290973438        0.0000000000000000     
  -7.5057214771897793E-002  0.28300154454841436        0.0000000000000000     
  -7.5231222821471627E-002  0.29205004825728037        0.0000000000000000     
  -7.5406896364635920E-002  0.30118966403633235        0.0000000000000000     
  -8.2519183511983729E-002  0.26531873296188019        0.0000000000000000     
  -8.2716708176747061E-002  0.27424935747506485        0.0000000000000000     
  -8.2897722273747892E-002  0.28334929109925117        0.0000000000000000     
  -8.3062225802986223E-002  0.29261853383443898        0.0000000000000000     
  -8.3210218764462079E-002  0.30205708568062856        0.0000000000000000     
  -4.5708861517630400E-002   5.9657389916240658E-002   0.0000000000000000     
  -4.8053876466359342E-002   6.5089492312886826E-002   0.0000000000000000     
  -5.0312367884410646E-002   7.0717433110184816E-002   0.0000000000000000     
  -5.2484335771784275E-002   7.6541212308134640E-002   0.0000000000000000     
  -5.4569780128480266E-002   8.2560829906736299E-002   0.0000000000000000     
  -5.0275618418389817E-002   6.0418886537427566E-002   0.0000000000000000     
  -5.2814516819884180E-002   6.5816042048645551E-002   0.0000000000000000     
  -5.5260446173868827E-002   7.1412574906769929E-002   0.0000000000000000     
  -5.7613406480343778E-002   7.7208485111800743E-002   0.0000000000000000     
  -5.9873397739309012E-002   8.3203772663737935E-002   0.0000000000000000     
  -5.5102140902185626E-002   6.1113117657844412E-002   0.0000000000000000     
  -5.7814427379713942E-002   6.6522773330721693E-002   0.0000000000000000     
  -6.0432085132274355E-002   7.2121426868773181E-002   0.0000000000000000     
  -6.2955114159866862E-002   7.7909078271998833E-002   0.0000000000000000     
  -6.5383514462491465E-002   8.3885727540398705E-002   0.0000000000000000     
  -6.0188428969017820E-002   6.1740083277491212E-002   0.0000000000000000     
  -6.3053608145848636E-002   6.7209686159115281E-002   0.0000000000000000     
  -6.5827284759627194E-002   7.2843988996194528E-002   0.0000000000000000     
  -6.8509458810353530E-002   7.8642991788728966E-002   0.0000000000000000     
  -7.1100130298027614E-002   8.4606694536718610E-002   0.0000000000000000     
  -6.5534482618886392E-002   6.2299783396367957E-002   0.0000000000000000     
  -6.8532059118288233E-002   6.7876780533826273E-002   0.0000000000000000     
  -7.1446045055927360E-002   7.3580261289033999E-002   0.0000000000000000     
  -7.4276440431803772E-002   7.9410225661991116E-002   0.0000000000000000     
  -7.7023245245917471E-002   8.5366673652697664E-002   0.0000000000000000     
  -5.4569780128480266E-002   8.2560829906736299E-002   0.0000000000000000     
  -5.6577342120506205E-002   8.8757117533392715E-002   0.0000000000000000     
  -5.8515662913869684E-002   9.5110906815506796E-002   0.0000000000000000     
  -6.0384742508570712E-002  0.10162219775307856        0.0000000000000000     
  -6.2184580904609293E-002  0.10829099034610803        0.0000000000000000     
  -5.9873397739309012E-002   8.3203772663737935E-002   0.0000000000000000     
  -6.2049227688820978E-002   8.9377357494184642E-002   0.0000000000000000     
  -6.4149704066936139E-002   9.5708159534744000E-002   0.0000000000000000     
  -6.6174826873654474E-002  0.10219617878541601        0.0000000000000000     
  -6.8124596108976004E-002  0.10884141524620065        0.0000000000000000     
  -6.5383514462491465E-002   8.3885727540398705E-002   0.0000000000000000     
  -6.7724247082007527E-002   9.0035510676567149E-002   0.0000000000000000     
  -6.9984273060274466E-002   9.6342563683098556E-002   0.0000000000000000     
  -7.2163592397292281E-002  0.10280688655999293        0.0000000000000000     
  -7.4262205093060918E-002  0.10942847930725029        0.0000000000000000     
  -7.1100130298027614E-002   8.4606694536718610E-002   0.0000000000000000     
  -7.3602400300065873E-002   9.0731577080540179E-002   0.0000000000000000     
  -7.6019369893884706E-002   9.7014119260570422E-002   0.0000000000000000     
  -7.8351039079484083E-002  0.10345432107680934        0.0000000000000000     
  -8.0597407856864062E-002  0.11005218252925691        0.0000000000000000     
  -7.7023245245917471E-002   8.5366673652697664E-002   0.0000000000000000     
  -7.9683687342995968E-002   9.1465556706103762E-002   0.0000000000000000     
  -8.2254994567766790E-002   9.7722826267159627E-002   0.0000000000000000     
  -8.4737166920229937E-002  0.10413848233586522        0.0000000000000000     
  -8.7130204400385408E-002  0.11071252491222056        0.0000000000000000     
  -6.2184580904609293E-002  0.10829099034610803        0.0000000000000000     
  -6.3911955917984042E-002  0.11510548953746950        0.0000000000000000     
  -6.5563645364693585E-002  0.12205390027003736        0.0000000000000000     
  -6.7139649244737920E-002  0.12913622254381155        0.0000000000000000     
  -6.8639967558117049E-002  0.13635245635879209        0.0000000000000000     
  -6.8124596108976004E-002  0.10884141524620065        0.0000000000000000     
  -6.9996078537168674E-002  0.11563229816984037        0.0000000000000000     
  -7.1786340922500441E-002  0.12255725680907747        0.0000000000000000     
  -7.3495383264971306E-002  0.12961629116391205        0.0000000000000000     
  -7.5123205564581269E-002  0.13680940123434407        0.0000000000000000     
  -7.4262205093060918E-002  0.10942847930725029        0.0000000000000000     
  -7.6277049154153120E-002  0.11619560181047388        0.0000000000000000     
  -7.8205062587141480E-002  0.12309651395526702        0.0000000000000000     
  -8.0046245392026066E-002  0.13013121574162961        0.0000000000000000     
  -8.1800597568806810E-002  0.13729970716956177        0.0000000000000000     
  -8.0597407856864062E-002  0.11005218252925691        0.0000000000000000     
  -8.2754867768937340E-002  0.11679540045937013        0.0000000000000000     
  -8.4819810358616687E-002  0.12367167170860592        0.0000000000000000     
  -8.6792235625902159E-002  0.13068099627696431        0.0000000000000000     
  -8.8672143570793685E-002  0.13782337416444526        0.0000000000000000     
  -8.7130204400385408E-002  0.11071252491222056        0.0000000000000000     
  -8.9429534381521403E-002  0.11743169411652910        0.0000000000000000     
  -9.1630584236926146E-002  0.12428273006909424        0.0000000000000000     
  -9.3733353966599639E-002  0.13126563276991604        0.0000000000000000     
  -9.5737843570541881E-002  0.13838040221899445        0.0000000000000000     
  -6.8639967558117049E-002  0.13635245635879209        0.0000000000000000     
  -7.0066540862444515E-002  0.14369007812775050        0.0000000000000000     
  -7.1421309715333822E-002  0.15113656426345834        0.0000000000000000     
  -7.2704274116785025E-002  0.15869191476591563        0.0000000000000000     
  -7.3915434066798111E-002  0.16635612963512231        0.0000000000000000     
  -7.5123205564581269E-002  0.13680940123434407        0.0000000000000000     
  -7.6672351789617607E-002  0.14412372208614968        0.0000000000000000     
  -7.8145365908367556E-002  0.15154638878510499        0.0000000000000000     
  -7.9542247920831158E-002  0.15907740133121004        0.0000000000000000     
  -8.0862997827008357E-002  0.16671675972446484        0.0000000000000000     
  -8.1800597568806810E-002  0.13729970716956177        0.0000000000000000     
  -8.3471073467986212E-002  0.14458939042980645        0.0000000000000000     
  -8.5060627440066636E-002  0.15198766771310654        0.0000000000000000     
  -8.6569259485048108E-002  0.15949453901946214        0.0000000000000000     
  -8.7996969602930575E-002  0.16711000434887319        0.0000000000000000     
  -8.8672143570793685E-002  0.13782337416444526        0.0000000000000000     
  -9.0462705897550302E-002  0.14508708315872082        0.0000000000000000     
  -9.2167094310431019E-002  0.15246040104746306        0.0000000000000000     
  -9.3785308809435849E-002  0.15994332783067192        0.0000000000000000     
  -9.5317349394564752E-002  0.16753586350834737        0.0000000000000000     
  -9.5737843570541881E-002  0.13838040221899445        0.0000000000000000     
  -9.7647249078309892E-002  0.14561680027289281        0.0000000000000000     
  -9.9464766519460748E-002  0.15296458878817443        0.0000000000000000     
 -0.10119039589399441       0.16042376776483930        0.0000000000000000     
 -0.10282413720191089       0.16799433720288739        0.0000000000000000     
  -7.3915434066798111E-002  0.16635612963512231        0.0000000000000000     
  -7.5053384093896836E-002  0.17411977383272845        0.0000000000000000     
  -7.6116718726605026E-002  0.18197341232038403        0.0000000000000000     
  -7.7105437964922668E-002  0.18991704509808913        0.0000000000000000     
  -7.8019541808849735E-002  0.19795067216584364        0.0000000000000000     
  -8.0862997827008357E-002  0.16671675972446484        0.0000000000000000     
  -8.2106535993876170E-002  0.17445566103643095        0.0000000000000000     
  -8.3271782788411533E-002  0.18228530233867002        0.0000000000000000     
  -8.4358738210614445E-002  0.19020568363118201        0.0000000000000000     
  -8.5367402260484893E-002  0.19821680491396695        0.0000000000000000     
  -8.7996969602930575E-002  0.16711000434887319        0.0000000000000000     
  -8.9343562600177520E-002  0.17482507749158463        0.0000000000000000     
  -9.0608843283252291E-002  0.18263077223784152        0.0000000000000000     
  -9.1792811652154915E-002  0.19052708858764369        0.0000000000000000     
  -9.2895467706885351E-002  0.19851402654099129        0.0000000000000000     
  -9.5317349394564752E-002  0.16753586350834737        0.0000000000000000     
  -9.6764463912800885E-002  0.17522802319818959        0.0000000000000000     
  -9.8127900211127328E-002  0.18300982201789850        0.0000000000000000     
  -9.9407658289544051E-002  0.19088125996747418        0.0000000000000000     
 -0.10060373814805111       0.19884233704691667        0.0000000000000000     
 -0.10282413720191089       0.16799433720288739        0.0000000000000000     
 -0.10436923993174627       0.17566449815624566        0.0000000000000000     
 -0.10582895357203660       0.18342245167884105        0.0000000000000000     
 -0.10720327812278191       0.19126819777067353        0.0000000000000000     
 -0.10849221358398217       0.19920173643174310        0.0000000000000000     
  -7.8019541808849735E-002  0.19795067216584364        0.0000000000000000     
  -7.8859691234501983E-002  0.20606693311624769        0.0000000000000000     
  -7.9626547217995100E-002  0.21425846754190134        0.0000000000000000     
  -8.0320109759329100E-002  0.22252527544280454        0.0000000000000000     
  -8.0940378858503970E-002  0.23086735681895734        0.0000000000000000     
  -8.5367402260484893E-002  0.19821680491396695        0.0000000000000000     
  -8.6300809122303007E-002  0.20631040558879959        0.0000000000000000     
  -8.7161992980348865E-002  0.21447822505745476        0.0000000000000000     
  -8.7950953834622425E-002  0.22272026331993239        0.0000000000000000     
  -8.8667691685123728E-002  0.23103652037623243        0.0000000000000000     
  -9.2895467706885351E-002  0.19851402654099129        0.0000000000000000     
  -9.3921350542750984E-002  0.20658377577304543        0.0000000000000000     
  -9.4874999255059017E-002  0.21472852595896719        0.0000000000000000     
  -9.5756413843809549E-002  0.22294827709875661        0.0000000000000000     
  -9.6565594309002523E-002  0.23124302919241374        0.0000000000000000     
 -0.10060373814805111       0.19884233704691667        0.0000000000000000     
 -0.10172131549584586       0.20688704366898508        0.0000000000000000     
 -0.10276556604212565       0.21500937024643868        0.0000000000000000     
 -0.10373648978689048       0.22320931677927733        0.0000000000000000     
 -0.10463408673014032       0.23148688326750122        0.0000000000000000     
 -0.10849221358398217       0.19920173643174310        0.0000000000000000     
 -0.10970070398158768       0.20722020927661872        0.0000000000000000     
 -0.11083369334154868       0.21532075791986918        0.0000000000000000     
 -0.11189118166386516       0.22350338236149458        0.0000000000000000     
 -0.11287316894853716       0.23176808260149481        0.0000000000000000     
  -8.0940378858503970E-002  0.23086735681895734        0.0000000000000000     
  -8.1476770932917941E-002  0.23930535641322323        0.0000000000000000     
  -8.1918702399969220E-002  0.24785991896846568        0.0000000000000000     
  -8.2266173259657821E-002  0.25653104448468467        0.0000000000000000     
  -8.2519183511983729E-002  0.26531873296188019        0.0000000000000000     
  -8.8667691685123728E-002  0.23103652037623243        0.0000000000000000     
  -8.9297901294928719E-002  0.23945258313793613        0.0000000000000000     
  -8.9827277427113272E-002  0.24799403851662455        0.0000000000000000     
  -9.0255820081677443E-002  0.25666088651229763        0.0000000000000000     
  -9.0583529258621218E-002  0.26545312712495539        0.0000000000000000     
  -9.6565594309002523E-002  0.23124302919241374        0.0000000000000000     
  -9.7293466368185880E-002  0.23963930103511255        0.0000000000000000     
  -9.7930955738907505E-002  0.24816361142202717        0.0000000000000000     
  -9.8478062421167425E-002  0.25681596035315751        0.0000000000000000     
  -9.8934786414965614E-002  0.26559634782850361        0.0000000000000000     
 -0.10463408673014032       0.23148688326750122        0.0000000000000000     
 -0.10546346615268944       0.23986551010475243        0.0000000000000000     
 -0.10622973733535188       0.24836863768467343        0.0000000000000000     
 -0.10693290027812773       0.25699626600726427        0.0000000000000000     
 -0.10757295498101695       0.26574839507252473        0.0000000000000000     
 -0.11287316894853716       0.23176808260149481        0.0000000000000000     
 -0.11380790064843935       0.24013121034685586        0.0000000000000000     
 -0.11472362221644641       0.24860911730456356        0.0000000000000000     
 -0.11562033365255837       0.25720180347461796        0.0000000000000000     
 -0.11649803495677521       0.26590926885701893        0.0000000000000000     
  -8.2519183511983729E-002  0.26531873296188019        0.0000000000000000     
  -8.2716708176747061E-002  0.27424935747506485        0.0000000000000000     
  -8.2897722273747892E-002  0.28334929109925117        0.0000000000000000     
  -8.3062225802986223E-002  0.29261853383443898        0.0000000000000000     
  -8.3210218764462079E-002  0.30205708568062856        0.0000000000000000     
  -9.0583529258621218E-002  0.26545312712495539        0.0000000000000000     
  -9.0840725275696421E-002  0.27443375272112813        0.0000000000000000     
  -9.1057728450654921E-002  0.28366575566734609        0.0000000000000000     
  -9.1234538783496744E-002  0.29314913596360914        0.0000000000000000     
  -9.1371156274221849E-002  0.30288389360991747        0.0000000000000000     
  -9.8934786414965614E-002  0.26559634782850361        0.0000000000000000     
  -9.9312122204450098E-002  0.27460302028041561        0.0000000000000000     
  -9.9621064273768822E-002  0.28393422414124353        0.0000000000000000     
  -9.9861612622921800E-002  0.29358995941098737        0.0000000000000000     
 -0.10003376725190903       0.30357022608964740        0.0000000000000000     
 -0.10757295498101695       0.26574839507252473        0.0000000000000000     
 -0.10813089896300807       0.27475716015292723        0.0000000000000000     
 -0.10858772974308956       0.28415469652094349        0.0000000000000000     
 -0.10894344732126143       0.29394100417657393        0.0000000000000000     
 -0.10919805169752367       0.30411608311981830        0.0000000000000000     
 -0.11649803495677521       0.26590926885701893        0.0000000000000000     
 -0.11729705555137034       0.27489617233866293        0.0000000000000000     
 -0.11795772485861714       0.28432717280644615        0.0000000000000000     
 -0.11848004287851560       0.29420227026036860        0.0000000000000000     
 -0.11886400961106572       0.30452146470043023        0.0000000000000000     
 </DataArray>
 <DataArray  type="Float64" Name="stress" NumberOfComponents="3" format="ascii">
   6079757209.5875483        813877799.12043309        27927726.469144054     
   5820397079.6837273        484323624.81963301        31128226.995289158     
   5589631584.7685528        250084900.48101020        26718937.983794417     
   5387460724.8420305        111161626.10455251        14699859.434659833     
   5213884499.9041643        67553801.690278769       -4929008.6521120304     
   5766183261.8067198        590655806.32588840        126337438.38389957     
   5520162095.9788580        356201667.88569307        142624187.60448426     
   5293925657.9100866        187696621.97581196        154835305.83792096     
   5087473947.6004038        85140668.596225262        162970793.08421743     
   4900806965.0498209        48533807.746960163        167030649.34337357     
   5404317526.8344688        352946277.37392044        264924088.47916240     
   5181732920.9411287        216621453.55190158        284018861.29302788     
   4970123135.5773249        116879364.82832575        302572161.67024404     
   4769488170.7430496        53720011.203176260        320583989.61081964     
   4579828026.4383135        27143392.676486015        338054345.11474687     
   4994160004.6707697        100749212.26451778        443687676.75493878     
   4805109554.5705299        65582981.818245649        455312248.06092554     
   4618224017.7702656        37633129.038539886        469929505.48076773     
   4433503394.2699699        16899653.925418377        487539449.01446557     
   4250947684.0696540        3382556.4788694382        508142078.66201788     
   4535710695.3156528       -165935389.00231004        662628203.21121383     
   4390291996.8670769       -96913747.315268993        656504347.90818012     
   4238228304.4889135       -50042085.393518686        656907337.26948690     
   4079519618.1811657       -25320403.237062693        663837171.29516160     
   3914165937.9438329       -22748700.845896006        677293849.98518074     
   5213884499.9041643        67553801.690278769       -4929008.6521120304     
   5042624306.6018162        67149709.231630564       -3528108.3281930750     
   4870797339.2767391        64856370.030548096        424040.29825932480     
   4698403597.9289312        60673784.087034225        6927437.2272304371     
   4525443082.5583878        54601951.401068449        15982082.458718341     
   4900806965.0498209        48533807.746960163        167030649.34337357     
   4736941509.6609592        48238255.689589500        165409649.30646661     
   4572722656.6075602        46764711.417076588        166900613.11557835     
   4408150405.8896027        44113174.929378271        171503540.77072412     
   4243224757.5071082        40283646.226547241        179218432.27188730     
   4579828026.4383135        27143392.676486015        338054345.11474687     
   4424959353.3729563        27436994.343409300        333660383.80155563     
   4269950659.0012388        27263858.322456360        332939101.87789112     
   4114801943.3231521        26623984.613606215        335890499.34375256     
   3959513206.3387017        25517373.216884613        342514576.19914007     
   4250947684.0696540        3382556.4788694382        508142078.66201788     
   4106677837.7378035        4745925.1930749416        501224095.15708840     
   3962481346.4577775        6353810.7466835976        498539506.58518755     
   3818358210.2295704        8206213.1396849155        500088312.94632012     
   3674308429.0531797        10303132.372082233        505870514.24048060     
   3914165937.9438329       -22748700.845896006        677293849.98518074     
   3782096962.7555017       -19834951.761407137        668100783.37305880     
   3650314718.9771795       -15965431.310226679        663701827.23747861     
   3518819206.6088552       -11140139.492381096        664096981.57841861     
   3387610425.6505380       -5359076.3078491688        669286246.39589953     
   4525443082.5583878        54601951.401068449        15982082.458718341     
   4333350484.9363251        43286113.842066765        8870378.1746652257     
   4142151443.6242971        34948797.316534519        6042385.5302083055     
   3951845958.6223192        29590001.824501991        7498104.5253354087     
   3762434029.9303846        27209727.365927935        13237535.160042053     
   4243224757.5071082        40283646.226547241        179218432.27188730     
   4063199800.7486334        32311327.120611191        172432233.73245275     
   3883783407.8808713        26367554.317044973        169873543.03626540     
   3704975578.9038386        22452327.815901041        171542360.18330503     
   3526776313.8175254        20565647.617156506        177438685.17359889     
   3959513206.3387017        25517373.216884613        342514576.19914007     
   3791395308.1685472        20840397.881414175        335721392.24844778     
   3623600981.4697871        17241994.117270470        333099512.34464049     
   3456130226.2424212        14722161.924432278        334648936.48774177     
   3288983042.4864573        13280901.302935958        340369664.67772585     
   3674308429.0531797        10303132.372082233        505870514.24048060     
   3517937007.1960754        8873326.1245131493        498737853.72264397     
   3361604164.3910437        7572116.7171916962        495720293.45535636     
   3205309900.6380787        6399504.1500926018        496817833.43862402     
   3049054215.9371939        5355488.4232567549        502030473.67244154     
   3387610425.6505380       -5359076.3078491688        669286246.39589953     
   3242824897.8312135       -3589888.1501066685        661481618.15504479     
   3097792956.6446323       -2642077.8832006454        657735886.36840165     
   2952514602.0908031       -2515645.5071351528        658049051.03596473     
   2806989834.1697245       -3210591.0218909979        662421112.15772855     
   3762434029.9303846        27209727.365927935        13237535.160042053     
   3586270268.5209074        28080812.022167683        8193032.0396486409     
   3408736187.4585905        24384164.502295732        7538856.8639550991     
   3229831786.7434464        16119784.806311727        11275009.632955024     
   3049557066.3754568        3287672.9341982603        19401490.346647132     
   3526776313.8175254        20565647.617156506        177438685.17359889     
   3361822715.8442917        22233365.783080101        170160473.20765594     
   3195984091.2753382        20950995.296597242        166931297.43805674     
   3029260440.1106625        16718536.157717228        167751157.86479235     
   2861651762.3502684        9535988.3664287329        172620054.48786661     
   3288983042.4864573        13280901.302935958        340369664.67772585     
   3134264488.6684341        15452717.194206715        331423919.09955150     
   2979146201.3118095        16292087.956802607        326185917.96935332     
   2823628180.4165883        15799013.590735435        324655661.28712356     
   2667710425.9827518        13973494.095967412        326833149.05286735     
   3049054215.9371939        5355488.4232567549        502030473.67244154     
   2903595586.9933510        7738866.2555792332        491983369.71532208     
   2758222517.5680223        10407442.482950091        485302718.45781946     
   2612935007.6612086        13361217.105368733        481988519.89992732     
   2467733057.2729011        16600190.122809172        482040774.04164940     
   2806989834.1697245       -3210591.0218909979        662421112.15772855     
   2669816010.8190317       -908187.03282260895        651838825.05497801     
   2533213040.0439630        3297058.8750045300        644281698.90346968     
   2397180921.8445234        9405146.7015907764        639749733.70321941     
   2261719656.2207060        17416076.446927547        638242929.45422292     
   3049557066.3754568        3287672.9341982603        19401490.346647132     
   2883030454.3178921       -5310864.6064592600        12807777.223245742     
   2717946123.5647583       -9101797.7990006208        7235615.7057354217     
   2554304074.1160998       -8085126.6433030367        2685005.7941302666     
   2392104305.9718843       -2260851.1394526958       -844052.51157612877     
   2861651762.3502684        9535988.3664287329        172620054.48786661     
   2699313881.7595692        3950325.8861575127        165519203.60186303     
   2537871343.9141064        1349139.2233376503        159923623.37822452     
   2377324148.8138795        1732428.3779711723        155833313.81694987     
   2217672296.4588923        5100193.3500721455        153248274.91805312     
   2667710425.9827518        13973494.095967412        326833149.05286735     
   2510943331.3059754        11815323.010226130        318587065.41850209     
   2354524640.8152208        10818499.211218953        312329971.50298047     
   2198454354.5104899        10983022.698961258        308061867.30629355     
   2042732472.3917603        12308893.473368049        305782752.82843739     
   2467733057.2729011        16600190.122809172        482040774.04164940     
   2317918802.9570966        18284126.765732884        472011362.67317522     
   2167906014.2680950        19306282.164635062        464454660.08001512     
   2017694691.2058897        19666656.319541454        459370666.26215225     
   1867284833.7704749        19365249.230424643        456759381.21958137     
   2261719656.2207060        17416076.446927547        638242929.45422292     
   2120240296.7129211        23356737.152603626        625792095.36588550     
   1978015464.2727153        26812488.083541512        616297689.10932112     
   1835045158.9000890        27783329.239753246        609759710.68452477     
   1691329380.5950453        26269260.621224642        606178160.09149647     
   2392104305.9718843       -2260851.1394526958       -844052.51157612877     
   2249787513.9983978        6556484.0187699795       -7081482.9402820170     
   2104068990.2610514        4034713.2974386215       -11313979.009292413     
   1954948734.7597716       -9826163.3036500216       -13541540.718595786     
   1802426747.4946041       -35026145.784386039       -13764168.068206230     
   2217672296.4588923        5100193.3500721455        153248274.91805312     
   2079188934.3583074        12780516.519776821        143143296.15819225     
   1938466500.5814552        12997267.435259461        134244562.63052425     
   1795504995.1283145        5750446.0964468718        126552074.33503115     
   1650304417.9989426       -8959947.4964705706        120065831.27173346     
   2042732472.3917603        12308893.473368049        305782752.82843739     
   1905800571.2282748        18167613.973734379        293166662.50634235     
   1767792258.4761593        20438295.845345497        280958128.28891963     
   1628707534.1354029        19120939.088147759        269157150.17615408     
   1488546398.2060194        14215543.702193320        257763728.16805637     
   1867284833.7704749        19365249.230424643        456759381.21958137     
   1729622424.6083195        22717776.380734921        442988616.10416567     
   1592046263.9451792        26357798.527745426        428826717.96588099     
   1454556351.7810307        30285315.671403706        414273686.80474925     
   1317152688.1158741        34500327.811713815        399329522.62075061     
   1691329380.5950453        26269260.621224642        606178160.09149647     
   1550654494.4984586        26431003.740774035        592609156.95164180     
   1411228516.9885030        30755775.482421577        577850331.66141570     
   1273051448.0651889        39243575.846204996        561901684.22081244     
   1136123287.7285044        51894404.832086980        544763214.62983382     
   1802426747.4946041       -35026145.784386039       -13764168.068206230     
   1771448725.9758439       -16621372.792494655       -8222399.7740288749     
   1748581160.8904667        28818254.977306962       -41457200.837809078     
   1733824052.2384253        101292737.52492207       -113468571.25951865     
   1727177400.0197890        200802074.85053217       -224256511.03916529     
   1650304417.9989426       -8959947.4964705706        120065831.27173346     
   1527642527.1508560       -13940181.280459464        135625896.90737990     
   1409176996.2809844       -4932548.4704332352        124833018.59591694     
   1294907825.3893347        18062950.933661103        87687196.337336317     
   1184835014.4758894        55046316.931792676        24188430.131675776     
   1488546398.2060194        14215543.702193320        257763728.16805637     
   1309696710.6310146       -3500875.0769237876        278775645.28081632     
   1131129286.5790670       -20276415.445852399        285858243.85731572     
   952844126.05016458       -36111077.404624045        279011523.89753693     
   774841229.04430950       -51004860.953237653        258235485.40149319     
   1317152688.1158741        34500327.811713815        399329522.62075061     
   1117611276.4163277        14696545.818166673        421226845.34629542     
   914438031.78468573       -17213345.949036479        441618474.94639438     
   707632954.22093272       -61229347.489940882        460504411.42106283     
   497196043.72507846       -117351458.80451673        477884654.77030867     
   1136123287.7285044        51894404.832086980        544763214.62983382     
   951386224.50681019        40652081.404841244        562979497.10379255     
   759103231.89784575        4256660.0200334787        592113711.86315823     
   559274309.90162754       -57291859.322295099        632165858.90792584     
   351899458.51814955       -143993476.62214506        683135938.23809290     
   1727177400.0197890        200802074.85053217       -224256511.03916529     
   1456690176.5086157        184626235.60179895       -96660574.925117463     
   1154004800.8367066        61123222.483946860        60102662.562331833     
   819121273.00406134       -169706964.50303775        246033201.42321593     
   452039593.01069069       -507864325.35908484        461131041.65750146     
   1184835014.4758894        55046316.931792676        24188430.131675776     
   977753822.98020995        11900170.977586865        155582068.31113565     
   732832097.14745545       -157381089.43355787        312806192.83038294     
   450069836.97758096       -452797464.30175847        495860803.68936902     
   129467042.47059691       -874348953.62696826        704745900.88816297     
   774841229.04430950       -51004860.953237653        258235485.40149319     
   621632312.32514381       -123981440.78461662        386844046.44063753     
   424940479.09252292       -341901075.66084695        537946278.78588867     
   184765729.34644377       -704763765.58196282        711542182.43725491     
  -98891936.913103580       -1212569510.5479341        907631757.39477527     
   497196043.72507846       -117351458.80451673        477884654.77030867     
   388325644.54343009       -223018599.68477777        597125359.46334589     
   230329946.67196506       -492436736.19778359        735522920.42886329     
   23208950.110672772       -925605868.34351397        893077337.66686487     
  -233037345.14043662       -1522525996.1219893        1069788611.1773422     
   351899458.51814955       -143993476.62214506        683135938.23809290     
   277833819.63503218       -285211305.72300416        786426007.37928510     
   149000499.88576320       -608988071.04438019        905536117.75931764     
  -34600500.729714751       -1115323772.5864551        1040466269.3781828     
  -272969182.21137661       -1804218410.3491266        1191216462.2358625     
   4535710695.3156528       -165935389.00231004        662628203.21121383     
   4390291996.8670769       -96913747.315268993        656504347.90818012     
   4238228304.4889135       -50042085.393518686        656907337.26948690     
   4079519618.1811657       -25320403.237062693        663837171.29516160     
   3914165937.9438329       -22748700.845896006        677293849.98518074     
   4155263933.8008022       -117419623.65224290        791102267.85928512     
   4019497092.5530391       -70035688.495139122        782263586.79386497     
   3879125362.5518198       -38001382.516229630        779315883.49469388     
   3734148743.7971363       -21316705.715530396        782259157.96178436     
   3584567236.2889957       -19981658.093017101        791093410.19513035     
   3786718713.0053196       -65333396.086363316        908950400.50455093     
   3658786966.3923678       -40132196.228997707        899777016.38222468     
   3528290436.2020931       -23480274.962734222        895858743.12805879     
   3395229122.4344835       -15377632.287575006        897195580.74205005     
   3259603025.0895429       -15824268.203520060        903787529.22419691     
   3430075032.9291887       -9676706.3046786785        1016172601.1469976     
   3308161618.3850632       -7203270.5168488026        1009044636.6732589     
   3185723525.4397340       -6478762.7330281734        1006535916.1695759     
   3062760754.0932069       -7503182.9532099962        1008646439.6359521     
   2939273304.3454714       -10276531.177408099        1015376207.0723879     
   3085332893.5724206        49550445.692813516        1112768869.7866378     
   2967621048.5311217        28751088.641310692        1110066447.6669579     
   2851424630.2647486        13003154.172894001        1111347402.6192465     
   2736743638.7733021        2306642.2875615358        1116611734.6434903     
   2623578074.0567789       -3338447.0146826506        1125859443.7396953     
   3914165937.9438329       -22748700.845896006        677293849.98518074     
   3782096962.7555017       -19834951.761407137        668100783.37305880     
   3650314718.9771795       -15965431.310226679        663701827.23747861     
   3518819206.6088552       -11140139.492381096        664096981.57841861     
   3387610425.6505380       -5359076.3078491688        669286246.39589953     
   3584567236.2889957       -19981658.093017101        791093410.19513035     
   3464681964.8310213       -16422005.170184135        783622391.03972006     
   3344994374.0948210       -12203416.508122921        780580286.46843886     
   3225504464.0803905       -7325892.1068183184        781967096.48127902     
   3106212234.7877297       -1789431.9662840366        787782821.07824242     
   3259603025.0895429       -15824268.203520060        903787529.22419691     
   3150858040.5264664       -11931736.492998242        897934665.05589974     
   3042221685.9969320       -7677104.6706713438        896145519.57931328     
   2933693961.5009317       -3060372.7365672588        898420092.79444253     
   2825274867.0384655        1918459.3093342781        904758384.70128381     
   2939273304.3454714       -10276531.177408099        1015376207.0723879     
   2840625189.8418384       -6364145.7298184633        1011037605.4215915     
   2741996654.6835127       -2386495.7978823185        1010397526.5700965     
   2643387698.8704910        1656418.6184021235        1013455970.5179116     
   2544798322.4027700        5764597.5190298557        1020212937.2650257     
   2623578074.0567789       -3338447.0146826506        1125859443.7396953     
   2533983412.7771330        280767.11931824684        1122931212.1367991     
   2444319280.1545625        3668410.1102491617        1123336307.4407940     
   2354585676.1890583        6824481.9580624104        1127074729.6516852     
   2264782600.8806257        9748982.6627840996        1134146478.7694731     
   3387610425.6505380       -5359076.3078491688        669286246.39589953     
   3242824897.8312135       -3589888.1501066685        661481618.15504479     
   3097792956.6446323       -2642077.8832006454        657735886.36840165     
   2952514602.0908031       -2515645.5071351528        658049051.03596473     
   2806989834.1697245       -3210591.0218909979        662421112.15772855     
   3106212234.7877297       -1789431.9662840366        787782821.07824242     
   2971891911.5625501       -592710.43856334686        779977542.72232080     
   2837485131.5058994        315821.65090572834        776295632.97616065     
   2702991894.6177702        936164.30211997032        776737091.83976531     
   2568412200.8981647        1268317.5150736570        781301919.31312740     
   2825274867.0384655        1918459.3093342781        904758384.70128381     
   2701603954.5661745        2597976.0546669960        897139072.18869781     
   2578006541.7981782        3522491.8143191338        893707600.44142842     
   2454482628.7344732        4692006.5882827044        894463969.45947540     
   2331032215.3750672        6106520.3765670061        899408179.24283648     
   2544798322.4027700        5764597.5190298557        1020212937.2650257     
   2431961026.8420858        5982171.3295797110        1012966206.5541769     
   2319357187.5214715        6977932.6070249081        1009971788.7641938     
   2206986804.4409256        8751881.3513720036        1011229683.8950852     
   2094849877.6004429        11304017.562597156        1016739891.9468462     
   2264782600.8806257        9748982.6627840996        1134146478.7694731     
   2162963128.3902836        9559875.3861867189        1127458945.8187518     
   2061537068.6757822        10682144.029055357        1125088197.9444661     
   1960504421.7371204        13115788.591390371        1127034235.1466000     
   1859865187.5742960        16860809.073184133        1133297057.4251585     
   2806989834.1697245       -3210591.0218909979        662421112.15772855     
   2669816010.8190317       -908187.03282260895        651838825.05497801     
   2533213040.0439630        3297058.8750045300        644281698.90346968     
   2397180921.8445234        9405146.7015907764        639749733.70321941     
   2261719656.2207060        17416076.446927547        638242929.45422292     
   2568412200.8981647        1268317.5150736570        781301919.31312740     
   2439583858.3974075        3856455.3867647648        771877978.45019662     
   2311191805.2290711        7898891.0331810713        765782538.70151591     
   2183236041.3931427        13395624.454283834        763015600.06708586     
   2055716566.8896258        20346655.650107980        763577162.54691172     
   2331032215.3750672        6106520.3765670061        899408179.24283648     
   2211416039.9042554        9240397.9848922491        890985594.16930962     
   2092101590.5226460        13380029.223883271        886194850.37303233     
   1973088867.2302332        18525414.093531370        885035947.85400832     
   1854377870.0270157        24676552.593832731        887508886.61223602     
   2094849877.6004429        11304017.562597156        1016739891.9468462     
   1985312555.3395810        15243640.761566997        1009161672.2123070     
   1875942395.9246933        19740473.447124243        1005518633.9180187     
   1766739399.3557935        24794515.619303107        1005810777.0639814     
   1657703565.6328728        30405767.278092682        1010038101.6501969     
   1859865187.5742960        16860809.073184133        1133297057.4251585     
   1761273404.7033758        21866183.716782451        1126406212.5791910     
   1662714221.4352179        26980223.702928483        1123753889.3364732     
   1564187637.7698302        32202929.031637847        1125340087.6970062     
   1465693653.7072067        37534299.702895582        1131164807.6607902     
   2261719656.2207060        17416076.446927547        638242929.45422292     
   2120240296.7129211        23356737.152603626        625792095.36588550     
   1978015464.2727153        26812488.083541512        616297689.10932112     
   1835045158.9000890        27783329.239753246        609759710.68452477     
   1691329380.5950453        26269260.621224642        606178160.09149647     
   2055716566.8896258        20346655.650107980        763577162.54691172     
   1921928861.9378893        25324873.604833722        752146939.46757782     
   1787643981.4295793        28645839.704299092        743899048.08059061     
   1652861925.3646951        30309553.948522866        738833488.38593352     
   1517582693.7432306        30316016.337483406        736950260.38361537     
   1854377870.0270157        24676552.593832731        887508886.61223602     
   1728927259.2329559        28885959.678069949        877388954.81373334     
   1603227770.2581642        32265772.826546311        870677258.56813300     
   1477279403.1026497        34815992.039276958        867373797.87544632     
   1351082157.7664101        36536617.316253781        867478572.73566079     
   1657703565.6328728        30405767.278092682        1010038101.6501969     
   1541235488.5981190        34039995.372350156        1001518141.4043343     
   1424766830.7584841        37672287.450327218        996632320.57195854     
   1308297592.1139724        41302643.512051463        995380639.15305257     
   1191827772.6645782        44931063.557517529        997763097.14763129     
   1465693653.7072067        37534299.702895582        1131164807.6607902     
   1358853550.0333884        40786980.687652171        1124534499.2393994     
   1252261162.9305272        44865383.575610161        1121764234.0920596     
   1145916492.3986473        49769508.366831303        1122854012.2187684     
   1039819538.4377327        55499355.061270416        1127803833.6195281     
   1691329380.5950453        26269260.621224642        606178160.09149647     
   1550654494.4984586        26431003.740774035        592609156.95164180     
   1411228516.9885030        30755775.482421577        577850331.66141570     
   1273051448.0651889        39243575.846204996        561901684.22081244     
   1136123287.7285044        51894404.832086980        544763214.62983382     
   1517582693.7432306        30316016.337483406        736950260.38361537     
   1375362984.5439019        28005941.000051498        727726676.66135335     
   1233485905.1079447        26837964.873851955        719075009.26973391     
   1091951455.4353447        26812087.958841801        710995258.20877278     
   950759635.52610505        27928310.255041540        703487423.47844720     
   1351082157.7664101        36536617.316253781        867478572.73566079     
   1212351163.9815528        33264785.077012897        861543083.13716459     
   1073056521.1367892        28114122.638090670        857941248.35035348     
   933198229.23211241        21084629.999469042        856673068.37519932     
   792776288.26753402        12176307.161161214        857738543.21172047     
   1191827772.6645782        44931063.557517529        997763097.14763129     
   1061619032.8113940        42207535.971630573        994058376.37910020     
   929940365.07503247        34584248.775141954        994449048.90326357     
   796791769.45549858        22061201.968078375        998935114.72012067     
   662173245.95277667        4638395.5504100323        1007516573.8296607     
   1039819538.4377327        55499355.061270416        1127803833.6195281     
   923166591.03342843        54834193.683879584        1125272556.3871434     
   804137436.92268336        46248343.285022169        1128598410.9284744     
   682732076.10549009        29741803.864664316        1137781397.2435179     
   558950508.58185005        5314575.4228280485        1152821515.3322783     
   1136123287.7285044        51894404.832086980        544763214.62983382     
   951386224.50681019        40652081.404841244        562979497.10379255     
   759103231.89784575        4256660.0200334787        592113711.86315823     
   559274309.90162754       -57291859.322295099        632165858.90792584     
   351899458.51814955       -143993476.62214506        683135938.23809290     
   950759635.52610505        27928310.255041540        703487423.47844720     
   791628089.09276223        11056535.854282320        721416556.79306710     
   623842212.62810040       -34663005.317536831        749423413.26875591     
   447402006.13212276       -109230313.26040342        787507992.90549612     
   262307469.60482848       -212645387.97433931        835670295.70331168     
   792776288.26753402        12176307.161161214        857738543.21172047     
   656849661.12442446       -11045097.462540120        874087393.28227520     
   511160303.30593902       -66808937.670831114        899673757.38955140     
   355708214.81208313       -155115213.46369195        934497635.53354871     
   190493395.64285046       -275963924.84112394        978559027.71426785     
   662173245.95277667        4638395.5504100323        1007516573.8296607     
   547050940.60178852       -25652818.545667082        1020992006.5714190     
   421057503.93136835       -92181137.039845318        1042864744.2255527     
   284192935.94151789       -194946559.93212831        1073134786.7920712     
   136457236.63224009       -333949087.22250164        1111802134.2709661     
   558950508.58185005        5314575.4228280485        1152821515.3322783     
   462231927.52485973       -32766627.395068586        1162130396.6604981     
   353533814.50437945       -110779603.42459823        1178996373.7767622     
   232856169.52041864       -228724352.66572988        1203419446.6810627     
   100198992.57297552       -386600875.11846894        1235399615.3734047     
   351899458.51814955       -143993476.62214506        683135938.23809290     
   277833819.63503218       -285211305.72300416        786426007.37928510     
   149000499.88576320       -608988071.04438019        905536117.75931764     
  -34600500.729714751       -1115323772.5864551        1040466269.3781828     
  -272969182.21137661       -1804218410.3491266        1191216462.2358625     
   262307469.60482848       -212645387.97433931        835670295.70331168     
   223595175.79955927       -352345526.16541827        885039408.99694514     
   140658265.01872125       -639461054.27507663        945433125.51707220     
   13496737.262320876       -1073991972.3032777        1016851445.2636684     
  -157889407.46965110       -1655938280.2500312        1099294368.2367609     
   190493395.64285046       -275963924.84112394        978559027.71426785     
   173433195.45155799       -418256747.56166756        986307426.36606658     
   122691442.17532215       -672821413.89866686        1000284990.2320116     
   38268135.814134896       -1039657923.8521799        1020491719.3120830     
  -79836723.631989777       -1518766277.4221551        1046927613.6062906     
   136457236.63224009       -333949087.22250164        1111802134.2709661     
   127347878.59106028       -482944969.91162747        1090230059.4866600     
   95100031.355561584       -709069149.91517222        1070091711.9041451     
   39713694.925735652       -1012321627.2331327        1051387091.5234073     
  -38811130.698421001       -1392702401.8655000        1034116198.3444655     
   100198992.57297552       -386600875.11846894        1235399615.3734047     
   85339225.218064159       -546410193.21533680        1196807308.3587153     
   57884032.559438825       -748204262.32458448        1154853290.5334551     
   17833414.597114086       -991983082.44617200        1109537561.8976481     
  -34812628.668914318       -1277746653.5800769        1060860122.4512690     
   3085332893.5724206        49550445.692813516        1112768869.7866378     
   2967621048.5311217        28751088.641310692        1110066447.6669579     
   2851424630.2647486        13003154.172894001        1111347402.6192465     
   2736743638.7733021        2306642.2875615358        1116611734.6434903     
   2623578074.0567789       -3338447.0146826506        1125859443.7396953     
   2717612765.2082624        47930512.665520668        1216619947.2570117     
   2612735820.7334237        30232163.891577721        1208292411.6038923     
   2509050053.5527716        16504406.098249197        1205138882.0197268     
   2406555463.6662998        6747239.2855222225        1207159358.5045235     
   2305252051.0740085        960663.45340311527        1214353841.0582728     
   2327608978.5424132        39625482.147718787        1320371915.6838317     
   2238968731.7683201        26048680.791625500        1306040975.4363985     
   2151195412.8076601        15361638.813660383        1298074670.2549198     
   2064289021.6604409        7564356.2138209343        1296473000.1393957     
   1978249558.3266613        2656832.9921178818        1301235965.0898225     
   1915321533.5748940        24635354.139415145        1424024775.0670938     
   1846319781.6358085        16200639.341450810        1403312139.1644828     
   1777860708.0294189        9574852.3191313744        1390154767.3248191     
   1709944312.7557259        4757993.0724703074        1384552659.5481093     
   1642570595.8147264        1750061.6014553308        1386505815.8343458     
   1480750430.3056889        2960128.6406090856        1527578525.4067957     
   1434788970.3358924        688039.54105448723        1500105902.7881415     
   1389045939.2180474       -855953.38533121347        1481379173.2294290     
   1343521336.9521515       -1671850.1385498047        1471398336.7306631     
   1298215163.5382133       -1759650.7185807824        1470163393.2918448     
   2623578074.0567789       -3338447.0146826506        1125859443.7396953     
   2533983412.7771330        280767.11931824684        1122931212.1367991     
   2444319280.1545625        3668410.1102491617        1123336307.4407940     
   2354585676.1890583        6824481.9580624104        1127074729.6516852     
   2264782600.8806257        9748982.6627840996        1134146478.7694731     
   2305252051.0740085        960663.45340311527        1214353841.0582728     
   2224641510.0115514        3202685.8843606710        1208634760.7331605     
   2144040277.4598289        5475736.6844385862        1206811028.6766191     
   2063448353.4188430        7779815.8536331654        1208882644.8886404     
   1982865737.8885946        10114923.391958356        1214849609.3692360     
   1978249558.3266613        2656832.9921178818        1301235965.0898225     
   1908228912.8004546        4003396.3157387972        1292817945.8717732     
   1838296355.6386514        5643587.5207017660        1288857296.2839668     
   1768451886.8412471        7577406.6069962978        1289354016.3264019     
   1698695506.4082448        9804853.5746320486        1294308105.9990785     
   1642570595.8147264        1750061.6014553308        1386505815.8343458     
   1584745621.1438425        2682898.4134671688        1375480767.5526357     
   1527087514.6910214        4171962.6190241575        1369475110.2628410     
   1469596276.4562693        6217254.2181414962        1368488843.9649622     
   1412271906.4395843        8818773.2108181715        1372521968.6590002     
   1298215163.5382133       -1759650.7185807824        1470163393.2918448     
   1254191635.0417163       -758807.82246184349        1456623225.7757487     
   1210413754.6169453        1060861.9794176817        1448664470.6132410     
   1166881522.2639093        3699358.6870725751        1446287127.8043253     
   1123594937.9826028        7156682.3004981875        1449491197.3489943     
   2264782600.8806257        9748982.6627840996        1134146478.7694731     
   2162963128.3902836        9559875.3861867189        1127458945.8187518     
   2061537068.6757822        10682144.029055357        1125088197.9444661     
   1960504421.7371204        13115788.591390371        1127034235.1466000     
   1859865187.5742960        16860809.073184133        1133297057.4251585     
   1982865737.8885946        10114923.391958356        1214849609.3692360     
   1892623299.3924944        10039025.720374703        1207907601.1896415     
   1802692612.8339157        11002301.173857331        1205528093.4049604     
   1713073678.2128429        13004749.752371550        1207711086.0151925     
   1623766495.5292995        16046371.455969989        1214456579.0203292     
   1698695506.4082448        9804853.5746320486        1294308105.9990785     
   1620732145.6734858        10052778.638192594        1287016351.6125672     
   1542998876.0379231        11067674.032408595        1284532812.9394495     
   1465495697.5015581        12849539.757277369        1286857489.9797287     
   1388222610.0643847        15398375.812796950        1293990382.7334015     
   1412271906.4395843        8818773.2108181715        1372521968.6590002     
   1347289667.2332613        9601134.1396496296        1364785197.0875242     
   1282455858.2878189        10878262.604736209        1362102356.5479336     
   1217770479.6032495        12650158.606072664        1364473447.0402224     
   1153233531.1795473        14916822.143632233        1371898468.5643842     
   1123594937.9826028        7156682.3004981875        1449491197.3489943     
   1072295864.0718217        8684092.2247402668        1441214137.6145165     
   1021063559.5835922        10434066.890820384        1438236724.2304058     
   969898024.51791704        12406606.298749089        1440558957.1966572     
   918799258.87479115        14601710.448508382        1448180836.5132742     
   1859865187.5742960        16860809.073184133        1133297057.4251585     
   1761273404.7033758        21866183.716782451        1126406212.5791910     
   1662714221.4352179        26980223.702928483        1123753889.3364732     
   1564187637.7698302        32202929.031637847        1125340087.6970062     
   1465693653.7072067        37534299.702895582        1131164807.6607902     
   1623766495.5292995        16046371.455969989        1214456579.0203292     
   1536154698.8176019        20191389.242094994        1207909661.2073672     
   1448623312.9975989        24604443.333862126        1205768908.8807447     
   1361172338.0692861        29285533.731263399        1208034322.0404558     
   1273801774.0326679        34234660.434320211        1214705900.6865110     
   1388222610.0643847        15398375.812796950        1293990382.7334015     
   1312069782.0350199        18826731.498374999        1287843171.7905290     
   1236045176.1862733        22682494.452677071        1286269770.2170794     
   1160148792.5181484        26965664.675724268        1289270178.0130575     
   1084380631.0306437        31676242.167495787        1296844395.1784573     
   1153233531.1795473        14916822.143632233        1371898468.5643842     
   1089018654.3556261        17772210.485613167        1366206744.3286757     
   1024979811.0012426        21214377.059390485        1365256473.3454816     
   961117001.11641061        25243321.865001559        1369047655.6148036     
   897430224.70111799        29859044.902416140        1377580291.1366367     
   918799258.87479115        14601710.448508382        1448180836.5132742     
   867001315.77941275        17027826.203795493        1443000378.8218105     
   815427217.44250727        20200091.153995007        1442729018.2659495     
   764076963.86407351        24118505.299096495        1447366754.8456922     
   712950555.04410815        28783068.639097750        1456913588.5610383     
   1465693653.7072067        37534299.702895582        1131164807.6607902     
   1358853550.0333884        40786980.687652171        1124534499.2393994     
   1252261162.9305272        44865383.575610161        1121764234.0920596     
   1145916492.3986473        49769508.366831303        1122854012.2187684     
   1039819538.4377327        55499355.061270416        1127803833.6195281     
   1273801774.0326679        34234660.434320211        1214705900.6865110     
   1177380566.2349422        36728355.610393643        1209372653.0445120     
   1081050218.9310291        39524919.099186480        1208369047.9890027     
   984810732.12093520        42624350.900708675        1211695085.5199766     
   888662105.80465639        46026651.014945239        1219350765.6374331     
   1084380631.0306437        31676242.167495787        1296844395.1784573     
   999720031.43026209        33813465.231279910        1292625209.5591688     
   914993436.24654746        35730703.017275214        1293205265.8388081     
   830200845.47949004        37427955.525466353        1298584564.0173690     
   745342259.12909997        38905222.755876034        1308763104.0948591     
   897430224.70111799        29859044.902416140        1377580291.1366367     
   825871945.61934662        32042309.550301284        1374292168.7833745     
   754090814.87707615        33482735.329856604        1376272887.6414781     
   682086832.47431564        34180322.241111785        1383522447.7109475     
   609859998.41106629        34135070.284070313        1396040848.9917753     
   712950555.04410815        28783068.639097750        1456913588.5610383     
   655836308.80218685        31414888.567426145        1454373530.7171285     
   598342354.82262397        32781016.036952108        1457571913.3970215     
   540468693.10540366        32881451.047621369        1466508736.6007149     
   482215323.65054798        31716193.599505901        1481184000.3282123     
   1039819538.4377327        55499355.061270416        1127803833.6195281     
   923166591.03342843        54834193.683879584        1125272556.3871434     
   804137436.92268336        46248343.285022169        1128598410.9284744     
   682732076.10549009        29741803.864664316        1137781397.2435179     
   558950508.58185005        5314575.4228280485        1152821515.3322783     
   888662105.80465639        46026651.014945239        1219350765.6374331     
   786918693.99615610        44365719.831834763        1216813877.9859936     
   682852688.29843938        34962809.017999977        1220118525.1281636     
   576464088.71150804        17817918.573449314        1229264707.0639410     
   467752895.23536772       -7068951.5017892718        1244252423.7933316     
   745342259.12909997        38905222.755876034        1308763104.0948591     
   658463820.11609721        36235152.926943928        1306283154.3111281     
   569316400.03110945        26001812.858058631        1309629142.3409092     
   477899998.87414300        8205202.5492394269        1318801068.1841888     
   384214616.64519316       -17154677.999517545        1333798931.8409686     
   609859998.41106629        34135070.284070313        1396040848.9917753     
   537801969.39325225        30442492.969208986        1393680385.3625379     
   463528572.12068850        19365354.805173263        1397130262.5666986     
   387039806.59338140        903655.79199720919        1406390480.6042516     
   308335672.81131577       -24942604.070368335        1421461039.4752033     
   482215323.65054798        31716193.599505901        1481184000.3282123     
   424933141.82762784        26987739.958646804        1479005571.1402385     
   365489204.56718975        15053434.859394565        1482621885.8055427     
   303883511.86922842       -4086721.6982682496        1492032944.3241432     
   240116063.73375744       -30432729.714296758        1507238746.6960320     
   558950508.58185005        5314575.4228280485        1152821515.3322783     
   462231927.52485973       -32766627.395068586        1162130396.6604981     
   353533814.50437945       -110779603.42459823        1178996373.7767622     
   232856169.52041864       -228724352.66572988        1203419446.6810627     
   100198992.57297552       -386600875.11846894        1235399615.3734047     
   467752895.23536772       -7068951.5017892718        1244252423.7933316     
   390209583.40883029       -41503340.218367025        1242737663.3384237     
   302528722.74433601       -109729558.39479510        1247574441.7109094     
   204710313.24188471       -211747606.03107902        1258762758.9107828     
   96754354.901481450       -347557483.12721092        1276302614.9380484     
   384214616.64519316       -17154677.999517545        1333798931.8409686     
   322402125.59010106       -48975587.152472064        1323609509.9160557     
   252294068.82258591       -108448382.01351064        1318566069.8578820     
   173890446.34264293       -195573062.58264053        1318668611.6664410     
   87191258.150268197       -310349628.85987198        1323917135.3417411     
   308335672.81131577       -24942604.070368335        1421461039.4752033     
   258809554.06867164       -55183368.197395533        1404745936.3934062     
   202829852.73913556       -106936074.28072959        1391971258.2176816     
   140396568.82269198       -180200722.32041472        1383137004.9480438     
   71509702.319349781       -274977312.31644291        1378243176.5844960     
   240116063.73375744       -30432729.714296758        1507238746.6960320     
   199431868.84455073       -60126683.353106424        1486146942.7704508     
   154136074.49397650       -105192635.19647445        1467790006.7903075     
   104228680.68203405       -165630585.24440607        1452167938.7555912     
   49709687.408714190       -241440533.49692902        1439280738.6663127     
   100198992.57297552       -386600875.11846894        1235399615.3734047     
   85339225.218064159       -546410193.21533680        1196807308.3587153     
   57884032.559438825       -748204262.32458448        1154853290.5334551     
   17833414.597114086       -991983082.44617200        1109537561.8976481     
  -34812628.668914318       -1277746653.5800769        1060860122.4512690     
   96754354.901481450       -347557483.12721092        1276302614.9380484     
   79806648.216163665       -488708046.87347478        1221985747.6373246     
   51473526.316075206       -667809994.66897440        1165118617.5813274     
   11754989.201213539       -884863326.51371670        1105701224.7700686     
  -39348963.128428161       -1139868042.4077282        1043733569.2035224     
   87191258.150268197       -310349628.85987198        1323917135.3417411     
   70474035.149686754       -432145911.35093910        1255287386.1920729     
   43581407.023257166       -587860210.92817485        1184918822.3424199     
   6513373.7709752321       -777492527.59157610        1112811443.7927835     
  -40730064.607155204       -1001042861.3411431        1038965250.5431924     
   71509702.319349781       -274977312.31644291        1378243176.5844960     
   57341386.018621266       -376723786.64778996        1296712224.0229537     
   34207674.680967987       -508354911.10222286        1214253904.8167248     
   2108568.3063926101       -669870685.67973220        1130868218.9658184     
  -38955933.105113238       -861271110.38033438        1046555166.4702187     
   49709687.408714190       -241440533.49692902        1439280738.6663127     
   40408700.822954342       -322441672.76405448        1346260261.1299801     
   23352329.289216399       -429294095.19110960        1253123865.0042634     
  -1459427.1925312579       -561997800.77819729        1159871550.2891479     
  -34026568.622274607       -720552789.52527320        1066503316.9846383     
   1480750430.3056889        2960128.6406090856        1527578525.4067957     
   1434788970.3358924        688039.54105448723        1500105902.7881415     
   1389045939.2180474       -855953.38533121347        1481379173.2294290     
   1343521336.9521515       -1671850.1385498047        1471398336.7306631     
   1298215163.5382133       -1759650.7185807824        1470163393.2918448     
   1054319424.8015275       -14652892.919008017        1496223125.9530749     
   1029259890.2110875       -13533501.591131330        1480998929.9547410     
   1004364177.9971373       -11868035.674954891        1472324595.7050183     
   979632288.15967345       -9656495.1704895496        1470200123.2039104     
   955064220.69870019       -6898880.0777246952        1474625512.4514117     
   665384026.13374126       -21017232.427714318        1463792235.2050307     
   654952041.74742043       -18388673.224975020        1460752758.2723074     
   644629273.26212537       -15396061.018815398        1462067111.7768674     
   634415720.67785597       -12039395.809236020        1467735295.7187057     
   624311383.99461055       -8318677.5962415934        1477757310.0978255     
   313944234.30233425       -16132889.885504276        1430285853.1626496     
   311865424.94489318       -13877475.360473812        1439367387.7408402     
   309841225.01301587       -11440029.416898713        1450606721.4449711     
   307871634.50669909       -8820552.0547868162        1464003854.2750528     
   305956653.42594576       -6019043.2741310447        1479558786.2310774     
   49.307302105752157        134.70761488877002        1395703979.8259463     
   39.803503350453539        92.002365250008580        1416842818.3603365     
   33.249805335773189        59.130782664973154        1437943424.7093375     
   29.646206620556221        36.092865452316431        1459005798.8729484     
   28.992705489142040        22.888606852335688        1480029940.8511763     
   1298215163.5382133       -1759650.7185807824        1470163393.2918448     
   1254191635.0417163       -758807.82246184349        1456623225.7757487     
   1210413754.6169453        1060861.9794176817        1448664470.6132410     
   1166881522.2639093        3699358.6870725751        1446287127.8043253     
   1123594937.9826028        7156682.3004981875        1449491197.3489943     
   955064220.69870019       -6898880.0777246952        1474625512.4514117     
   924874095.64284992       -5299993.3968516588        1465345570.2969117     
   894868206.80385733       -3086985.9931198359        1460987285.2543809     
   865046554.18172085       -259857.86653405428        1461550657.3238175     
   835409137.77644193        3181390.9829064608        1467035686.5052173     
   624311383.99461055       -8318677.5962415934        1477757310.0978255     
   606069647.40335023       -6687251.6234180927        1472665946.1409011     
   587950735.17406690       -4646411.1106681228        1471836484.0543234     
   569954647.30677080       -2196156.0579625070        1475268923.8380914     
   552081383.80145216        663513.53466770053        1482963265.4922023     
   305956653.42594576       -6019043.2741310447        1479558786.2310774     
   297778290.32320756       -4920582.5021875054        1478584353.3077104     
   289661339.72757465       -3617413.3732269704        1481212067.0130675     
   281605801.63905334       -2109535.8872278035        1487441927.3471489     
   273611676.05763417       -396950.04422031343        1497273934.3099475     
   28.992705489142040        22.888606852335688        1480029940.8511763     
   24.402428521087646        13.966857203751381        1483100791.7973464     
   20.464380922447688        7.2192054532151912        1489114034.1306162     
   17.178571065645798        2.6456795088058982        1498069667.8509867     
   14.544988107707105       0.24624322727393544        1509967692.9584556     
   1123594937.9826028        7156682.3004981875        1449491197.3489943     
   1072295864.0718217        8684092.2247402668        1441214137.6145165     
   1021063559.5835922        10434066.890820384        1438236724.2304058     
   969898024.51791704        12406606.298749089        1440558957.1966572     
   918799258.87479115        14601710.448508382        1448180836.5132742     
   835409137.77644193        3181390.9829064608        1467035686.5052173     
   797626938.98336792        4534580.3158995807        1460446357.5719037     
   759894817.29203534        6054693.3213616908        1458995183.2844429     
   722212772.70245004        7741729.9993155897        1462682163.6428363     
   684580805.21461654        9595690.3497756720        1471507298.6470819     
   552081383.80145216        663513.53466770053        1482963265.4922023     
   527354655.25604844        1704060.8153783679        1478042192.9857795     
   502661311.49158859        2855890.6992326379        1478097783.4206963     
   478001352.50806975        4119003.1862247288        1483130036.7969580     
   453374778.30549288        5493398.2763565779        1493138953.1145620     
   273611676.05763417       -396950.04422031343        1497273934.3099475     
   261479012.88987523        192533.72321470082        1494001643.8561420     
   249363042.18225393        837659.02443891764        1495544524.6391711     
   237263763.93476778        1538425.8594490439        1501902576.6590302     
   225181178.14742321        2294834.2282645106        1513075799.9157207     
   14.544988107707105       0.24624322727393544        1509967692.9584556     
   11.884841828628641      -0.96061363991522697        1508324710.1829956     
   9.3640299269194127       -1.7030232764296533        1511335406.9398596     
   6.9825484222468743       -1.9809989500445004        1518999783.2290432     
   4.7404006544302923       -1.7945267524713291        1531317839.0505500     
   918799258.87479115        14601710.448508382        1448180836.5132742     
   867001315.77941275        17027826.203795493        1443000378.8218105     
   815427217.44250727        20200091.153995007        1442729018.2659495     
   764076963.86407351        24118505.299096495        1447366754.8456922     
   712950555.04410815        28783068.639097750        1456913588.5610383     
   684580805.21461654        9595690.3497756720        1471507298.6470819     
   645429222.66849411        11324339.844752729        1467645063.0682912     
   606445523.67689478        13612601.188138366        1468762653.7595565     
   567629708.23982668        16460474.379962921        1474860070.7208714     
   528981776.35727644        19867959.420182049        1485937313.9522376     
   453374778.30549288        5493398.2763565779        1493138953.1145620     
   427071639.54990876        6585206.4833982885        1490529651.5771763     
   400880423.14490283        8050089.1923682690        1492970905.4442933     
   374801129.09047806        9888046.4032756388        1500462714.7159126     
   348833757.38663262        12099078.116112679        1513005079.3920300     
   225181178.14742321        2294834.2282645106        1513075799.9157207     
   211928566.42365921        2810426.1197470799        1511654144.3484678     
   198731915.84653047        3512555.1666805074        1515353773.3201671     
   185591226.41603914        4401221.3690728620        1524174686.8308165     
   172506498.13217834        5476424.7268985212        1538116884.8804178     
   4.7404006544302923       -1.7945267524713291        1531317839.0505500     
   3.2897464056909493       -1.2462030949302967        1531018541.3821597     
   1.7817787538439169      -0.88892272663611216        1535911257.3871779     
  0.21650584255808608      -0.72266197147276234        1545995987.0655899     
  -1.4060806548392286      -0.74744372779013002        1561272730.4174051     
   712950555.04410815        28783068.639097750        1456913588.5610383     
   655836308.80218685        31414888.567426145        1454373530.7171285     
   598342354.82262397        32781016.036952108        1457571913.3970215     
   540468693.10540366        32881451.047621369        1466508736.6007149     
   482215323.65054798        31716193.599505901        1481184000.3282123     
   528981776.35727644        19867959.420182049        1485937313.9522376     
   486512023.55657434        21951604.010528594        1484304211.6422682     
   443757489.94349754        23085979.226292878        1488324165.7643580     
   400718175.51803994        23271085.067457274        1497997176.3185012     
   357394080.28019363        22506921.533986896        1513323243.3046980     
   348833757.38663262        12099078.116112679        1513005079.3920300     
   320764543.47930825        13561361.004153281        1512389680.6954820     
   292505475.68486327        14390797.601793781        1517341954.3392391     
   264056554.00330192        14587387.909044027        1527861900.3233035     
   235417778.43462008        14151131.925895460        1543949518.6476779     
   172506498.13217834        5476424.7268985212        1538116884.8804178     
   158593868.57037705        6244159.5482659414        1538629937.8767650     
   144586312.04671544        6695471.1634343714        1544625279.1216633     
   130483828.56120585        6830359.5724417791        1556102908.6151228     
   116286418.11383463        6648824.7752437778        1573062826.3571467     
  -1.4060806548392286      -0.74744372779013002        1561272730.4174051     
  -1.1702155727949344      -0.35711982821478588        1563024983.1861098     
 -0.97094164210496481       -8.8767820932639296E-002   1570174140.1116333     
 -0.80825467655750383        5.7629370597955643E-002   1582720201.1939621     
 -0.68216906482595396        8.2019967740675465E-002   1600663166.4331045     
   482215323.65054798        31716193.599505901        1481184000.3282123     
   424933141.82762784        26987739.958646804        1479005571.1402385     
   365489204.56718975        15053434.859394565        1482621885.8055427     
   303883511.86922842       -4086721.6982682496        1492032944.3241432     
   240116063.73375744       -30432729.714296758        1507238746.6960320     
   357394080.28019363        22506921.533986896        1513323243.3046980     
   315339385.60664493        19232663.797684327        1509827941.7808523     
   271663374.35725355        10554017.475240916        1511915764.3867979     
   226366046.53203064       -3529017.4333092719        1519586711.1225338     
   179447402.13096446       -23016440.928002134        1532840781.9880583     
   235417778.43462008        14151131.925895460        1543949518.6476779     
   207985943.12902376        12149681.759740353        1539767856.7932522     
   179473230.10925901        6545305.8796946928        1540957699.3451214     
   149879639.37533998       -2661995.7141985521        1547519046.3032868     
   119205170.92725500       -15472223.021982461        1559451897.6677344     
   116286418.11383463        6648824.7752437778        1573062826.3571467     
   102872814.39476009        5738793.8447986320        1568825316.1774395     
   88918771.823202282        3027300.0727439970        1569747690.6805224     
   74424290.399152920       -1485656.5409498923        1575829949.8663995     
   59389370.122625172       -7800075.9962355644        1587072093.7350714     
 -0.68216906482595396        8.2019967740675465E-002   1600663166.4331045     
 -0.59614968639254540        5.2849757537309583E-002   1597000319.9333992     
 -0.50093628878677610        5.4322114572137314E-002   1598285738.3929968     
 -0.39652091134355161        8.6467737731814903E-002   1604519421.8118818     
 -0.28291974989875351       0.14923680423308067        1615701370.1900632     
   240116063.73375744       -30432729.714296758        1507238746.6960320     
   199431868.84455073       -60126683.353106424        1486146942.7704508     
   154136074.49397650       -105192635.19647445        1467790006.7903075     
   104228680.68203405       -165630585.24440607        1452167938.7555912     
   49709687.408714190       -241440533.49692902        1439280738.6663127     
   179447402.13096446       -23016440.928002134        1532840781.9880583     
   148247432.72155577       -45492953.119124062        1507270683.6317947     
   113588763.71617721       -79498463.963474870        1484595711.9804716     
   75471395.114822850       -125032973.46108168        1464815867.0341010     
   33895326.917494938       -182096481.61193097        1447931148.7926686     
   119205170.92725500       -15472223.021982461        1559451897.6677344     
   97947309.167676196       -30593929.114397116        1530748554.7237549     
   74383647.677521914       -53401634.308732063        1505100597.2442253     
   48514186.456786036       -83895338.605004966        1482508025.2291512     
   20338925.505473234       -122075042.00320026        1462970838.6785333     
   59389370.122625172       -7800075.9962355644        1587072093.7350714     
   48531498.182907939       -15429611.338941757        1556580556.0463295     
   36520726.378004409       -26902146.232264578        1529304662.5815532     
   23357054.707920689       -42217680.676190130        1505244413.3407390     
   9040483.1726617739       -61376214.670699835        1484399808.3238921     
 -0.28291974989875351       0.14923680423308067        1615701370.1900632     
 -0.23274843590898470       0.20724383747578329        1584766687.5995207     
 -0.18235321677570565       0.26599583341807265        1557207907.9924562     
 -0.13176083392849985       0.32540608257420323        1533025031.3688717     
  -8.0944500186834939E-002  0.38556214082247381        1512218057.7287612     
   49709687.408714190       -241440533.49692902        1439280738.6663127     
   40408700.822954342       -322441672.76405448        1346260261.1299801     
   23352329.289216399       -429294095.19110960        1253123865.0042634     
  -1459427.1925312579       -561997800.77819729        1159871550.2891479     
  -34026568.622274607       -720552789.52527320        1066503316.9846383     
   33895326.917494938       -182096481.61193097        1447931148.7926686     
   29761716.487934068       -241994697.19484726        1347452419.6919017     
   19811567.349470347       -321281375.14077169        1246194608.4504890     
   4044879.5021210611       -419956515.44965076        1144157715.0684052     
  -17538347.054136544       -538020118.12155628        1041341739.5456767     
   20338925.505473234       -122075042.00320026        1462970838.6785333     
   19477938.228487521       -161438759.80300459        1357295845.2922850     
   14739258.481705621       -213728119.16879272        1250178606.2141075     
   6122886.2651167661       -278943120.10060126        1141619121.4440198     
  -6371178.4212659895       -357083762.59839302        1031617390.9819905     
   9040483.1726617739       -61376214.670699835        1484399808.3238921     
   9557366.0446313061       -80773860.588473141        1375790537.9311156     
   8135402.6859003603       -106634327.27524926        1265075858.2951329     
   4774593.0964691639       -138957614.73102480        1152255769.4159589     
  -525062.72367025912       -177743722.95583212        1037330271.2936064     
  -8.0944500186834939E-002  0.38556214082247381        1512218057.7287612     
  -6.3639112294918115E-002  0.44873404442807296        1402936497.6083870     
  -3.7942588631429519E-002  0.53987293115862622        1290886364.6935537     
  -3.8472430369678734E-003  0.65900858488181335        1176067658.9842601     
   3.8652231598529568E-002  0.80616008374329096        1058480380.4805156     
   49.307302105752157        134.70761488877002        1395703979.8259463     
   39.803503350453539        92.002365250008580        1416842818.3603365     
   33.249805335773189        59.130782664973154        1437943424.7093375     
   29.646206620556221        36.092865452316431        1459005798.8729484     
   28.992705489142040        22.888606852335688        1480029940.8511763     
  -313944148.78094012        16133121.708095789        1430285837.3560574     
  -311865354.79895997        13877634.405190721        1439367376.8779125     
  -309841165.16997623        11440132.592297807        1450606715.4044425     
  -307871579.89399081        8820616.2694110423        1464003852.9356472     
  -305956598.97100645        6019085.4365175962        1479558789.4715309     
  -665383957.69549072        21017425.460679233        1463792208.5142338     
  -654951985.39897943        18388806.008751035        1460752740.5032759     
  -644629224.75856304        15396147.703167230        1462067102.6870522     
  -634415675.77424252        12039450.543931872        1467735295.0655723     
  -624311338.44601989        8318714.5310378969        1477757317.6388292     
  -1054319377.4363493        14653045.965371847        1496223093.3004866     
  -1029259851.9965540        13533606.813043952        1480998909.2364287     
  -1004364145.5159533        11868104.463397563        1472324586.5571766     
  -979632257.99454641        9656538.9164395332        1470200125.2627232     
  -955064189.43233454        6898910.1721644402        1474625525.3530722     
  -1480750408.0035145       -2960016.7778257132        1527578491.7148018     
  -1434788954.5916853       -687963.18193185329        1500105883.0773702     
  -1389045927.4421487        856002.87298154831        1481379167.0148022     
  -1343521326.5549016        1671881.3869332075        1471398343.5270987     
  -1298215151.9299483        1759672.3599047065        1470163412.6142628     
   28.992705489142040        22.888606852335688        1480029940.8511763     
   24.402428521087646        13.966857203751381        1483100791.7973464     
   20.464380922447688        7.2192054532151912        1489114034.1306162     
   17.178571065645798        2.6456795088058982        1498069667.8509867     
   14.544988107707105       0.24624322727393544        1509967692.9584556     
  -305956598.97100645        6019085.4365175962        1479558789.4715309     
  -297778243.99685407        4920609.5312896818        1478584356.1412785     
  -289661300.46379161        3617428.8224294484        1481212069.6235158     
  -281605768.37181485        2109543.3099484444        1487441929.9182506     
  -273611647.72092384        396952.99384991825        1497273937.0254772     
  -624311338.44601989        8318714.5310378969        1477757317.6388292     
  -606069608.40631402        6687276.2926614583        1472665952.5899460     
  -587950701.90101314        4646426.2729354203        1471836489.7789533     
  -569954618.93011844        2196164.4718554020        1475268929.2058475     
  -552081359.49363041       -663509.11058184505        1482963270.8706322     
  -955064189.43233454        6898910.1721644402        1474625525.3530722     
  -924874068.82594514        5300014.2509889603        1465345581.1433573     
  -894868183.84728265        3086999.5707270503        1460987294.5969224     
  -865046534.49634480        259866.13138055801        1461550665.7137711     
  -835409120.77313411       -3181386.0670560002        1467035694.4939008     
  -1298215151.9299483        1759672.3599047065        1470163412.6142628     
  -1254191625.2557540        758823.40625488758        1456623241.8015070     
  -1210413746.3025987       -1060851.2841911912        1448664484.0774267     
  -1166881515.0704927       -3699351.7114706635        1446287139.4420254     
  -1123594931.5594313       -7156677.8755615950        1449491207.8952978     
   14.544988107707105       0.24624322727393544        1509967692.9584556     
   11.884841828628641      -0.96061363991522697        1508324710.1829956     
   9.3640299269194127       -1.7030232764296533        1511335406.9398596     
   6.9825484222468743       -1.9809989500445004        1518999783.2290432     
   4.7404006544302923       -1.7945267524713291        1531317839.0505500     
  -273611647.72092384        396952.99384991825        1497273937.0254772     
  -261478989.66298449       -192533.30899953842        1494001645.8268592     
  -249363023.81814772       -837660.32219035923        1495544526.0550551     
  -237263750.18642277       -1538428.0457549095        1501902577.7100735     
  -225181168.76780325       -2294836.4796691984        1513075800.7919068     
  -552081359.49363041       -663509.11058184505        1482963270.8706322     
  -527354635.30475318       -1704058.8855614662        1478042196.8376639     
  -502661295.68142360       -2855890.5456993878        1478097786.1260147     
  -478001340.62363881       -4119004.0909874439        1483130038.7356803     
  -453374770.13140374       -5493399.5214406252        1493138954.6666651     
  -835409120.77313411       -3181386.0670560002        1467035694.4939008     
  -797626925.04046762       -4534577.6903088391        1460446363.2154100     
  -759894806.22579122       -6054692.3735263646        1458995187.1527352     
  -722212764.32910025       -7741730.1166987419        1462682166.3058746     
  -684580799.35039437       -9595690.9198207557        1471507300.6748266     
  -1123594931.5594313       -7156677.8755615950        1449491207.8952978     
  -1072295858.8701299       -8684089.7232471704        1441214144.9601033     
  -1021063555.4512522       -10434065.805679679        1438236729.1352189     
  -969898021.30280340       -12406606.122875392        1440558960.4206481     
  -918799256.42478371       -14601710.674833834        1448180838.8163896     
   4.7404006544302923       -1.7945267524713291        1531317839.0505500     
   3.2897464056909493       -1.2462030949302967        1531018541.3821597     
   1.7817787538439169      -0.88892272663611216        1535911257.3871779     
  0.21650584255808608      -0.72266197147276234        1545995987.0655899     
  -1.4060806548392286      -0.74744372779013002        1561272730.4174051     
  -225181168.76780325       -2294836.4796691984        1513075800.7919068     
  -211928559.93679729       -2810427.7470359579        1511654144.7797685     
  -198731912.33696342       -3512556.4516446888        1515353773.4222009     
  -185591225.96831557       -4401222.5935391411        1524174686.7192101     
  -172506500.83083722       -5476426.1726656407        1538116884.6707940     
  -453374770.13140374       -5493399.5214406252        1493138954.6666651     
  -427071633.92966455       -6585207.4777625501        1490529652.2745945     
  -400880420.13297284       -8050090.1175759733        1492970905.5182710     
  -374801128.74132323       -9888047.4408619851        1500462714.3976970     
  -348833759.75471580       -12099079.447624147        1513005078.9128723     
  -684580799.35039437       -9595690.9198207557        1471507300.6748266     
  -645429218.68886364       -11324340.438407034        1467645063.8666463     
  -606445521.60623562       -13612601.886668712        1468762653.6753926     
  -567629708.10252285       -16460475.264647514        1474860070.1010594     
  -528981778.17771739       -19867960.572319567        1485937313.1436434     
  -918799256.42478371       -14601710.674833834        1448180838.8163896     
  -867001314.21438181       -17027826.628923863        1443000379.5559258     
  -815427216.75675666       -20200091.758940548        1442729017.8935583     
  -764076964.05190921       -24118506.064882815        1447366753.8292849     
  -712950556.09983861       -28783069.546744257        1456913587.3631117     
  -1.4060806548392286      -0.74744372779013002        1561272730.4174051     
  -1.1702155727949344      -0.35711982821478588        1563024983.1861098     
 -0.97094164210496481       -8.8767820932639296E-002   1570174140.1116333     
 -0.80825467655750383        5.7629370597955643E-002   1582720201.1939621     
 -0.68216906482595396        8.2019967740675465E-002   1600663166.4331045     
  -172506500.83083722       -5476426.1726656407        1538116884.6707940     
  -158593870.85408488       -6244160.3588071167        1538629937.6631906     
  -144586313.97062722       -6695471.5225993842        1544625278.8940294     
  -130483830.18045706       -6830359.6640167385        1556102908.3633115     
  -116286419.48357695       -6648824.7830655873        1573062826.0710320     
  -348833759.75471580       -12099079.447624147        1513005078.9128723     
  -320764545.51812792       -13561361.854536518        1512389680.2294765     
  -292505477.43153769       -14390798.094771758        1517341953.8661518     
  -264056555.49493581       -14587388.168305799        1527861899.8228996     
  -235417779.70833251       -14151132.075165451        1543949518.0997138     
  -528981778.17771739       -19867960.572319567        1485937313.1436434     
  -486512025.16235399       -21951604.844332546        1484304210.8849676     
  -443757491.35368270       -23085979.805317849        1488324165.0279970     
  -400718176.75171238       -23271085.455307528        1497997175.5727215     
  -357394081.35643137       -22506921.794259951        1513323242.5191548     
  -712950556.09983861       -28783069.546744257        1456913587.3631117     
  -655836309.78675210       -31414889.328163505        1454373529.6296728     
  -598342355.73706806       -32781016.654255986        1457571912.3795636     
  -540468693.95077419       -32881451.524984807        1466508735.6127865     
  -482215324.42787874       -31716193.940372363        1481183999.3293419     
 -0.68216906482595396        8.2019967740675465E-002   1600663166.4331045     
 -0.59614968639254540        5.2849757537309583E-002   1597000319.9333992     
 -0.50093628878677610        5.4322114572137314E-002   1598285738.3929968     
 -0.39652091134355161        8.6467737731814903E-002   1604519421.8118818     
 -0.28291974989875351       0.14923680423308067        1615701370.1900632     
  -116286419.48357695       -6648824.7830655873        1573062826.0710320     
  -102872815.58318704       -5738793.8530369885        1568825315.9421017     
  -88918772.817176223       -3027300.0376036540        1569747690.4897346     
  -74424291.185535893        1485656.6632599048        1575829949.7139299     
  -59389370.688271888        7800076.2495398559        1587072093.6146843     
  -235417779.70833251       -14151132.075165451        1543949518.0997138     
  -207985944.22995824       -12149681.856863886        1539767856.3407321     
  -179473231.02952901       -6545305.8983765990        1540957698.9755747     
  -149879640.10704148        2661995.8003048822        1547519046.0042422     
  -119205171.46250014        15472223.239163414        1559451897.4267380     
  -357394081.35643137       -22506921.794259951        1513323242.5191548     
  -315339386.53645480       -19232663.958601698        1509827941.1292806     
  -271663375.13799447       -10554017.527993321        1511915763.8505006     
  -226366047.16103423        3529017.4976103902        1519586710.6828158     
  -179447402.60559714        23016441.118141338        1532840781.6262188     
  -482215324.42787874       -31716193.940372363        1481183999.3293419     
  -424933142.50267792       -26987740.158254191        1479005570.3077531     
  -365489205.14255893       -15053434.926411465        1482621885.1145236     
  -303883512.34752560        4086721.7551450729        1492032943.7496548     
  -240116064.11757112        30432729.886442855        1507238746.2131362     
 -0.28291974989875351       0.14923680423308067        1615701370.1900632     
 -0.23274843590898470       0.20724383747578329        1584766687.5995207     
 -0.18235321677570565       0.26599583341807265        1557207907.9924562     
 -0.13176083392849985       0.32540608257420323        1533025031.3688717     
  -8.0944500186834939E-002  0.38556214082247381        1512218057.7287612     
  -59389370.688271888        7800076.2495398559        1587072093.6146843     
  -48531498.650421649        15429611.707645517        1556580555.9364712     
  -36520726.746549450        26902146.719159815        1529304662.4806676     
  -23357054.976654194        42217681.284084320        1505244413.2472711     
  -9040483.3407462984        61376215.402382195        1484399808.2362833     
  -119205171.46250014        15472223.239163414        1559451897.4267380     
  -97947309.611456156        30593929.445033811        1530748554.5042927     
  -74383648.028582558        53401634.757000215        1505100597.0431890     
  -48514186.713884607        83895339.175048336        1482508025.0434253     
  -20338925.667362712        122075042.69917785        1462970838.5049887     
  -179447402.60559714        23016441.118141338        1532840781.6262188     
  -148247433.11584789        45492953.419417448        1507270683.3029916     
  -113588764.02846776        79498464.379464597        1484595711.6800284     
  -75471395.343448669        125032973.99830547        1464815866.7573314     
  -33895327.060797334        182096482.27592471        1447931148.5349014     
  -240116064.11757112        30432729.886442855        1507238746.2131362     
  -199431869.16359982        60126683.630796343        1486146942.3325624     
  -154136074.74618894        105192635.58660813        1467790006.3911808     
  -104228680.86533906        165630585.75388888        1452167938.3889933     
  -49709687.521055460        241440534.13261119        1439280738.3260055     
  -8.0944500186834939E-002  0.38556214082247381        1512218057.7287612     
  -6.3639112294918115E-002  0.44873404442807296        1402936497.6083870     
  -3.7942588631429519E-002  0.53987293115862622        1290886364.6935537     
  -3.8472430369678734E-003  0.65900858488181335        1176067658.9842601     
   3.8652231598529568E-002  0.80616008374329096        1058480380.4805156     
  -9040483.3407462984        61376215.402382195        1484399808.2362833     
  -9557366.1782263145        80773861.448129922        1375790537.8661416     
  -8135402.7700079829        106634328.31287010        1265075858.2523403     
  -4774593.1160979047        138957615.99658412        1152255769.3948793     
   525062.78351794183        177743724.49931946        1037330271.2937485     
  -20338925.667362712        122075042.69917785        1462970838.5049887     
  -19477938.357351452        161438760.62817773        1357295845.1619353     
  -14739258.564338312        213728120.16718614        1250178606.1260185     
  -6122886.2883321941        278943121.31617415        1141619121.3972256     
   6371178.4706769735        357083764.07516682        1031617390.9755930     
  -33895327.060797334        182096482.27592471        1447931148.5349014     
  -29761716.601017147        241994697.98887005        1347452419.4957876     
  -19811567.420939296        321281376.10280180        1246194608.3145955     
  -4044879.5205525756        419956516.61777020        1144157714.9913337     
   17538347.100123137        538020119.53369367        1041341739.5260181     
  -49709687.521055460        241440534.13261119        1439280738.3260055     
  -40408700.909233660        322441673.53016382        1346260260.8676744     
  -23352329.339792877        429294096.11977834        1253123864.8180740     
   1459427.1872342527        561997801.90135098        1159871550.1771889     
   34026568.671862572        720552790.87492180        1066503316.9450598     
  -1480750408.0035145       -2960016.7778257132        1527578491.7148018     
  -1434788954.5916853       -687963.18193185329        1500105883.0773702     
  -1389045927.4421487        856002.87298154831        1481379167.0148022     
  -1343521326.5549016        1671881.3869332075        1471398343.5270987     
  -1298215151.9299483        1759672.3599047065        1470163412.6142628     
  -1915321551.6535785       -24635340.465071440        1424024717.6168594     
  -1846319798.2650726       -16200628.967346072        1403312099.9898117     
  -1777860722.9244230       -9574844.2958046198        1390154745.6387649     
  -1709944325.6316240       -4757986.4504280090        1384552654.5637159     
  -1642570606.3866758       -1750055.4312286377        1386505826.7646677     
  -2327609029.0920215       -39625564.288824081        1320371847.2818422     
  -2238968773.7235990       -26048734.288301229        1306040926.9153547     
  -2151195448.1885943       -15361670.399157405        1298074640.5260050     
  -2064289052.4869995       -7564372.6213898659        1296472988.1137891     
  -1978249586.6188171       -2656840.9549911022        1301235969.6787105     
  -2717612840.3188438       -47930688.249094009        1216619880.7097406     
  -2612735880.9672670       -30232279.144801021        1208292363.8539956     
  -2509050103.2346592       -16504475.437083125        1205138851.6765237     
  -2406555507.1210246       -6747277.1259359121        1207159344.1773221     
  -2305252092.6263633       -960684.21137261391        1214353841.3563917     
  -3085332985.3340507       -49550712.345879197        1112768817.9005604     
  -2967621119.9960699       -28751263.536837816        1110066410.8057413     
  -2851424688.0626202       -13003259.409573436        1111347379.0903254     
  -2736743689.5337057       -2306699.9640927315        1116611722.7543154     
  -2623578124.4093213        3338414.7996225357        1125859441.7977130     
  -1298215151.9299483        1759672.3599047065        1470163412.6142628     
  -1254191625.2557540        758823.40625488758        1456623241.8015070     
  -1210413746.3025987       -1060851.2841911912        1448664484.0774267     
  -1166881515.0704927       -3699351.7114706635        1446287139.4420254     
  -1123594931.5594313       -7156677.8755615950        1449491207.8952978     
  -1642570606.3866758       -1750055.4312286377        1386505826.7646677     
  -1584745630.1690354       -2682892.5767948031        1375480776.8188045     
  -1527087522.2265587       -4171957.3062472343        1369475118.4004359     
  -1469596282.5592453       -6217249.6195728779        1368488851.5095627     
  -1412271911.1670940       -8818769.5167747140        1372521976.1461811     
  -1978249586.6188171       -2656840.9549911022        1301235969.6787105     
  -1908228936.7468219       -4003399.0592035055        1292817949.9532676     
  -1838296375.7041101       -5643586.5943609476        1288857300.1941385     
  -1768451903.4906838       -7577403.5604710579        1289354020.4013205     
  -1698695520.1065407       -9804849.9575229883        1294308110.5748127     
  -2305252092.6263633       -960684.21137261391        1214353841.3563917     
  -2224641544.9891100       -3202696.0409606695        1208634761.2048979     
  -2144040306.7352593       -5475739.1485605240        1206811029.4585323     
  -2063448377.8648150       -7779813.5341787338        1208882646.1172955     
  -1982865758.3777728       -10114919.197806954        1214849611.1811869     
  -2623578124.4093213        3338414.7996225357        1125859441.7977130     
  -2533983454.8958998       -280783.52206301689        1122931210.5736930     
  -2444319315.3200078       -3668414.9688450098        1123336306.1936197     
  -2354585705.6816373       -6824479.5407016277        1127074728.6574924     
  -2264782625.9807887       -9748977.2376259565        1134146477.9653113     
  -1123594931.5594313       -7156677.8755615950        1449491207.8952978     
  -1072295858.8701299       -8684089.7232471704        1441214144.9601033     
  -1021063555.4512522       -10434065.805679679        1438236729.1352189     
  -969898021.30280340       -12406606.122875392        1440558960.4206481     
  -918799256.42478371       -14601710.674833834        1448180838.8163896     
  -1412271911.1670940       -8818769.5167747140        1372521976.1461811     
  -1347289671.1123524       -9601131.5202743411        1364785202.1926146     
  -1282455861.2692976       -10878260.896060526        1362102359.9073372     
  -1217770481.6379409       -12650157.644171536        1364473449.2903504     
  -1153233532.2182760       -14916821.764598191        1371898470.3416572     
  -1698695520.1065407       -9804849.9575229883        1294308110.5748127     
  -1620732156.8064208       -10052775.352853537        1287016354.5047290     
  -1542998884.6592546       -11067671.258032441        1284532814.6609151     
  -1465495703.6650472       -12849537.673075259        1286857491.0433741     
  -1388222613.8238003       -15398374.597975612        1293990383.6520975     
  -1982865758.3777728       -10114919.197806954        1214849611.1811869     
  -1892623315.9523323       -10039021.220983267        1207907601.8964479     
  -1802692625.6211188       -11002296.891572714        1205528093.3959572     
  -1713073687.3841243       -13004746.209561825        1207711085.6797132     
  -1623766501.2413523       -16046369.174962819        1214456578.7477169     
  -2264782625.9807887       -9748977.2376259565        1134146477.9653113     
  -2162963148.5500956       -9559869.1246751547        1127458944.3677702     
  -2061537084.1548860       -10682137.796674013        1125088196.1124573     
  -1960504432.7951660       -13115783.253637552        1127034233.1993694     
  -1859865194.4709351       -16860805.495559335        1133297055.6285083     
  -918799256.42478371       -14601710.674833834        1448180838.8163896     
  -867001314.21438181       -17027826.628923863        1443000379.5559258     
  -815427216.75675666       -20200091.758940548        1442729017.8935583     
  -764076964.05190921       -24118506.064882815        1447366753.8292849     
  -712950556.09983861       -28783069.546744257        1456913587.3631117     
  -1153233532.2182760       -14916821.764598191        1371898470.3416572     
  -1089018655.3198357       -17772210.782534957        1366206744.8125017     
  -1024979811.8192592       -21214377.793349624        1365256472.9215505     
  -961117001.71653938       -25243322.797025800        1369047654.6688058     
  -897430225.01167297       -29859045.793542653        1377580290.0542636     
  -1388222613.8238003       -15398374.597975612        1293990383.6520975     
  -1312069784.9798648       -18826731.502526879        1287843171.7683167     
  -1236045178.1788714       -22682495.216877520        1286269769.5628555     
  -1160148793.4208202       -26965665.741040349        1289270177.0357072     
  -1084380630.7057140       -31676243.075013041        1296844394.1868780     
  -1623766501.2413523       -16046369.174962819        1214456578.7477169     
  -1536154703.1944644       -20191388.788879156        1207909660.4233859     
  -1448623315.8356018       -24604444.029547989        1205768907.8174765     
  -1361172339.1647608       -29285534.896954715        1208034320.9299948     
  -1273801773.1819534       -34234661.391137958        1214705899.7609372     
  -1859865194.4709351       -16860805.495559335        1133297055.6285083     
  -1761273409.9636393       -21866182.641613841        1126406210.7776909     
  -1662714224.7894471       -26980224.231349528        1123753887.6854105     
  -1564187638.9483671       -32202930.264791250        1125340086.3516657     
  -1465693652.4403920       -37534300.741916120        1131164806.7764540     
  -712950556.09983861       -28783069.546744257        1456913587.3631117     
  -655836309.78675210       -31414889.328163505        1454373529.6296728     
  -598342355.73706806       -32781016.654255986        1457571912.3795636     
  -540468693.95077419       -32881451.524984807        1466508735.6127865     
  -482215324.42787874       -31716193.940372363        1481183999.3293419     
  -897430225.01167297       -29859045.793542653        1377580290.0542636     
  -825871945.98270333       -32042310.380615473        1374292167.7805531     
  -754090815.28406239       -33482736.068779528        1376272886.6831841     
  -682086832.91575480       -34180322.858060241        1383522446.7621555     
  -609859998.87777448       -34135070.748430014        1396040848.0174763     
  -1084380630.7057140       -31676243.075013041        1296844394.1868780     
  -999720031.26653516       -33813466.159420073        1292625208.6281295     
  -914993436.22462523       -35730703.901386887        1293205264.9387405     
  -830200845.57998228       -37427956.300909728        1298584563.1187027     
  -745342259.33260572       -38905223.357991636        1308763103.1680224     
  -1273801773.1819534       -34234661.391137958        1214705899.7609372     
  -1177380565.6382499       -36728356.664591968        1209372652.1724019     
  -1081050218.5587490       -39524920.152052581        1208369047.1462338     
  -984810731.94345069       -42624351.853521526        1211695084.6824300     
  -888662105.79236233       -46026651.769025922        1219350764.7809956     
  -1465693652.4403920       -37534300.741916120        1131164806.7764540     
  -1358853549.0978489       -40786981.896129191        1124534498.4133730     
  -1252261162.2864430       -44865384.820807576        1121764233.3056643     
  -1145916492.0061691       -49769509.515924454        1122854011.4533370     
  -1039819538.2570407       -55499355.981523335        1127803832.8563898     
  -482215324.42787874       -31716193.940372363        1481183999.3293419     
  -424933142.50267792       -26987740.158254191        1479005570.3077531     
  -365489205.14255893       -15053434.926411465        1482621885.1145236     
  -303883512.34752560        4086721.7551450729        1492032943.7496548     
  -240116064.11757112        30432729.886442855        1507238746.2131362     
  -609859998.87777448       -34135070.748430014        1396040848.0174763     
  -537801969.80599463       -30442493.253558248        1393680384.5344613     
  -463528572.48621327       -19365354.932015300        1397130261.8636632     
  -387039806.91842395       -903655.78378163278        1406390480.0050905     
  -308335673.10263127        24942604.191135496        1421461038.9587307     
  -745342259.33260572       -38905223.357991636        1308763103.1680224     
  -658463820.30320406       -36235153.307015181        1306283153.5055168     
  -569316400.21272111       -26001813.052429348        1309629141.6390870     
  -477899999.06115264       -8205202.5942309797        1318801067.5687382     
  -384214616.84850293        17154678.067578062        1333798931.2944686     
  -888662105.79236233       -46026651.769025922        1219350764.7809956     
  -786918693.99431694       -44365720.318657279        1216813877.2209249     
  -682852688.32210314       -34962809.287728578        1220118524.4407864     
  -576464088.77572894       -17817918.676267833        1229264706.4405959     
  -467752895.35517633        7068951.5157933831        1244252423.2203372     
  -1039819538.2570407       -55499355.981523335        1127803832.8563898     
  -923166590.87932062       -54834194.288453311        1125272555.6806777     
  -804137436.81435275       -46248343.637888074        1128598410.2687676     
  -682732076.06213582       -29741804.029827178        1137781396.6206629     
  -558950508.62266791       -5314575.4642633796        1152821514.7363548     
  -240116064.11757112        30432729.886442855        1507238746.2131362     
  -199431869.16359982        60126683.630796343        1486146942.3325624     
  -154136074.74618894        105192635.58660813        1467790006.3911808     
  -104228680.86533906        165630585.75388888        1452167938.3889933     
  -49709687.521055460        241440534.13261119        1439280738.3260055     
  -308335673.10263127        24942604.191135496        1421461038.9587307     
  -258809554.30985183        55183368.426705167        1404745935.9223344     
  -202829852.92929992        106936074.62151703        1391971257.7863104     
  -140396568.96098542        180200722.77553657        1383137004.5506587     
  -71509702.404904380        274977312.88877988        1378243176.2153838     
  -384214616.84850293        17154678.067578062        1333798931.2944686     
  -322402125.75639349        48975587.332545385        1323609509.4139638     
  -252294068.95219368        108448382.30448946        1318566069.3950086     
  -173890446.43590009        195573062.98340997        1318668611.2376094     
  -87191258.207508057        310349629.36932206        1323917134.9417694     
  -467752895.35517633        7068951.5157933831        1244252423.2203372     
  -390209583.50323349        41503340.348286971        1242737662.8074429     
  -302528722.81486559        109729558.63552593        1247574441.2172744     
  -204710313.29007357        211747606.37751591        1258762758.4498453     
  -96754354.928860620        347557483.57423967        1276302614.5051508     
  -558950508.62266791       -5314575.4642633796        1152821514.7363548     
  -462231927.55036718        32766627.473940462        1162130396.1027751     
  -353533814.51731527        110779603.61464238        1178996373.2531130     
  -232856169.52352047        228724352.95782495        1203419446.1873639     
  -100198992.56896994        386600875.50352359        1235399614.9055276     
  -49709687.521055460        241440534.13261119        1439280738.3260055     
  -40408700.909233660        322441673.53016382        1346260260.8676744     
  -23352329.339792877        429294096.11977834        1253123864.8180740     
   1459427.1872342527        561997801.90135098        1159871550.1771889     
   34026568.671862572        720552790.87492180        1066503316.9450598     
  -71509702.404904380        274977312.88877988        1378243176.2153838     
  -57341386.086110920        376723787.33921707        1296712223.7422955     
  -34207674.723195016        508354911.93672419        1214253904.6228759     
  -2108568.3161458075        669870686.68133616        1130868218.8571129     
   38955933.135028601        861271111.57304883        1046555166.4449965     
  -87191258.207508057        310349629.36932206        1323917134.9417694     
  -70474035.196233749        432145911.96825337        1255287385.8882089     
  -43581407.054303229        587860211.66936660        1184918822.1332324     
  -6513373.7817116380        777492528.47268271        1112811443.6768527     
   40730064.621520996        1001042862.3781469        1038965250.5190706     
  -96754354.928860620        347557483.57423967        1276302614.5051508     
  -79806648.239577860        488708047.41735160        1221985747.3053913     
  -51473526.333122760        667809995.31770456        1165118617.3491635     
  -11754989.209477365        884863327.27535391        1105701224.6364515     
   39348963.131343484        1139868043.2902641        1043733569.1672841     
  -100198992.56896994        386600875.50352359        1235399614.9055276     
  -85339225.216163456        546410193.68645072        1196807307.9938583     
  -57884032.559656262        748204262.88171351        1154853290.2706552     
  -17833414.599426389        991983083.08938658        1109537561.7358980     
   34812628.664496601        1277746654.3093672        1060860122.3896055     
  -3085332985.3340507       -49550712.345879197        1112768817.9005604     
  -2967621119.9960699       -28751263.536837816        1110066410.8057413     
  -2851424688.0626202       -13003259.409573436        1111347379.0903254     
  -2736743689.5337057       -2306699.9640927315        1116611722.7543154     
  -2623578124.4093213        3338414.7996225357        1125859441.7977130     
  -3430075107.7998381        9676453.4553318024        1016172576.9441465     
  -3308161678.5385890        7203102.8329181671        1009044619.1975412     
  -3185723576.9947991        6478659.8189766407        1006535904.3428434     
  -3062760803.1684594        7503124.4135202169        1008646432.3800513     
  -2939273357.0595818        10276496.616532445        1015376203.3091654     
  -3786718774.3233604        65333156.039219141        908950401.79522967     
  -3658787016.8174171        40132035.281774998        899777016.69843304     
  -3528290481.3418503        23480174.423064470        895858742.00603724     
  -3395229167.8966646        15377573.463087559        897195577.71804988     
  -3259603076.4818602        15824232.401836872        903787523.83446920     
  -4155263984.9046197        117419395.40578604        791102292.45381474     
  -4019497134.8325462        70035533.809746265        782263603.30840981     
  -3879125401.1037769        38001284.402691364        779315892.07991302     
  -3734148783.7183113        21316647.184622526        782259158.76831567     
  -3584567282.6761565        19981622.155535936        791093403.37363195     
  -4535710739.5436115        165935171.55503511        662628248.91989934     
  -4390292032.5839815        96913598.416822672        656504379.02747703     
  -4238228336.2805805        50041989.757852077        656907354.56446004     
  -4079519650.6334071        25320345.578127146        663837175.53084838     
  -3914165975.6424623        22748665.877628565        677293841.92664480     
  -2623578124.4093213        3338414.7996225357        1125859441.7977130     
  -2533983454.8958998       -280783.52206301689        1122931210.5736930     
  -2444319315.3200078       -3668414.9688450098        1123336306.1936197     
  -2354585705.6816373       -6824479.5407016277        1127074728.6574924     
  -2264782625.9807887       -9748977.2376259565        1134146477.9653113     
  -2939273357.0595818        10276496.616532445        1015376203.3091654     
  -2840625234.4505692        6364127.3732638359        1011037601.7717518     
  -2741996692.5172853        2386489.2108926773        1010397522.9073684     
  -2643387731.2597303       -1656417.8705742359        1013455966.7160141     
  -2544798350.6779022       -5764593.8711295128        1020212933.1976886     
  -3259603076.4818602        15824232.401836872        903787523.83446920     
  -3150858084.1227236        11931717.233350873        897934659.45575750     
  -3042221723.1775260        7677097.3517410755        896145513.57915819     
  -2933693993.6462593        3060372.7570222616        898420086.20467389     
  -2825274895.5289278       -1918456.5508099794        904758377.33230209     
  -3584567282.6761565        19981622.155535936        791093403.37363195     
  -3464682003.9123764        16421986.058179140        783622383.62571251     
  -3344994407.3007321        12203409.453700066        780580278.20898867     
  -3225504492.8412318        7325892.3420790434        781967087.12346733     
  -3106212260.5338678        1789434.7233370543        787782810.36914015     
  -3914165975.6424623        22748665.877628565        677293841.92664480     
  -3782096993.8195086        19834933.847778559        668100774.28161454     
  -3650314744.8869033        15965425.516771317        663701816.79686677     
  -3518819228.8446426        11140140.884609699        664096969.47240078     
  -3387610445.6927238        5359079.9513092041        669286232.30821335     
  -2264782625.9807887       -9748977.2376259565        1134146477.9653113     
  -2162963148.5500956       -9559869.1246751547        1127458944.3677702     
  -2061537084.1548860       -10682137.796674013        1125088196.1124573     
  -1960504432.7951660       -13115783.253637552        1127034233.1993694     
  -1859865194.4709351       -16860805.495559335        1133297055.6285083     
  -2544798350.6779022       -5764593.8711295128        1020212933.1976886     
  -2431961049.6970582       -5982166.7739006281        1012966202.4940478     
  -2319357205.1977892       -6977927.9485819340        1009971784.7980760     
  -2206986817.1800990       -8751877.3951976299        1011229680.1097754     
  -2094849885.6439853       -11304015.113730788        1016739888.4291471     
  -2825274895.5289278       -1918456.5508099794        904758377.33230209     
  -2701603977.6680965       -2597972.4703488350        897139065.50212026     
  -2578006559.7349281       -3522488.1487706900        893707594.34505248     
  -2454482641.7294278       -4692003.5860799551        894463963.86110079     
  -2331032223.6515913       -6106518.7822723389        899408174.05026126     
  -3106212260.5338678        1789434.7233370543        787782810.36914015     
  -2971891932.4632077        592713.78598439693        779977533.39198732     
  -2837485147.7662988       -315818.39722371101        776295624.75338781     
  -2702991906.4431448       -936161.82626700401        776737084.45334935     
  -2568412208.4937477       -1268316.5011773109        781301912.49187195     
  -3387610445.6927238        5359079.9513092041        669286232.30821335     
  -3242824914.0823941        3589891.9950852394        661481606.16364455     
  -3097792969.2919059        2642081.3060495853        657735876.02308023     
  -2952514611.3212595        2515647.8842077255        658049041.88651431     
  -2806989840.1704588        3210591.7295546532        662421103.75395477     
  -1859865194.4709351       -16860805.495559335        1133297055.6285083     
  -1761273409.9636393       -21866182.641613841        1126406210.7776909     
  -1662714224.7894471       -26980224.231349528        1123753887.6854105     
  -1564187638.9483671       -32202930.264791250        1125340086.3516657     
  -1465693652.4403920       -37534300.741916120        1131164806.7764540     
  -2094849885.6439853       -11304015.113730788        1016739888.4291471     
  -1985312561.3858416       -15243640.585377812        1009161669.2817978     
  -1875942399.7030725       -19740474.641606450        1005518631.6440105     
  -1766739400.5956831       -24794517.282430768        1005810775.5157821     
  -1657703564.0636632       -30405768.507827759        1010038100.8971157     
  -2331032223.6515913       -6106518.7822723389        899408174.05026126     
  -2211416046.0682387       -9240398.5071951151        890985590.15707004     
  -2092101594.3025341       -13380030.957607388        886194847.52446353     
  -1973088868.3544750       -18525416.133512855        885035946.15244579     
  -1854377868.2240610       -24676554.034887552        887508886.04100835     
  -2568412208.4937477       -1268316.5011773109        781301912.49187195     
  -2439583864.0108352       -3856456.4070816040        771877973.40351808     
  -2311191808.5878325       -7898893.1793594360        765782535.32677734     
  -2183236042.2247453       -13395626.818021894        763015598.26165020     
  -2055716564.9215775       -20346657.323077917        763577162.20813096     
  -2806989840.1704588        3210591.7295546532        662421103.75395477     
  -2669816015.2136221        908185.71497833729        651838819.02113283     
  -2533213042.5589724       -3297061.3068748713        644281695.05095077     
  -2397180922.2065115       -9405149.3360208273        639749731.84339595     
  -2261719654.1562157       -17416078.372404933        638242929.39848554     
  -1465693652.4403920       -37534300.741916120        1131164806.7764540     
  -1358853549.0978489       -40786981.896129191        1124534498.4133730     
  -1252261162.2864430       -44865384.820807576        1121764233.3056643     
  -1145916492.0061691       -49769509.515924454        1122854011.4533370     
  -1039819538.2570407       -55499355.981523335        1127803832.8563898     
  -1657703564.0636632       -30405768.507827759        1010038100.8971157     
  -1541235487.3758755       -34039996.658906341        1001518140.7261721     
  -1424766829.8527601       -37672288.692229271        996632319.94930983     
  -1308297591.4943054       -41302644.607758760        995380638.56653595     
  -1191827772.3005257       -44931064.405525982        997763096.57784724     
  -1854377868.2240610       -24676554.034887552        887508886.04100835     
  -1728927257.7947297       -28885961.063955069        877388954.32308543     
  -1603227769.1635883       -32265774.087005079        870677258.13795626     
  -1477279402.3306465       -34815993.104054630        867373797.48562360     
  -1351082157.2959044       -36536618.115096807        867478572.36608076     
  -2055716564.9215775       -20346657.323077917        763577162.20813096     
  -1921928860.3543890       -25324875.111240387        752146939.20411611     
  -1787643980.2189295       -28645841.005154371        743899047.87160039     
  -1652861924.5151911       -30309555.004811525        738833488.21058512     
  -1517582693.2431827       -30316017.110234201        736950260.22107077     
  -2261719654.1562157       -17416078.372404933        638242929.39848554     
  -2120240295.0548720       -23356738.800765872        625792095.36925972     
  -1978015463.0187747       -26812489.446639895        616297689.15024102     
  -1835045158.0479372       -27783330.310038328        609759710.74143505     
  -1691329380.1423514       -26269261.390938699        606178160.14282966     
  -1039819538.2570407       -55499355.981523335        1127803832.8563898     
  -923166590.87932062       -54834194.288453311        1125272555.6806777     
  -804137436.81435275       -46248343.637888074        1128598410.2687676     
  -682732076.06213582       -29741804.029827178        1137781396.6206629     
  -558950508.62266791       -5314575.4642633796        1152821514.7363548     
  -1191827772.3005257       -44931064.405525982        997763096.57784724     
  -1061619032.4889663       -42207536.496802390        994058375.81762636     
  -929940364.81746769       -34584249.054953992        994449048.34679043     
  -796791769.28604484       -22061202.080018789        998935114.16533947     
  -662173245.89467621       -4638395.5719370544        1007516573.2732824     
  -1351082157.2959044       -36536618.115096807        867478572.36608076     
  -1212351163.5488315       -33264785.540217161        861543082.72281265     
  -1073056520.7691334       -28114122.856598496        857941247.89451718     
  -933198228.95681596       -21084630.064249098        856673067.88119435     
  -792776288.11187804       -12176307.163152099        857738542.68284547     
  -1517582693.2431827       -30316017.110234201        736950260.22107077     
  -1375362984.0589185       -28005941.418695152        727726676.39622605     
  -1233485904.6693459       -26837965.042800307        719075008.91193795     
  -1091951455.0744693       -26812087.982560694        710995257.76820850     
  -950759635.27428019       -27928310.237935662        703487422.96503997     
  -1691329380.1423514       -26269261.390938699        606178160.14282966     
  -1550654494.0192201       -26431004.132237613        592609156.83787632     
  -1411228516.5181007       -30755775.613563061        577850331.39906394     
  -1273051447.6389852       -39243575.834914029        561901683.82640028     
  -1136123287.3818767       -51894404.796277523        544763214.11987507     
  -558950508.62266791       -5314575.4642633796        1152821514.7363548     
  -462231927.55036718        32766627.473940462        1162130396.1027751     
  -353533814.51731527        110779603.61464238        1178996373.2531130     
  -232856169.52352047        228724352.95782495        1203419446.1873639     
  -100198992.56896994        386600875.50352359        1235399614.9055276     
  -662173245.89467621       -4638395.5719370544        1007516573.2732824     
  -547050940.54884672        25652818.610598743        1020992006.0510887     
  -421057503.88396800        92181137.189966261        1042864743.7374662     
  -284192935.90004796        194946560.16613364        1073134786.3324150     
  -136457236.59708899        333949087.53910547        1111802133.8359323     
  -792776288.11187804       -12176307.163152099        857738542.68284547     
  -656849660.99351084        11045097.513414949        874087392.79005170     
  -511160303.19780028        66808937.781122983        899673756.93048298     
  -355708214.72474664        155115213.63997102        934497635.10413408     
  -190493395.57435820        275963925.08994573        978559027.31100774     
  -950759635.27428019       -27928310.237935662        703487422.96503997     
  -791628088.88436747       -11056535.817646593        721416556.31966805     
  -623842212.45880568        34663005.388134420        749423412.83216393     
  -447402005.99761248        109230313.37936154        787507992.50254083     
  -262307469.50077823        212645388.15605897        835670295.33079028     
  -1136123287.3818767       -51894404.796277523        544763214.11987507     
  -951386224.22140145       -40652081.382541299        562979496.63992512     
  -759103231.66699052       -4256659.9890147150        592113711.44250500     
  -559274309.71863604        57291859.384313077        632165858.52760959     
  -351899458.37636405        143993476.73738253        683135937.89524913     
  -100198992.56896994        386600875.50352359        1235399614.9055276     
  -85339225.216163456        546410193.68645072        1196807307.9938583     
  -57884032.559656262        748204262.88171351        1154853290.2706552     
  -17833414.599426389        991983083.08938658        1109537561.7358980     
   34812628.664496601        1277746654.3093672        1060860122.3896055     
  -136457236.59708899        333949087.53910547        1111802133.8359323     
  -127347878.56374815        482944970.30590725        1090230059.1536534     
  -95100031.338646531        709069150.37856996        1070091711.6716737     
  -39713694.921805024        1012321627.7570380        1051387091.3899813     
   38811130.686805069        1392702402.4413984        1034116198.3085699     
  -190493395.57435820        275963925.08994573        978559027.31100774     
  -173433195.39810276        418256747.87935954        986307426.06085742     
  -122691442.14204705        672821414.26809096        1000284990.0228196     
  -38268135.806199074        1039657924.2561316        1020491719.1969131     
   79836723.609443903        1518766277.8435023        1046927613.5831220     
  -262307469.50077823        212645388.15605897        835670295.33079028     
  -223595175.71923259        352345526.40677923        885039408.71546626     
  -140658264.96984905        639461054.55029762        945433125.32409346     
  -13496737.252628565        1073991972.5865982        1016851445.1566802     
   157889407.43244642        1655938280.5157351        1099294368.2132080     
  -351899458.37636405        143993476.73738253        683135937.89524913     
  -277833819.52715480        285211305.88813448        786426007.11747909     
  -149000499.82205409        608988071.22518027        905536117.57548773     
   34600500.738913298        1115323772.7484481        1040466269.2692890     
   272969182.15577859        1804218410.4580534        1191216462.1988664     
  -4535710739.5436115        165935171.55503511        662628248.91989934     
  -4390292032.5839815        96913598.416822672        656504379.02747703     
  -4238228336.2805805        50041989.757852077        656907354.56446004     
  -4079519650.6334071        25320345.578127146        663837175.53084838     
  -3914165975.6424623        22748665.877628565        677293841.92664480     
  -4994160029.5567207       -100749376.92740512        443687738.20591205     
  -4805109573.7619915       -65583095.007117033        455312291.44164091     
  -4618224034.6898556       -37633202.162140369        469929531.79992366     
  -4433503412.3403130       -16899698.392467499        487539459.28076380     
  -4250947706.7133560       -3382583.6980922222        508142073.88415784     
  -5404317529.3244305       -352946388.33622241        264924158.75164765     
  -5181732919.8570328       -216621529.90617919        284018911.37143725     
  -4970123133.1785946       -116879414.10597515        302572192.80693758     
  -4769488169.2891083       -53720040.935627222        320584003.05813324     
  -4579828028.1885738       -27143410.395112514        338054342.12503487     
  -5766183238.8467293       -590655862.67141962        126337510.55710703     
  -5520162070.8691053       -356201706.28033566        142624238.81687155     
  -5293925631.7467947       -187696646.07365036        154835337.58548805     
  -5087473921.4798012       -85140682.051340342        162970806.86295271     
  -4900806940.0681324       -48533814.213436842        167030646.64927742     
  -6079757158.1236410       -813877799.93300056        27927793.622288641     
  -5820397026.7982178       -484323624.12962747        31128273.777937423     
  -5589631530.3944664       -250084898.06516171        26718966.135585569     
  -5387460668.9124060       -111161621.73966336        14699870.695230834     
  -5213884442.3520126       -67553795.153058290       -4929012.5431187786     
  -3914165975.6424623        22748665.877628565        677293841.92664480     
  -3782096993.8195086        19834933.847778559        668100774.28161454     
  -3650314744.8869033        15965425.516771317        663701816.79686677     
  -3518819228.8446426        11140140.884609699        664096969.47240078     
  -3387610445.6927238        5359079.9513092041        669286232.30821335     
  -4250947706.7133560       -3382583.6980922222        508142073.88415784     
  -4106677856.3602180       -4745939.4605979919        501224089.66329098     
  -3962481362.1689296       -6353815.7625830173        498539499.62827247     
  -3818358224.1394863       -8206212.6040463448        500088303.77911383     
  -3674308442.2718825       -10303129.984993219        505870502.11580741     
  -4579828028.1885738       -27143410.395112514        338054342.12503487     
  -4424959354.9464817       -27437003.582631111        333660380.84490836     
  -4269950661.1377282       -27263861.547952175        332939097.77621102     
  -4114801946.7623215       -26623984.291103840        335890492.91893774     
  -3959513211.8202615       -25517371.812061787        342514566.27308905     
  -4900806940.0681324       -48533814.213436842        167030646.64927742     
  -4736941489.5782957       -48238258.518331051        165409647.82647786     
  -4572722641.7933025       -46764711.839366198        166900611.24067363     
  -4408150396.7131529       -44113174.176554680        171503536.89187229     
  -4243224754.3378544       -40283645.529897928        179218424.78006876     
  -5213884442.3520126       -67553795.153058290       -4929012.5431187786     
  -5042624260.2556629       -67149704.267709970       -3528109.3920100583     
  -4870797304.1356497       -64856366.636811733        424040.02167319902     
  -4698403573.9919891       -60673782.260418892        6927435.6979205059     
  -4525443069.8246670       -54601951.138499737        15982077.636742190     
  -3387610445.6927238        5359079.9513092041        669286232.30821335     
  -3242824914.0823941        3589891.9950852394        661481606.16364455     
  -3097792969.2919059        2642081.3060495853        657735876.02308023     
  -2952514611.3212595        2515647.8842077255        658049041.88651431     
  -2806989840.1704588        3210591.7295546532        662421103.75395477     
  -3674308442.2718825       -10303129.984993219        505870502.11580741     
  -3517937017.9760389       -8873323.3086099625        498737843.70747691     
  -3361604172.9059229       -7572114.0513107777        495720284.90725178     
  -3205309907.0615263       -6399502.2130826712        496817825.71511632     
  -3049054220.4428539       -5355487.7939326763        502030466.13108748     
  -3959513211.8202615       -25517371.812061787        342514566.27308905     
  -3791395313.1129203       -20840395.985274315        335721384.46081245     
  -3623600986.0371871       -17241992.263852596        333099505.86072791     
  -3456130230.5930538       -14722160.647751570        334648930.47283792     
  -3288983046.7805247       -13280901.137017727        340369658.29713720     
  -4243224754.3378544       -40283645.529897928        179218424.78006876     
  -4063199799.4930258       -32311326.034903526        172432228.42364439     
  -3883783408.6856909       -26367553.331566095        169873538.88350573     
  -3704975581.9158244       -22452327.419783592        171542356.15966213     
  -3526776319.1834569       -20565648.299667120        177438680.25210083     
  -4525443069.8246670       -54601951.138499737        15982077.636742190     
  -4333350477.1163616       -43286113.457498550        8870375.5959766805     
  -4142151440.8514409       -34948797.254448652        6042383.9755941750     
  -3951845961.0298681       -29590002.529210806        7498102.7755991556     
  -3762434037.6516728       -27209729.281921387        13237531.995988419     
  -2806989840.1704588        3210591.7295546532        662421103.75395477     
  -2669816015.2136221        908185.71497833729        651838819.02113283     
  -2533213042.5589724       -3297061.3068748713        644281695.05095077     
  -2397180922.2065115       -9405149.3360208273        639749731.84339595     
  -2261719654.1562157       -17416078.372404933        638242929.39848554     
  -3049054220.4428539       -5355487.7939326763        502030466.13108748     
  -2903595590.1568470       -7738867.0733664036        491983364.38863730     
  -2758222519.1937647       -10407444.095861197        485302715.19788069     
  -2612935007.5535965       -13361218.861425042        481988518.55881816     
  -2467733055.2363529       -16600191.370048165        482040774.47144532     
  -3288983046.7805247       -13280901.137017727        340369658.29713720     
  -3134264491.7680464       -15452717.862105012        331423914.68753237     
  -2979146203.0992169       -16292089.066038489        326185915.41867650     
  -2823628180.7740560       -15799014.748851418        324655660.49057090     
  -2667710424.7925487       -13973494.910522461        326833149.90320832     
  -3526776319.1834569       -20565648.299667120        177438680.25210083     
  -3361822720.0471954       -22233366.651197910        170160469.91781855     
  -3195984094.2753401       -20950996.217423797        166931295.71333954     
  -3029260441.8678732       -16718536.998276949        167751157.63866028     
  -2861651762.8248081       -9535988.9937993288        172620055.69377938     
  -3762434037.6516728       -27209729.281921387        13237531.995988419     
  -3586270274.9943419       -28080813.440763235        8193030.0794871207     
  -3408736192.7221293       -24384165.550010920        7538856.0818537930     
  -3229831790.8350635       -16119785.609729767        11275010.003082350     
  -3049557069.3331308       -3287673.6199148893        19401491.843162864     
  -2261719654.1562157       -17416078.372404933        638242929.39848554     
  -2120240295.0548720       -23356738.800765872        625792095.36925972     
  -1978015463.0187747       -26812489.446639895        616297689.15024102     
  -1835045158.0479372       -27783330.310038328        609759710.74143505     
  -1691329380.1423514       -26269261.390938699        606178160.14282966     
  -2467733055.2363529       -16600191.370048165        482040774.47144532     
  -2317918801.3147764       -18284127.892458081        472011362.92597169     
  -2167906013.0120702       -19306283.144440770        464454660.22293639     
  -2017694690.3282514       -19666657.126047134        459370666.36234391     
  -1867284833.2633083       -19365249.837234139        456759381.34419358     
  -2667710424.7925487       -13973494.910522461        326833149.90320832     
  -2510943330.2443552       -11815323.785042286        318587065.86225355     
  -2354524639.8686676       -10818499.901239634        312329971.69597644     
  -2198454353.6654840       -10983023.259131670        308061867.40436828     
  -2042732471.6348078       -12308893.858695626        305782752.98743773     
  -2861651762.8248081       -9535988.9937993288        172620055.69377938     
  -2699313881.8436131       -3950326.4785120487        165519204.17811951     
  -2537871343.5885649       -1349139.7170317173        159923623.56936073     
  -2377324148.0596356       -1732428.7092719078        155833313.86751300     
  -2217672295.2568402       -5100193.4553220272        153248275.07257152     
  -3049557069.3331308       -3287673.6199148893        19401491.843162864     
  -2883030456.1125698        5310864.0270552635        12807777.873557597     
  -2717946124.1717582        9101797.4082076550        7235615.8430922143     
  -2554304073.5107069        8085126.5234804153        2685005.7517667180     
  -2392104304.1294179        2260851.3728878498       -844052.40042145352     
  -1691329380.1423514       -26269261.390938699        606178160.14282966     
  -1550654494.0192201       -26431004.132237613        592609156.83787632     
  -1411228516.5181007       -30755775.613563061        577850331.39906394     
  -1273051447.6389852       -39243575.834914029        561901683.82640028     
  -1136123287.3818767       -51894404.796277523        544763214.11987507     
  -1867284833.2633083       -19365249.837234139        456759381.34419358     
  -1729622424.0787311       -22717776.697807789        442988616.08817208     
  -1592046263.4194245       -26357798.642613471        428826717.81002861     
  -1454556351.2853711       -30285315.671598196        414273686.50976127     
  -1317152687.6765993       -34500327.784844160        399329522.18737322     
  -2042732471.6348078       -12308893.858695626        305782752.98743773     
  -1905800570.4981222       -18167614.171351910        293166662.55988348     
  -1767792257.7899675       -20438295.912423849        280958128.22194368     
  -1628707533.5103235       -19120939.081879318        269157149.97361052     
  -1488546397.6592176       -14215543.679786146        257763727.81488118     
  -2217672295.2568402       -5100193.4553220272        153248275.07257152     
  -2079188933.2773876       -12780516.552853465        143143296.25302026     
  -1938466499.6297176       -12997267.422992587        134244562.63480762     
  -1795504994.3138387       -5750446.0657624006        126552074.21793208     
  -1650304417.3297222        8959947.5189158916        120065831.00240244     
  -2392104304.1294179        2260851.3728878498       -844052.40042145352     
  -2249787512.4165273       -6556483.8423038721       -7081482.8324413570     
  -2104068988.9386899       -4034713.1743279696       -11313978.951381044     
  -1954948733.6958761        9826163.3769011497       -13541540.757259410     
  -1802426746.6881239        35026145.811248779       -13764168.250063324     
  -1136123287.3818767       -51894404.796277523        544763214.11987507     
  -951386224.22140145       -40652081.382541299        562979496.63992512     
  -759103231.66699052       -4256659.9890147150        592113711.44250500     
  -559274309.71863604        57291859.384313077        632165858.52760959     
  -351899458.37636405        143993476.73738253        683135937.89524913     
  -1317152687.6765993       -34500327.784844160        399329522.18737322     
  -1117611276.0503643       -14696545.801331580        421226844.96891552     
  -914438031.48689675        17213345.972971320        441618474.61779165     
  -707632953.98618698        61229347.538082212        460504411.13400745     
  -497196043.54823828        117351458.89397299        477884654.51755065     
  -1488546397.6592176       -14215543.679786146        257763727.81488118     
  -1309696710.1820734        3500875.0890441537        278775644.99177313     
  -1131129286.2243836        20276415.459676445        285858243.62079942     
  -952844125.78614211        36111077.432150066        279011523.70197129     
  -774841228.86737955        51004861.006383240        258235485.23528126     
  -1650304417.3297222        8959947.5189158916        120065831.00240244     
  -1527642526.6165051        13940181.288598180        135625896.70849827     
  -1409176995.8794301        4932548.4711570144        124833018.45153324     
  -1294907825.1185360       -18062950.933550358        87687196.231507182     
  -1184835014.3337677       -55046316.925367177        24188430.048439793     
  -1802426746.6881239        35026145.811248779       -13764168.250063324     
  -1771448725.3536794        16621372.797342777       -8222399.8809190132     
  -1748581160.4520841       -28818254.992727995       -41457200.890021794     
  -1733824051.9833212       -101292737.55891240       -113468571.27736607     
  -1727177399.9474397       -200802074.90135604       -224256511.04297251     
  -351899458.37636405        143993476.73738253        683135937.89524913     
  -277833819.52715480        285211305.88813448        786426007.11747909     
  -149000499.82205409        608988071.22518027        905536117.57548773     
   34600500.738913298        1115323772.7484481        1040466269.2692890     
   272969182.15577859        1804218410.4580534        1191216462.1988664     
  -497196043.54823828        117351458.89397299        477884654.51755065     
  -388325644.40809244        223018599.81424135        597125359.26927423     
  -230329946.58735505        492436736.33649266        735522920.29296792     
  -23208950.086034477        925605868.46068513        893077337.58862269     
   233037345.09587160        1522525996.1868238        1069788611.1562629     
  -774841228.86737955        51004861.006383240        258235485.23528126     
  -621632312.19004369        123981440.87007740        386844046.31198341     
  -424940479.00742656        341901075.75137556        537946278.69683492     
  -184765729.31951723        704763765.65034211        711542182.38984060     
   98891936.873682439        1212569510.5669096        907631757.39101160     
  -1184835014.3337677       -55046316.925367177        24188430.048439793     
  -977753822.87301564       -11900170.944416106        155582068.24561113     
  -732832097.08227289        157381089.46983844        312806192.78712314     
  -450069836.96152735        452797464.31741065        495860803.67297047     
  -129467042.51079249        874348953.59832966        704745900.90315866     
  -1727177399.9474397       -200802074.90135604       -224256511.04297251     
  -1456690176.4570189       -184626235.62927222       -96660574.929847017     
  -1154004800.8118732       -61123222.508104742        60102662.563806295     
  -819121273.01206398        169706964.46197957        246033201.43796790     
  -452039593.05754256        507864325.28102708        461131041.69267845     
 </DataArray>
 <DataArray  type="Float64" Name="VM" NumberOfComponents="1" format="ascii">
   5716642830.9125977     
   5594241917.0764208     
   5469075146.4236975     
   5332809703.3072510     
   5180444986.7072268     
   5499072422.8158150     
   5356659707.8000679     
   5209524819.6165495     
   5053332326.8703365     
   4885295009.4737129     
   5256837411.4755564     
   5100667264.3451834     
   4940600132.8353033     
   4775249582.5537939     
   4603704124.4802361     
   5003918777.6325979     
   4837372559.1564655     
   4670986226.7711649     
   4504930345.2219763     
   4339448547.9236040     
   4761309629.7789803     
   4582851690.5814724     
   4412681146.7958374     
   4250700635.1506844     
   4097125280.0978184     
   5180444986.7072268     
   5009390738.1710405     
   4838695213.9899740     
   4668377846.7270727     
   4498475822.3413143     
   4885295009.4737129     
   4721707430.1339798     
   4558695517.4736681     
   4396307411.5293264     
   4234619733.7283311     
   4603704124.4802361     
   4448999689.6008997     
   4295270882.6269178     
   4142610134.7283225     
   3991153754.9923801     
   4339448547.9236040     
   4195117660.0497084     
   4052375458.2038417     
   3911375392.9380574     
   3772334374.3312731     
   4097125280.0978184     
   3964687193.4668527     
   3834687945.3118491     
   3707355830.1223364     
   3583004300.4846587     
   4498475822.3413143     
   4311897756.3675823     
   4124801367.3828940     
   3937155773.4583178     
   3748973338.3509369     
   4234619733.7283311     
   4058145868.5507503     
   3881833844.8675981     
   3705731124.2267032     
   3529942936.6011209     
   3991153754.9923801     
   3825470569.4696016     
   3660760728.0231824     
   3497161835.8395548     
   3334885260.8188910     
   3772334374.3312731     
   3618143454.9190354     
   3465862268.4612575     
   3315723751.7076626     
   3168049069.6819425     
   3583004300.4846587     
   3440965181.0844579     
   3301872541.7133532     
   3166048316.8822985     
   3033911587.8489041     
   3748973338.3509369     
   3572340824.5759292     
   3396634849.7176924     
   3221861325.7377086     
   3048099804.3253775     
   3529942936.6011209     
   3363698176.2798305     
   3198654776.9988742     
   3034876418.5987053     
   2872498235.9883461     
   3334885260.8188910     
   3178827647.2774305     
   3024273924.1373558     
   2871361883.3739653     
   2720304516.3191833     
   3168049069.6819425     
   3022350011.6928024     
   2878497857.3379550     
   2736719694.1613159     
   2597326913.1671739     
   3033911587.8489041     
   2899142047.2714934     
   2766608708.6785278     
   2636637661.0978718     
   2509651559.8015952     
   3048099804.3253775     
   2885774819.2952757     
   2722537278.3073254     
   2558360446.0693221     
   2393235978.9867940     
   2872498235.9883461     
   2712533444.6077390     
   2552272621.1371775     
   2391737157.6133099     
   2230973099.4009104     
   2720304516.3191833     
   2565112388.0103092     
   2410618371.7998443     
   2256963190.6259003     
   2104346207.7346125     
   2597326913.1671739     
   2449302950.7689457     
   2303364801.2902894     
   2159829058.8164411     
   2019122241.0030339     
   2509651559.8015952     
   2370925936.7454534     
   2236000244.8923907     
   2105374004.5628443     
   1979699740.0459888     
   2393235978.9867940     
   2246549930.8821335     
   2102145879.3144891     
   1960020631.1458092     
   1820348711.0890977     
   2230973099.4009104     
   2087603139.3783488     
   1945942276.4055798     
   1805987979.7568278     
   1667818636.7771976     
   2104346207.7346125     
   1963573809.7708073     
   1823784236.5390413     
   1685006866.1525605     
   1547300353.3883488     
   2019122241.0030339     
   1881896223.3874488     
   1744998643.9929640     
   1608560768.2996383     
   1472763212.4077041     
   1979699740.0459888     
   1848729142.7440326     
   1717801337.4275355     
   1587274854.8371704     
   1457673348.9986186     
   1820348711.0890977     
   1779874600.0845997     
   1735837437.3200538     
   1696881736.6419537     
   1681521747.4284575     
   1667818636.7771976     
   1552534954.4889486     
   1428112326.9248788     
   1294909194.9406545     
   1159050708.6723239     
   1547300353.3883488     
   1397515794.4516361     
   1244164237.5753355     
   1084973021.7165959     
   917909468.83536971     
   1472763212.4077041     
   1328586502.2731271     
   1198880470.9749069     
   1088124199.6011274     
   1002219128.5428561     
   1457673348.9986186     
   1348684637.7621014     
   1274684484.4050956     
   1243789771.4052773     
   1263037096.4488320     
   1681521747.4284575     
   1383878496.7318661     
   1129497068.0055566     
   1010132519.5723989     
   1153154916.8702686     
   1159050708.6723239     
   1008526675.2516615     
   985235376.22280526     
   1161470056.7314181     
   1544165643.7584691     
   917909468.83536971     
   963230994.05375075     
   1144952819.8933578     
   1476456353.3493307     
   1957441520.6211417     
   1002219128.5428561     
   1164823603.9100015     
   1425465064.4990916     
   1808736744.9300430     
   2334722556.2940087     
   1263037096.4488320     
   1446781276.4771667     
   1715748853.5186296     
   2110512668.6379411     
   2663495861.1534085     
   4761309629.7789803     
   4582851690.5814724     
   4412681146.7958374     
   4250700635.1506844     
   4097125280.0978184     
   4432318089.8355312     
   4275345492.3148947     
   4125344779.4091125     
   3982425035.4851723     
   3846899204.0377297     
   4131522570.3541074     
   3995492942.3966298     
   3865219090.5581083     
   3740976821.7255855     
   3623166959.3170328     
   3859601075.8666906     
   3744639902.5687513     
   3634399476.3067875     
   3529255319.3866177     
   3429665468.2560725     
   3617128469.3164835     
   3524063213.3477249     
   3434966249.8989444     
   3350212481.9461827     
   3270261487.0163884     
   4097125280.0978184     
   3964687193.4668527     
   3834687945.3118491     
   3707355830.1223364     
   3583004300.4846587     
   3846899204.0377297     
   3728723639.5360651     
   3613567959.3075776     
   3501711015.2223706     
   3393511650.8768196     
   3623166959.3170328     
   3519162393.7919631     
   3418736251.2757778     
   3322201651.3233886     
   3229941916.5051670     
   3429665468.2560725     
   3339739696.8800840     
   3253890686.2783332     
   3172444124.9922132     
   3095781857.0244174     
   3270261487.0163884     
   3194257985.4184728     
   3122722660.4122586     
   3055968552.0733151     
   2994348117.9580965     
   3583004300.4846587     
   3440965181.0844579     
   3301872541.7133532     
   3166048316.8822985     
   3033911587.8489041     
   3393511650.8768196     
   3264812132.1338367     
   3139797853.5815468     
   3018873489.1961589     
   2902547733.8949442     
   3229941916.5051670     
   3115481907.9825850     
   3005526402.4497218     
   2900549589.1302857     
   2801128201.5738988     
   3095781857.0244174     
   2996368372.1774726     
   2902311351.1481624     
   2814126593.5488243     
   2732420830.3840203     
   2994348117.9580965     
   2910552224.4998713     
   2832930976.4444213     
   2762001910.1388454     
   2698353318.6203375     
   3033911587.8489041     
   2899142047.2714934     
   2766608708.6785278     
   2636637661.0978718     
   2509651559.8015952     
   2902547733.8949442     
   2780209159.2069540     
   2661331018.5979676     
   2546376182.5237384     
   2435920335.7600732     
   2801128201.5738988     
   2692875398.0148358     
   2589420716.7457232     
   2491332267.6086330     
   2399287943.4328761     
   2732420830.3840203     
   2639442509.6157403     
   2552590985.1626415     
   2472477175.5028296     
   2399798486.0646973     
   2698353318.6203375     
   2621149113.5519214     
   2551265279.1080294     
   2489280922.3212690     
   2435827249.9444017     
   2509651559.8015952     
   2370925936.7454534     
   2236000244.8923907     
   2105374004.5628443     
   1979699740.0459888     
   2435920335.7600732     
   2311483149.3476748     
   2192131475.6964283     
   2078556825.3877802     
   1971612611.6194754     
   2399287943.4328761     
   2291182288.1159391     
   2189494838.1217656     
   2095028772.0977528     
   2008718788.7170820     
   2399798486.0646973     
   2309376033.9939504     
   2226551918.3031039     
   2152129224.5680237     
   2086987241.1811035     
   2435827249.9444017     
   2363568601.6420631     
   2299794063.8414173     
   2245211194.8156524     
   2200549930.9368982     
   1979699740.0459888     
   1848729142.7440326     
   1717801337.4275355     
   1587274854.8371704     
   1457673348.9986186     
   1971612611.6194754     
   1855437329.8928075     
   1743648505.2709622     
   1637175049.3469660     
   1537157906.6437917     
   2008718788.7170820     
   1912418035.4018855     
   1824900604.3277931     
   1747367618.8835545     
   1681111431.0574994     
   2086987241.1811035     
   2012079593.4438078     
   1949515477.3741193     
   1900368313.4104669     
   1865661394.9363010     
   2200549930.9368982     
   2145538912.8179891     
   2105418965.8917978     
   2080947260.9561801     
   2072794169.6558723     
   1457673348.9986186     
   1348684637.7621014     
   1274684484.4050956     
   1243789771.4052773     
   1263037096.4488320     
   1537157906.6437917     
   1476268999.6477396     
   1448071556.6553254     
   1456528816.8722537     
   1504937298.5750976     
   1681111431.0574994     
   1652547957.9448195     
   1651707291.2226894     
   1680958747.7560034     
   1742913204.6313879     
   1865661394.9363010     
   1855055317.1469929     
   1867431649.9835565     
   1905000533.6369419     
   1970792809.3061221     
   2072794169.6558723     
   2069183163.6083758     
   2084830919.3882303     
   2122369382.5002100     
   2185606030.8216519     
   1263037096.4488320     
   1446781276.4771667     
   1715748853.5186296     
   2110512668.6379411     
   2663495861.1534085     
   1504937298.5750976     
   1613322410.0432475     
   1788902472.0115359     
   2066421276.3047774     
   2476075496.2691941     
   1742913204.6313879     
   1787726042.3031151     
   1884675425.5392876     
   2060667092.7229183     
   2340927993.0653548     
   1970792809.3061221     
   1968948981.4019849     
   2003632798.0379241     
   2093518506.1196382     
   2257268894.9525809     
   2185606030.8216519     
   2156274635.8414526     
   2146515228.7452731     
   2166854798.0664325     
   2228371447.5571299     
   3617128469.3164835     
   3524063213.3477249     
   3434966249.8989444     
   3350212481.9461827     
   3270261487.0163884     
   3420226920.9506326     
   3335899496.5313277     
   3257494951.7253933     
   3185438473.7188091     
   3120246644.7923288     
   3249191760.2659845     
   3173730678.9278035     
   3106416801.6792049     
   3047664365.9064507     
   2997977252.3516083     
   3115352072.1410370     
   3047474776.8706298     
   2990225485.2395658     
   2943935204.6562705     
   2909013880.5531220     
   3031292767.3363571     
   2967926183.3796935     
   2917891546.4975939     
   2881377750.3588791     
   2858634520.4280257     
   3270261487.0163884     
   3194257985.4184728     
   3122722660.4122586     
   3055968552.0733151     
   2994348117.9580965     
   3120246644.7923288     
   3053573190.8469110     
   2992386517.7928829     
   2937008364.2862568     
   2887798647.9819155     
   2997977252.3516083     
   2940722519.6769090     
   2890060578.1567397     
   2846292422.1525130     
   2809752216.4243827     
   2909013880.5531220     
   2860597174.6975012     
   2819934212.6472182     
   2787274684.0857034     
   2762894291.5318480     
   2858634520.4280257     
   2817659061.9217052     
   2785624659.9486117     
   2762706793.5481167     
   2749099813.4539881     
   2994348117.9580965     
   2910552224.4998713     
   2832930976.4444213     
   2762001910.1388454     
   2698353318.6203375     
   2887798647.9819155     
   2817844204.4396825     
   2754974027.4479175     
   2699668620.0089922     
   2652458087.2603188     
   2809752216.4243827     
   2753146228.0162020     
   2704434184.5984764     
   2664022973.5100198     
   2632348017.1568608     
   2762894291.5318480     
   2718503636.7380319     
   2682690619.9912262     
   2655764172.6679335     
   2638045438.1403184     
   2749099813.4539881     
   2715119976.8642564     
   2690278878.0637498     
   2674780979.1424127     
   2668833537.9059057     
   2698353318.6203375     
   2621149113.5519214     
   2551265279.1080294     
   2489280922.3212690     
   2435827249.9444017     
   2652458087.2603188     
   2589652313.0245328     
   2534779733.2797050     
   2488337976.9785237     
   2450850072.0764346     
   2632348017.1568608     
   2583176277.1125979     
   2542391659.5597034     
   2510386615.6991024     
   2487559404.2593918     
   2638045438.1403184     
   2601246973.4724526     
   2573143033.0629783     
   2554015618.4639602     
   2544142004.0905247     
   2668833537.9059057     
   2642719879.3183837     
   2625501656.2452908     
   2617360976.9768825     
   2618472392.0288477     
   2435827249.9444017     
   2363568601.6420631     
   2299794063.8414173     
   2245211194.8156524     
   2200549930.9368982     
   2450850072.0764346     
   2394175716.0918407     
   2346906611.0624776     
   2309611879.9472265     
   2282845925.4326653     
   2487559404.2593918     
   2445285114.3197484     
   2413076022.7474723     
   2391344221.3701496     
   2380469193.4365802     
   2544142004.0905247     
   2514491048.1387467     
   2495376967.7643847     
   2487066521.7668052     
   2489792554.1974516     
   2618472392.0288477     
   2599252245.3889132     
   2590949931.2857499     
   2593715448.3006840     
   2607673604.8100710     
   2200549930.9368982     
   2145538912.8179891     
   2105418965.8917978     
   2080947260.9561801     
   2072794169.6558723     
   2282845925.4326653     
   2242365976.9820099     
   2215785050.4697437     
   2203549884.5504022     
   2206046587.4397092     
   2380469193.4365802     
   2351628178.3483224     
   2335675377.8150363     
   2332861599.0484753     
   2343408842.7742739     
   2489792554.1974516     
   2469983951.4908142     
   2462148710.0938072     
   2466425232.9072223     
   2482949491.1236711     
   2607673604.8100710     
   2594648524.6352172     
   2592838225.8506236     
   2602324095.5475993     
   2623203229.0682330     
   2072794169.6558723     
   2069183163.6083758     
   2084830919.3882303     
   2122369382.5002100     
   2185606030.8216519     
   2206046587.4397092     
   2191659587.3834043     
   2192278839.4841962     
   2209873600.3283949     
   2247360764.1040587     
   2343408842.7742739     
   2319042469.7151599     
   2306214143.1404853     
   2306329490.6550508     
   2321475549.2988710     
   2482949491.1236711     
   2450355690.4578919     
   2426317591.0123477     
   2411780873.8243771     
   2408122186.8850565     
   2623203229.0682330     
   2584816757.8589168     
   2552304823.4713902     
   2526249341.0340014     
   2507459601.2245183     
   2185606030.8216519     
   2156274635.8414526     
   2146515228.7452731     
   2166854798.0664325     
   2228371447.5571299     
   2247360764.1040587     
   2182648462.2224159     
   2134361362.8741009     
   2112166764.3919239     
   2127001212.9466937     
   2321475549.2988710     
   2224727176.5932856     
   2141307214.8526294     
   2079579063.7154195     
   2049712073.3158708     
   2408122186.8850565     
   2282804960.0964642     
   2167999574.7597084     
   2070442570.0055797     
   1998896450.5284016     
   2507459601.2245183     
   2357091643.6613030     
   2214909034.6223416     
   2085888180.7626016     
   1976897611.4973214     
   3031292767.3363571     
   2967926183.3796935     
   2917891546.4975939     
   2881377750.3588791     
   2858634520.4280257     
   2800589922.5572352     
   2766507194.8588495     
   2742996031.2701149     
   2730146093.0085382     
   2728066227.1374636     
   2623971280.4379983     
   2615863123.6680326     
   2615077323.5768118     
   2621642029.4462256     
   2635588615.9163790     
   2498207146.2193742     
   2513387348.3855543     
   2532282889.5333409     
   2554897297.2014680     
   2581234176.6556664     
   2417430205.3846292     
   2454043747.7391863     
   2490591070.0061660     
   2527072172.1855655     
   2563487054.2773976     
   2858634520.4280257     
   2817659061.9217052     
   2785624659.9486117     
   2762706793.5481167     
   2749099813.4539881     
   2728066227.1374636     
   2702227771.7630239     
   2684587980.6174841     
   2675242301.0544019     
   2674292785.4052382     
   2635588615.9163790     
   2622527987.2368617     
   2616743668.0608497     
   2618274245.6371264     
   2627159706.1309071     
   2581234176.6556664     
   2578526019.7453914     
   2582040310.4157176     
   2591785252.8505607     
   2607769127.0707388     
   2563487054.2773976     
   2568805924.1386352     
   2579221165.3780823     
   2594732777.9957414     
   2615340761.9916077     
   2749099813.4539881     
   2715119976.8642564     
   2690278878.0637498     
   2674780979.1424127     
   2668833537.9059057     
   2674292785.4052382     
   2651664210.0440989     
   2637968289.6359711     
   2633320600.0535312     
   2637835309.6109390     
   2627159706.1309071     
   2613624564.5804400     
   2608746859.4091883     
   2612576790.8792324     
   2625162870.8951831     
   2607769127.0707388     
   2600854417.9284177     
   2602293992.3865247     
   2612099825.2451558     
   2630283293.6116629     
   2615340761.9916077     
   2612495032.3485503     
   2617709712.0976214     
   2630984801.2388139     
   2652320299.7721334     
   2668833537.9059057     
   2642719879.3183837     
   2625501656.2452908     
   2617360976.9768825     
   2618472392.0288477     
   2637835309.6109390     
   2621324885.5741496     
   2613713330.5470114     
   2615103757.6440020     
   2625592460.7695141     
   2625162870.8951831     
   2616229562.1781688     
   2616185996.4353662     
   2625077652.8763223     
   2642946068.6706848     
   2630283293.6116629     
   2626712919.7079110     
   2632052398.8988223     
   2646312920.6365576     
   2669504526.8619447     
   2652320299.7721334     
   2651801901.0038943     
   2660276333.7115912     
   2677743597.8951983     
   2704203693.5547328     
   2618472392.0288477     
   2599252245.3889132     
   2590949931.2857499     
   2593715448.3006840     
   2607673604.8100710     
   2625592460.7695141     
   2614569387.2592478     
   2613911927.2305179     
   2623695499.4081869     
   2643980893.6135368     
   2642946068.6706848     
   2638312232.8331165     
   2643584116.3952608     
   2658791590.1013269     
   2683958029.7193050     
   2669504526.8619447     
   2669521862.8903985     
   2679101288.9003401     
   2698249472.9846153     
   2726971495.4306107     
   2704203693.5547328     
   2707238684.3778324     
   2719621387.4041219     
   2741351802.6335783     
   2772429930.0662150     
   2607673604.8100710     
   2594648524.6352172     
   2592838225.8506236     
   2602324095.5475993     
   2623203229.0682330     
   2643980893.6135368     
   2632961307.8115301     
   2632244873.1179314     
   2641871345.9537926     
   2661891048.8584352     
   2683958029.7193050     
   2674609123.3538542     
   2674832829.8567853     
   2684644402.4288263     
   2704064402.8701482     
   2726971495.4306107     
   2719129272.7378693     
   2720288581.3667579     
   2730452681.1132307     
   2749626278.6435728     
   2772429930.0662150     
   2766085693.8283997     
   2768312103.9094095     
   2779109160.3092179     
   2798476863.0278406     
   2623203229.0682330     
   2584816757.8589168     
   2552304823.4713902     
   2526249341.0340014     
   2507459601.2245183     
   2661891048.8584352     
   2616559929.5270185     
   2576882967.7240829     
   2543191334.0958352     
   2515947947.8934417     
   2704064402.8701482     
   2653883884.0974298     
   2609279650.2895684     
   2570399249.6952033     
   2537449484.7045712     
   2749626278.6435728     
   2696696364.7695131     
   2649407146.4819531     
   2607795275.1172814     
   2571912131.7718563     
   2798476863.0278406     
   2744896421.0650048     
   2697163214.5909758     
   2655277243.6057577     
   2619238508.1093402     
   2507459601.2245183     
   2357091643.6613030     
   2214909034.6223416     
   2085888180.7626016     
   1976897611.4973214     
   2515947947.8934417     
   2348091446.4323816     
   2183799971.1988559     
   2026171054.0503695     
   1879764643.0144517     
   2537449484.7045712     
   2357189511.3415437     
   2176668737.0759025     
   1997357591.0002530     
   1821531686.5738342     
   2571912131.7718563     
   2384488741.4150071     
   2193981622.4039645     
   2000768741.2482383     
   1805453420.9898560     
   2619238508.1093402     
   2429957293.6504588     
   2235880770.4471216     
   2037008938.4993265     
   1833341797.8070896     
   2417430205.3846292     
   2454043747.7391863     
   2490591070.0061660     
   2527072172.1855655     
   2563487054.2773976     
   2498207124.1103330     
   2513387331.5705476     
   2532282878.4733176     
   2554897292.3144202     
   2581234178.3069305     
   2623971244.1614223     
   2615863097.1502566     
   2615077307.4259620     
   2621642024.2538710     
   2635588622.2307258     
   2800589881.8767843     
   2766507167.3626990     
   2742996017.4674158     
   2730146093.4605756     
   2728066242.4174423     
   3031292732.7296257     
   2967926164.3219914     
   2917891543.2184143     
   2881377763.2231598     
   2858634549.8919969     
   2563487054.2773976     
   2568805924.1386352     
   2579221165.3780823     
   2594732777.9957414     
   2615340761.9916077     
   2581234178.3069305     
   2578526020.8380265     
   2582040311.3642201     
   2591785254.0584373     
   2607769128.9280710     
   2635588622.2307258     
   2622527991.9526038     
   2616743671.9453435     
   2618274249.4443421     
   2627159710.5975189     
   2728066242.4174423     
   2702227783.8131924     
   2684587990.4836016     
   2675242309.7760749     
   2674292794.0127897     
   2858634549.8919969     
   2817659085.8911233     
   2785624679.6631670     
   2762706810.2555914     
   2749099828.4117985     
   2615340761.9916077     
   2612495032.3485503     
   2617709712.0976214     
   2630984801.2388139     
   2652320299.7721334     
   2607769128.9280710     
   2600854419.0110350     
   2602293993.0091276     
   2612099825.7153840     
   2630283294.2304311     
   2627159710.5975189     
   2613624567.2896643     
   2608746860.9845586     
   2612576791.9346356     
   2625162872.0355458     
   2674292794.0127897     
   2651664215.5771184     
   2637968293.0136347     
   2633320602.1911855     
   2637835311.4213152     
   2749099828.4117985     
   2715119987.0015507     
   2690278884.5715141     
   2674780983.2241549     
   2668833540.7806206     
   2652320299.7721334     
   2651801901.0038943     
   2660276333.7115912     
   2677743597.8951983     
   2704203693.5547328     
   2630283294.2304311     
   2626712919.8687339     
   2632052398.7656126     
   2646312920.3717866     
   2669504526.6274762     
   2625162872.0355458     
   2616229562.3811488     
   2616185996.0370913     
   2625077652.2113004     
   2642946068.0731354     
   2637835311.4213152     
   2621324885.8733158     
   2613713329.8526735     
   2615103756.4755054     
   2625592459.6491938     
   2668833540.7806206     
   2642719879.9455299     
   2625501655.3317671     
   2617360975.2399507     
   2618472390.1973352     
   2704203693.5547328     
   2707238684.3778324     
   2719621387.4041219     
   2741351802.6335783     
   2772429930.0662150     
   2669504526.6274762     
   2669521862.6319270     
   2679101288.5992475     
   2698249472.6232228     
   2726971494.9920650     
   2642946068.0731354     
   2638312232.2270308     
   2643584115.7445655     
   2658791589.3712602     
   2683958028.8762584     
   2625592459.6491938     
   2614569386.1909604     
   2613911926.1618381     
   2623695498.2875500     
   2643980892.3902054     
   2618472390.1973352     
   2599252243.7191973     
   2590949929.7105227     
   2593715446.7520475     
   2607673603.2196140     
   2772429930.0662150     
   2766085693.8283997     
   2768312103.9094095     
   2779109160.3092179     
   2798476863.0278406     
   2726971494.9920650     
   2719129272.3740983     
   2720288581.0689468     
   2730452680.8726273     
   2749626278.4515867     
   2683958028.8762584     
   2674609122.6520853     
   2674832829.2781434     
   2684644401.9553900     
   2704064402.4843521     
   2643980892.3902054     
   2632961306.7901344     
   2632244872.2703128     
   2641871345.2521806     
   2661891048.2754450     
   2607673603.2196140     
   2594648523.3043885     
   2592838224.7403202     
   2602324094.6190953     
   2623203228.2830815     
   2798476863.0278406     
   2744896421.0650048     
   2697163214.5909758     
   2655277243.6057577     
   2619238508.1093402     
   2749626278.4515867     
   2696696364.5944552     
   2649407146.3225026     
   2607795274.9725757     
   2571912131.6415071     
   2704064402.4843521     
   2653883883.7465253     
   2609279649.9708438     
   2570399249.4068780     
   2537449484.4458632     
   2661891048.2754450     
   2616559928.9982924     
   2576882967.2453933     
   2543191333.6643858     
   2515947947.5080528     
   2623203228.2830815     
   2584816757.1491208     
   2552304822.8310847     
   2526249340.4592915     
   2507459600.7136555     
   2619238508.1093402     
   2429957293.6504588     
   2235880770.4471216     
   2037008938.4993265     
   1833341797.8070896     
   2571912131.6415071     
   2384488741.3361835     
   2193981622.3846517     
   2000768741.3019531     
   1805453421.1389017     
   2537449484.4458632     
   2357189511.1817751     
   2176668737.0301490     
   1997357591.0933328     
   1821531686.8452108     
   2515947947.5080528     
   2348091446.1888857     
   2183799971.1180148     
   2026171054.1650295     
   1879764643.3732185     
   2507459600.7136555     
   2357091643.3306012     
   2214909034.4966469     
   2085888180.8787615     
   1976897611.9053955     
   3031292732.7296257     
   2967926164.3219914     
   2917891543.2184143     
   2881377763.2231598     
   2858634549.8919969     
   3115352008.4983582     
   3047474735.8708658     
   2990225466.1856103     
   2943935207.0045309     
   2909013903.8866324     
   3249191684.3605537     
   3173730630.0211754     
   3106416778.0443902     
   3047664365.8850708     
   2997977274.3630896     
   3420226841.7935934     
   3335899447.4586129     
   3257494929.8368354     
   3185438476.0000496     
   3120246668.1714182     
   3617128389.0003409     
   3524063166.1905017     
   3434966231.6499343     
   3350212487.9884839     
   3270261512.4766669     
   2858634549.8919969     
   2817659085.8911233     
   2785624679.6631670     
   2762706810.2555914     
   2749099828.4117985     
   2909013903.8866324     
   2860597194.6709538     
   2819934230.0088930     
   2787274699.6114330     
   2762894306.0313406     
   2997977274.3630896     
   2940722539.6959715     
   2890060596.4244590     
   2846292438.9510040     
   2809752232.0862713     
   3120246668.1714182     
   3053573213.1820965     
   2992386538.8096595     
   2937008383.7546387     
   2887798665.7266455     
   3270261512.4766669     
   3194258010.6759896     
   3122722684.6756787     
   3055968574.5899162     
   2994348138.0220504     
   2749099828.4117985     
   2715119987.0015507     
   2690278884.5715141     
   2674780983.2241549     
   2668833540.7806206     
   2762894306.0313406     
   2718503646.9822969     
   2682690626.9290428     
   2655764177.2802243     
   2638045441.4449492     
   2809752232.0862713     
   2753146239.5606766     
   2704434192.7327313     
   2664022978.9903264     
   2632348020.7965112     
   2887798665.7266455     
   2817844217.9366460     
   2754974037.1616931     
   2699668626.4632778     
   2652458091.0497446     
   2994348138.0220504     
   2910552240.0682745     
   2832930987.7408929     
   2762001917.4470873     
   2698353322.2992077     
   2668833540.7806206     
   2642719879.9455299     
   2625501655.3317671     
   2617360975.2399507     
   2618472390.1973352     
   2638045441.4449492     
   2601246974.5750365     
   2573143032.5705352     
   2554015616.9994063     
   2544142002.2933149     
   2632348020.7965112     
   2583176278.5633926     
   2542391659.3476424     
   2510386614.3708696     
   2487559402.3827434     
   2652458091.0497446     
   2589652314.6376328     
   2534779733.1784496     
   2488337975.6489005     
   2450850070.0287285     
   2698353322.2992077     
   2621149115.0943408     
   2551265278.9279861     
   2489280920.8581357     
   2435827247.6632786     
   2618472390.1973352     
   2599252243.7191973     
   2590949929.7105227     
   2593715446.7520475     
   2607673603.2196140     
   2544142002.2933149     
   2514491046.4857254     
   2495376966.1973281     
   2487066520.2253151     
   2489792552.6191802     
   2487559402.3827434     
   2445285112.6005521     
   2413076021.1377130     
   2391344219.8177595     
   2380469191.8855114     
   2450850070.0287285     
   2394175714.2383542     
   2346906609.3676038     
   2309611878.3694220     
   2282845923.9240713     
   2435827247.6632786     
   2363568599.6067300     
   2299794062.0315361     
   2245211193.2035208     
   2200549929.4862342     
   2607673603.2196140     
   2594648523.3043885     
   2592838224.7403202     
   2602324094.6190953     
   2623203228.2830815     
   2489792552.6191802     
   2469983950.1489687     
   2462148708.9534431     
   2466425231.9338603     
   2482949490.2829971     
   2380469191.8855114     
   2351628177.0094132     
   2335675376.6562181     
   2332861598.0382361     
   2343408841.8812747     
   2282845923.9240713     
   2242365975.6601062     
   2215785049.3040338     
   2203549883.5111141     
   2206046586.4972944     
   2200549929.4862342     
   2145538911.5274737     
   2105418964.7310801     
   2080947259.8958735     
   2072794168.6670463     
   2623203228.2830815     
   2584816757.1491208     
   2552304822.8310847     
   2526249340.4592915     
   2507459600.7136555     
   2482949490.2829971     
   2450355689.6931839     
   2426317590.3192697     
   2411780873.2011547     
   2408122186.3325701     
   2343408841.8812747     
   2319042468.8966374     
   2306214142.3933740     
   2306329489.9795618     
   2321475548.6982193     
   2206046586.4972944     
   2191659586.5118852     
   2192278838.6816058     
   2209873599.5967469     
   2247360763.4485683     
   2072794168.6670463     
   2069183162.6846201     
   2084830918.5285897     
   2122369381.7084131     
   2185606030.1046572     
   2507459600.7136555     
   2357091643.3306012     
   2214909034.4966469     
   2085888180.8787615     
   1976897611.9053955     
   2408122186.3325701     
   2282804959.7482452     
   2167999574.6418710     
   2070442570.1536126     
   1998896450.9852099     
   2321475548.6982193     
   2224727176.2146101     
   2141307214.7212780     
   2079579063.8621509     
   2049712073.7721183     
   2247360763.4485683     
   2182648461.8001018     
   2134361362.7077744     
   2112166764.5050554     
   2127001213.3574102     
   2185606030.1046572     
   2156274635.3623171     
   2146515228.5228560     
   2166854798.1156178     
   2228371447.8827367     
   3617128389.0003409     
   3524063166.1905017     
   3434966231.6499343     
   3350212487.9884839     
   3270261512.4766669     
   3859601010.3932223     
   3744639867.2495384     
   3634399466.4290862     
   3529255330.2807541     
   3429665495.2562804     
   4131522514.0886860     
   3995492913.7305660     
   3865219084.6214018     
   3740976833.9680634     
   3623166985.3703446     
   4432318038.5548668     
   4275345466.2273760     
   4125344773.6705317     
   3982425045.7454047     
   3846899226.2436056     
   4761309580.6154413     
   4582851664.0792189     
   4412681138.2229748     
   4250700640.3652368     
   4097125295.3236685     
   3270261512.4766669     
   3194258010.6759896     
   3122722684.6756787     
   3055968574.5899162     
   2994348138.0220504     
   3429665495.2562804     
   3339739723.7083387     
   3253890711.9818149     
   3172444148.6391191     
   3095781877.7122183     
   3623166985.3703446     
   3519162419.9254584     
   3418736276.4120250     
   3322201674.3872108     
   3229941936.4300199     
   3846899226.2436056     
   3728723662.2981834     
   3613567981.4602304     
   3501711035.5844769     
   3393511668.2551584     
   4097125295.3236685     
   3964687209.9479270     
   3834687961.8270531     
   3707355845.4199967     
   3583004313.2821803     
   2994348138.0220504     
   2910552240.0682745     
   2832930987.7408929     
   2762001917.4470873     
   2698353322.2992077     
   3095781877.7122183     
   2996368388.4265046     
   2902311362.9624743     
   2814126600.9781194     
   2732420833.5358477     
   3229941936.4300199     
   3115481923.7805448     
   3005526413.9539714     
   2900549596.2024326     
   2801128204.1104770     
   3393511668.2551584     
   3264812145.9981589     
   3139797863.6462951     
   3018873495.1885376     
   2902547735.5542307     
   3583004313.2821803     
   3440965191.3085456     
   3301872549.0099878     
   3166048320.8991218     
   3033911588.2274899     
   2698353322.2992077     
   2621149115.0943408     
   2551265278.9279861     
   2489280920.8581357     
   2435827247.6632786     
   2732420833.5358477     
   2639442510.8500051     
   2552590984.8078041     
   2472477173.9156294     
   2399798483.6306481     
   2801128204.1104770     
   2692875398.8709555     
   2589420716.1738176     
   2491332265.8887672     
   2399287940.8727026     
   2902547735.5542307     
   2780209159.4791293     
   2661331017.6711254     
   2546376180.6106873     
   2435920333.0968823     
   3033911588.2274899     
   2899142046.6420178     
   2766608707.1779113     
   2636637658.8843551     
   2509651557.0514312     
   2435827247.6632786     
   2363568599.6067300     
   2299794062.0315361     
   2245211193.2035208     
   2200549929.4862342     
   2399798483.6306481     
   2309376031.8946013     
   2226551916.5187454     
   2152129223.0714431     
   2086987239.9360187     
   2399287940.8727026     
   2291182285.9706287     
   2189494836.3722467     
   2095028770.7179115     
   2008718787.6719534     
   2435920333.0968823     
   2311483147.1727667     
   2192131473.9909005     
   2078556824.1268897     
   1971612610.7706392     
   2509651557.0514312     
   2370925934.5528421     
   2236000243.2379127     
   2105374003.4228714     
   1979699739.3908098     
   2200549929.4862342     
   2145538911.5274737     
   2105418964.7310801     
   2080947259.8958735     
   2072794168.6670463     
   2086987239.9360187     
   2012079592.3173597     
   1949515476.3401980     
   1900368312.4433658     
   1865661394.0105994     
   2008718787.6719534     
   1912418034.4325712     
   1824900603.4106569     
   1747367617.9950941     
   1681111430.1746745     
   1971612610.7706392     
   1855437329.0761662     
   1743648504.4642458     
   1637175048.5277185     
   1537157905.7904108     
   1979699739.3908098     
   1848729142.0775092     
   1717801336.7290184     
   1587274854.0859869     
   1457673348.1755576     
   2072794168.6670463     
   2069183162.6846201     
   2084830918.5285897     
   2122369381.7084131     
   2185606030.1046572     
   1865661394.0105994     
   1855055316.2823427     
   1867431649.1783197     
   1905000532.8932271     
   1970792808.6290598     
   1681111430.1746745     
   1652547957.1217375     
   1651707290.4584093     
   1680958747.0522351     
   1742913203.9922431     
   1537157905.7904108     
   1476268998.8523042     
   1448071555.9194114     
   1456528816.1994808     
   1504937297.9705567     
   1457673348.1755576     
   1348684636.9913690     
   1274684483.6909313     
   1243789770.7556839     
   1263037095.8741381     
   2185606030.1046572     
   2156274635.3623171     
   2146515228.5228560     
   2166854798.1156178     
   2228371447.8827367     
   1970792808.6290598     
   1968948980.9531598     
   2003632797.8366458     
   2093518506.1758933     
   2257268895.2570004     
   1742913203.9922431     
   1787726041.8762524     
   1884675425.3420057     
   2060667092.7572191     
   2340927993.3069949     
   1504937297.9705567     
   1613322409.6295385     
   1788902471.8021917     
   2066421276.2924309     
   2476075496.4171171     
   1263037095.8741381     
   1446781276.0672965     
   1715748853.2827497     
   2110512668.5588892     
   2663495861.1851072     
   4761309580.6154413     
   4582851664.0792189     
   4412681138.2229748     
   4250700640.3652368     
   4097125295.3236685     
   5003918739.7101574     
   4837372535.6569061     
   4670986215.8154106     
   4504930344.5908871     
   4339448555.1074028     
   5256837374.9885502     
   5100667236.0911951     
   4940600112.5509329     
   4775249569.3043127     
   4603704116.8487501     
   5499072381.4588842     
   5356659669.6192694     
   5209524784.9555740     
   5053332295.5800886     
   4885294981.0811949     
   5716642780.5110121     
   5594241865.4223871     
   5469075093.6308966     
   5332809649.5943222     
   5180444932.3743935     
   4097125295.3236685     
   3964687209.9479270     
   3834687961.8270531     
   3707355845.4199967     
   3583004313.2821803     
   4339448555.1074028     
   4195117669.3326063     
   4052375468.5421009     
   3911375403.2466984     
   3772334383.4666786     
   4603704116.8487501     
   4448999685.9581842     
   4295270882.2074652     
   4142610136.7286425     
   3991153758.5453076     
   4885294981.0811949     
   4721707408.5435324     
   4558695502.2764196     
   4396307402.2901163     
   4234619729.9589062     
   5180444932.3743935     
   5009390694.2621794     
   4838695180.5138178     
   4668377823.6803589     
   4498475809.6860285     
   3583004313.2821803     
   3440965191.3085456     
   3301872549.0099878     
   3166048320.8991218     
   3033911588.2274899     
   3772334383.4666786     
   3618143462.6076961     
   3465862274.3298230     
   3315723755.3717251     
   3168049070.7311745     
   3991153758.5453076     
   3825470573.2354431     
   3660760731.6720853     
   3497161839.0287333     
   3334885263.1727862     
   4234619729.9589062     
   4058145867.1567435     
   3881833845.6111932     
   3705731126.8657923     
   3529942940.8674722     
   4498475809.6860285     
   4311897748.7214298     
   4124801364.6339369     
   3937155775.5074329     
   3748973345.0908813     
   3033911588.2274899     
   2899142046.6420178     
   2766608707.1779113     
   2636637658.8843551     
   2509651557.0514312     
   3168049070.7311745     
   3022350011.7359538     
   2878497856.4770646     
   2736719692.5205083     
   2597326910.8935137     
   3334885263.1727862     
   3178827648.6200471     
   3024273924.5275936     
   2871361882.8912573     
   2720304515.0663238     
   3529942940.8674722     
   3363698179.5391498     
   3198654779.2625203     
   3034876419.8954549     
   2872498236.3672929     
   3748973345.0908813     
   3572340830.3347631     
   3396634854.4576802     
   3221861329.4344144     
   3048099806.9691639     
   2509651557.0514312     
   2370925934.5528421     
   2236000243.2379127     
   2105374003.4228714     
   1979699739.3908098     
   2597326910.8935137     
   2449302948.8422713     
   2303364799.7469711     
   2159829057.6951113     
   2019122240.3462372     
   2720304515.0663238     
   2565112386.7632365     
   2410618370.6185713     
   2256963189.5749173     
   2104346206.8865807     
   2872498236.3672929     
   2712533444.5029311     
   2552272620.6042948     
   2391737156.7093558     
   2230973098.1871705     
   3048099806.9691639     
   2885774820.8080640     
   2722537278.7190375     
   2558360445.4036045     
   2393235977.2610941     
   1979699739.3908098     
   1848729142.0775092     
   1717801336.7290184     
   1587274854.0859869     
   1457673348.1755576     
   2019122240.3462372     
   1881896222.7507334     
   1744998643.3516984     
   1608560767.6280987     
   1472763211.6788518     
   2104346206.8865807     
   1963573808.9954238     
   1823784235.8150501     
   1685006865.4578104     
   1547300352.6988885     
   2230973098.1871705     
   2087603138.3083320     
   1945942275.4675915     
   1805987978.9389153     
   1667818636.0662653     
   2393235977.2610941     
   2246549929.3871179     
   2102145878.0526271     
   1960020630.1196992     
   1820348710.3007398     
   1457673348.1755576     
   1348684636.9913690     
   1274684483.6909313     
   1243789770.7556839     
   1263037095.8741381     
   1472763211.6788518     
   1328586501.6152527     
   1198880470.3919728     
   1088124199.0957711     
   1002219128.1158721     
   1547300352.6988885     
   1397515793.8630788     
   1244164237.0934694     
   1084973021.3424609     
   917909468.56620383     
   1667818636.0662653     
   1552534953.9127219     
   1428112326.4904525     
   1294909194.6502993     
   1159050708.5281835     
   1820348710.3007398     
   1779874599.4664147     
   1735837436.8783216     
   1696881736.3771539     
   1681521747.3399544     
   1263037095.8741381     
   1446781276.0672965     
   1715748853.2827497     
   2110512668.5588892     
   2663495861.1851072     
   1002219128.1158721     
   1164823603.5998328     
   1425465064.3195689     
   1808736744.8682377     
   2334722556.3141599     
   917909468.56620383     
   963230993.84143758     
   1144952819.7673788     
   1476456353.3079026     
   1957441520.6373999     
   1159050708.5281835     
   1008526675.1337337     
   985235376.14719975     
   1161470056.7102001     
   1544165643.7763345     
   1681521747.3399544     
   1383878496.6711934     
   1129497067.9700577     
   1010132519.5667946     
   1153154916.8914750     
 </DataArray>
 <DataArray  type="Float64" Name="strain" NumberOfComponents="3" format="ascii">
   9.7259897830856978E-002  -1.6834156062597194E-002   1.2102014803295758E-003
   9.4584999870630626E-002  -2.1029924984758086E-002   1.3488898364625301E-003
   9.1910101910404163E-002  -2.3780076249159260E-002   1.1578206459644247E-003
   8.9235203950177755E-002  -2.5084609855800945E-002   6.3699390883525941E-004
   8.6560305989951347E-002  -2.4943525804682842E-002  -2.1359037492485466E-004
   9.3149775331815898E-002  -1.8986652870268794E-002   5.4746223299689811E-003
   9.0221693260219171E-002  -2.1664116015132739E-002   6.1803814628609843E-003
   8.7293611188622389E-002  -2.3341351256620235E-002   6.7095299196432423E-003
   8.4365529117025606E-002  -2.4018358594731601E-002   7.0620677003160881E-003
   8.1437447045428879E-002  -2.3695138029466434E-002   7.2379948048795217E-003
   8.8307227393704890E-002  -2.1139149677940339E-002   1.1480043834097037E-002
   8.5279108081259297E-002  -2.2298307045507282E-002   1.2307483989364543E-002
   8.2250988768813788E-002  -2.2902626264081197E-002   1.3111460339043909E-002
   7.9222869456368278E-002  -2.2952107333662309E-002   1.3891972883135519E-002
   7.6194750143922796E-002  -2.2446750254250136E-002   1.4649021621639030E-002
   8.2732254016523565E-002  -2.3291646485611883E-002   1.9226465992714013E-002
   7.9757244333750948E-002  -2.2932498075881894E-002   1.9730197415973441E-002
   7.6782234650978401E-002  -2.2463901271542332E-002   2.0363611904166603E-002
   7.3807224968205742E-002  -2.1885856072592878E-002   2.1126709457293509E-002
   7.0832215285433223E-002  -2.1198362479033783E-002   2.2019490075354108E-002
   7.6424855200272424E-002  -2.5444143293283428E-002   2.8713888805819265E-002
   7.3656102017694292E-002  -2.3566689106256533E-002   2.8448521742687805E-002
   7.0887348835116160E-002  -2.2025176279003217E-002   2.8465984615011097E-002
   6.8118595652538083E-002  -2.0819604811523541E-002   2.8766277422790337E-002
   6.5349842469960034E-002  -1.9949974703817430E-002   2.9349400166024497E-002
   8.6560305989951347E-002  -2.4943525804682842E-002  -2.1359037492485466E-004
   8.3707989897205459E-002  -2.4093959712481905E-002  -1.5288469422169992E-004
   8.0855673804459571E-002  -2.3273047195874558E-002   1.8375079591237409E-005
   7.8003357711713683E-002  -2.2480788254860752E-002   3.0018894651331895E-004
   7.5151041618967795E-002  -2.1717182889440800E-002   6.9255690654446145E-004
   8.1437447045428879E-002  -2.3695138029466434E-002   7.2379948048795217E-003
   7.8707833882568051E-002  -2.2880736620144976E-002   7.1677514699468869E-003
   7.5978220719707279E-002  -2.2084201426086525E-002   7.2323599016750617E-003
   7.3248607556846479E-002  -2.1305532447291706E-002   7.4318201000647122E-003
   7.0518994393985734E-002  -2.0544729683759755E-002   7.7661320651151167E-003
   7.6194750143922796E-002  -2.2446750254250136E-002   1.4649021621639030E-002
   7.3612137584498902E-002  -2.1667513527807963E-002   1.4458616631400745E-002
   7.1029525025075035E-002  -2.0895355656298589E-002   1.4427361081375281E-002
   6.8446912465651169E-002  -2.0130276639722323E-002   1.4555254971562612E-002
   6.5864299906227275E-002  -1.9372276478078765E-002   1.4842298301962736E-002
   7.0832215285433223E-002  -2.1198362479033783E-002   2.2019490075354108E-002
   6.8420901002998025E-002  -2.0454290435471104E-002   2.1719710790140498E-002
   6.6009586720562868E-002  -1.9706509886510827E-002   2.1603378618691462E-002
   6.3598272438127754E-002  -1.8955020832153106E-002   2.1670493561007205E-002
   6.1186958155692583E-002  -1.8199823272397858E-002   2.1921055617087494E-002
   6.5349842469960034E-002  -1.9949974703817430E-002   2.9349400166024497E-002
   6.3134124138065406E-002  -1.9241067343134299E-002   2.8951033946165883E-002
   6.0918405806170792E-002  -1.8517664116723009E-002   2.8760412513624073E-002
   5.8702687474276156E-002  -1.7779765024583963E-002   2.8777535868398138E-002
   5.6486969142381549E-002  -1.7027370066716840E-002   2.9002404010488980E-002
   7.5151041618967795E-002  -2.1717182889440800E-002   6.9255690654446145E-004
   7.2006077513061761E-002  -2.0945317193980517E-002   3.8438305423549313E-004
   6.8861113407155616E-002  -2.0128277262845912E-002   2.6183670630902656E-004
   6.5716149301249471E-002  -1.9266063096036561E-002   3.2491786276453438E-004
   6.2571185195343437E-002  -1.8358674693553123E-002   5.7362652360182231E-004
   7.0518994393985734E-002  -2.0544729683759755E-002   7.7661320651151167E-003
   6.7558440043540835E-002  -1.9777476885066314E-002   7.4720634617396198E-003
   6.4597885693095963E-002  -1.8979457800786942E-002   7.3611868649048340E-003
   6.1637331342651133E-002  -1.8150672430920840E-002   7.4335022746098850E-003
   5.8676776992206303E-002  -1.7291120775468349E-002   7.6890096908559524E-003
   6.5864299906227275E-002  -1.9372276478078765E-002   1.4842298301962736E-002
   6.3085719813402052E-002  -1.8609636576152500E-002   1.4547926997432736E-002
   6.0307139720576775E-002  -1.7830638338727764E-002   1.4434312201601088E-002
   5.7528559627751524E-002  -1.7035281765804901E-002   1.4501453914468811E-002
   5.4749979534926274E-002  -1.6223566857383354E-002   1.4749352136034788E-002
   6.1186958155692583E-002  -1.8199823272397858E-002   2.1921055617087494E-002
   5.8587916822645358E-002  -1.7441796267238491E-002   2.1611973661314572E-002
   5.5988875489598106E-002  -1.6681818876668690E-002   2.1481212716398777E-002
   5.3389834156550853E-002  -1.5919891100688852E-002   2.1528772782340375E-002
   5.0790792823503614E-002  -1.5156012939298358E-002   2.1754653859139134E-002
   5.6486969142381549E-002  -1.7027370066716840E-002   2.9002404010488980E-002
   5.4065031071270753E-002  -1.6273955958324510E-002   2.8664203453385273E-002
   5.1643093000159873E-002  -1.5532999414609838E-002   2.8501888409297405E-002
   4.9221154929049063E-002  -1.4804500435572937E-002   2.8515458878225139E-002
   4.6799216857938197E-002  -1.4088459021213473E-002   2.8704914860168240E-002
   6.2571185195343437E-002  -1.8358674693553123E-002   5.7362652360182231E-004
   5.9630767081904290E-002  -1.7463337808901747E-002   3.5503138838477444E-004
   5.6690348968465032E-002  -1.6637278195588023E-002   3.2668379743805431E-004
   5.3749930855025885E-002  -1.5880495853612037E-002   4.8858375076138438E-004
   5.0809512741586627E-002  -1.5192990782973981E-002   8.4073124835470914E-004
   5.8676776992206303E-002  -1.7291120775468349E-002   7.6890096908559524E-003
   5.5919211768489463E-002  -1.6438557482836791E-002   7.3736205056650905E-003
   5.3161646544772651E-002  -1.5630737201433403E-002   7.2336895556491254E-003
   5.0404081321055796E-002  -1.4867659931258027E-002   7.2692168408076685E-003
   4.7646516097338998E-002  -1.4149325672310864E-002   7.4802023611408863E-003
   5.4749979534926274E-002  -1.6223566857383354E-002   1.4749352136034788E-002
   5.2160477891836199E-002  -1.5413777156772057E-002   1.4361703160980566E-002
   4.9570976248746151E-002  -1.4624196207279005E-002   1.4134723112005310E-002
   4.6981474605656132E-002  -1.3854824008904018E-002   1.4068411989108687E-002
   4.4391972962566029E-002  -1.3105660561647636E-002   1.4162769792290919E-002
   5.0790792823503614E-002  -1.5156012939298358E-002   2.1754653859139134E-002
   4.8354565451944623E-002  -1.4388996830707101E-002   2.1319279354330624E-002
   4.5918338080385618E-002  -1.3617655213124275E-002   2.1029784466505511E-002
   4.3482110708826634E-002  -1.2841988086549898E-002   2.0886169195663516E-002
   4.1045883337267636E-002  -1.2061995450984353E-002   2.0888433541804807E-002
   4.6799216857938197E-002  -1.4088459021213473E-002   2.8704914860168240E-002
   4.4501474448814637E-002  -1.3364216504642201E-002   2.8246349085715716E-002
   4.2203732039691022E-002  -1.2611114218969738E-002   2.7918873619150353E-002
   3.9905989630567434E-002  -1.1829152164196104E-002   2.7722488460472844E-002
   3.7608247221443791E-002  -1.1018330340321403E-002   2.7657193609682995E-002
   5.0809512741586627E-002  -1.5192990782973981E-002   8.4073124835470914E-004
   4.8077061894997164E-002  -1.4503666681697114E-002   5.5500367967398212E-004
   4.5344611048407646E-002  -1.3741427247807136E-002   3.1354334724853494E-004
   4.2612160201818183E-002  -1.2906272481302217E-002   1.1635025107897823E-004
   3.9879709355228665E-002  -1.1998202382183631E-002  -3.6575608834965578E-005
   4.7646516097338998E-002  -1.4149325672310864E-002   7.4802023611408863E-003
   4.4968813066562030E-002  -1.3430730644028555E-002   7.1724988227473974E-003
   4.2291110035785090E-002  -1.2666871065848240E-002   6.9300236797230630E-003
   3.9613407005008136E-002  -1.1857746937769878E-002   6.7527769320678277E-003
   3.6935703974231182E-002  -1.1003358259793261E-002   6.6407585797823021E-003
   4.4391972962566029E-002  -1.3105660561647636E-002   1.4162769792290919E-002
   4.1789978906715125E-002  -1.2357794606359440E-002   1.3805439501468425E-002
   3.9187984850864249E-002  -1.1592314883889121E-002   1.3534298765129155E-002
   3.6585990795013359E-002  -1.0809221394236429E-002   1.3349347583272719E-002
   3.3983996739162498E-002  -1.0008514137402669E-002   1.3250585955898952E-002
   4.1045883337267636E-002  -1.2061995450984353E-002   2.0888433541804807E-002
   3.8540559415456282E-002  -1.1284858568689937E-002   2.0453825715837592E-002
   3.6035235493645075E-002  -1.0517758701929891E-002   2.0126368603467323E-002
   3.3529911571833784E-002  -9.7606958507037572E-003   1.9906062204693264E-002
   3.1024587650022459E-002  -9.0136700150119653E-003   1.9792906519515194E-002
   3.7608247221443791E-002  -1.1018330340321403E-002   2.7657193609682995E-002
   3.5220554592785669E-002  -1.0211922531021211E-002   2.7117657465855038E-002
   3.2832861964127547E-002  -9.4432025199712166E-003   2.6706233194737250E-002
   3.0445169335469383E-002  -8.7121703071712242E-003   2.6422920796329408E-002
   2.8057476706811302E-002  -8.0188258926214839E-003   2.6267720270631512E-002
   3.9879709355228665E-002  -1.1998202382183631E-002  -3.6575608834965578E-005
   3.7463676146546110E-002  -1.1139662836345821E-002  -3.0686426074555406E-004
   3.5047642937863666E-002  -1.0453099729681281E-002  -4.9027242373600455E-004
   3.2631609729181110E-002  -9.9385130621930245E-003  -5.8680009780581743E-004
   3.0215576520498666E-002  -9.5959028338794550E-003  -5.9644728295560334E-004
   3.6935703974231182E-002  -1.1003358259793261E-002   6.6407585797823021E-003
   3.4589246323372902E-002  -1.0182936063128589E-002   6.2028761668549981E-003
   3.2242788672514622E-002  -9.4757113789862846E-003   5.8172643806560509E-003
   2.9896331021656342E-002  -8.8816842073674573E-003   5.4839232211846833E-003
   2.7549873370798061E-002  -8.4008545482692210E-003   5.2028526884417836E-003
   3.3983996739162498E-002  -1.0008514137402669E-002   1.3250585955898952E-002
   3.1672504783935906E-002  -9.2262092899124681E-003   1.2703888708608169E-002
   2.9361012828709260E-002  -8.4983230282917044E-003   1.2174852225853183E-002
   2.7049520873482641E-002  -7.8248553525412171E-003   1.1663476507633344E-002
   2.4738028918256022E-002  -7.2058062626602082E-003   1.1169761553949109E-002
   3.1024587650022459E-002  -9.0136700150119653E-003   1.9792906519515194E-002
   2.8713451528234984E-002  -8.2694825166960140E-003   1.9196173364513847E-002
   2.6402315406447593E-002  -7.5209346775968050E-003   1.8582491111854844E-002
   2.4091179284660157E-002  -6.7680264977150913E-003   1.7951859761539134E-002
   2.1780043162872666E-002  -6.0107579770508068E-003   1.7304279313565860E-002
   2.8057476706811302E-002  -8.0188258926214839E-003   2.6267720270631512E-002
   2.5712086556270441E-002  -7.3127557434793933E-003   2.5679730134571144E-002
   2.3366696405729609E-002  -6.5435463269021554E-003   2.5040181038661347E-002
   2.1021306255188790E-002  -5.7111976428891945E-003   2.4349072982901870E-002
   1.8675916104647972E-002  -4.8157096914410724E-003   2.3606405967292798E-002
   3.0215576520498666E-002  -9.5959028338794550E-003  -5.9644728295560334E-004
   2.9607252296893205E-002  -9.1342665097541298E-003  -3.5630399020791792E-004
   2.8998928073287911E-002  -8.2626015548305509E-003  -1.7964787029717266E-003
   2.8390603849682478E-002  -6.9809079691100923E-003  -4.9169714212458082E-003
   2.7782279626077155E-002  -5.2891857525900754E-003  -9.7177821450304958E-003
   2.7549873370798061E-002  -8.4008545482692210E-003   5.2028526884417836E-003
   2.5530409692249900E-002  -7.8705489904286052E-003   5.8771221993197953E-003
   2.3510946013701906E-002  -7.1280941225788097E-003   5.4094308058230678E-003
   2.1491482335153939E-002  -6.1734899447189878E-003   3.7997785079512403E-003
   1.9472018656605861E-002  -5.0067364568495698E-003   1.0481653057059503E-003
   2.4738028918256022E-002  -7.2058062626602082E-003   1.1169761553949109E-002
   2.1845782885901527E-002  -6.6068314711038023E-003   1.2080277962168706E-002
   1.8953536853547046E-002  -5.9935866903262081E-003   1.2387190567150347E-002
   1.6061290821192530E-002  -5.3660719203278903E-003   1.2090499368893268E-002
   1.3169044788838014E-002  -4.7242871611088422E-003   1.1190204367398038E-002
   2.1780043162872666E-002  -6.0107579770508068E-003   1.7304279313565860E-002
   1.8553371877847960E-002  -5.3431139517788606E-003   1.8253163298339467E-002
   1.5326700592823279E-002  -4.8590792580740366E-003   1.9136800581010423E-002
   1.2100029307798582E-002  -4.5586538959370114E-003   1.9955191161579389E-002
   8.8733580227738917E-003  -4.4418378653673374E-003   2.0708335040046710E-002
   1.8675916104647972E-002  -4.8157096914410724E-003   2.3606405967292798E-002
   1.5653176668089297E-002  -4.0793964324533638E-003   2.4395778207831009E-002
   1.2630437231530595E-002  -3.7245718258220040E-003   2.5658260847403525E-002
   9.6076977949719339E-003  -3.7512358715463892E-003   2.7393853886010122E-002
   6.5849583584132176E-003  -4.1593885696264987E-003   2.9602557323650691E-002
   2.7782279626077155E-002  -5.2891857525900754E-003  -9.7177821450304958E-003
   2.3355038430467934E-002  -4.2063469558464295E-003  -4.1886249134217568E-003
   1.8927797234858712E-002  -4.7513036294510869E-003   2.6044487110343795E-003
   1.4500556039249546E-002  -6.9240557734042696E-003   1.0661438728339356E-002
   1.0073314843640269E-002  -1.0724603387704867E-002   1.9982345138491731E-002
   1.9472018656605861E-002  -5.0067364568495698E-003   1.0481653057059503E-003
   1.6236396194782232E-002  -4.6904329319412685E-003   6.7418896268158779E-003
   1.3000773732958715E-002  -6.2871786429632426E-003   1.3554935022649928E-002
   9.7651512711351418E-003  -9.7969735899172128E-003   2.1487301493205990E-002
   6.5295288093114578E-003  -1.5219817772802458E-002   3.0538989038487063E-002
   1.3169044788838014E-002  -4.7242871611088422E-003   1.1190204367398038E-002
   1.0980445742675482E-002  -5.1745189080359966E-003   1.6763242012427626E-002
   8.7918466965129505E-003  -7.8230536564767306E-003   2.3311005414055175E-002
   6.6032476503505438E-003  -1.2669891406431599E-002   3.0833494572281045E-002
   4.4146486041879429E-003  -1.9715032157900048E-002   3.9330709487106930E-002
   8.8733580227738917E-003  -4.4418378653673374E-003   2.0708335040046710E-002
   7.5871870741477249E-003  -5.6586048841301140E-003   2.5875432243411656E-002
   6.3010161255216690E-003  -9.3589286699895524E-003   3.1872659885250745E-002
   5.0148451768954501E-003  -1.5542809222945264E-002   3.8700017965564146E-002
   3.7286742282693353E-003  -2.4210246542997638E-002   4.6357506484351496E-002
   6.5849583584132176E-003  -4.1593885696264987E-003   2.9602557323650691E-002
   6.0566201891988913E-003  -6.1426908602252306E-003   3.4078460319769022E-002
   5.5282820199846205E-003  -1.0894803683501819E-002   3.9239898436237097E-002
   4.9999438507703636E-003  -1.8415727039459012E-002   4.5086871673054585E-002
   4.4716056815560234E-003  -2.8705460928095228E-002   5.1619380030220707E-002
   7.6424855200272424E-002  -2.5444143293283428E-002   2.8713888805819265E-002
   7.3656102017694292E-002  -2.3566689106256533E-002   2.8448521742687805E-002
   7.0887348835116160E-002  -2.2025176279003217E-002   2.8465984615011097E-002
   6.8118595652538083E-002  -2.0819604811523541E-002   2.8766277422790337E-002
   6.5349842469960034E-002  -1.9949974703817430E-002   2.9349400166024497E-002
   6.9841497014941245E-002  -2.2733313396541388E-002   3.4281098273902355E-002
   6.7341796651693014E-002  -2.1264746937684181E-002   3.3898088761067480E-002
   6.4842096288444812E-002  -2.0028983188029592E-002   3.3770354951436737E-002
   6.2342395925196595E-002  -1.9026022147577856E-002   3.3897896845010655E-002
   5.9842695561948350E-002  -1.8255863816328599E-002   3.4280714441788984E-002
   6.3438645530520477E-002  -2.0022483499799321E-002   3.9387850688530540E-002
   6.1180443754351124E-002  -1.8962804769111802E-002   3.8990337376563072E-002
   5.8922241978181897E-002  -1.8032790097056037E-002   3.8820545535549214E-002
   5.6664040202012600E-002  -1.7232439483632001E-002   3.8878475165488834E-002
   5.4405838425843310E-002  -1.6561752928839713E-002   3.9164126266381868E-002
   5.7216300747009868E-002  -1.7311653603057253E-002   4.4034146049703231E-002
   5.5172043325668635E-002  -1.6660862600539464E-002   4.3725267589174555E-002
   5.3127785904327381E-002  -1.6036597006082474E-002   4.3616556367348291E-002
   5.1083528482986168E-002  -1.5438856819686203E-002   4.3708012384224594E-002
   4.9039271061644900E-002  -1.4867642041350826E-002   4.3999635639803476E-002
   5.1174462664409615E-002  -1.4600823706315214E-002   4.8219984357420975E-002
   4.9316595365645477E-002  -1.4358920431967098E-002   4.8102879398901510E-002
   4.7458728066881339E-002  -1.4040403915108843E-002   4.8158387446834011E-002
   4.5600860768117230E-002  -1.3645274155740485E-002   4.8386508501217909E-002
   4.3742993469353064E-002  -1.3173531153861939E-002   4.8787242562053468E-002
   6.5349842469960034E-002  -1.9949974703817430E-002   2.9349400166024497E-002
   6.3134124138065406E-002  -1.9241067343134299E-002   2.8951033946165883E-002
   6.0918405806170792E-002  -1.8517664116723009E-002   2.8760412513624073E-002
   5.8702687474276156E-002  -1.7779765024583963E-002   2.8777535868398138E-002
   5.6486969142381549E-002  -1.7027370066716840E-002   2.9002404010488980E-002
   5.9842695561948350E-002  -1.8255863816328599E-002   3.4280714441788984E-002
   5.7826809439701282E-002  -1.7597109910324843E-002   3.3956970278387871E-002
   5.5810923317454297E-002  -1.6928362145609485E-002   3.3825145746965685E-002
   5.3795037195207271E-002  -1.6249620522182259E-002   3.3885240847522091E-002
   5.1779151072960244E-002  -1.5560885040043382E-002   3.4137255580057174E-002
   5.4405838425843310E-002  -1.6561752928839713E-002   3.9164126266381868E-002
   5.2573959357906097E-002  -1.5953152477515636E-002   3.8910502152422324E-002
   5.0742080289968891E-002  -1.5339060174495850E-002   3.8832972515103578E-002
   4.8910201222031692E-002  -1.4719476019780776E-002   3.8931537354425845E-002
   4.7078322154094424E-002  -1.4094400013370090E-002   3.9206196670388965E-002
   4.9039271061644900E-002  -1.4867642041350826E-002   4.3999635639803476E-002
   4.7375573892679733E-002  -1.4309195044706166E-002   4.3811629568268964E-002
   4.5711876723714628E-002  -1.3749758203382270E-002   4.3783892818037518E-002
   4.4048179554749503E-002  -1.3189331517379086E-002   4.3916425389109504E-002
   4.2384482385784350E-002  -1.2627914986696687E-002   4.4209227281484451E-002
   4.3742993469353064E-002  -1.3173531153861939E-002   4.8787242562053468E-002
   4.2231653044022294E-002  -1.2665237611897029E-002   4.8660352525927958E-002
   4.0720312618691468E-002  -1.2160456232268663E-002   4.8677906655767739E-002
   3.9208972193360656E-002  -1.1659187014977583E-002   4.8839904951573032E-002
   3.7697631768029843E-002  -1.1161429960023395E-002   4.9146347413343838E-002
   5.6486969142381549E-002  -1.7027370066716840E-002   2.9002404010488980E-002
   5.4065031071270753E-002  -1.6273955958324510E-002   2.8664203453385273E-002
   5.1643093000159873E-002  -1.5532999414609838E-002   2.8501888409297405E-002
   4.9221154929049063E-002  -1.4804500435572937E-002   2.8515458878225139E-002
   4.6799216857938197E-002  -1.4088459021213473E-002   2.8704914860168240E-002
   5.1779151072960244E-002  -1.5560885040043382E-002   3.4137255580057174E-002
   4.9534495411568652E-002  -1.4869338065122140E-002   3.3799026851300568E-002
   4.7289839750177129E-002  -1.4182161963347734E-002   3.3639477428966960E-002
   4.5045184088785571E-002  -1.3499356734720185E-002   3.3658607313056498E-002
   4.2800528427394041E-002  -1.2820922379239597E-002   3.3856416503568854E-002
   4.7078322154094424E-002  -1.4094400013370090E-002   3.9206196670388965E-002
   4.5013742695829570E-002  -1.3464720171919756E-002   3.8876026461510241E-002
   4.2949163237564709E-002  -1.2831324512085573E-002   3.8727329352461898E-002
   4.0884583779299807E-002  -1.2194213033867654E-002   3.8760105343243936E-002
   3.8820004321034954E-002  -1.1553385737265887E-002   3.8974354433856245E-002
   4.2384482385784350E-002  -1.2627914986696687E-002   4.4209227281484451E-002
   4.0502772924053534E-002  -1.2060102278717434E-002   4.3895202284014334E-002
   3.8621063462322733E-002  -1.1480487060823608E-002   4.3765444179781732E-002
   3.6739354000591903E-002  -1.0889069333015096E-002   4.3819952968787025E-002
   3.4857644538861060E-002  -1.0285849095292260E-002   4.4058728651030006E-002
   3.7697631768029843E-002  -1.1161429960023395E-002   4.9146347413343838E-002
   3.6001586096240462E-002  -1.0655484385514974E-002   4.8856554318812584E-002
   3.4305540424451095E-002  -1.0129649609561323E-002   4.8753821910926864E-002
   3.2609494752661720E-002  -9.5839256321624301E-003   4.8838150189686000E-002
   3.0913449080872346E-002  -9.0183124533184111E-003   4.9109539155090198E-002
   4.6799216857938197E-002  -1.4088459021213473E-002   2.8704914860168240E-002
   4.4501474448814637E-002  -1.3364216504642201E-002   2.8246349085715716E-002
   4.2203732039691022E-002  -1.2611114218969738E-002   2.7918873619150353E-002
   3.9905989630567434E-002  -1.1829152164196104E-002   2.7722488460472844E-002
   3.7608247221443791E-002  -1.1018330340321403E-002   2.7657193609682995E-002
   4.2800528427394041E-002  -1.2820922379239597E-002   3.3856416503568854E-002
   4.0640448696356302E-002  -1.2133645035540958E-002   3.3448045732841852E-002
   3.8480368965318618E-002  -1.1424310842259006E-002   3.3183910010399026E-002
   3.6320289234280961E-002  -1.0692919799394317E-002   3.3064009336240388E-002
   3.4160209503243222E-002  -9.9394719069463289E-003   3.3088343710366175E-002
   3.8820004321034954E-002  -1.1553385737265887E-002   3.8974354433856245E-002
   3.6810732008479799E-002  -1.0903073566439742E-002   3.8609375747336749E-002
   3.4801459695924686E-002  -1.0237507465548509E-002   3.8401776849498068E-002
   3.2792187383369566E-002  -9.5566874345923113E-003   3.8351557740340360E-002
   3.0782915070814432E-002  -8.8606134735711994E-003   3.8458718419863563E-002
   3.4857644538861060E-002  -1.0285849095292260E-002   4.4058728651030006E-002
   3.3012324385185185E-002  -9.6725020973384562E-003   4.3730339129199970E-002
   3.1167004231509268E-002  -9.0507040888380616E-003   4.3572474136447478E-002
   2.9321684077833376E-002  -8.4204550697905816E-003   4.3585133672772530E-002
   2.7476363924157417E-002  -7.7817550401961533E-003   4.3768317738175203E-002
   3.0913449080872346E-002  -9.0183124533184111E-003   4.9109539155090198E-002
   2.9245225826472349E-002  -8.4419306282371709E-003   4.8810935878431605E-002
   2.7577002572072323E-002  -7.8639007121272808E-003   4.8696001871247174E-002
   2.5908779317672312E-002  -7.2842227049885189E-003   4.8764737133536934E-002
   2.4240556063272301E-002  -6.7028966068211071E-003   4.9017141665300912E-002
   3.7608247221443791E-002  -1.1018330340321403E-002   2.7657193609682995E-002
   3.5220554592785669E-002  -1.0211922531021211E-002   2.7117657465855038E-002
   3.2832861964127547E-002  -9.4432025199712166E-003   2.6706233194737250E-002
   3.0445169335469383E-002  -8.7121703071712242E-003   2.6422920796329408E-002
   2.8057476706811302E-002  -8.0188258926214839E-003   2.6267720270631512E-002
   3.4160209503243222E-002  -9.9394719069463289E-003   3.3088343710366175E-002
   3.1905523330940655E-002  -9.1875630829422184E-003   3.2593034043595037E-002
   2.9650837158638157E-002  -8.4607892454095779E-003   3.2235625416825592E-002
   2.7396150986335639E-002  -7.7591503943480952E-003   3.2016117830057117E-002
   2.5141464814033093E-002  -7.0826465297580965E-003   3.1934511283290001E-002
   3.0782915070814432E-002  -8.8606134735711994E-003   3.8458718419863563E-002
   2.8671024522158917E-002  -8.1632036348636139E-003   3.8020188041928443E-002
   2.6559133973503339E-002  -7.4783759708483832E-003   3.7729347871285762E-002
   2.4447243424847779E-002  -6.8061304815252993E-003   3.7586197907936006E-002
   2.2335352876192233E-002  -6.1464671668944870E-003   3.7590738151878633E-002
   2.7476363924157417E-002  -7.7817550401961533E-003   4.3768317738175203E-002
   2.5517058166440232E-002  -7.1388441867847596E-003   4.3399119460854486E-002
   2.3557752408723098E-002  -6.4959626962869665E-003   4.3187400558118205E-002
   2.1598446651005947E-002  -5.8531105687023369E-003   4.3133161029965610E-002
   1.9639140893288717E-002  -5.2102878040309331E-003   4.3236400876397359E-002
   2.4240556063272301E-002  -6.7028966068211071E-003   4.9017141665300912E-002
   2.2443624263784878E-002  -6.1144847387060719E-003   4.8729828300373979E-002
   2.0646692464297400E-002  -5.5135494217257996E-003   4.8609783477322588E-002
   1.8849760664809964E-002  -4.9000906558793814E-003   4.8657007196146629E-002
   1.7052828865322528E-002  -4.2741084411674901E-003   4.8871499456846212E-002
   2.8057476706811302E-002  -8.0188258926214839E-003   2.6267720270631512E-002
   2.5712086556270441E-002  -7.3127557434793933E-003   2.5679730134571144E-002
   2.3366696405729609E-002  -6.5435463269021554E-003   2.5040181038661347E-002
   2.1021306255188790E-002  -5.7111976428891945E-003   2.4349072982901870E-002
   1.8675916104647972E-002  -4.8157096914410724E-003   2.3606405967292798E-002
   2.5141464814033093E-002  -7.0826465297580965E-003   3.1934511283290001E-002
   2.2782686704064775E-002  -6.4100492393853181E-003   3.1534822655325312E-002
   2.0423908594096485E-002  -5.7201301109755243E-003   3.1159917068355136E-002
   1.8065130484128201E-002  -5.0128891445293602E-003   3.0809794522380154E-002
   1.5706352374159877E-002  -4.2883263400464999E-003   3.0484455017399381E-002
   2.2335352876192233E-002  -6.1464671668944870E-003   3.7590738151878633E-002
   2.0039528807640816E-002  -5.5073427352908821E-003   3.7333533602610464E-002
   1.7743704739089365E-002  -4.8967138950491013E-003   3.7177454095181986E-002
   1.5447880670537862E-002  -4.3145806461694115E-003   3.7122499629591972E-002
   1.3152056601986428E-002  -3.7609429886516499E-003   3.7168670205841220E-002
   1.9639140893288717E-002  -5.2102878040309331E-003   4.3236400876397359E-002
   1.7482612866998412E-002  -4.6046362311964600E-003   4.3075862976427674E-002
   1.5326084840708165E-002  -4.0732976791227962E-003   4.3092792119141424E-002
   1.3169556814417917E-002  -3.6162721478095201E-003   4.3287188304538565E-002
   1.1013028788127561E-002  -3.2335596372570496E-003   4.3659051532618627E-002
   1.7052828865322528E-002  -4.2741084411674901E-003   4.8871499456846212E-002
   1.5111938882137743E-002  -3.7019297271024820E-003   4.8761810776776215E-002
   1.3171048898952945E-002  -3.2498814631963802E-003   4.8905931140233894E-002
   1.1230158915768181E-002  -2.9179636494497119E-003   4.9303860547219108E-002
   9.2892689325833611E-003  -2.7061762858621163E-003   4.9955598997732054E-002
   1.8675916104647972E-002  -4.8157096914410724E-003   2.3606405967292798E-002
   1.5653176668089297E-002  -4.0793964324533638E-003   2.4395778207831009E-002
   1.2630437231530595E-002  -3.7245718258220040E-003   2.5658260847403525E-002
   9.6076977949719339E-003  -3.7512358715463892E-003   2.7393853886010122E-002
   6.5849583584132176E-003  -4.1593885696264987E-003   2.9602557323650691E-002
   1.5706352374159877E-002  -4.2883263400464999E-003   3.0484455017399381E-002
   1.3138518805607957E-002  -3.7738648478924386E-003   3.1261384127699576E-002
   1.0570685237056024E-002  -3.6969278184327825E-003   3.2475014574979422E-002
   8.0028516685040629E-003  -4.0575152516673374E-003   3.4125346359238168E-002
   5.4350180999521713E-003  -4.8556271475964641E-003   3.6212379480476842E-002
   1.3152056601986428E-002  -3.7609429886516499E-003   3.7168670205841220E-002
   1.1002719839386443E-002  -3.4683332633311248E-003   3.7877120375565260E-002
   8.8533830767864724E-003  -3.6692838110435472E-003   3.8985862820213893E-002
   6.7040463141865118E-003  -4.3637946317886152E-003   4.0494897539787113E-002
   4.5547095515864611E-003  -5.5518657255663184E-003   4.2404224534284940E-002
   1.1013028788127561E-002  -3.2335596372570496E-003   4.3659051532618627E-002
   9.2457797694248112E-003  -3.1628016787700608E-003   4.4242986951428157E-002
   7.4785307507220320E-003  -3.6416398036542633E-003   4.5190805583107285E-002
   5.7112817320192728E-003  -4.6700740119097282E-003   4.6502507427656423E-002
   3.9440327133165101E-003  -6.2481043035362283E-003   4.8178092485075194E-002
   9.2892689325833611E-003  -2.7061762858621163E-003   4.9955598997732054E-002
   7.8676985957230050E-003  -2.8572700942087748E-003   5.0358983855288253E-002
   6.4461282588626490E-003  -3.6139957962652014E-003   5.1089842863659696E-002
   5.0245579220022929E-003  -4.9763533920309244E-003   5.2148176022846049E-002
   3.6029875851419368E-003  -6.9443428815060271E-003   5.3533983332847535E-002
   6.5849583584132176E-003  -4.1593885696264987E-003   2.9602557323650691E-002
   6.0566201891988913E-003  -6.1426908602252306E-003   3.4078460319769022E-002
   5.5282820199846205E-003  -1.0894803683501819E-002   3.9239898436237097E-002
   4.9999438507703636E-003  -1.8415727039459012E-002   4.5086871673054585E-002
   4.4716056815560234E-003  -2.8705460928095228E-002   5.1619380030220707E-002
   5.4350180999521713E-003  -4.8556271475964641E-003   3.6212379480476842E-002
   5.4883138941530796E-003  -6.9904013150881017E-003   3.8351707723200956E-002
   5.5416096883540711E-003  -1.1360975563011549E-002   4.0968768772406461E-002
   5.5949054825550695E-003  -1.7967349891366231E-002   4.4063562628092301E-002
   5.6482012767559708E-003  -2.6809524300152265E-002   4.7636089290259642E-002
   4.5547095515864611E-003  -5.5518657255663184E-003   4.2404224534284940E-002
   4.9818369953343045E-003  -7.8381117699522496E-003   4.2739988475862883E-002
   5.4089644390820368E-003  -1.1827147442521058E-002   4.3345682910053834E-002
   5.8360918828298143E-003  -1.7518972743273672E-002   4.4221307836856932E-002
   6.2632193265776126E-003  -2.4913587672209303E-002   4.5366863256272594E-002
   3.9440327133165101E-003  -6.2481043035362283E-003   4.8178092485075194E-002
   4.5371894927424758E-003  -8.6858222248157591E-003   4.7243302577755268E-002
   5.1303462721685542E-003  -1.2293319322030677E-002   4.6370640849179620E-002
   5.7235030515945919E-003  -1.7070595595180892E-002   4.5560107299347653E-002
   6.3166598310204838E-003  -2.3017651044266230E-002   4.4811701928260173E-002
   3.6029875851419368E-003  -6.9443428815060271E-003   5.3533983332847535E-002
   4.1543713863777532E-003  -9.5335326796792685E-003   5.1861650028877659E-002
   4.7057551876135695E-003  -1.2759491201540268E-002   5.0043642589783055E-002
   5.2571389888494274E-003  -1.6622218447088437E-002   4.8079961015564748E-002
   5.8085227900851466E-003  -2.1121714416323378E-002   4.5970605306221657E-002
   5.1174462664409615E-002  -1.4600823706315214E-002   4.8219984357420975E-002
   4.9316595365645477E-002  -1.4358920431967098E-002   4.8102879398901510E-002
   4.7458728066881339E-002  -1.4040403915108843E-002   4.8158387446834011E-002
   4.5600860768117230E-002  -1.3645274155740485E-002   4.8386508501217909E-002
   4.3742993469353064E-002  -1.3173531153861939E-002   4.8787242562053468E-002
   4.5053893523476773E-002  -1.2789221948282636E-002   5.2720197714470507E-002
   4.3394436192765840E-002  -1.2559809705474156E-002   5.2359337836168668E-002
   4.1734978862054947E-002  -1.2270176832793037E-002   5.2222684887521492E-002
   4.0075521531344048E-002  -1.1920323330239461E-002   5.2310238868529355E-002
   3.8416064200633121E-002  -1.1510249197813321E-002   5.2621999779191825E-002
   3.8595355564968292E-002  -1.0977620190250087E-002   5.7216116346299375E-002
   3.7185902125513870E-002  -1.0760698978981173E-002   5.6595108935577274E-002
   3.5776448686059364E-002  -1.0499949750477293E-002   5.6249902377713192E-002
   3.4366995246604908E-002  -1.0195372504738521E-002   5.6180496672707150E-002
   3.2957541807150437E-002  -9.8469672417646759E-003   5.6386891820558976E-002
   3.1798848788884490E-002  -9.1660184322175514E-003   6.1707740252907400E-002
   3.0690993163889554E-002  -8.9615882524881965E-003   6.0810192697127591E-002
   2.9583137538894660E-002  -8.7297226681615735E-003   6.0240039917408825E-002
   2.8475281913899746E-002  -8.4704216792374568E-003   5.9997281913751400E-002
   2.7367426288904831E-002  -8.1836852857160441E-003   6.0081918686154985E-002
   2.4664373195225103E-002  -7.3544166741849604E-003   6.6195069434294485E-002
   2.3909709307892935E-002  -7.1624775259952200E-003   6.5004589120819467E-002
   2.3155045420560780E-002  -6.9594955858457569E-003   6.4193097506608593E-002
   2.2400381533228611E-002  -6.7454708537365883E-003   6.3760594591662070E-002
   2.1645717645896456E-002  -6.5204033296674124E-003   6.3707080375979941E-002
   4.3742993469353064E-002  -1.3173531153861939E-002   4.8787242562053468E-002
   4.2231653044022294E-002  -1.2665237611897029E-002   4.8660352525927958E-002
   4.0720312618691468E-002  -1.2160456232268663E-002   4.8677906655767739E-002
   3.9208972193360656E-002  -1.1659187014977583E-002   4.8839904951573032E-002
   3.7697631768029843E-002  -1.1161429960023395E-002   4.9146347413343838E-002
   3.8416064200633121E-002  -1.1510249197813321E-002   5.2621999779191825E-002
   3.7061345070770718E-002  -1.1069829451985078E-002   5.2374172965103619E-002
   3.5706625940908288E-002  -1.0628939109225168E-002   5.2295144575986829E-002
   3.4351906811045885E-002  -1.0187578169533662E-002   5.2384914611841082E-002
   3.2997187681183454E-002  -9.7457466329103348E-003   5.2643483072666891E-002
   3.2957541807150437E-002  -9.8469672417646759E-003   5.6386891820558976E-002
   3.1783798231762216E-002  -9.4744212920732929E-003   5.6022110987776839E-002
   3.0610054656374015E-002  -9.0974219861815614E-003   5.5850482838971899E-002
   2.9436311080985801E-002  -8.7159693240896306E-003   5.5872007374144085E-002
   2.8262567505597587E-002  -8.3300633057973583E-003   5.6086684593293398E-002
   2.7367426288904831E-002  -8.1836852857160441E-003   6.0081918686154985E-002
   2.6399012526996703E-002  -7.8790131321614248E-003   5.9604166593947551E-002
   2.5430598765088571E-002  -7.5659048631380385E-003   5.9343921444723113E-002
   2.4462185003180446E-002  -7.2443604786456544E-003   5.9301183238481700E-002
   2.3493771241272311E-002  -6.9143799786842847E-003   5.9475951975223346E-002
   2.1645717645896456E-002  -6.5204033296674124E-003   6.3707080375979941E-002
   2.0906987956474249E-002  -6.2836049722496123E-003   6.3120339783615781E-002
   2.0168258267052000E-002  -6.0343877400944324E-003   6.2775460393240445E-002
   1.9429528577629793E-002  -5.7727516332016712E-003   6.2672442204854101E-002
   1.8690798888207558E-002  -5.4986966515713775E-003   6.2811285218456414E-002
   3.7697631768029843E-002  -1.1161429960023395E-002   4.9146347413343838E-002
   3.6001586096240462E-002  -1.0655484385514974E-002   4.8856554318812584E-002
   3.4305540424451095E-002  -1.0129649609561323E-002   4.8753821910926864E-002
   3.2609494752661720E-002  -9.5839256321624301E-003   4.8838150189686000E-002
   3.0913449080872346E-002  -9.0183124533184111E-003   4.9109539155090198E-002
   3.2997187681183454E-002  -9.7457466329103348E-003   5.2643483072666891E-002
   3.1493526527939700E-002  -9.2957994016228951E-003   5.2342662718217803E-002
   2.9989865374695973E-002  -8.8300913779386231E-003   5.2239550714214947E-002
   2.8486204221452191E-002  -8.3486225618580219E-003   5.2334147060658344E-002
   2.6982543068208478E-002  -7.8513929533803317E-003   5.2626451757547599E-002
   2.8262567505597587E-002  -8.3300633057973583E-003   5.6086684593293398E-002
   2.6961938534700469E-002  -7.9361144177308857E-003   5.5770708569877911E-002
   2.5661309563803341E-002  -7.5305331463161387E-003   5.5663088560709485E-002
   2.4360680592906248E-002  -7.1133194915531679E-003   5.5763824565788239E-002
   2.3060051622009095E-002  -6.6844734534419747E-003   5.6072916585114069E-002
   2.3493771241272311E-002  -6.9143799786842847E-003   5.9475951975223346E-002
   2.2406822116522777E-002  -6.5764294338388138E-003   5.9140691873792714E-002
   2.1319872991773303E-002  -6.2309749146934913E-003   5.9024435450410459E-002
   2.0232923867023796E-002  -5.8780164212483702E-003   5.9127182705076303E-002
   1.9145974742274297E-002  -5.5175539535038676E-003   5.9448933637789983E-002
   1.8690798888207558E-002  -5.4986966515713775E-003   6.2811285218456414E-002
   1.7828177273406659E-002  -5.2167444499467697E-003   6.2452612629962378E-002
   1.6965555658605767E-002  -4.9314166830709549E-003   6.2323591383317584E-002
   1.6102934043804872E-002  -4.6427133509437668E-003   6.2424221478521807E-002
   1.5240312429003977E-002  -4.3506344535654828E-003   6.2754502915575217E-002
   3.0913449080872346E-002  -9.0183124533184111E-003   4.9109539155090198E-002
   2.9245225826472349E-002  -8.4419306282371709E-003   4.8810935878431605E-002
   2.7577002572072323E-002  -7.8639007121272808E-003   4.8696001871247174E-002
   2.5908779317672312E-002  -7.2842227049885189E-003   4.8764737133536934E-002
   2.4240556063272301E-002  -6.7028966068211071E-003   4.9017141665300912E-002
   2.6982543068208478E-002  -7.8513929533803317E-003   5.2626451757547599E-002
   2.5501621367416225E-002  -7.3442503400530934E-003   5.2342751985652580E-002
   2.4020699666624006E-002  -6.8330425094236258E-003   5.2249986051498942E-002
   2.2539777965831783E-002  -6.3177694614920399E-003   5.2348153955086421E-002
   2.1058856265039533E-002  -5.7984311962580026E-003   5.2637255696415475E-002
   2.3060051622009095E-002  -6.6844734534419747E-003   5.6072916585114069E-002
   2.1773696043091789E-002  -6.2465700518688494E-003   5.5806537444256260E-002
   2.0487340464174504E-002  -5.8021843067200818E-003   5.5738356709406772E-002
   1.9200984885257188E-002  -5.3513162179953389E-003   5.5868374380565827E-002
   1.7914629306339913E-002  -4.8939657856949537E-003   5.6196590457733148E-002
   1.9145974742274297E-002  -5.5175539535038676E-003   5.9448933637789983E-002
   1.8061449853499036E-002  -5.1488897636845776E-003   5.9202292254242617E-002
   1.6976924964723757E-002  -4.7713261040163713E-003   5.9161113844970872E-002
   1.5892400075948502E-002  -4.3848629744986933E-003   5.9325398409974819E-002
   1.4807875187173219E-002  -3.9895003751319880E-003   5.9695145949254257E-002
   1.5240312429003977E-002  -4.3506344535654828E-003   6.2754502915575217E-002
   1.4364882798637901E-002  -4.0512094755004724E-003   6.2530016415611789E-002
   1.3489453168271812E-002  -3.7404679013126191E-003   6.2518257458191145E-002
   1.2614023537905743E-002  -3.4184097310020929E-003   6.2719226043313328E-002
   1.1738593907539646E-002  -3.0850349645689112E-003   6.3132922170978323E-002
   2.4240556063272301E-002  -6.7028966068211071E-003   4.9017141665300912E-002
   2.2443624263784878E-002  -6.1144847387060719E-003   4.8729828300373979E-002
   2.0646692464297400E-002  -5.5135494217257996E-003   4.8609783477322588E-002
   1.8849760664809964E-002  -4.9000906558793814E-003   4.8657007196146629E-002
   1.7052828865322528E-002  -4.2741084411674901E-003   4.8871499456846212E-002
   2.1058856265039533E-002  -5.7984311962580026E-003   5.2637255696415475E-002
   1.9439367659197071E-002  -5.2747635710014840E-003   5.2406148298595523E-002
   1.7819879053354554E-002  -4.7465024430020375E-003   5.2362658746190116E-002
   1.6200390447512043E-002  -4.2136478122595314E-003   5.2506787039198990E-002
   1.4580901841669547E-002  -3.6761996787741946E-003   5.2838533177622105E-002
   1.7914629306339913E-002  -4.8939657856949537E-003   5.6196590457733148E-002
   1.6492933197681303E-002  -4.4350424032966462E-003   5.6013759080897313E-002
   1.5071237089022749E-002  -3.9794554642781504E-003   5.6038894853015012E-002
   1.3649540980364170E-002  -3.5272049686396779E-003   5.6271997774085987E-002
   1.2227844871705619E-002  -3.0782909163808991E-003   5.6713067844110565E-002
   1.4807875187173219E-002  -3.9895003751319880E-003   5.9695145949254257E-002
   1.3604320879237602E-002  -3.5953212355917114E-003   5.9552660647279564E-002
   1.2400766571301985E-002  -3.2124084855544369E-003   5.9638491797797386E-002
   1.1197212263366368E-002  -2.8407621250197152E-003   5.9952639400807722E-002
   9.9936579554307532E-003  -2.4803821539874926E-003   6.0495103456310262E-002
   1.1738593907539646E-002  -3.0850349645689112E-003   6.3132922170978323E-002
   1.0773530703865983E-002  -2.7556000678871650E-003   6.3022852997742240E-002
   9.8084675001923055E-003  -2.4453615068305845E-003   6.3161449580537599E-002
   8.8434042965186213E-003  -2.1543192813999953E-003   6.3548711919364315E-002
   7.8783410928449371E-003  -1.8824733915943082E-003   6.4184640014222527E-002
   1.7052828865322528E-002  -4.2741084411674901E-003   4.8871499456846212E-002
   1.5111938882137743E-002  -3.7019297271024820E-003   4.8761810776776215E-002
   1.3171048898952945E-002  -3.2498814631963802E-003   4.8905931140233894E-002
   1.1230158915768181E-002  -2.9179636494497119E-003   4.9303860547219108E-002
   9.2892689325833611E-003  -2.7061762858621163E-003   4.9955598997732054E-002
   1.4580901841669547E-002  -3.6761996787741946E-003   5.2838533177622105E-002
   1.2893482967443429E-002  -3.1951648061168680E-003   5.2728601379393059E-002
   1.1206064093217324E-002  -2.8315499578588643E-003   5.2871802755553754E-002
   9.5186452189912202E-003  -2.5853551340000516E-003   5.3268137306104107E-002
   7.8312263447650743E-003  -2.4565803345399928E-003   5.3917605031044369E-002
   1.2227844871705619E-002  -3.0782909163808991E-003   5.6713067844110565E-002
   1.0793221237300234E-002  -2.6883998851314206E-003   5.6605603353482220E-002
   9.3585976028948657E-003  -2.4132184525212375E-003   5.6750596168106071E-002
   7.9239739684895203E-003  -2.2527466185500583E-003   5.7148046287981522E-002
   6.4893503340841402E-003  -2.2069843832179248E-003   5.7797953713108641E-002
   9.9936579554307532E-003  -2.4803821539874926E-003   6.0495103456310262E-002
   8.8111536917081599E-003  -2.1816349641461119E-003   6.0392816699043304E-002
   7.6286494279856091E-003  -1.9948869471838881E-003   6.0542311377890276E-002
   6.4461451642630375E-003  -1.9201381031002870E-003   6.0943587492850899E-002
   5.2636409005404373E-003  -1.9573884318960511E-003   6.1596645043925480E-002
   7.8783410928449371E-003  -1.8824733915943082E-003   6.4184640014222527E-002
   6.9472803306672298E-003  -1.6748700431606922E-003   6.4090241416076998E-002
   6.0162195684895226E-003  -1.5765554418460392E-003   6.4246948384906855E-002
   5.0851588063118153E-003  -1.5875295876506129E-003   6.4654760920712873E-002
   4.1540980441341080E-003  -1.7077924805737332E-003   6.5313679023494720E-002
   9.2892689325833611E-003  -2.7061762858621163E-003   4.9955598997732054E-002
   7.8676985957230050E-003  -2.8572700942087748E-003   5.0358983855288253E-002
   6.4461282588626490E-003  -3.6139957962652014E-003   5.1089842863659696E-002
   5.0245579220022929E-003  -4.9763533920309244E-003   5.2148176022846049E-002
   3.6029875851419368E-003  -6.9443428815060271E-003   5.3533983332847535E-002
   7.8312263447650743E-003  -2.4565803345399928E-003   5.3917605031044369E-002
   6.7110097579056727E-003  -2.6427702540169351E-003   5.3851965411331693E-002
   5.5907931710462433E-003  -3.3414695869682653E-003   5.4061559140806070E-002
   4.4705765841868070E-003  -4.5526783333940737E-003   5.4546386219467252E-002
   3.3503599973274123E-003  -6.2763964932942562E-003   5.5306446647315433E-002
   6.4893503340841402E-003  -2.2069843832179248E-003   5.7797953713108641E-002
   5.6182466955973787E-003  -2.4282704138250399E-003   5.7356412096362414E-002
   4.7471430571106518E-003  -3.0689433776714403E-003   5.7137863027174884E-002
   3.8760394186239180E-003  -4.1290032747572231E-003   5.7142306505545776E-002
   3.0049357801371634E-003  -5.6084501050825408E-003   5.7369742531475448E-002
   5.2636409005404373E-003  -1.9573884318960511E-003   6.1596645043925480E-002
   4.5894094087981716E-003  -2.2137705736332836E-003   6.0872323910380936E-002
   3.9151779170559075E-003  -2.7964171683745043E-003   6.0318754522766208E-002
   3.2409464253136070E-003  -3.7053282161203724E-003   5.9935936881081904E-002
   2.5667149335713776E-003  -4.9405037168707977E-003   5.9723870985328158E-002
   4.1540980441341080E-003  -1.7077924805737332E-003   6.5313679023494720E-002
   3.6244978975080444E-003  -1.9992707334411941E-003   6.4399700853386199E-002
   3.0948977508819808E-003  -2.5238909590777903E-003   6.3604233627579998E-002
   2.5652976042559311E-003  -3.2816531574836050E-003   6.2927277346075616E-002
   2.0356974576298814E-003  -4.2725573286590546E-003   6.2368832008873554E-002
   3.6029875851419368E-003  -6.9443428815060271E-003   5.3533983332847535E-002
   4.1543713863777532E-003  -9.5335326796792685E-003   5.1861650028877659E-002
   4.7057551876135695E-003  -1.2759491201540268E-002   5.0043642589783055E-002
   5.2571389888494274E-003  -1.6622218447088437E-002   4.8079961015564748E-002
   5.8085227900851466E-003  -2.1121714416323378E-002   4.5970605306221657E-002
   3.3503599973274123E-003  -6.2763964932942562E-003   5.5306446647315433E-002
   3.7736510379701022E-003  -8.5441673556387321E-003   5.2952715730950728E-002
   4.1969420786127920E-003  -1.1387534209396616E-002   5.0488473428524194E-002
   4.6202331192554749E-003  -1.4806497054568012E-002   4.7913719740036304E-002
   5.0435241598981717E-003  -1.8801055891153329E-002   4.5228454665485973E-002
   3.0049357801371634E-003  -5.6084501050825408E-003   5.7369742531475448E-002
   3.3352968092494745E-003  -7.5548020315974185E-003   5.4395786734989821E-002
   3.6656578383618271E-003  -1.0015577217252533E-002   5.1346482301504862E-002
   3.9960188674741347E-003  -1.2990775662047812E-002   4.8221829231020620E-002
   4.3263798965864630E-003  -1.6480397365983279E-002   4.5021827523538338E-002
   2.5667149335713776E-003  -4.9405037168707977E-003   5.9723870985328158E-002
   2.8393087002159707E-003  -6.5654367075562714E-003   5.6190863040994667E-002
   3.1119024668605812E-003  -8.6436202251085545E-003   5.2617669208724738E-002
   3.3844962335052046E-003  -1.1175054269527500E-002   4.9004289488518801E-002
   3.6570900001497847E-003  -1.4159738840813341E-002   4.5350723880376143E-002
   2.0356974576298814E-003  -4.2725573286590546E-003   6.2368832008873554E-002
   2.2856867108695111E-003  -5.5760713835156794E-003   5.8337944648965800E-002
   2.5356759641091547E-003  -7.2716632329645758E-003   5.4302034150184753E-002
   2.7856652173487984E-003  -9.3593328770072981E-003   5.0261100512529744E-002
   3.0356544705884558E-003  -1.1839080315643180E-002   4.6215143736000996E-002
   2.4664373195225103E-002  -7.3544166741849604E-003   6.6195069434294485E-002
   2.3909709307892935E-002  -7.1624775259952200E-003   6.5004589120819467E-002
   2.3155045420560780E-002  -6.9594955858457569E-003   6.4193097506608593E-002
   2.2400381533228611E-002  -6.7454708537365883E-003   6.3760594591662070E-002
   2.1645717645896456E-002  -6.5204033296674124E-003   6.3707080375979941E-002
   1.7645254877953834E-002  -5.5158120059911053E-003   6.4836335457966576E-002
   1.7221999011473782E-002  -5.3718578109076265E-003   6.4176620298038778E-002
   1.6798743144993730E-002  -5.2196214845682681E-003   6.3800732480550792E-002
   1.6375487278513672E-002  -5.0591030269731933E-003   6.3708672005502787E-002
   1.5952231412033627E-002  -4.8903024381222460E-003   6.3900438872894511E-002
   1.1194819931034258E-002  -3.6772073377972780E-003   6.3430996858884661E-002
   1.1007810728581882E-002  -3.5812380958200191E-003   6.3299286191799989E-002
   1.0820801526129499E-002  -3.4797473832908835E-003   6.3356241510330924E-002
   1.0633792323677112E-002  -3.3727352002098799E-003   6.3601862814477245E-002
   1.0446783121224719E-002  -3.2602015465770795E-003   6.4036150104239103E-002
   5.3130683544664256E-003  -1.8386026696034091E-003   6.1979053637048157E-002
   5.2671444592172559E-003  -1.7906183807323631E-003   6.2372586802103072E-002
   5.2212205639680914E-003  -1.7398732820133912E-003   6.2859624595948752E-002
   5.1752966687189190E-003  -1.6863673734466090E-003   6.3440167018585625E-002
   5.1293727734697519E-003  -1.6301006550319130E-003   6.4114214070013359E-002
   1.4825029398535250E-010   1.9985904042840730E-009   6.0480505792457673E-002
   2.0337989625751618E-010   1.3343552374145418E-009   6.1396522128947917E-002
   2.5850950893802072E-010   8.1926401773735336E-010   6.2310881737404622E-002
   3.1363911641435482E-010   4.5331672443582605E-010   6.3223584617827761E-002
   3.6876872389068893E-010   2.3651325342655127E-010   6.4134630770217638E-002
   2.1645717645896456E-002  -6.5204033296674124E-003   6.3707080375979941E-002
   2.0906987956474249E-002  -6.2836049722496123E-003   6.3120339783615781E-002
   2.0168258267052000E-002  -6.0343877400944324E-003   6.2775460393240445E-002
   1.9429528577629793E-002  -5.7727516332016712E-003   6.2672442204854101E-002
   1.8690798888207558E-002  -5.4986966515713775E-003   6.2811285218456414E-002
   1.5952231412033627E-002  -4.8903024381222460E-003   6.3900438872894511E-002
   1.5441068227698425E-002  -4.7127037014951106E-003   6.3498308046199506E-002
   1.4929905043363223E-002  -4.5257908005712846E-003   6.3309449027689840E-002
   1.4418741859028018E-002  -4.3295637353508391E-003   6.3333861817365431E-002
   1.3907578674692833E-002  -4.1240225058337687E-003   6.3571546415226082E-002
   1.0446783121224719E-002  -3.2602015465770795E-003   6.4036150104239103E-002
   1.0134597048172930E-002  -3.1418024307403869E-003   6.3815524332772378E-002
   9.8224109751211229E-003  -3.0171938610481369E-003   6.3779580975687353E-002
   9.5102249020693266E-003  -2.8863758374998959E-003   6.3928320032983960E-002
   9.1980388290175304E-003  -2.7493483600961321E-003   6.4261741504662101E-002
   5.1293727734697519E-003  -1.6301006550319130E-003   6.4114214070013359E-002
   4.9875744178977301E-003  -1.5709011599858297E-003   6.4071988643334118E-002
   4.8457760623257119E-003  -1.5085969215249892E-003   6.4185856237232927E-002
   4.7039777067536953E-003  -1.4431879396490637E-003   6.4455816851709785E-002
   4.5621793511816710E-003  -1.3746742143585094E-003   6.4881870486764387E-002
   3.6876872389068893E-010   2.3651325342655127E-010   6.4134630770217638E-002
   3.3687285599937056E-010   1.1076881079041812E-010   6.4267700977885006E-002
   3.0497698810805218E-010   1.7998186274681416E-011   6.4528274812326702E-002
   2.7308112021673381E-010  -4.1798196848130686E-011   6.4916352273542755E-002
   2.4118525232541543E-010  -6.8620886750636600E-011   6.5431933361533079E-002
   1.8690798888207558E-002  -5.4986966515713775E-003   6.2811285218456414E-002
   1.7828177273406659E-002  -5.2167444499467697E-003   6.2452612629962378E-002
   1.6965555658605767E-002  -4.9314166830709549E-003   6.2323591383317584E-002
   1.6102934043804872E-002  -4.6427133509437668E-003   6.2424221478521807E-002
   1.5240312429003977E-002  -4.3506344535654828E-003   6.2754502915575217E-002
   1.3907578674692833E-002  -4.1240225058337687E-003   6.3571546415226082E-002
   1.3271109414809967E-002  -3.9125583563185129E-003   6.3286008828115831E-002
   1.2634640154927115E-002  -3.6985625311041492E-003   6.3223124608992529E-002
   1.1998170895044256E-002  -3.4820350301903238E-003   6.3382893757856246E-002
   1.1361701635161398E-002  -3.2629758535768216E-003   6.3765316274706885E-002
   9.1980388290175304E-003  -2.7493483600961321E-003   6.4261741504662101E-002
   8.7807239501905832E-003  -2.6083722626906031E-003   6.4048495029383784E-002
   8.3634090713636481E-003  -2.4657083791373990E-003   6.4050903948230167E-002
   7.9460941925367061E-003  -2.3213567094366033E-003   6.4268968261201515E-002
   7.5287793137097658E-003  -2.1753172535881882E-003   6.4702687968297687E-002
   4.5621793511816710E-003  -1.3746742143585094E-003   6.4881870486764387E-002
   4.3570208795485135E-003  -1.3041861690624643E-003   6.4740071233766155E-002
   4.1518624079153708E-003  -1.2328542271706211E-003   6.4806929401030750E-002
   3.9467039362822177E-003  -1.1606783886830216E-003   6.5082444988557975E-002
   3.7415454646490647E-003  -1.0876586535993743E-003   6.5566617996347901E-002
   2.4118525232541543E-010  -6.8620886750636600E-011   6.5431933361533079E-002
   2.0288376534338681E-010  -7.5434436475063649E-011   6.5360737441263139E-002
   1.6458228183080514E-010  -7.5203870908424619E-011   6.5491200967393914E-002
   1.2628080178767043E-010  -6.7929391278642726E-011   6.5823323939925210E-002
   8.7979311336194854E-011  -5.3610782480006947E-011   6.6357106358857165E-002
   1.5240312429003977E-002  -4.3506344535654828E-003   6.2754502915575217E-002
   1.4364882798637901E-002  -4.0512094755004724E-003   6.2530016415611789E-002
   1.3489453168271812E-002  -3.7404679013126191E-003   6.2518257458191145E-002
   1.2614023537905743E-002  -3.4184097310020929E-003   6.2719226043313328E-002
   1.1738593907539646E-002  -3.0850349645689112E-003   6.3132922170978323E-002
   1.1361701635161398E-002  -3.2629758535768216E-003   6.3765316274706885E-002
   1.0700532011917806E-002  -3.0384071159299253E-003   6.3597952732959290E-002
   1.0039362388674221E-002  -2.8053509319155012E-003   6.3646381662914114E-002
   9.3781927654306291E-003  -2.5638073015330845E-003   6.3910603064571095E-002
   8.7170231421870303E-003  -2.3137762247833482E-003   6.4390616937930301E-002
   7.5287793137097658E-003  -2.1753172535881882E-003   6.4702687968297687E-002
   7.0849346267481544E-003  -2.0256047563595725E-003   6.4589618235010970E-002
   6.6410899397865396E-003  -1.8702339625183764E-003   6.4695405902586045E-002
   6.1972452528249230E-003  -1.7092048720644629E-003   6.5020050971022883E-002
   5.7534005658633133E-003  -1.5425174849979517E-003   6.5563553440321304E-002
   3.7415454646490647E-003  -1.0876586535993743E-003   6.5566617996347901E-002
   3.5180906431289179E-003  -1.0128023967891780E-003   6.5505012921766942E-002
   3.2946358216087721E-003  -9.3511699312131061E-004   6.5665330177207243E-002
   3.0711810000886215E-003  -8.5460244259564794E-004   6.6047569762668720E-002
   2.8477261785684795E-003  -7.7125874521258297E-004   6.6651731678151444E-002
   8.7979311336194854E-011  -5.3610782480006947E-011   6.6357106358857165E-002
   6.1060122236167302E-011  -3.7218783610626360E-011   6.6344136793226927E-002
   3.4140926197245847E-011  -2.3724272546488123E-011   6.6556154486777708E-002
   7.2217405666652468E-012  -1.3126895404003136E-011   6.6993159439508898E-002
  -1.9697458941703161E-011  -5.4269921889726902E-012   6.7655151651420886E-002
   1.1738593907539646E-002  -3.0850349645689112E-003   6.3132922170978323E-002
   1.0773530703865983E-002  -2.7556000678871650E-003   6.3022852997742240E-002
   9.8084675001923055E-003  -2.4453615068305845E-003   6.3161449580537599E-002
   8.8434042965186213E-003  -2.1543192813999953E-003   6.3548711919364315E-002
   7.8783410928449371E-003  -1.8824733915943082E-003   6.4184640014222527E-002
   8.7170231421870303E-003  -2.3137762247833482E-003   6.4390616937930301E-002
   7.9987757058902625E-003  -2.0667000509407285E-003   6.4319849171164956E-002
   7.2805282695934948E-003  -1.8340211292792730E-003   6.4494047183122183E-002
   6.5622808332967131E-003  -1.6157394597992453E-003   6.4913210973801719E-002
   5.8440333969999592E-003  -1.4118550425011867E-003   6.5577340543203577E-002
   5.7534005658633133E-003  -1.5425174849979517E-003   6.5563553440321304E-002
   5.2782689196343713E-003  -1.3778000339939867E-003   6.5536886163470892E-002
   4.8031372734054188E-003  -1.2226807517277533E-003   6.5751484688033698E-002
   4.3280056271764785E-003  -1.0771596381991093E-003   6.6207349014009820E-002
   3.8528739809475243E-003  -9.4123669340817617E-004   6.6904479141399381E-002
   2.8477261785684795E-003  -7.7125874521258297E-004   6.6651731678151444E-002
   2.6120103450982882E-003  -6.8890001704745296E-004   6.6673963974659814E-002
   2.3762945116280855E-003  -6.1134037417633763E-004   6.6933762095272076E-002
   2.1405786781578885E-003  -5.3857981659866626E-004   6.7431126039988659E-002
   1.9048628446876915E-003  -4.7061834431511018E-004   6.8166055808809689E-002
  -1.9697458941703161E-011  -5.4269921889726902E-012   6.7655151651420886E-002
  -1.7717993738841642E-011  -1.0091927293842673E-013   6.7731082604731430E-002
  -1.5738521597086219E-011   3.3752445283141697E-012   6.8040879404837440E-002
  -1.3759058128948176E-011   5.0017628927534474E-012   6.8584542051738362E-002
  -1.1779584252469277E-011   4.7778447864743612E-012   6.9362070545434529E-002
   7.8783410928449371E-003  -1.8824733915943082E-003   6.4184640014222527E-002
   6.9472803306672298E-003  -1.6748700431606922E-003   6.4090241416076998E-002
   6.0162195684895226E-003  -1.5765554418460392E-003   6.4246948384906855E-002
   5.0851588063118153E-003  -1.5875295876506129E-003   6.4654760920712873E-002
   4.1540980441341080E-003  -1.7077924805737332E-003   6.5313679023494720E-002
   5.8440333969999592E-003  -1.4118550425011867E-003   6.5577340543203577E-002
   5.1594931077889941E-003  -1.2561525314051525E-003   6.5425877477170269E-002
   4.4749528185780221E-003  -1.1824165805322528E-003   6.5516349790094575E-002
   3.7904125293670571E-003  -1.1906471898819743E-003   6.5848757481976466E-002
   3.1058722401560851E-003  -1.2808443594548580E-003   6.6423100552815861E-002
   3.8528739809475243E-003  -9.4123669340817617E-004   6.6904479141399381E-002
   3.4056839766850276E-003  -8.3743501964944622E-004   6.6723273794374260E-002
   2.9584939724225101E-003  -7.8827771921805012E-004   6.6774833638288594E-002
   2.5113039681599926E-003  -7.9376479211334255E-004   6.7059158673142424E-002
   2.0641139638974959E-003  -8.5389623833598272E-004   6.7576248898935154E-002
   1.9048628446876915E-003  -4.7061834431511018E-004   6.8166055808809689E-002
   1.6858529373553416E-003  -4.1871750789382323E-004   6.7982430367689042E-002
   1.4668430300229848E-003  -3.9413885790361147E-004   6.8022399929489302E-002
   1.2478331226906314E-003  -3.9688239434492942E-004   6.8285964494210649E-002
   1.0288232153582641E-003  -4.2694811721705195E-004   6.8773124061853097E-002
  -1.1779584252469277E-011   4.7778447864743612E-012   6.9362070545434529E-002
  -1.0200076894228971E-011   3.8615777242512195E-012   6.9203347197113962E-002
  -8.6205487193069530E-012   3.4100500201361683E-012   6.9259048663696532E-002
  -7.0410205443849350E-012   3.4237335189146734E-012   6.9529174945181543E-002
  -5.4615131861446287E-012   3.9018788200451127E-012   7.0013726041569413E-002
   4.1540980441341080E-003  -1.7077924805737332E-003   6.5313679023494720E-002
   3.6244978975080444E-003  -1.9992707334411941E-003   6.4399700853386199E-002
   3.0948977508819808E-003  -2.5238909590777903E-003   6.3604233627579998E-002
   2.5652976042559311E-003  -3.2816531574836050E-003   6.2927277346075616E-002
   2.0356974576298814E-003  -4.2725573286590546E-003   6.2368832008873554E-002
   3.1058722401560851E-003  -1.2808443594548580E-003   6.6423100552815861E-002
   2.6982553109548835E-003  -1.4994530489265134E-003   6.5315062957377767E-002
   2.2906383817536610E-003  -1.8929182179721338E-003   6.4332480852487106E-002
   1.8830214525524559E-003  -2.4612398665921423E-003   6.3475354238144377E-002
   1.4754045233512370E-003  -3.2044179947863238E-003   6.2743683114348969E-002
   2.0641139638974959E-003  -8.5389623833598272E-004   6.7576248898935154E-002
   1.7854247983665888E-003  -9.9963536441166623E-004   6.6332437371362712E-002
   1.5067356328356922E-003  -1.2619454768664773E-003   6.5221025880583094E-002
   1.2280464673047921E-003  -1.6408265757006796E-003   6.4242014426596550E-002
   9.4935730177388850E-004  -2.1362786609140372E-003   6.3395403009403106E-002
   1.0288232153582641E-003  -4.2694811721705195E-004   6.8773124061853097E-002
   8.8600635974317443E-004  -4.9981767989690229E-004   6.7451824095340951E-002
   7.4318950412806308E-004  -6.3097273576109836E-004   6.6269868711867311E-002
   6.0037264851296214E-004  -8.2041328480943893E-004   6.5227257911432024E-002
   4.5755579289786207E-004  -1.0681393270416395E-003   6.4323991694035326E-002
  -5.4615131861446287E-012   3.9018788200451127E-012   7.0013726041569413E-002
  -4.9153597858619946E-012   4.6178061374746449E-012   6.8673223129312566E-002
  -4.3691994466854567E-012   5.3450299741797380E-012   6.7479009346339769E-002
  -3.8230443116793467E-012   6.0822388792125537E-012   6.6431084692651104E-002
  -3.2768857072262847E-012   6.8307581813087381E-012   6.5529449168246323E-002
   2.0356974576298814E-003  -4.2725573286590546E-003   6.2368832008873554E-002
   2.2856867108695111E-003  -5.5760713835156794E-003   5.8337944648965800E-002
   2.5356759641091547E-003  -7.2716632329645758E-003   5.4302034150184753E-002
   2.7856652173487984E-003  -9.3593328770072981E-003   5.0261100512529744E-002
   3.0356544705884558E-003  -1.1839080315643180E-002   4.6215143736000996E-002
   1.4754045233512370E-003  -3.2044179947863238E-003   6.2743683114348969E-002
   1.7060020941064707E-003  -4.1820535356871247E-003   5.8389604853315735E-002
   1.9365996648616976E-003  -5.4537474224268800E-003   5.4001766366187864E-002
   2.1671972356169383E-003  -7.0194996550047850E-003   4.9580167652964219E-002
   2.3977948063721721E-003  -8.8793102334219220E-003   4.5124808713645992E-002
   9.4935730177388850E-004  -2.1362786609140372E-003   6.3395403009403106E-002
   1.1318261028231483E-003  -2.7880356878591805E-003   5.8816153295999013E-002
   1.3142949038723907E-003  -3.6358316118884071E-003   5.4174406269277997E-002
   1.4967637049216193E-003  -4.6796664330022719E-003   4.9470161929240863E-002
   1.6792325059708652E-003  -5.9195401512002199E-003   4.4703420275886252E-002
   4.5755579289786207E-004  -1.0681393270416395E-003   6.4323991694035326E-002
   5.6315873701955413E-004  -1.3940178400310421E-003   5.9617589977015009E-002
   6.6876168114125226E-004  -1.8179158013503227E-003   5.4819953859455761E-002
   7.7436462526294346E-004  -2.3398332109994258E-003   4.9931083341358221E-002
   8.7996756938465634E-004  -2.9597700689788509E-003   4.4950978422722943E-002
  -3.2768857072262847E-012   6.8307581813087381E-012   6.5529449168246323E-002
  -3.3043220937223339E-012   7.7970963019424744E-012   6.0793914896363432E-002
  -3.3317411329836233E-012   9.1875951291342517E-012   5.5938409136720657E-002
  -3.3591636416918647E-012   1.1002712629881728E-011   5.0962931889317942E-002
  -3.3865965587409619E-012   1.3242740237728867E-011   4.5867483154155675E-002
   1.4825029398535250E-010   1.9985904042840730E-009   6.0480505792457673E-002
   2.0337989625751618E-010   1.3343552374145418E-009   6.1396522128947917E-002
   2.5850950893802072E-010   8.1926401773735336E-010   6.2310881737404622E-002
   3.1363911641435482E-010   4.5331672443582605E-010   6.3223584617827761E-002
   3.6876872389068893E-010   2.3651325342655127E-010   6.4134630770217638E-002
  -5.3130680882228151E-003   1.8386061057062975E-003   6.1979052952095826E-002
  -5.2671440853419536E-003   1.7906206807479785E-003   6.2372586331376212E-002
  -5.2212200824610921E-003   1.7398747023881778E-003   6.2859624334192510E-002
  -5.1752960795802359E-003   1.6863681706268049E-003   6.3440166960544719E-002
  -5.1293720766993622E-003   1.6301010854636588E-003   6.4114214210433007E-002
  -1.1194819755561575E-002   3.6772102128221074E-003   6.3430995702283471E-002
  -1.1007810453360078E-002   3.5812400271407474E-003   6.3299285421808626E-002
  -1.0820801151158552E-002   3.4797485855122684E-003   6.3356241116438936E-002
  -1.0633791848957033E-002   3.3727358879367432E-003   6.3601862786174801E-002
  -1.0446782546755521E-002   3.2602019344140643E-003   6.4036150431015931E-002
  -1.7645254853766015E-002   5.5158143199379450E-003   6.4836334043021082E-002
  -1.7221998900674454E-002   5.3718593735335024E-003   6.4176619400245244E-002
  -1.6798742947582879E-002   5.2196224686363937E-003   6.3800732084144315E-002
  -1.6375486994491307E-002   5.0591036052467248E-003   6.3708672094718005E-002
  -1.5952231041399732E-002   4.8903027833644142E-003   6.3900439431966466E-002
  -2.4664373382836113E-002   7.3544184270538104E-003   6.6195067974308075E-002
  -2.3909709427285097E-002   7.1624787199262296E-003   6.5004588266686036E-002
  -2.3155045471734054E-002   6.9594963517604358E-003   6.4193097237308094E-002
  -2.2400381516183024E-002   6.7454713225567273E-003   6.3760594886174277E-002
  -2.1645717560631994E-002   6.5204036323148196E-003   6.3707081213284722E-002
   3.6876872389068893E-010   2.3651325342655127E-010   6.4134630770217638E-002
   3.3687285599937056E-010   1.1076881079041812E-010   6.4267700977885006E-002
   3.0497698810805218E-010   1.7998186274681416E-011   6.4528274812326702E-002
   2.7308112021673381E-010  -4.1798196848130686E-011   6.4916352273542755E-002
   2.4118525232541543E-010  -6.8620886750636600E-011   6.5431933361533079E-002
  -5.1293720766993622E-003   1.6301010854636588E-003   6.4114214210433007E-002
  -4.9875737809373499E-003   1.5709013788390985E-003   6.4071988766122065E-002
  -4.8457754851753410E-003   1.5085969826927823E-003   6.4185856350352358E-002
  -4.7039771894133234E-003   1.4431878970248817E-003   6.4455816963124191E-002
  -4.5621788936513127E-003   1.3746741218354508E-003   6.4881870604437342E-002
  -1.0446782546755521E-002   3.2602019344140643E-003   6.4036150431015931E-002
  -1.0134596521568541E-002   3.1418026469092614E-003   6.3815524612231000E-002
  -9.8224104963815628E-003   3.0171939473873227E-003   6.3779581223754642E-002
  -9.5102244711945845E-003   2.8863758358481824E-003   6.3928320265586730E-002
  -9.1980384460075976E-003   2.7493483122917883E-003   6.4261741737727390E-002
  -1.5952231041399732E-002   4.8903027833644142E-003   6.3900439431966466E-002
  -1.5441067885020698E-002   4.7127039149795422E-003   6.3498308516212146E-002
  -1.4929904728641679E-002   4.5257909120818632E-003   6.3309449432533305E-002
  -1.4418741572262649E-002   4.3295637746713998E-003   6.3333862180930081E-002
  -1.3907578415883621E-002   4.1240225027480704E-003   6.3571546761402364E-002
  -2.1645717560631994E-002   6.5204036323148196E-003   6.3707081213284722E-002
  -2.0906987871293841E-002   6.2836051830496842E-003   6.3120340478065307E-002
  -2.0168258181955688E-002   6.0343878767764730E-003   6.2775460976688485E-002
  -1.9429528492617528E-002   5.7727517134946206E-003   6.2672442709154438E-002
  -1.8690798803279382E-002   5.4986966932044634E-003   6.2811285675462902E-002
   2.4118525232541543E-010  -6.8620886750636600E-011   6.5431933361533079E-002
   2.0288376534338681E-010  -7.5434436475063649E-011   6.5360737441263139E-002
   1.6458228183080514E-010  -7.5203870908424619E-011   6.5491200967393914E-002
   1.2628080178767043E-010  -6.7929391278642726E-011   6.5823323939925210E-002
   8.7979311336194854E-011  -5.3610782480006947E-011   6.6357106358857165E-002
  -4.5621788936513127E-003   1.3746741218354508E-003   6.4881870604437342E-002
  -4.3570204945047441E-003   1.3041860598315969E-003   6.4740071319163900E-002
  -4.1518620953581772E-003   1.2328541137208993E-003   6.4806929462385726E-002
  -3.9467036962116051E-003   1.1606782835028653E-003   6.5082445034103181E-002
  -3.7415452970650416E-003   1.0876585691778629E-003   6.5566618034315960E-002
  -9.1980384460075976E-003   2.7493483122917883E-003   6.4261741737727390E-002
  -8.7807236273180784E-003   2.6083721950977412E-003   6.4048495196298766E-002
  -8.3634088086285627E-003   2.4657083026454613E-003   6.4050904065460643E-002
  -7.9460939899390435E-003   2.3213566349350699E-003   6.4268968345212812E-002
  -7.5287791712495260E-003   2.1753171919663417E-003   6.4702688035555483E-002
  -1.3907578415883621E-002   4.1240225027480704E-003   6.3571546761402364E-002
  -1.3271109195556250E-002   3.9125583303638578E-003   6.3286009072667765E-002
  -1.2634639975228887E-002   3.6985624915701829E-003   6.3223124776618525E-002
  -1.1998170754901512E-002   3.4820349863671895E-003   6.3382893873254562E-002
  -1.1361701534574137E-002   3.2629758147549592E-003   6.3765316362575819E-002
  -1.8690798803279382E-002   5.4986966932044634E-003   6.2811285675462902E-002
  -1.7828177199219263E-002   5.2167444656298634E-003   6.2452612948271147E-002
  -1.6965555595159137E-002   4.9314166804949322E-003   6.2323591595859484E-002
  -1.6102933991099012E-002   4.6427133377994270E-003   6.2424221618228082E-002
  -1.5240312387038893E-002   4.3506344375433548E-003   6.2754503015376883E-002
   8.7979311336194854E-011  -5.3610782480006947E-011   6.6357106358857165E-002
   6.1060122236167302E-011  -3.7218783610626360E-011   6.6344136793226927E-002
   3.4140926197245847E-011  -2.3724272546488123E-011   6.6556154486777708E-002
   7.2217405666652468E-012  -1.3126895404003136E-011   6.6993159439508898E-002
  -1.9697458941703161E-011  -5.4269921889726902E-012   6.7655151651420886E-002
  -3.7415452970650416E-003   1.0876585691778629E-003   6.5566618034315960E-002
  -3.5180905268781086E-003   1.0128023372333872E-003   6.5505012940456631E-002
  -3.2946357566911669E-003   9.3511695415740559E-004   6.5665330181628706E-002
  -3.0711809865042305E-003   8.5460241994925884E-004   6.6047569757832436E-002
  -2.8477262163172923E-003   7.7125873460975880E-004   6.6651731669067737E-002
  -7.5287791712495260E-003   2.1753171919663417E-003   6.4702688035555483E-002
  -7.0849345281055968E-003   2.0256047116856135E-003   6.4589618265232435E-002
  -6.6410898849616675E-003   1.8702339320385980E-003   6.4695405905791745E-002
  -6.1972452418177443E-003   1.7092048530255831E-003   6.5020050957233538E-002
  -5.7534005986738090E-003   1.5425174746465098E-003   6.5563553419557802E-002
  -1.1361701534574137E-002   3.2629758147549592E-003   6.3765316362575819E-002
  -1.0700531942622360E-002   3.0384070861375345E-003   6.3597952767554672E-002
  -1.0039362350670584E-002   2.8053509099200333E-003   6.3646381659267018E-002
  -9.3781927587188105E-003   2.5638072861018223E-003   6.3910603037712579E-002
  -8.7170231667670246E-003   2.3137762146832608E-003   6.4390616902891218E-002
  -1.5240312387038893E-002   4.3506344375433548E-003   6.2754503015376883E-002
  -1.4364882770428411E-002   4.0512094605898441E-003   6.2530016447423453E-002
  -1.3489453153817908E-002   3.7404678878014408E-003   6.2518257442054193E-002
  -1.2614023537207406E-002   3.4184097191781657E-003   6.2719225999269018E-002
  -1.1738593920596924E-002   3.0850349547201228E-003   6.3132922119068180E-002
  -1.9697458941703161E-011  -5.4269921889726902E-012   6.7655151651420886E-002
  -1.7717993738841642E-011  -1.0091927293842673E-013   6.7731082604731430E-002
  -1.5738521597086219E-011   3.3752445283141697E-012   6.8040879404837440E-002
  -1.3759058128948176E-011   5.0017628927534474E-012   6.8584542051738362E-002
  -1.1779584252469277E-011   4.7778447864743612E-012   6.9362070545434529E-002
  -2.8477262163172923E-003   7.7125873460975880E-004   6.6651731669067737E-002
  -2.6120103791073788E-003   6.8890001495697240E-004   6.6673963965404925E-002
  -2.3762945418974567E-003   6.1134037780981310E-004   6.6933762085407938E-002
  -2.1405787046875338E-003   5.3857982316867295E-004   6.7431126029076832E-002
  -1.9048628674776212E-003   4.7061835103345828E-004   6.8166055796411384E-002
  -5.7534005986738090E-003   1.5425174746465098E-003   6.5563553419557802E-002
  -5.2782689493627820E-003   1.3778000300150306E-003   6.5536886143277309E-002
  -4.8031373000517689E-003   1.2226807522448258E-003   6.5751484667533250E-002
  -4.3280056507407350E-003   1.0771596413362491E-003   6.6207348992325651E-002
  -3.8528740014297149E-003   9.4123669728890524E-004   6.6904479117654264E-002
  -8.7170231667670246E-003   2.3137762146832608E-003   6.4390616902891218E-002
  -7.9987757284842378E-003   2.0667000450728945E-003   6.4319849138348595E-002
  -7.2805282902014563E-003   1.8340211266797829E-003   6.4494047151213207E-002
  -6.5622808519186695E-003   1.6157394595034368E-003   6.4913210941484598E-002
  -5.8440334136358896E-003   1.4118550435444910E-003   6.5577340509163376E-002
  -1.1738593920596924E-002   3.0850349547201228E-003   6.3132922119068180E-002
  -1.0773530716471719E-002   2.7556000601310360E-003   6.3022852950619157E-002
  -9.8084675123465206E-003   2.4453615011144070E-003   6.3161449536447756E-002
  -8.8434043082213122E-003   2.1543192776707909E-003   6.3548711876554087E-002
  -7.8783411040961177E-003   1.8824733897998547E-003   6.4184639970938151E-002
  -1.1779584252469277E-011   4.7778447864743612E-012   6.9362070545434529E-002
  -1.0200076894228971E-011   3.8615777242512195E-012   6.9203347197113962E-002
  -8.6205487193069530E-012   3.4100500201361683E-012   6.9259048663696532E-002
  -7.0410205443849350E-012   3.4237335189146734E-012   6.9529174945181543E-002
  -5.4615131861446287E-012   3.9018788200451127E-012   7.0013726041569413E-002
  -1.9048628674776212E-003   4.7061835103345828E-004   6.8166055796411384E-002
  -1.6858529571212658E-003   4.1871751369865207E-004   6.7982430357491075E-002
  -1.4668430467649190E-003   3.9413886345915361E-004   6.8022399921221832E-002
  -1.2478331364085644E-003   3.9688240031534455E-004   6.8285964487603629E-002
  -1.0288232260522306E-003   4.2694812426702367E-004   6.8773124056636326E-002
  -3.8528740014297149E-003   9.4123669728890524E-004   6.6904479117654264E-002
  -3.4056839945483183E-003   8.3743502353539334E-004   6.6723273774765057E-002
  -2.9584939876669339E-003   7.8827772350803516E-004   6.6774833622274904E-002
  -2.5113039807855495E-003   7.9376479720695559E-004   6.7059158660183832E-002
  -2.0641139739041529E-003   8.5389624463189095E-004   6.7576248888491980E-002
  -5.8440334136358896E-003   1.4118550435444910E-003   6.5577340509163376E-002
  -5.1594931224812381E-003   1.2561525333722456E-003   6.5425877448935493E-002
  -4.4749528313266073E-003   1.1824165835567502E-003   6.5516349766855025E-002
  -3.7904125401719557E-003   1.1906471940986776E-003   6.5848757462922014E-002
  -3.1058722490173254E-003   1.2808443649970080E-003   6.6423100537136154E-002
  -7.8783411040961177E-003   1.8824733897998547E-003   6.4184639970938151E-002
  -6.9472803409200284E-003   1.6748700432091534E-003   6.4090241380002633E-002
  -6.0162195777439254E-003   1.5765554436059370E-003   6.4246948354962696E-002
  -5.0851588145678188E-003   1.5875295909900458E-003   6.4654760895818369E-002
  -4.1540980513917330E-003   1.7077924853619031E-003   6.5313679002569236E-002
  -5.4615131861446287E-012   3.9018788200451127E-012   7.0013726041569413E-002
  -4.9153597858619946E-012   4.6178061374746449E-012   6.8673223129312566E-002
  -4.3691994466854567E-012   5.3450299741797380E-012   6.7479009346339769E-002
  -3.8230443116793467E-012   6.0822388792125537E-012   6.6431084692651104E-002
  -3.2768857072262847E-012   6.8307581813087381E-012   6.5529449168246323E-002
  -1.0288232260522306E-003   4.2694812426702367E-004   6.8773124056636326E-002
  -8.8600636937858843E-004   4.9981768837953355E-004   6.7451824090580426E-002
  -7.4318951270495662E-004   6.3097274571874418E-004   6.6269868707495599E-002
  -6.0037265603132481E-004   8.2041329628467635E-004   6.5227257907381750E-002
  -4.5755579935768259E-004   1.0681393400767680E-003   6.4323991690238946E-002
  -2.0641139739041529E-003   8.5389624463189095E-004   6.7576248888491980E-002
  -1.7854248074161052E-003   9.9963537214117770E-004   6.6332437361852681E-002
  -1.5067356409280436E-003   1.2619454860929163E-003   6.5221025871871521E-002
  -1.2280464744399851E-003   1.6408265864868952E-003   6.4242014418548432E-002
  -9.4935730795193442E-004   2.1362786733231109E-003   6.3395403001882844E-002
  -3.1058722490173254E-003   1.2808443649970080E-003   6.6423100537136154E-002
  -2.6982553190278854E-003   1.4994530559028635E-003   6.5315062943129637E-002
  -2.2906383890384523E-003   1.8929182264667485E-003   6.4332480839467895E-002
  -1.8830214590490053E-003   2.4612398766890014E-003   6.3475354226151026E-002
  -1.4754045290595792E-003   3.2044180065693983E-003   6.2743683103179057E-002
  -4.1540980513917330E-003   1.7077924853619031E-003   6.5313679002569236E-002
  -3.6244979042139788E-003   1.9992707396646048E-003   6.4399700834411044E-002
  -3.0948977570361899E-003   2.5238909668410803E-003   6.3604233610284500E-002
  -2.5652976098584288E-003   3.2816531668915100E-003   6.2927277330189713E-002
  -2.0356974626806468E-003   4.2725573398154637E-003   6.2368831994126905E-002
  -3.2768857072262847E-012   6.8307581813087381E-012   6.5529449168246323E-002
  -3.3043220937223339E-012   7.7970963019424744E-012   6.0793914896363432E-002
  -3.3317411329836233E-012   9.1875951291342517E-012   5.5938409136720657E-002
  -3.3591636416918647E-012   1.1002712629881728E-011   5.0962931889317942E-002
  -3.3865965587409619E-012   1.3242740237728867E-011   4.5867483154155675E-002
  -4.5755579935768259E-004   1.0681393400767680E-003   6.4323991690238946E-002
  -5.6315874354442158E-004   1.3940178550266302E-003   5.9617589974199470E-002
  -6.6876168773115016E-004   1.8179158190645417E-003   5.4819953857601411E-002
  -7.7436463191788568E-004   2.3398332321902249E-003   4.9931083340444771E-002
  -8.7996757610463161E-004   2.9597700944044014E-003   4.4950978422729104E-002
  -9.4935730795193442E-004   2.1362786733231109E-003   6.3395403001882844E-002
  -1.1318261090967462E-003   2.7880357022563862E-003   5.8816153290350531E-002
  -1.3142949102415693E-003   3.6358316289414605E-003   5.4174406265460801E-002
  -1.4967637113864072E-003   4.6796664533778967E-003   4.9470161927213110E-002
  -1.6792325125312181E-003   5.9195401755660626E-003   4.4703420275609029E-002
  -1.4754045290595792E-003   3.2044180065693983E-003   6.2743683103179057E-002
  -1.7060020999613026E-003   4.1820535494862532E-003   5.8389604844817464E-002
  -1.9365996708629975E-003   5.4537474388180601E-003   5.4001766360299137E-002
  -2.1671972417647272E-003   7.0194996745655998E-003   4.9580167649624460E-002
  -2.3977948126664159E-003   8.8793102567276128E-003   4.5124808712794118E-002
  -2.0356974626806468E-003   4.2725573398154637E-003   6.2368831994126905E-002
  -2.2856867161380467E-003   5.5760713967155651E-003   5.8337944637599226E-002
  -2.5356759695954398E-003   7.2716632486952704E-003   5.4302034142116540E-002
  -2.7856652230528502E-003   9.3593328957530114E-003   5.0261100507678180E-002
  -3.0356544765102328E-003   1.1839080337889385E-002   4.6215143734285924E-002
  -2.4664373382836113E-002   7.3544184270538104E-003   6.6195067974308075E-002
  -2.3909709427285097E-002   7.1624787199262296E-003   6.5004588266686036E-002
  -2.3155045471734054E-002   6.9594963517604358E-003   6.4193097237308094E-002
  -2.2400381516183024E-002   6.7454713225567273E-003   6.3760594886174277E-002
  -2.1645717560631994E-002   6.5204036323148196E-003   6.3707081213284722E-002
  -3.1798849158567621E-002   9.1660187505167023E-003   6.1707737763397247E-002
  -3.0690993492914480E-002   8.9615885085362612E-003   6.0810190999558505E-002
  -2.9583137827261359E-002   8.7297228763587031E-003   6.0240038977679808E-002
  -2.8475282161608259E-002   8.4704218539843196E-003   5.9997281697761022E-002
  -2.7367426495955124E-002   8.1836854414129023E-003   6.0081919159802266E-002
  -3.8595355996756238E-002   1.0977619073979705E-002   5.7216113382213163E-002
  -3.7185902557285141E-002   1.0760698297146307E-002   5.6595106832998704E-002
  -3.5776449117814114E-002   1.0499949400957012E-002   5.6249901089460222E-002
  -3.4366995678343039E-002   1.0195372385411832E-002   5.6180496151597530E-002
  -3.2957542238871998E-002   9.8469672505109018E-003   5.6386892019410786E-002
  -4.5053893897401928E-002   1.2789219397442653E-002   5.2720194830755428E-002
  -4.3394436620397110E-002   1.2559808085756317E-002   5.2359335767006479E-002
  -4.1734979343392237E-002   1.2270175925555245E-002   5.2222683572649364E-002
  -4.0075522066387398E-002   1.1920322916839523E-002   5.2310238247683959E-002
  -3.8416064789382531E-002   1.1510249059608943E-002   5.2621999792110311E-002
  -5.1174462860504782E-002   1.4600819720905600E-002   4.8219982109024284E-002
  -4.9316595682250303E-002   1.4358917874366384E-002   4.8102877801582122E-002
  -4.7458728503995809E-002   1.4040402450153547E-002   4.8158386427247429E-002
  -4.5600861325741295E-002   1.3645273448266982E-002   4.8386507986020330E-002
  -4.3742994147486808E-002   1.3173530868706984E-002   4.8787242477900894E-002
  -2.1645717560631994E-002   6.5204036323148196E-003   6.3707081213284722E-002
  -2.0906987871293841E-002   6.2836051830496842E-003   6.3120340478065307E-002
  -2.0168258181955688E-002   6.0343878767764730E-003   6.2775460976688485E-002
  -1.9429528492617528E-002   5.7727517134946206E-003   6.2672442709154438E-002
  -1.8690798803279382E-002   5.4986966932044634E-003   6.2811285675462902E-002
  -2.7367426495955124E-002   8.1836854414129023E-003   6.0081919159802266E-002
  -2.6399012706599952E-002   7.8790132745652636E-003   5.9604166995481531E-002
  -2.5430598917244744E-002   7.5659049893620073E-003   5.9343921797352220E-002
  -2.4462185127889557E-002   7.2443605858033451E-003   5.9301183565414382E-002
  -2.3493771338534360E-002   6.9143800638892250E-003   5.9475952299667845E-002
  -3.2957542238871998E-002   9.8469672505109018E-003   5.6386892019410786E-002
  -3.1783798617151013E-002   9.4744213660807181E-003   5.6022111164641591E-002
  -3.0610054995430028E-002   9.0974221019478677E-003   5.5850483008412673E-002
  -2.9436311373709043E-002   8.7159694581122344E-003   5.5872007550723884E-002
  -2.8262567751988061E-002   8.3300634345739866E-003   5.6086684791575220E-002
  -3.8416064789382531E-002   1.1510249059608943E-002   5.2621999792110311E-002
  -3.7061345602947035E-002   1.1069829457596207E-002   5.2374172985545572E-002
  -3.5706626416511518E-002   1.0628939214533620E-002   5.2295144609869733E-002
  -3.4351907230076022E-002   1.0187578330421096E-002   5.2384914665082806E-002
  -3.2997188043640512E-002   9.7457468052587481E-003   5.2643483151184771E-002
  -4.3742994147486808E-002   1.3173530868706984E-002   4.8787242477900894E-002
  -4.2231653663988011E-002   1.2665237549111780E-002   4.8660352458193362E-002
  -4.0720313180489243E-002   1.2160456327119290E-002   4.8677906601723525E-002
  -3.9208972696990453E-002   1.1659187202729827E-002   4.8839904908491341E-002
  -3.7697632213491677E-002   1.1161430175943510E-002   4.9146347378496824E-002
  -1.8690798803279382E-002   5.4986966932044634E-003   6.2811285675462902E-002
  -1.7828177199219263E-002   5.2167444656298634E-003   6.2452612948271147E-002
  -1.6965555595159137E-002   4.9314166804949322E-003   6.2323591595859484E-002
  -1.6102933991099012E-002   4.6427133377994270E-003   6.2424221618228082E-002
  -1.5240312387038893E-002   4.3506344375433548E-003   6.2754503015376883E-002
  -2.3493771338534360E-002   6.9143800638892250E-003   5.9475952299667845E-002
  -2.2406822194271168E-002   6.5764294968905235E-003   5.9140692095013297E-002
  -2.1319873050007987E-002   6.2309749580788110E-003   5.9024435595984609E-002
  -2.0232923905744823E-002   5.8780164474535115E-003   5.9127182802581849E-002
  -1.9145974761481610E-002   5.5175539650147432E-003   5.9448933714805141E-002
  -2.8262567751988061E-002   8.3300634345739866E-003   5.6086684791575220E-002
  -2.6961938736676079E-002   7.9361145281512113E-003   5.5770708695204924E-002
  -2.5661309721364080E-002   7.5305332356623983E-003   5.5663088635306321E-002
  -2.4360680706052077E-002   7.1133195571073150E-003   5.5763824611879544E-002
  -2.3060051690740130E-002   6.6844734924860760E-003   5.6072916624924224E-002
  -3.2997188043640512E-002   9.7457468052587481E-003   5.2643483151184771E-002
  -3.1493526826433957E-002   9.2957995594119408E-003   5.2342662748846074E-002
  -2.9989865609227451E-002   8.8300915132460481E-003   5.2239550713824814E-002
  -2.8486204392020931E-002   8.3486226667612590E-003   5.2334147046120903E-002
  -2.6982543174814390E-002   7.8513930199573811E-003   5.2626451745734402E-002
  -3.7697632213491677E-002   1.1161430175943510E-002   4.9146347378496824E-002
  -3.6001586463544885E-002   1.0655484590672559E-002   4.8856554255936713E-002
  -3.4305540713598065E-002   1.0129649790829864E-002   4.8753821831539812E-002
  -3.2609494963651245E-002   9.5839257764152030E-003   4.8838150105306011E-002
  -3.0913449213704453E-002   9.0183125474286863E-003   4.9109539077235365E-002
  -1.5240312387038893E-002   4.3506344375433548E-003   6.2754503015376883E-002
  -1.4364882770428411E-002   4.0512094605898441E-003   6.2530016447423453E-002
  -1.3489453153817908E-002   3.7404678878014408E-003   6.2518257442054193E-002
  -1.2614023537207406E-002   3.4184097191781657E-003   6.2719225999269018E-002
  -1.1738593920596924E-002   3.0850349547201228E-003   6.3132922119068180E-002
  -1.9145974761481610E-002   5.5175539650147432E-003   5.9448933714805141E-002
  -1.8061449868084587E-002   5.1488897635569297E-003   5.9202292275208401E-002
  -1.6976924974687571E-002   4.7713260958738013E-003   5.9161113826600525E-002
  -1.5892400081290527E-002   4.3848629619656007E-003   5.9325398368981583E-002
  -1.4807875187893504E-002   3.9895003618326541E-003   5.9695145902351421E-002
  -2.3060051690740130E-002   6.6844734924860760E-003   5.6072916624924224E-002
  -2.1773696092151781E-002   6.2465700665238766E-003   5.5806537443293724E-002
  -2.0487340493563468E-002   5.8021843039463977E-003   5.5738356681057075E-002
  -1.9200984894975133E-002   5.3513162047534278E-003   5.5868374338213976E-002
  -1.7914629296386833E-002   4.8939657689450189E-003   5.6196590414764713E-002
  -2.6982543174814390E-002   7.8513930199573811E-003   5.2626451745734402E-002
  -2.5501621442630015E-002   7.3442503694910038E-003   5.2342751951680054E-002
  -2.4020699710445625E-002   6.8330425120188762E-003   5.2249986005423979E-002
  -2.2539777978261240E-002   6.3177694475412254E-003   5.2348153906966441E-002
  -2.1058856246076865E-002   5.7984311760574669E-003   5.2637255656307280E-002
  -3.0913449213704453E-002   9.0183125474286863E-003   4.9109539077235365E-002
  -2.9245225919519252E-002   8.4419306724579646E-003   4.8810935800366606E-002
  -2.7577002625334038E-002   7.8639007200914102E-003   4.8696001799701127E-002
  -2.5908779331148830E-002   7.2842226903286483E-003   4.8764737075238845E-002
  -2.4240556036963623E-002   6.7028965831700260E-003   4.9017141626979677E-002
  -1.1738593920596924E-002   3.0850349547201228E-003   6.3132922119068180E-002
  -1.0773530716471719E-002   2.7556000601310360E-003   6.3022852950619157E-002
  -9.8084675123465206E-003   2.4453615011144070E-003   6.3161449536447756E-002
  -8.8434043082213122E-003   2.1543192776707909E-003   6.3548711876554087E-002
  -7.8783411040961177E-003   1.8824733897998547E-003   6.4184639970938151E-002
  -1.4807875187893504E-002   3.9895003618326541E-003   5.9695145902351421E-002
  -1.3604320881141978E-002   3.5953212235699250E-003   5.9552660603823970E-002
  -1.2400766574390477E-002   3.2124084752739868E-003   5.9638491756271311E-002
  -1.1197212267638947E-002   2.8407621169444369E-003   5.9952639359693402E-002
  -9.9936579608874247E-003   2.4803821485817057E-003   6.0495103414090645E-002
  -1.7914629296386833E-002   4.8939657689450189E-003   5.6196590414764713E-002
  -1.6492933190311820E-002   4.4350423870090083E-003   5.6013759040552280E-002
  -1.5071237084236818E-002   3.9794554494333445E-003   5.6038894814012086E-002
  -1.3649540978161824E-002   3.5272049562180829E-003   5.6271997735143783E-002
  -1.2227844872086804E-002   3.0782909073631681E-003   5.6713067803947637E-002
  -2.1058856246076865E-002   5.7984311760574669E-003   5.2637255656307280E-002
  -1.9439367643981204E-002   5.2747635504480500E-003   5.2406148260804086E-002
  -1.7819879041885554E-002   4.7465024235928688E-003   5.2362658709670135E-002
  -1.6200390439789904E-002   4.2136477954918955E-003   5.2506787002905300E-002
  -1.4580901837694244E-002   3.6761996661447138E-003   5.2838533140509812E-002
  -2.4240556036963623E-002   6.7028965831700260E-003   4.9017141626979677E-002
  -2.2443624242150170E-002   6.1144847138870917E-003   4.8729828264579500E-002
  -2.0646692447336676E-002   5.5135493977520877E-003   4.8609783443245458E-002
  -1.8849760652523195E-002   4.9000906347654374E-003   4.8657007162977939E-002
  -1.7052828857709729E-002   4.2741084249264816E-003   4.8871499423776887E-002
  -7.8783411040961177E-003   1.8824733897998547E-003   6.4184639970938151E-002
  -6.9472803409200284E-003   1.6748700432091534E-003   6.4090241380002633E-002
  -6.0162195777439254E-003   1.5765554436059370E-003   6.4246948354962696E-002
  -5.0851588145678188E-003   1.5875295909900458E-003   6.4654760895818369E-002
  -4.1540980513917330E-003   1.7077924853619031E-003   6.5313679002569236E-002
  -9.9936579608874247E-003   2.4803821485817057E-003   6.0495103414090645E-002
  -8.8111536971654525E-003   2.1816349614706687E-003   6.0392816663159987E-002
  -7.6286494334434785E-003   1.9948869468974784E-003   6.0542311347425409E-002
  -6.4461451697214915E-003   1.9201381048624261E-003   6.0943587466887258E-002
  -5.2636409059995323E-003   1.9573884353654147E-003   6.1596645021544993E-002
  -1.2227844872086804E-002   3.0782909073631681E-003   5.6713067803947637E-002
  -1.0793221238518325E-002   2.6883998797324338E-003   5.6605603318572395E-002
  -9.3585976049498712E-003   2.4132184501897830E-003   5.6750596137693773E-002
  -7.9239739713813893E-003   2.2527466187352470E-003   5.7148046261311987E-002
  -6.4893503378129387E-003   2.2069843853688154E-003   5.7797953689426973E-002
  -1.4580901837694244E-002   3.6761996661447138E-003   5.2838533140509812E-002
  -1.2893482964978662E-002   3.1951647979939629E-003   5.2728601346240078E-002
  -1.1206064092263076E-002   2.8315499534817060E-003   5.2871802725767414E-002
  -9.5186452195474766E-003   2.5853551326075145E-003   5.3268137279092485E-002
  -7.8312263468319054E-003   2.4565803353724380E-003   5.3917605006214606E-002
  -1.7052828857709729E-002   4.2741084249264816E-003   4.8871499423776887E-002
  -1.5111938876546410E-002   3.7019297162557141E-003   4.8761810746162704E-002
  -1.3171048895383106E-002   3.2498814567736289E-003   4.8905931111646594E-002
  -1.1230158914219794E-002   2.9179636464802261E-003   4.9303860520228726E-002
  -9.2892689330564826E-003   2.7061762853756166E-003   4.9955598971908710E-002
  -4.1540980513917330E-003   1.7077924853619031E-003   6.5313679002569236E-002
  -3.6244979042139788E-003   1.9992707396646048E-003   6.4399700834411044E-002
  -3.0948977570361899E-003   2.5238909668410803E-003   6.3604233610284500E-002
  -2.5652976098584288E-003   3.2816531668915100E-003   6.2927277330189713E-002
  -2.0356974626806468E-003   4.2725573398154637E-003   6.2368831994126905E-002
  -5.2636409059995323E-003   1.9573884353654147E-003   6.1596645021544993E-002
  -4.5894094139643897E-003   2.2137705786610118E-003   6.0872323889967828E-002
  -3.9151779219292505E-003   2.7964171750051170E-003   6.0318754504073452E-002
  -3.2409464298941062E-003   3.7053282243972030E-003   5.9935936863861880E-002
  -2.5667149378589722E-003   4.9405037268375196E-003   5.9723870969333293E-002
  -6.4893503378129387E-003   2.2069843853688154E-003   5.7797953689426973E-002
  -5.6182466992692852E-003   2.4282704176577241E-003   5.7356412074605095E-002
  -4.7471430607256750E-003   3.0689433831691260E-003   5.7137863007117040E-002
  -3.8760394221820510E-003   4.1290032819030001E-003   5.7142306486963071E-002
  -3.0049357836384114E-003   5.6084501138595755E-003   5.7369742514143340E-002
  -7.8312263468319054E-003   2.4565803353724380E-003   5.3917605006214606E-002
  -6.7110097601286601E-003   2.6427702566542838E-003   5.3851965388322529E-002
  -5.5907931734253897E-003   3.3414695913330933E-003   5.4061559119415230E-002
  -4.4705765867221400E-003   4.5526783394089672E-003   5.4546386199493299E-002
  -3.3503600000188757E-003   6.2763965008816314E-003   5.5306446628556535E-002
  -9.2892689330564826E-003   2.7061762853756166E-003   4.9955598971908710E-002
  -7.8676985965424884E-003   2.8572700956508434E-003   5.0358983831120252E-002
  -6.4461282600284664E-003   3.6139957994972827E-003   5.1089842840968236E-002
  -5.0245579235144652E-003   4.9763533969146845E-003   5.2148176001452440E-002
  -3.6029875870004502E-003   6.9443428879035762E-003   5.3533983312572864E-002
  -2.0356974626806468E-003   4.2725573398154637E-003   6.2368831994126905E-002
  -2.2856867161380467E-003   5.5760713967155651E-003   5.8337944637599226E-002
  -2.5356759695954398E-003   7.2716632486952704E-003   5.4302034142116540E-002
  -2.7856652230528502E-003   9.3593328957530114E-003   5.0261100507678180E-002
  -3.0356544765102328E-003   1.1839080337889385E-002   4.6215143734285924E-002
  -2.5667149378589722E-003   4.9405037268375196E-003   5.9723870969333293E-002
  -2.8393087047979340E-003   6.5654367194175056E-003   5.6190863028832805E-002
  -3.1119024717368715E-003   8.6436202392280448E-003   5.2617669200324624E-002
  -3.3844962386757778E-003   1.1175054286269664E-002   4.9004289483808222E-002
  -3.6570900056147673E-003   1.4159738860542337E-002   4.5350723879283183E-002
  -3.0049357836384114E-003   5.6084501138595755E-003   5.7369742514143340E-002
  -3.3352968131118294E-003   7.5548020421187245E-003   5.4395786721822381E-002
  -3.6656578425852196E-003   1.0015577229760958E-002   5.1346482292440071E-002
  -3.9960188720586072E-003   1.2990775676786602E-002   4.8221829225996951E-002
  -4.3263799015320521E-003   1.6480397383194845E-002   4.5021827522493063E-002
  -3.3503600000188757E-003   6.2763965008816314E-003   5.5306446628556535E-002
  -3.7736510410797224E-003   8.5441673648204153E-003   5.2952715716566956E-002
  -4.1969420821405690E-003   1.1387534220294024E-002   5.0488473418463749E-002
  -4.6202331232013932E-003   1.4806497067303286E-002   4.7913719734246227E-002
  -5.0435241642622624E-003   1.8801055905847686E-002   4.5228454663915646E-002
  -3.6029875870004502E-003   6.9443428879035762E-003   5.3533983312572864E-002
  -4.1543713887016442E-003   9.5335326875216619E-003   5.1861650013067195E-002
  -4.7057551904028383E-003   1.2759491210826840E-002   5.0043642578395053E-002
  -5.2571389921040393E-003   1.6622218457820241E-002   4.8079961008555577E-002
  -5.8085227938052264E-003   2.1121714428500304E-002   4.5970605303549572E-002
  -5.1174462860504782E-002   1.4600819720905600E-002   4.8219982109024284E-002
  -4.9316595682250303E-002   1.4358917874366384E-002   4.8102877801582122E-002
  -4.7458728503995809E-002   1.4040402450153547E-002   4.8158386427247429E-002
  -4.5600861325741295E-002   1.3645273448266982E-002   4.8386507986020330E-002
  -4.3742994147486808E-002   1.3173530868706984E-002   4.8787242477900894E-002
  -5.7216300730607295E-002   1.7311649763254722E-002   4.4034145000913016E-002
  -5.5172043489807740E-002   1.6660860106574915E-002   4.3725266831893456E-002
  -5.3127786249008199E-002   1.6036595548623606E-002   4.3616555854856548E-002
  -5.1083529008208589E-002   1.5438856089400967E-002   4.3708012069802224E-002
  -4.9039271767409028E-002   1.4867641728906783E-002   4.3999635476730498E-002
  -6.3438645352252104E-002   2.0022479805603788E-002   3.9387850744459954E-002
  -6.1180443790032492E-002   1.8962802338783336E-002   3.8990337390265431E-002
  -5.8922242227812824E-002   1.8032788647093657E-002   3.8820545486928280E-002
  -5.6664040665593177E-002   1.7232438730534781E-002   3.8878475034448828E-002
  -5.4405839103373523E-002   1.6561752589106582E-002   3.9164126032826999E-002
  -6.9841496725439267E-002   2.2733309847952868E-002   3.4281099339665305E-002
  -6.7341796582924510E-002   2.1264744570991839E-002   3.3898089476697757E-002
  -6.4842096440409738E-002   2.0028981745563740E-002   3.3770355323462897E-002
  -6.2342396297894967E-002   1.9026021371668599E-002   3.3897896879960344E-002
  -5.9842696155380286E-002   1.8255863449306381E-002   3.4280714146190716E-002
  -7.6424854850168700E-002   2.5444139890301976E-002   2.8713890786528973E-002
  -7.3656101868483814E-002   2.3566686803200287E-002   2.8448523091190669E-002
  -7.0887348886798929E-002   2.2025174844033768E-002   2.8465985364459934E-002
  -6.8118595905114085E-002   2.0819604012802487E-002   2.8766277606336765E-002
  -6.5349842923429186E-002   1.9949974309506124E-002   2.9349399816821276E-002
  -4.3742994147486808E-002   1.3173530868706984E-002   4.8787242477900894E-002
  -4.2231653663988011E-002   1.2665237549111780E-002   4.8660352458193362E-002
  -4.0720313180489243E-002   1.2160456327119290E-002   4.8677906601723525E-002
  -3.9208972696990453E-002   1.1659187202729827E-002   4.8839904908491341E-002
  -3.7697632213491677E-002   1.1161430175943510E-002   4.9146347378496824E-002
  -4.9039271767409028E-002   1.4867641728906783E-002   4.3999635476730498E-002
  -4.7375574544375805E-002   1.4309194961807242E-002   4.3811629410109243E-002
  -4.5711877321342548E-002   1.3749758282767970E-002   4.3783892659319298E-002
  -4.4048180098309297E-002   1.3189331691789081E-002   4.3916425224360615E-002
  -4.2384482875276061E-002   1.2627915188870686E-002   4.4209227105233173E-002
  -5.4405839103373523E-002   1.6561752589106582E-002   3.9164126032826999E-002
  -5.2573959988212154E-002   1.5953152374502802E-002   3.8910501909749491E-002
  -5.0742080873050807E-002   1.5339060238416649E-002   3.8832972255096854E-002
  -4.8910201757889432E-002   1.4719476180848335E-002   3.8931537068869204E-002
  -4.7078322642728085E-002   1.4094400201797808E-002   3.9206196351066425E-002
  -5.9842696155380286E-002   1.8255863449306381E-002   3.4280714146190716E-002
  -5.7826809995497171E-002   1.7597109787198202E-002   3.3956969957114211E-002
  -5.5810923835614042E-002   1.6928362194065329E-002   3.3825145389056177E-002
  -5.3795037675730926E-002   1.6249620669907476E-002   3.3885240442016920E-002
  -5.1779151515847818E-002   1.5560885214724957E-002   3.4137255115996072E-002
  -6.5349842923429186E-002   1.9949974309506124E-002   2.9349399816821276E-002
  -6.3134124566230701E-002   1.9241067199893852E-002   2.8951033552203298E-002
  -6.0918406209032244E-002   1.8517664149714036E-002   2.8760412061197560E-002
  -5.8702687851833760E-002   1.7779765158966711E-002   2.8777535343804034E-002
  -5.6486969494635275E-002   1.7027370227652106E-002   2.9002403400022581E-002
  -3.7697632213491677E-002   1.1161430175943510E-002   4.9146347378496824E-002
  -3.6001586463544885E-002   1.0655484590672559E-002   4.8856554255936713E-002
  -3.4305540713598065E-002   1.0129649790829864E-002   4.8753821831539812E-002
  -3.2609494963651245E-002   9.5839257764152030E-003   4.8838150105306011E-002
  -3.0913449213704453E-002   9.0183125474286863E-003   4.9109539077235365E-002
  -4.2384482875276061E-002   1.2627915188870686E-002   4.4209227105233173E-002
  -4.0502773327748133E-002   1.2060102468920281E-002   4.3895202108075404E-002
  -3.8621063780220247E-002   1.1480487226845915E-002   4.3765444007916626E-002
  -3.6739354232692326E-002   1.0889069462647200E-002   4.3819952804756937E-002
  -3.4857644685164432E-002   1.0285849176324413E-002   4.4058728498596378E-002
  -4.7078322642728085E-002   1.4094400201797808E-002   3.9206196351066425E-002
  -4.5013743098783199E-002   1.3464720347168002E-002   3.8876026171758546E-002
  -4.2949163554838285E-002   1.2831324662861798E-002   3.8727329088285606E-002
  -4.0884584010893399E-002   1.2194213148879141E-002   3.8760105100647702E-002
  -3.8820004466948492E-002   1.1553385805220084E-002   3.8974354208844653E-002
  -5.1779151515847818E-002   1.5560885214724957E-002   3.4137255115996072E-002
  -4.9534495776650055E-002   1.4869338225415779E-002   3.3799026446986118E-002
  -4.7289840037452194E-002   1.4182162098877765E-002   3.3639477072646806E-002
  -4.5045184298254416E-002   1.3499356835111276E-002   3.3658606992978471E-002
  -4.2800528559056576E-002   1.2820922434115783E-002   3.3856416207981119E-002
  -5.6486969494635275E-002   1.7027370227652106E-002   2.9002403400022581E-002
  -5.4065031361348659E-002   1.6273956103663390E-002   2.8664202933757932E-002
  -5.1643093228062015E-002   1.5532999534893691E-002   2.8501887961000144E-002
  -4.9221155094775371E-002   1.4804500521343095E-002   2.8515458481748954E-002
  -4.6799216961488754E-002   1.4088459063011538E-002   2.8704914496004708E-002
  -3.0913449213704453E-002   9.0183125474286863E-003   4.9109539077235365E-002
  -2.9245225919519252E-002   8.4419306724579646E-003   4.8810935800366606E-002
  -2.7577002625334038E-002   7.8639007200914102E-003   4.8696001799701127E-002
  -2.5908779331148830E-002   7.2842226903286483E-003   4.8764737075238845E-002
  -2.4240556036963623E-002   6.7028965831700260E-003   4.9017141626979677E-002
  -3.4857644685164432E-002   1.0285849176324413E-002   4.4058728498596378E-002
  -3.3012324486837136E-002   9.6725021305062442E-003   4.3730339002211238E-002
  -3.1167004288509846E-002   9.0507040878219230E-003   4.3572474037907122E-002
  -2.9321684090182567E-002   8.4204550482712380E-003   4.3585133605683890E-002
  -2.7476363891855246E-002   7.7817550118545187E-003   4.3768317705541682E-002
  -3.8820004466948492E-002   1.1553385805220084E-002   3.8974354208844653E-002
  -3.6810732108601335E-002   1.0903073588554607E-002   3.8609375573473034E-002
  -3.4801459750254199E-002   1.0237507455552547E-002   3.8401776726060086E-002
  -3.2792187391907021E-002   9.5566874062138277E-003   3.8351557666605987E-002
  -3.0782915033559913E-002   8.8606134405388448E-003   3.8458718395110364E-002
  -4.2800528559056576E-002   1.2820922434115783E-002   3.3856416207981119E-002
  -4.0640448784811850E-002   1.2133645046602817E-002   3.3448045514152452E-002
  -3.8480369010567075E-002   1.1424310823283171E-002   3.3183909864160352E-002
  -3.6320289236322308E-002   1.0692919764156695E-002   3.3064009258004845E-002
  -3.4160209462077568E-002   9.9394718692232542E-003   3.3088343695685675E-002
  -4.6799216961488754E-002   1.4088459063011538E-002   2.8704914496004708E-002
  -4.4501474515468598E-002   1.3364216504651083E-002   2.8246348824249090E-002
  -4.2203732069448496E-002   1.2611114191013614E-002   2.7918873452207865E-002
  -3.9905989623428423E-002   1.1829152122098879E-002   2.7722488379880492E-002
  -3.7608247177408238E-002   1.1018330297907664E-002   2.7657193607267705E-002
  -2.4240556036963623E-002   6.7028965831700260E-003   4.9017141626979677E-002
  -2.2443624242150170E-002   6.1144847138870917E-003   4.8729828264579500E-002
  -2.0646692447336676E-002   5.5135493977520877E-003   4.8609783443245458E-002
  -1.8849760652523195E-002   4.9000906347654374E-003   4.8657007162977939E-002
  -1.7052828857709729E-002   4.2741084249264816E-003   4.8871499423776887E-002
  -2.7476363891855246E-002   7.7817550118545187E-003   4.3768317705541682E-002
  -2.5517058139636728E-002   7.1388441592309393E-003   4.3399119431467459E-002
  -2.3557752387418189E-002   6.4959626710599794E-003   4.3187400531136760E-002
  -2.1598446635199629E-002   5.8531105473422149E-003   4.3133161004549891E-002
  -1.9639140882981132E-002   5.2102877880771947E-003   4.3236400851706713E-002
  -3.0782915033559913E-002   8.8606134405388448E-003   3.8458718395110364E-002
  -2.8671024491259054E-002   8.1632036045743983E-003   3.8020188020667034E-002
  -2.6559133948958112E-002   7.4783759443678571E-003   3.7729347852644771E-002
  -2.4447243406657170E-002   6.8061304599189888E-003   3.7586197891043692E-002
  -2.2335352864356256E-002   6.1464671512279079E-003   3.7590738135863500E-002
  -3.4160209462077568E-002   9.9394718692232542E-003   3.3088343695685675E-002
  -3.1905523297016951E-002   9.1875630499179406E-003   3.2593034032178364E-002
  -2.9650837131956390E-002   8.4607892176754088E-003   3.2235625407769350E-002
  -2.7396150966895797E-002   7.7591503724957645E-003   3.2016117822458688E-002
  -2.5141464801835205E-002   7.0826465143786765E-003   3.1934511276246400E-002
  -3.7608247177408238E-002   1.1018330297907664E-002   2.7657193607267705E-002
  -3.5220554556910699E-002   1.0211922495261594E-002   2.7117657466001255E-002
  -3.2832861936413049E-002   9.4432024909832102E-003   2.6706233196510443E-002
  -3.0445169315915427E-002   8.7121702850723806E-003   2.6422920798795518E-002
  -2.8057476695417832E-002   8.0188258775294452E-003   2.6267720272855954E-002
  -1.7052828857709729E-002   4.2741084249264816E-003   4.8871499423776887E-002
  -1.5111938876546410E-002   3.7019297162557141E-003   4.8761810746162704E-002
  -1.3171048895383106E-002   3.2498814567736289E-003   4.8905931111646594E-002
  -1.1230158914219794E-002   2.9179636464802261E-003   4.9303860520228726E-002
  -9.2892689330564826E-003   2.7061762853756166E-003   4.9955598971908710E-002
  -1.9639140882981132E-002   5.2102877880771947E-003   4.3236400851706713E-002
  -1.7482612858998763E-002   4.6046362208314595E-003   4.3075862952097144E-002
  -1.5326084835016358E-002   4.0732976731714388E-003   4.3092792095027588E-002
  -1.3169556811033985E-002   3.6162721450965774E-003   4.3287188280498046E-002
  -1.1013028787051585E-002   3.2335596366077635E-003   4.3659051508508906E-002
  -2.2335352864356256E-002   6.1464671512279079E-003   3.7590738135863500E-002
  -2.0039528798112771E-002   5.5073427254072049E-003   3.7333533584655215E-002
  -1.7743704731869234E-002   4.8967138895690265E-003   3.7177454075429078E-002
  -1.5447880665625689E-002   4.3145806437132617E-003   3.7122499608185089E-002
  -1.3152056599382206E-002   3.7609429878401879E-003   3.7168670182923302E-002
  -2.5141464801835205E-002   7.0826465143786765E-003   3.1934511276246400E-002
  -2.2782686693888499E-002   6.4100492299830059E-003   3.1534822643836460E-002
  -2.0423908585941765E-002   5.7201301059667253E-003   3.1159917052850643E-002
  -1.8065130477995017E-002   5.0128891423296684E-003   3.0809794503289037E-002
  -1.5706352370048325E-002   4.2883263390724735E-003   3.0484454995151733E-002
  -2.8057476695417832E-002   8.0188258775294452E-003   2.6267720272855954E-002
  -2.5712086546325813E-002   7.3127557345588068E-003   2.5679730129641309E-002
  -2.3366696397233863E-002   6.5435463223644519E-003   2.5040181027292774E-002
  -2.1021306248141851E-002   5.7111976409463597E-003   2.4349072965810681E-002
  -1.8675916099049894E-002   4.8157096903047591E-003   2.3606405945194586E-002
  -9.2892689330564826E-003   2.7061762853756166E-003   4.9955598971908710E-002
  -7.8676985965424884E-003   2.8572700956508434E-003   5.0358983831120252E-002
  -6.4461282600284664E-003   3.6139957994972827E-003   5.1089842840968236E-002
  -5.0245579235144652E-003   4.9763533969146845E-003   5.2148176001452440E-002
  -3.6029875870004502E-003   6.9443428879035762E-003   5.3533983312572864E-002
  -1.1013028787051585E-002   3.2335596366077635E-003   4.3659051508508906E-002
  -9.2457797688671045E-003   3.1628016795875458E-003   4.4242986928880512E-002
  -7.4785307506826312E-003   3.6416398059192778E-003   4.5190805561956870E-002
  -5.7112817324981337E-003   4.6700740156024670E-003   4.6502507407737981E-002
  -3.9440327143136777E-003   6.2481043086372035E-003   4.8178092466223732E-002
  -1.3152056599382206E-002   3.7609429878401879E-003   3.7168670182923302E-002
  -1.1002719837458923E-002   3.4683332635244701E-003   3.7877120354235572E-002
  -8.8533830755356188E-003   3.6692838123410509E-003   3.8985862800320931E-002
  -6.7040463136122993E-003   4.3637946342899164E-003   4.0494897521179143E-002
  -4.5547095516890318E-003   5.5518657293708862E-003   4.2404224516810335E-002
  -1.5706352370048325E-002   4.2883263390724735E-003   3.0484454995151733E-002
  -1.3138518802317893E-002   3.7738648474610614E-003   3.1261384107185618E-002
  -1.0570685234587433E-002   3.6969278187629351E-003   3.2475014556060437E-002
  -8.0028516668570158E-003   4.0575152529774214E-003   3.4125346341776767E-002
  -5.4350180991265991E-003   4.8556271501048742E-003   3.6212379464334248E-002
  -1.8675916099049894E-002   4.8157096903047591E-003   2.3606405945194586E-002
  -1.5653176663443985E-002   4.0793964313979858E-003   2.4395778187730088E-002
  -1.2630437227838104E-002   3.7245718251847082E-003   2.5658260829175217E-002
  -9.6076977922321671E-003   3.7512358716650651E-003   2.7393853869529750E-002
  -6.5849583566263137E-003   4.1593885708381961E-003   2.9602557308794131E-002
  -3.6029875870004502E-003   6.9443428879035762E-003   5.3533983312572864E-002
  -4.1543713887016442E-003   9.5335326875216619E-003   5.1861650013067195E-002
  -4.7057551904028383E-003   1.2759491210826840E-002   5.0043642578395053E-002
  -5.2571389921040393E-003   1.6622218457820241E-002   4.8079961008555577E-002
  -5.8085227938052264E-003   2.1121714428500304E-002   4.5970605303549572E-002
  -3.9440327143136777E-003   6.2481043086372035E-003   4.8178092466223732E-002
  -4.5371894942586727E-003   8.6858222312505284E-003   4.7243302563324985E-002
  -5.1303462742036260E-003   1.2293319329669400E-002   4.6370640839105859E-002
  -5.7235030541486070E-003   1.7070595603892992E-002   4.5560107293565855E-002
  -6.3166598340935742E-003   2.3017651053922616E-002   4.4811701926704695E-002
  -4.5547095516890318E-003   5.5518657293708862E-003   4.2404224516810335E-002
  -4.9818369960318437E-003   7.8381117749798390E-003   4.2739988462637157E-002
  -5.4089644403745724E-003   1.1827147448511752E-002   4.3345682900988849E-002
  -5.8360918847173097E-003   1.7518972749966524E-002   4.4221307831866237E-002
  -6.2632193290601129E-003   2.4913587679344484E-002   4.5366863255268619E-002
  -5.4350180991265991E-003   4.8556271501048742E-003   3.6212379464334248E-002
  -5.4883138940211053E-003   6.9904013187091496E-003   3.8351707711003540E-002
  -5.5416096889156401E-003   1.1360975567354208E-002   4.0968768764044053E-002
  -5.5949054838101333E-003   1.7967349896039778E-002   4.4063562623456141E-002
  -5.6482012787045684E-003   2.6809524304766685E-002   4.7636089289239014E-002
  -6.5849583566263137E-003   4.1593885708381961E-003   2.9602557308794131E-002
  -6.0566201882265858E-003   6.1426908624380161E-003   3.4078460308424097E-002
  -5.5282820198268023E-003   1.0894803686196608E-002   3.9239898428271136E-002
  -4.9999438514270189E-003   1.8415727042112903E-002   4.5086871668335859E-002
  -4.4716056830272910E-003   2.8705460930188664E-002   5.1619380028617545E-002
  -7.6424854850168700E-002   2.5444139890301976E-002   2.8713890786528973E-002
  -7.3656101868483814E-002   2.3566686803200287E-002   2.8448523091190669E-002
  -7.0887348886798929E-002   2.2025174844033768E-002   2.8465985364459934E-002
  -6.8118595905114085E-002   2.0819604012802487E-002   2.8766277606336765E-002
  -6.5349842923429186E-002   1.9949974309506124E-002   2.9349399816821276E-002
  -8.2732253607974982E-002   2.3291643865660183E-002   1.9226468655589524E-002
  -7.9757244087664284E-002   2.2932496285358012E-002   1.9730199295804440E-002
  -7.6782234567353558E-002   2.2463900137413603E-002   2.0363613044663359E-002
  -7.3807225047042874E-002   2.1885855421827107E-002   2.1126709902166432E-002
  -7.0832215526732134E-002   2.1198362138598575E-002   2.2019489868313508E-002
  -8.8307226880392733E-002   2.1139147841018446E-002   1.1480046879238065E-002
  -8.5279107681419664E-002   2.2298305767515514E-002   1.2307486159428949E-002
  -8.2250988482446691E-002   2.2902625430793383E-002   1.3111461688300630E-002
  -7.9222869283473676E-002   2.2952106830851755E-002   1.3891973465852442E-002
  -7.6194750084500676E-002   2.2446749967690999E-002   1.4649021492084843E-002
  -9.3149774667421734E-002   1.8986651816376654E-002   5.4746254574746384E-003
  -9.0221692649750079E-002   2.1664115249673266E-002   6.1803836820644338E-003
  -8.7293610632078328E-002   2.3341350724173135E-002   6.7095312953711489E-003
  -8.4365528614406646E-002   2.4018358239876667E-002   7.0620682973946171E-003
  -8.1437446596735019E-002   2.3695137796783380E-002   7.2379946881353553E-003
  -9.7259896969062343E-002   1.6834155791734862E-002   1.2102043902991744E-003
  -9.4584998992655489E-002   2.1029924731830629E-002   1.3488918637106218E-003
  -9.1910101016248635E-002   2.3780076017552970E-002   1.1578218658753747E-003
  -8.9235203039841782E-002   2.5084609648900975E-002   6.3699439679333614E-004
  -8.6560305063434928E-002   2.4943525625875762E-002  -2.1359054353514706E-004
  -6.5349842923429186E-002   1.9949974309506124E-002   2.9349399816821276E-002
  -6.3134124566230701E-002   1.9241067199893852E-002   2.8951033552203298E-002
  -6.0918406209032244E-002   1.8517664149714036E-002   2.8760412061197560E-002
  -5.8702687851833760E-002   1.7779765158966711E-002   2.8777535343804034E-002
  -5.6486969494635275E-002   1.7027370227652106E-002   2.9002403400022581E-002
  -7.0832215526732134E-002   2.1198362138598575E-002   2.2019489868313508E-002
  -6.8420901242033982E-002   2.0454290290791127E-002   2.1719710552075944E-002
  -6.6009586957335914E-002   1.9706509881468263E-002   2.1603378317225141E-002
  -6.3598272672637873E-002   1.8955020910629991E-002   2.1670493163761601E-002
  -6.1186958387939749E-002   1.8199823378276192E-002   2.1921055091684988E-002
  -7.6194750084500676E-002   2.2446749967690999E-002   1.4649021492084843E-002
  -7.3612137564528210E-002   2.1667513381688555E-002   1.4458616503279363E-002
  -7.1029525044555702E-002   2.0895355613222769E-002   1.4427360903635812E-002
  -6.8446912524583181E-002   2.0130276662293212E-002   1.4555254693153968E-002
  -6.5864300004610715E-002   1.9372276528900279E-002   1.4842297871833859E-002
  -8.1437446596735019E-002   2.3695137796783380E-002   7.2379946881353553E-003
  -7.8707833533713273E-002   2.2880736472585962E-002   7.1677514058140403E-003
  -7.5978220470691554E-002   2.2084201344977079E-002   7.2323598204291906E-003
  -7.3248607407669766E-002   2.1305532413956517E-002   7.4318199319811321E-003
  -7.0518994344648089E-002   2.0544729679524310E-002   7.7661317404696464E-003
  -8.6560305063434928E-002   2.4943525625875762E-002  -2.1359054353514706E-004
  -8.3707989149589157E-002   2.4093959563483147E-002  -1.5288474032043586E-004
  -8.0855673235743442E-002   2.3273047076731390E-002   1.8375067605838624E-005
  -7.8003357321897726E-002   2.2480788165619631E-002   3.0018888024322191E-004
  -7.5151041408051955E-002   2.1717182830148340E-002   6.9255669759216154E-004
  -5.6486969494635275E-002   1.7027370227652106E-002   2.9002403400022581E-002
  -5.4065031361348659E-002   1.6273956103663390E-002   2.8664202933757932E-002
  -5.1643093228062015E-002   1.5532999534893691E-002   2.8501887961000144E-002
  -4.9221155094775371E-002   1.4804500521343095E-002   2.8515458481748954E-002
  -4.6799216961488754E-002   1.4088459063011538E-002   2.8704914496004708E-002
  -6.1186958387939749E-002   1.8199823378276192E-002   2.1921055091684988E-002
  -5.8587917016390934E-002   1.7441796368070028E-002   2.1611973227324000E-002
  -5.5988875644842159E-002   1.6681818963674433E-002   2.1481212345980910E-002
  -5.3389834273293357E-002   1.5919891165089586E-002   2.1528772447655040E-002
  -5.0790792901744569E-002   1.5156012972315391E-002   2.1754653532347124E-002
  -6.5864300004610715E-002   1.9372276528900279E-002   1.4842297871833859E-002
  -6.3085719905288967E-002   1.8609636632476695E-002   1.4547926659968541E-002
  -6.0307139805967191E-002   1.7830638392455057E-002   1.4434311920631542E-002
  -5.7528559706645471E-002   1.7035281808836074E-002   1.4501453653822976E-002
  -5.4749979607323654E-002   1.6223566881618995E-002   1.4749351859542612E-002
  -7.0518994344648089E-002   2.0544729679524310E-002   7.7661317404696464E-003
  -6.7558440028042580E-002   1.9777476896883403E-002   7.4720632316912575E-003
  -6.4597885711437014E-002   1.8979457821235685E-002   7.3611866849519151E-003
  -6.1637331394831490E-002   1.8150672452582731E-002   7.4335021002520261E-003
  -5.8676777078225946E-002   1.7291120790922834E-002   7.6890094775910363E-003
  -7.5151041408051955E-002   2.1717182830148340E-002   6.9255669759216154E-004
  -7.2006077384651868E-002   2.0945317161290167E-002   3.8438294249232285E-004
  -6.8861113361251780E-002   2.0128277250016396E-002   2.6183663894241427E-004
  -6.5716149337851748E-002   1.9266063096329160E-002   3.2491778694263007E-004
  -6.2571185314451605E-002   1.8358674700226341E-002   5.7362638649283149E-004
  -4.6799216961488754E-002   1.4088459063011538E-002   2.8704914496004708E-002
  -4.4501474515468598E-002   1.3364216504651083E-002   2.8246348824249090E-002
  -4.2203732069448496E-002   1.2611114191013614E-002   2.7918873452207865E-002
  -3.9905989623428423E-002   1.1829152122098879E-002   2.7722488379880492E-002
  -3.7608247177408238E-002   1.1018330297907664E-002   2.7657193607267705E-002
  -5.0790792901744569E-002   1.5156012972315391E-002   2.1754653532347124E-002
  -4.8354565500580621E-002   1.4388996832894796E-002   2.1319279123507617E-002
  -4.5918338099416769E-002   1.3617655194371137E-002   2.1029784325241496E-002
  -4.3482110698252821E-002   1.2841988056744233E-002   2.0886169137548788E-002
  -4.1045883297088970E-002   1.2061995420014293E-002   2.0888433560429298E-002
  -5.4749979607323654E-002   1.6223566881618995E-002   1.4749351859542612E-002
  -5.2160477940156914E-002   1.5413777161138481E-002   1.4361702969793069E-002
  -4.9570976272990092E-002   1.4624196197728777E-002   1.4134723001475981E-002
  -4.6981474605823345E-002   1.3854823991389422E-002   1.4068411954591405E-002
  -4.4391972938656529E-002   1.3105660542120701E-002   1.4162769829139027E-002
  -5.8676777078225946E-002   1.7291120790922834E-002   7.6890094775910363E-003
  -5.5919211834197270E-002   1.6438557489382680E-002   7.3736203631054702E-003
  -5.3161646590168546E-002   1.5630737201086303E-002   7.2336894809113799E-003
  -5.0404081346139835E-002   1.4867659926034751E-002   7.2692168310086120E-003
  -4.7646516102111139E-002   1.4149325664227386E-002   7.4802024133971065E-003
  -6.2571185314451605E-002   1.8358674700226341E-002   5.7362638649283149E-004
  -5.9630767182701883E-002   1.7463337817625657E-002   3.5503130344444189E-004
  -5.6690349050952105E-002   1.6637278204443801E-002   3.2668376354699769E-004
  -5.3749930919202410E-002   1.5880495860679820E-002   4.8858376680023519E-004
  -5.0809512787452604E-002   1.5192990786333738E-002   8.4073131320372418E-004
  -3.7608247177408238E-002   1.1018330297907664E-002   2.7657193607267705E-002
  -3.5220554556910699E-002   1.0211922495261594E-002   2.7117657466001255E-002
  -3.2832861936413049E-002   9.4432024909832102E-003   2.6706233196510443E-002
  -3.0445169315915427E-002   8.7121702850723806E-003   2.6422920798795518E-002
  -2.8057476695417832E-002   8.0188258775294452E-003   2.6267720272855954E-002
  -4.1045883297088970E-002   1.2061995420014293E-002   2.0888433560429298E-002
  -3.8540559382450656E-002   1.1284858541699583E-002   2.0453825726792108E-002
  -3.6035235467812302E-002   1.0517758679319672E-002   2.0126368609660578E-002
  -3.3529911553173954E-002   9.7606958328738044E-003   1.9906062209034903E-002
  -3.1024587638535633E-002   9.0136700023626393E-003   1.9792906524915055E-002
  -4.4391972938656529E-002   1.3105660542120701E-002   1.4162769829139027E-002
  -4.1789978885147377E-002   1.2357794588137738E-002   1.3805439520697654E-002
  -3.9187984831638260E-002   1.1592314867656009E-002   1.3534298773492312E-002
  -3.6585990778129074E-002   1.0809221380675225E-002   1.3349347587522625E-002
  -3.3983996724619984E-002   1.0008514127195778E-002   1.3250585962788969E-002
  -4.7646516102111139E-002   1.4149325664227386E-002   7.4802024133971065E-003
  -4.4968813065000994E-002   1.3430730634576199E-002   7.1724988477185128E-003
  -4.2291110027890925E-002   1.2666871055992297E-002   6.9300236880056321E-003
  -3.9613406990780899E-002   1.1857746928476980E-002   6.7527769342588962E-003
  -3.6935703953670726E-002   1.1003358252028833E-002   6.6407585864780988E-003
  -5.0809512787452604E-002   1.5192990786333738E-002   8.4073131320372418E-004
  -4.8077061922011444E-002   1.4503666681013772E-002   5.5500370785416253E-004
  -4.5344611056570339E-002   1.3741427244328919E-002   3.1354335320066262E-004
  -4.2612160191129178E-002   1.2906272476278208E-002   1.1635024924322446E-004
  -3.9879709325688073E-002   1.1998202376861888E-002  -3.6575604018262986E-005
  -2.8057476695417832E-002   8.0188258775294452E-003   2.6267720272855954E-002
  -2.5712086546325813E-002   7.3127557345588068E-003   2.5679730129641309E-002
  -2.3366696397233863E-002   6.5435463223644519E-003   2.5040181027292774E-002
  -2.1021306248141851E-002   5.7111976409463597E-003   2.4349072965810681E-002
  -1.8675916099049894E-002   4.8157096903047591E-003   2.3606405945194586E-002
  -3.1024587638535633E-002   9.0136700023626393E-003   1.9792906524915055E-002
  -2.8713451517823146E-002   8.2694825087635260E-003   1.9196173363820790E-002
  -2.6402315397110673E-002   7.5209346730535642E-003   1.8582491105101240E-002
  -2.4091179276398193E-002   6.7680264952335520E-003   1.7951859748756321E-002
  -2.1780043155685769E-002   6.0107579753022611E-003   1.7304279294786173E-002
  -3.3983996724619984E-002   1.0008514127195778E-002   1.3250585962788969E-002
  -3.1672504770778612E-002   9.2262092829680786E-003   1.2703888710928285E-002
  -2.9361012816937340E-002   8.4983230237427737E-003   1.2174852222950894E-002
  -2.7049520863095998E-002   7.8248553495202967E-003   1.1663476498856455E-002
  -2.4738028909254695E-002   7.2058062602996520E-003   1.1169761538644851E-002
  -3.6935703953670726E-002   1.1003358252028833E-002   6.6407585864780988E-003
  -3.4589246305192195E-002   1.0182936057172715E-002   6.2028761709642111E-003
  -3.2242788656713664E-002   9.4757113744320456E-003   5.8172643808416628E-003
  -2.9896331008235168E-002   8.8816842038064881E-003   5.4839232161103899E-003
  -2.7549873359756616E-002   8.4008545452972094E-003   5.2028526767707722E-003
  -3.9879709325688073E-002   1.1998202376861888E-002  -3.6575604018262986E-005
  -3.7463676121063938E-002   1.1139662831377573E-002  -3.0686425607245882E-004
  -3.5047642916439858E-002   1.0453099725121318E-002  -4.9027242122651193E-004
  -3.2631609711815779E-002   9.9385130580944003E-003  -5.8680009948124112E-004
  -3.0215576507191644E-002   9.5959028302947669E-003  -5.9644729083607739E-004
  -1.8675916099049894E-002   4.8157096903047591E-003   2.3606405945194586E-002
  -1.5653176663443985E-002   4.0793964313979858E-003   2.4395778187730088E-002
  -1.2630437227838104E-002   3.7245718251847082E-003   2.5658260829175217E-002
  -9.6076977922321671E-003   3.7512358716650651E-003   2.7393853869529750E-002
  -6.5849583566263137E-003   4.1593885708381961E-003   2.9602557308794131E-002
  -2.1780043155685769E-002   6.0107579753022611E-003   1.7304279294786173E-002
  -1.8553371871832744E-002   5.3431139502296277E-003   1.8253163281986340E-002
  -1.5326700587979802E-002   4.8590792569840058E-003   1.9136800566770973E-002
  -1.2100029304126861E-002   4.5586538955656383E-003   1.9955191149140322E-002
  -8.8733580202738360E-003   4.4418378659740743E-003   2.0708335029093861E-002
  -2.4738028909254695E-002   7.2058062602996520E-003   1.1169761538644851E-002
  -2.1845782878479776E-002   6.6068314690611030E-003   1.2080277949643503E-002
  -1.8953536847704774E-002   5.9935866887831923E-003   1.2387190556901309E-002
  -1.6061290816929787E-002   5.3660719194665446E-003   1.2090499360418755E-002
  -1.3169044786154910E-002   4.7242871611099524E-003   1.1190204360195521E-002
  -2.7549873359756616E-002   8.4008545452972094E-003   5.2028526767707722E-003
  -2.5530409683384742E-002   7.8705489878924950E-003   5.8771221907015919E-003
  -2.3510946007012954E-002   7.1280941205831005E-003   5.4094307995664406E-003
  -2.1491482330641180E-002   6.1734899433668403E-003   3.7997785033653114E-003
  -1.9472018654269292E-002   5.0067364562460526E-003   1.0481653020990578E-003
  -3.0215576507191644E-002   9.5959028302947669E-003  -5.9644729083607739E-004
  -2.9607252286548036E-002   9.1342665067241091E-003  -3.5630399483982389E-004
  -2.8998928065904428E-002   8.2626015523816210E-003  -1.7964787052342779E-003
  -2.8390603845260792E-002   6.9809079672680657E-003  -4.9169714220191965E-003
  -2.7782279624617212E-002   5.2891857513812646E-003  -9.7177821451954749E-003
  -6.5849583566263137E-003   4.1593885708381961E-003   2.9602557308794131E-002
  -6.0566201882265858E-003   6.1426908624380161E-003   3.4078460308424097E-002
  -5.5282820198268023E-003   1.0894803686196608E-002   3.9239898428271136E-002
  -4.9999438514270189E-003   1.8415727042112903E-002   4.5086871668335859E-002
  -4.4716056830272910E-003   2.8705460930188664E-002   5.1619380028617545E-002
  -8.8733580202738360E-003   4.4418378659740743E-003   2.0708335029093861E-002
  -7.5871870725394142E-003   5.6586048856111515E-003   2.5875432235001883E-002
  -6.3010161248050478E-003   9.3589286718783193E-003   3.1872659879361942E-002
  -5.0148451770706676E-003   1.5542809224774926E-002   3.8700017962173650E-002
  -3.7286742293362596E-003   2.4210246544301040E-002   4.6357506483438060E-002
  -1.3169044786154910E-002   4.7242871611099524E-003   1.1190204360195521E-002
  -1.0980445740851115E-002   5.1745189087848420E-003   1.6763242006852613E-002
  -8.7918466955473201E-003   7.8230536575600584E-003   2.3311005410196178E-002
  -6.6032476502436641E-003   1.2669891407436622E-002   3.0833494570226425E-002
  -4.4146486049398415E-003   1.9715032158413415E-002   3.9330709486943838E-002
  -1.9472018654269292E-002   5.0067364562460526E-003   1.0481653020990578E-003
  -1.6236396193161515E-002   4.6904329319581439E-003   6.7418896239764825E-003
  -1.3000773732053741E-002   6.2871786432420057E-003   1.3554935020775337E-002
  -9.7651512709458436E-003   9.7969735900978148E-003   2.1487301492495389E-002
  -6.5295288098381893E-003   1.5219817772526123E-002   3.0538989039136877E-002
  -2.7782279624617212E-002   5.2891857513812646E-003  -9.7177821451954749E-003
  -2.3355038429470620E-002   4.2063469551305577E-003  -4.1886249136267040E-003
  -1.8927797234324029E-002   4.7513036289242860E-003   2.6044487110982728E-003
  -1.4500556039177631E-002   6.9240557727599794E-003   1.0661438728978609E-002
  -1.0073314844030845E-002   1.0724603386638165E-002   1.9982345140016067E-002
 </DataArray>
 </PointData>
 </Piece>
 </UnstructuredGrid>
 </VTKFile>
