 <VTKFile type="UnstructuredGrid"  version="0.1"   >
 <UnstructuredGrid>
 <Piece  NumberOfPoints="          1600 "  NumberOfCells="         1024 ">
 <Points>
 <DataArray  type="Float64" NumberOfComponents="3"  format="ascii" >
   0.0000000000000000        0.0000000000000000        0.0000000000000000     
   3.1250000000000000E-002   0.0000000000000000        0.0000000000000000     
   6.2500000000000000E-002   0.0000000000000000        0.0000000000000000     
   9.3750000000000000E-002   0.0000000000000000        0.0000000000000000     
  0.12500000000000000        0.0000000000000000        0.0000000000000000     
   0.0000000000000000        3.1250000000000000E-002   0.0000000000000000     
   3.1250000000000000E-002   3.1250000000000000E-002   0.0000000000000000     
   6.2500000000000000E-002   3.1250000000000000E-002   0.0000000000000000     
   9.3750000000000000E-002   3.1250000000000000E-002   0.0000000000000000     
  0.12500000000000000        3.1250000000000000E-002   0.0000000000000000     
   0.0000000000000000        6.2500000000000000E-002   0.0000000000000000     
   3.1250000000000000E-002   6.2500000000000000E-002   0.0000000000000000     
   6.2500000000000000E-002   6.2500000000000000E-002   0.0000000000000000     
   9.3750000000000000E-002   6.2500000000000000E-002   0.0000000000000000     
  0.12500000000000000        6.2500000000000000E-002   0.0000000000000000     
   0.0000000000000000        9.3750000000000000E-002   0.0000000000000000     
   3.1250000000000000E-002   9.3750000000000000E-002   0.0000000000000000     
   6.2500000000000000E-002   9.3750000000000000E-002   0.0000000000000000     
   9.3750000000000000E-002   9.3750000000000000E-002   0.0000000000000000     
  0.12500000000000000        9.3750000000000000E-002   0.0000000000000000     
   0.0000000000000000       0.12500000000000000        0.0000000000000000     
   3.1250000000000000E-002  0.12500000000000000        0.0000000000000000     
   6.2500000000000000E-002  0.12500000000000000        0.0000000000000000     
   9.3750000000000000E-002  0.12500000000000000        0.0000000000000000     
  0.12500000000000000       0.12500000000000000        0.0000000000000000     
  0.12500000000000000        0.0000000000000000        0.0000000000000000     
  0.15625000000000000        0.0000000000000000        0.0000000000000000     
  0.18750000000000000        0.0000000000000000        0.0000000000000000     
  0.21875000000000000        0.0000000000000000        0.0000000000000000     
  0.25000000000000000        0.0000000000000000        0.0000000000000000     
  0.12500000000000000        3.1250000000000000E-002   0.0000000000000000     
  0.15625000000000000        3.1250000000000000E-002   0.0000000000000000     
  0.18750000000000000        3.1250000000000000E-002   0.0000000000000000     
  0.21875000000000000        3.1250000000000000E-002   0.0000000000000000     
  0.25000000000000000        3.1250000000000000E-002   0.0000000000000000     
  0.12500000000000000        6.2500000000000000E-002   0.0000000000000000     
  0.15625000000000000        6.2500000000000000E-002   0.0000000000000000     
  0.18750000000000000        6.2500000000000000E-002   0.0000000000000000     
  0.21875000000000000        6.2500000000000000E-002   0.0000000000000000     
  0.25000000000000000        6.2500000000000000E-002   0.0000000000000000     
  0.12500000000000000        9.3750000000000000E-002   0.0000000000000000     
  0.15625000000000000        9.3750000000000000E-002   0.0000000000000000     
  0.18750000000000000        9.3750000000000000E-002   0.0000000000000000     
  0.21875000000000000        9.3750000000000000E-002   0.0000000000000000     
  0.25000000000000000        9.3750000000000000E-002   0.0000000000000000     
  0.12500000000000000       0.12500000000000000        0.0000000000000000     
  0.15625000000000000       0.12500000000000000        0.0000000000000000     
  0.18750000000000000       0.12500000000000000        0.0000000000000000     
  0.21875000000000000       0.12500000000000000        0.0000000000000000     
  0.25000000000000000       0.12500000000000000        0.0000000000000000     
  0.25000000000000000        0.0000000000000000        0.0000000000000000     
  0.28125000000000000        0.0000000000000000        0.0000000000000000     
  0.31250000000000000        0.0000000000000000        0.0000000000000000     
  0.34375000000000000        0.0000000000000000        0.0000000000000000     
  0.37500000000000000        0.0000000000000000        0.0000000000000000     
  0.25000000000000000        3.1250000000000000E-002   0.0000000000000000     
  0.28125000000000000        3.1250000000000000E-002   0.0000000000000000     
  0.31250000000000000        3.1250000000000000E-002   0.0000000000000000     
  0.34375000000000000        3.1250000000000000E-002   0.0000000000000000     
  0.37500000000000000        3.1250000000000000E-002   0.0000000000000000     
  0.25000000000000000        6.2500000000000000E-002   0.0000000000000000     
  0.28125000000000000        6.2500000000000000E-002   0.0000000000000000     
  0.31250000000000000        6.2500000000000000E-002   0.0000000000000000     
  0.34375000000000000        6.2500000000000000E-002   0.0000000000000000     
  0.37500000000000000        6.2500000000000000E-002   0.0000000000000000     
  0.25000000000000000        9.3750000000000000E-002   0.0000000000000000     
  0.28125000000000000        9.3750000000000000E-002   0.0000000000000000     
  0.31250000000000000        9.3750000000000000E-002   0.0000000000000000     
  0.34375000000000000        9.3750000000000000E-002   0.0000000000000000     
  0.37500000000000000        9.3750000000000000E-002   0.0000000000000000     
  0.25000000000000000       0.12500000000000000        0.0000000000000000     
  0.28125000000000000       0.12500000000000000        0.0000000000000000     
  0.31250000000000000       0.12500000000000000        0.0000000000000000     
  0.34375000000000000       0.12500000000000000        0.0000000000000000     
  0.37500000000000000       0.12500000000000000        0.0000000000000000     
  0.37500000000000000        0.0000000000000000        0.0000000000000000     
  0.40625000000000000        0.0000000000000000        0.0000000000000000     
  0.43750000000000000        0.0000000000000000        0.0000000000000000     
  0.46875000000000000        0.0000000000000000        0.0000000000000000     
  0.50000000000000000        0.0000000000000000        0.0000000000000000     
  0.37500000000000000        3.1250000000000000E-002   0.0000000000000000     
  0.40625000000000000        3.1250000000000000E-002   0.0000000000000000     
  0.43750000000000000        3.1250000000000000E-002   0.0000000000000000     
  0.46875000000000000        3.1250000000000000E-002   0.0000000000000000     
  0.50000000000000000        3.1250000000000000E-002   0.0000000000000000     
  0.37500000000000000        6.2500000000000000E-002   0.0000000000000000     
  0.40625000000000000        6.2500000000000000E-002   0.0000000000000000     
  0.43750000000000000        6.2500000000000000E-002   0.0000000000000000     
  0.46875000000000000        6.2500000000000000E-002   0.0000000000000000     
  0.50000000000000000        6.2500000000000000E-002   0.0000000000000000     
  0.37500000000000000        9.3750000000000000E-002   0.0000000000000000     
  0.40625000000000000        9.3750000000000000E-002   0.0000000000000000     
  0.43750000000000000        9.3750000000000000E-002   0.0000000000000000     
  0.46875000000000000        9.3750000000000000E-002   0.0000000000000000     
  0.50000000000000000        9.3750000000000000E-002   0.0000000000000000     
  0.37500000000000000       0.12500000000000000        0.0000000000000000     
  0.40625000000000000       0.12500000000000000        0.0000000000000000     
  0.43750000000000000       0.12500000000000000        0.0000000000000000     
  0.46875000000000000       0.12500000000000000        0.0000000000000000     
  0.50000000000000000       0.12500000000000000        0.0000000000000000     
  0.50000000000000000        0.0000000000000000        0.0000000000000000     
  0.53125000000000000        0.0000000000000000        0.0000000000000000     
  0.56250000000000000        0.0000000000000000        0.0000000000000000     
  0.59375000000000000        0.0000000000000000        0.0000000000000000     
  0.62500000000000000        0.0000000000000000        0.0000000000000000     
  0.50000000000000000        3.1250000000000000E-002   0.0000000000000000     
  0.53125000000000000        3.1250000000000000E-002   0.0000000000000000     
  0.56250000000000000        3.1250000000000000E-002   0.0000000000000000     
  0.59375000000000000        3.1250000000000000E-002   0.0000000000000000     
  0.62500000000000000        3.1250000000000000E-002   0.0000000000000000     
  0.50000000000000000        6.2500000000000000E-002   0.0000000000000000     
  0.53125000000000000        6.2500000000000000E-002   0.0000000000000000     
  0.56250000000000000        6.2500000000000000E-002   0.0000000000000000     
  0.59375000000000000        6.2500000000000000E-002   0.0000000000000000     
  0.62500000000000000        6.2500000000000000E-002   0.0000000000000000     
  0.50000000000000000        9.3750000000000000E-002   0.0000000000000000     
  0.53125000000000000        9.3750000000000000E-002   0.0000000000000000     
  0.56250000000000000        9.3750000000000000E-002   0.0000000000000000     
  0.59375000000000000        9.3750000000000000E-002   0.0000000000000000     
  0.62500000000000000        9.3750000000000000E-002   0.0000000000000000     
  0.50000000000000000       0.12500000000000000        0.0000000000000000     
  0.53125000000000000       0.12500000000000000        0.0000000000000000     
  0.56250000000000000       0.12500000000000000        0.0000000000000000     
  0.59375000000000000       0.12500000000000000        0.0000000000000000     
  0.62500000000000000       0.12500000000000000        0.0000000000000000     
  0.62500000000000000        0.0000000000000000        0.0000000000000000     
  0.65625000000000000        0.0000000000000000        0.0000000000000000     
  0.68750000000000000        0.0000000000000000        0.0000000000000000     
  0.71875000000000000        0.0000000000000000        0.0000000000000000     
  0.75000000000000000        0.0000000000000000        0.0000000000000000     
  0.62500000000000000        3.1250000000000000E-002   0.0000000000000000     
  0.65625000000000000        3.1250000000000000E-002   0.0000000000000000     
  0.68750000000000000        3.1250000000000000E-002   0.0000000000000000     
  0.71875000000000000        3.1250000000000000E-002   0.0000000000000000     
  0.75000000000000000        3.1250000000000000E-002   0.0000000000000000     
  0.62500000000000000        6.2500000000000000E-002   0.0000000000000000     
  0.65625000000000000        6.2500000000000000E-002   0.0000000000000000     
  0.68750000000000000        6.2500000000000000E-002   0.0000000000000000     
  0.71875000000000000        6.2500000000000000E-002   0.0000000000000000     
  0.75000000000000000        6.2500000000000000E-002   0.0000000000000000     
  0.62500000000000000        9.3750000000000000E-002   0.0000000000000000     
  0.65625000000000000        9.3750000000000000E-002   0.0000000000000000     
  0.68750000000000000        9.3750000000000000E-002   0.0000000000000000     
  0.71875000000000000        9.3750000000000000E-002   0.0000000000000000     
  0.75000000000000000        9.3750000000000000E-002   0.0000000000000000     
  0.62500000000000000       0.12500000000000000        0.0000000000000000     
  0.65625000000000000       0.12500000000000000        0.0000000000000000     
  0.68750000000000000       0.12500000000000000        0.0000000000000000     
  0.71875000000000000       0.12500000000000000        0.0000000000000000     
  0.75000000000000000       0.12500000000000000        0.0000000000000000     
  0.75000000000000000        0.0000000000000000        0.0000000000000000     
  0.78125000000000000        0.0000000000000000        0.0000000000000000     
  0.81250000000000000        0.0000000000000000        0.0000000000000000     
  0.84375000000000000        0.0000000000000000        0.0000000000000000     
  0.87500000000000000        0.0000000000000000        0.0000000000000000     
  0.75000000000000000        3.1250000000000000E-002   0.0000000000000000     
  0.78125000000000000        3.1250000000000000E-002   0.0000000000000000     
  0.81250000000000000        3.1250000000000000E-002   0.0000000000000000     
  0.84375000000000000        3.1250000000000000E-002   0.0000000000000000     
  0.87500000000000000        3.1250000000000000E-002   0.0000000000000000     
  0.75000000000000000        6.2500000000000000E-002   0.0000000000000000     
  0.78125000000000000        6.2500000000000000E-002   0.0000000000000000     
  0.81250000000000000        6.2500000000000000E-002   0.0000000000000000     
  0.84375000000000000        6.2500000000000000E-002   0.0000000000000000     
  0.87500000000000000        6.2500000000000000E-002   0.0000000000000000     
  0.75000000000000000        9.3750000000000000E-002   0.0000000000000000     
  0.78125000000000000        9.3750000000000000E-002   0.0000000000000000     
  0.81250000000000000        9.3750000000000000E-002   0.0000000000000000     
  0.84375000000000000        9.3750000000000000E-002   0.0000000000000000     
  0.87500000000000000        9.3750000000000000E-002   0.0000000000000000     
  0.75000000000000000       0.12500000000000000        0.0000000000000000     
  0.78125000000000000       0.12500000000000000        0.0000000000000000     
  0.81250000000000000       0.12500000000000000        0.0000000000000000     
  0.84375000000000000       0.12500000000000000        0.0000000000000000     
  0.87500000000000000       0.12500000000000000        0.0000000000000000     
  0.87500000000000000        0.0000000000000000        0.0000000000000000     
  0.90625000000000000        0.0000000000000000        0.0000000000000000     
  0.93750000000000000        0.0000000000000000        0.0000000000000000     
  0.96875000000000000        0.0000000000000000        0.0000000000000000     
   1.0000000000000000        0.0000000000000000        0.0000000000000000     
  0.87500000000000000        3.1250000000000000E-002   0.0000000000000000     
  0.90625000000000000        3.1250000000000000E-002   0.0000000000000000     
  0.93750000000000000        3.1250000000000000E-002   0.0000000000000000     
  0.96875000000000000        3.1250000000000000E-002   0.0000000000000000     
   1.0000000000000000        3.1250000000000000E-002   0.0000000000000000     
  0.87500000000000000        6.2500000000000000E-002   0.0000000000000000     
  0.90625000000000000        6.2500000000000000E-002   0.0000000000000000     
  0.93750000000000000        6.2500000000000000E-002   0.0000000000000000     
  0.96875000000000000        6.2500000000000000E-002   0.0000000000000000     
   1.0000000000000000        6.2500000000000000E-002   0.0000000000000000     
  0.87500000000000000        9.3750000000000000E-002   0.0000000000000000     
  0.90625000000000000        9.3750000000000000E-002   0.0000000000000000     
  0.93750000000000000        9.3750000000000000E-002   0.0000000000000000     
  0.96875000000000000        9.3750000000000000E-002   0.0000000000000000     
   1.0000000000000000        9.3750000000000000E-002   0.0000000000000000     
  0.87500000000000000       0.12500000000000000        0.0000000000000000     
  0.90625000000000000       0.12500000000000000        0.0000000000000000     
  0.93750000000000000       0.12500000000000000        0.0000000000000000     
  0.96875000000000000       0.12500000000000000        0.0000000000000000     
   1.0000000000000000       0.12500000000000000        0.0000000000000000     
   0.0000000000000000       0.12500000000000000        0.0000000000000000     
   3.1250000000000000E-002  0.12500000000000000        0.0000000000000000     
   6.2500000000000000E-002  0.12500000000000000        0.0000000000000000     
   9.3750000000000000E-002  0.12500000000000000        0.0000000000000000     
  0.12500000000000000       0.12500000000000000        0.0000000000000000     
   0.0000000000000000       0.15625000000000000        0.0000000000000000     
   3.1250000000000000E-002  0.15625000000000000        0.0000000000000000     
   6.2500000000000000E-002  0.15625000000000000        0.0000000000000000     
   9.3750000000000000E-002  0.15625000000000000        0.0000000000000000     
  0.12500000000000000       0.15625000000000000        0.0000000000000000     
   0.0000000000000000       0.18750000000000000        0.0000000000000000     
   3.1250000000000000E-002  0.18750000000000000        0.0000000000000000     
   6.2500000000000000E-002  0.18750000000000000        0.0000000000000000     
   9.3750000000000000E-002  0.18750000000000000        0.0000000000000000     
  0.12500000000000000       0.18750000000000000        0.0000000000000000     
   0.0000000000000000       0.21875000000000000        0.0000000000000000     
   3.1250000000000000E-002  0.21875000000000000        0.0000000000000000     
   6.2500000000000000E-002  0.21875000000000000        0.0000000000000000     
   9.3750000000000000E-002  0.21875000000000000        0.0000000000000000     
  0.12500000000000000       0.21875000000000000        0.0000000000000000     
   0.0000000000000000       0.25000000000000000        0.0000000000000000     
   3.1250000000000000E-002  0.25000000000000000        0.0000000000000000     
   6.2500000000000000E-002  0.25000000000000000        0.0000000000000000     
   9.3750000000000000E-002  0.25000000000000000        0.0000000000000000     
  0.12500000000000000       0.25000000000000000        0.0000000000000000     
  0.12500000000000000       0.12500000000000000        0.0000000000000000     
  0.15625000000000000       0.12500000000000000        0.0000000000000000     
  0.18750000000000000       0.12500000000000000        0.0000000000000000     
  0.21875000000000000       0.12500000000000000        0.0000000000000000     
  0.25000000000000000       0.12500000000000000        0.0000000000000000     
  0.12500000000000000       0.15625000000000000        0.0000000000000000     
  0.15625000000000000       0.15625000000000000        0.0000000000000000     
  0.18750000000000000       0.15625000000000000        0.0000000000000000     
  0.21875000000000000       0.15625000000000000        0.0000000000000000     
  0.25000000000000000       0.15625000000000000        0.0000000000000000     
  0.12500000000000000       0.18750000000000000        0.0000000000000000     
  0.15625000000000000       0.18750000000000000        0.0000000000000000     
  0.18750000000000000       0.18750000000000000        0.0000000000000000     
  0.21875000000000000       0.18750000000000000        0.0000000000000000     
  0.25000000000000000       0.18750000000000000        0.0000000000000000     
  0.12500000000000000       0.21875000000000000        0.0000000000000000     
  0.15625000000000000       0.21875000000000000        0.0000000000000000     
  0.18750000000000000       0.21875000000000000        0.0000000000000000     
  0.21875000000000000       0.21875000000000000        0.0000000000000000     
  0.25000000000000000       0.21875000000000000        0.0000000000000000     
  0.12500000000000000       0.25000000000000000        0.0000000000000000     
  0.15625000000000000       0.25000000000000000        0.0000000000000000     
  0.18750000000000000       0.25000000000000000        0.0000000000000000     
  0.21875000000000000       0.25000000000000000        0.0000000000000000     
  0.25000000000000000       0.25000000000000000        0.0000000000000000     
  0.25000000000000000       0.12500000000000000        0.0000000000000000     
  0.28125000000000000       0.12500000000000000        0.0000000000000000     
  0.31250000000000000       0.12500000000000000        0.0000000000000000     
  0.34375000000000000       0.12500000000000000        0.0000000000000000     
  0.37500000000000000       0.12500000000000000        0.0000000000000000     
  0.25000000000000000       0.15625000000000000        0.0000000000000000     
  0.28125000000000000       0.15625000000000000        0.0000000000000000     
  0.31250000000000000       0.15625000000000000        0.0000000000000000     
  0.34375000000000000       0.15625000000000000        0.0000000000000000     
  0.37500000000000000       0.15625000000000000        0.0000000000000000     
  0.25000000000000000       0.18750000000000000        0.0000000000000000     
  0.28125000000000000       0.18750000000000000        0.0000000000000000     
  0.31250000000000000       0.18750000000000000        0.0000000000000000     
  0.34375000000000000       0.18750000000000000        0.0000000000000000     
  0.37500000000000000       0.18750000000000000        0.0000000000000000     
  0.25000000000000000       0.21875000000000000        0.0000000000000000     
  0.28125000000000000       0.21875000000000000        0.0000000000000000     
  0.31250000000000000       0.21875000000000000        0.0000000000000000     
  0.34375000000000000       0.21875000000000000        0.0000000000000000     
  0.37500000000000000       0.21875000000000000        0.0000000000000000     
  0.25000000000000000       0.25000000000000000        0.0000000000000000     
  0.28125000000000000       0.25000000000000000        0.0000000000000000     
  0.31250000000000000       0.25000000000000000        0.0000000000000000     
  0.34375000000000000       0.25000000000000000        0.0000000000000000     
  0.37500000000000000       0.25000000000000000        0.0000000000000000     
  0.37500000000000000       0.12500000000000000        0.0000000000000000     
  0.40625000000000000       0.12500000000000000        0.0000000000000000     
  0.43750000000000000       0.12500000000000000        0.0000000000000000     
  0.46875000000000000       0.12500000000000000        0.0000000000000000     
  0.50000000000000000       0.12500000000000000        0.0000000000000000     
  0.37500000000000000       0.15625000000000000        0.0000000000000000     
  0.40625000000000000       0.15625000000000000        0.0000000000000000     
  0.43750000000000000       0.15625000000000000        0.0000000000000000     
  0.46875000000000000       0.15625000000000000        0.0000000000000000     
  0.50000000000000000       0.15625000000000000        0.0000000000000000     
  0.37500000000000000       0.18750000000000000        0.0000000000000000     
  0.40625000000000000       0.18750000000000000        0.0000000000000000     
  0.43750000000000000       0.18750000000000000        0.0000000000000000     
  0.46875000000000000       0.18750000000000000        0.0000000000000000     
  0.50000000000000000       0.18750000000000000        0.0000000000000000     
  0.37500000000000000       0.21875000000000000        0.0000000000000000     
  0.40625000000000000       0.21875000000000000        0.0000000000000000     
  0.43750000000000000       0.21875000000000000        0.0000000000000000     
  0.46875000000000000       0.21875000000000000        0.0000000000000000     
  0.50000000000000000       0.21875000000000000        0.0000000000000000     
  0.37500000000000000       0.25000000000000000        0.0000000000000000     
  0.40625000000000000       0.25000000000000000        0.0000000000000000     
  0.43750000000000000       0.25000000000000000        0.0000000000000000     
  0.46875000000000000       0.25000000000000000        0.0000000000000000     
  0.50000000000000000       0.25000000000000000        0.0000000000000000     
  0.50000000000000000       0.12500000000000000        0.0000000000000000     
  0.53125000000000000       0.12500000000000000        0.0000000000000000     
  0.56250000000000000       0.12500000000000000        0.0000000000000000     
  0.59375000000000000       0.12500000000000000        0.0000000000000000     
  0.62500000000000000       0.12500000000000000        0.0000000000000000     
  0.50000000000000000       0.15625000000000000        0.0000000000000000     
  0.53125000000000000       0.15625000000000000        0.0000000000000000     
  0.56250000000000000       0.15625000000000000        0.0000000000000000     
  0.59375000000000000       0.15625000000000000        0.0000000000000000     
  0.62500000000000000       0.15625000000000000        0.0000000000000000     
  0.50000000000000000       0.18750000000000000        0.0000000000000000     
  0.53125000000000000       0.18750000000000000        0.0000000000000000     
  0.56250000000000000       0.18750000000000000        0.0000000000000000     
  0.59375000000000000       0.18750000000000000        0.0000000000000000     
  0.62500000000000000       0.18750000000000000        0.0000000000000000     
  0.50000000000000000       0.21875000000000000        0.0000000000000000     
  0.53125000000000000       0.21875000000000000        0.0000000000000000     
  0.56250000000000000       0.21875000000000000        0.0000000000000000     
  0.59375000000000000       0.21875000000000000        0.0000000000000000     
  0.62500000000000000       0.21875000000000000        0.0000000000000000     
  0.50000000000000000       0.25000000000000000        0.0000000000000000     
  0.53125000000000000       0.25000000000000000        0.0000000000000000     
  0.56250000000000000       0.25000000000000000        0.0000000000000000     
  0.59375000000000000       0.25000000000000000        0.0000000000000000     
  0.62500000000000000       0.25000000000000000        0.0000000000000000     
  0.62500000000000000       0.12500000000000000        0.0000000000000000     
  0.65625000000000000       0.12500000000000000        0.0000000000000000     
  0.68750000000000000       0.12500000000000000        0.0000000000000000     
  0.71875000000000000       0.12500000000000000        0.0000000000000000     
  0.75000000000000000       0.12500000000000000        0.0000000000000000     
  0.62500000000000000       0.15625000000000000        0.0000000000000000     
  0.65625000000000000       0.15625000000000000        0.0000000000000000     
  0.68750000000000000       0.15625000000000000        0.0000000000000000     
  0.71875000000000000       0.15625000000000000        0.0000000000000000     
  0.75000000000000000       0.15625000000000000        0.0000000000000000     
  0.62500000000000000       0.18750000000000000        0.0000000000000000     
  0.65625000000000000       0.18750000000000000        0.0000000000000000     
  0.68750000000000000       0.18750000000000000        0.0000000000000000     
  0.71875000000000000       0.18750000000000000        0.0000000000000000     
  0.75000000000000000       0.18750000000000000        0.0000000000000000     
  0.62500000000000000       0.21875000000000000        0.0000000000000000     
  0.65625000000000000       0.21875000000000000        0.0000000000000000     
  0.68750000000000000       0.21875000000000000        0.0000000000000000     
  0.71875000000000000       0.21875000000000000        0.0000000000000000     
  0.75000000000000000       0.21875000000000000        0.0000000000000000     
  0.62500000000000000       0.25000000000000000        0.0000000000000000     
  0.65625000000000000       0.25000000000000000        0.0000000000000000     
  0.68750000000000000       0.25000000000000000        0.0000000000000000     
  0.71875000000000000       0.25000000000000000        0.0000000000000000     
  0.75000000000000000       0.25000000000000000        0.0000000000000000     
  0.75000000000000000       0.12500000000000000        0.0000000000000000     
  0.78125000000000000       0.12500000000000000        0.0000000000000000     
  0.81250000000000000       0.12500000000000000        0.0000000000000000     
  0.84375000000000000       0.12500000000000000        0.0000000000000000     
  0.87500000000000000       0.12500000000000000        0.0000000000000000     
  0.75000000000000000       0.15625000000000000        0.0000000000000000     
  0.78125000000000000       0.15625000000000000        0.0000000000000000     
  0.81250000000000000       0.15625000000000000        0.0000000000000000     
  0.84375000000000000       0.15625000000000000        0.0000000000000000     
  0.87500000000000000       0.15625000000000000        0.0000000000000000     
  0.75000000000000000       0.18750000000000000        0.0000000000000000     
  0.78125000000000000       0.18750000000000000        0.0000000000000000     
  0.81250000000000000       0.18750000000000000        0.0000000000000000     
  0.84375000000000000       0.18750000000000000        0.0000000000000000     
  0.87500000000000000       0.18750000000000000        0.0000000000000000     
  0.75000000000000000       0.21875000000000000        0.0000000000000000     
  0.78125000000000000       0.21875000000000000        0.0000000000000000     
  0.81250000000000000       0.21875000000000000        0.0000000000000000     
  0.84375000000000000       0.21875000000000000        0.0000000000000000     
  0.87500000000000000       0.21875000000000000        0.0000000000000000     
  0.75000000000000000       0.25000000000000000        0.0000000000000000     
  0.78125000000000000       0.25000000000000000        0.0000000000000000     
  0.81250000000000000       0.25000000000000000        0.0000000000000000     
  0.84375000000000000       0.25000000000000000        0.0000000000000000     
  0.87500000000000000       0.25000000000000000        0.0000000000000000     
  0.87500000000000000       0.12500000000000000        0.0000000000000000     
  0.90625000000000000       0.12500000000000000        0.0000000000000000     
  0.93750000000000000       0.12500000000000000        0.0000000000000000     
  0.96875000000000000       0.12500000000000000        0.0000000000000000     
   1.0000000000000000       0.12500000000000000        0.0000000000000000     
  0.87500000000000000       0.15625000000000000        0.0000000000000000     
  0.90625000000000000       0.15625000000000000        0.0000000000000000     
  0.93750000000000000       0.15625000000000000        0.0000000000000000     
  0.96875000000000000       0.15625000000000000        0.0000000000000000     
   1.0000000000000000       0.15625000000000000        0.0000000000000000     
  0.87500000000000000       0.18750000000000000        0.0000000000000000     
  0.90625000000000000       0.18750000000000000        0.0000000000000000     
  0.93750000000000000       0.18750000000000000        0.0000000000000000     
  0.96875000000000000       0.18750000000000000        0.0000000000000000     
   1.0000000000000000       0.18750000000000000        0.0000000000000000     
  0.87500000000000000       0.21875000000000000        0.0000000000000000     
  0.90625000000000000       0.21875000000000000        0.0000000000000000     
  0.93750000000000000       0.21875000000000000        0.0000000000000000     
  0.96875000000000000       0.21875000000000000        0.0000000000000000     
   1.0000000000000000       0.21875000000000000        0.0000000000000000     
  0.87500000000000000       0.25000000000000000        0.0000000000000000     
  0.90625000000000000       0.25000000000000000        0.0000000000000000     
  0.93750000000000000       0.25000000000000000        0.0000000000000000     
  0.96875000000000000       0.25000000000000000        0.0000000000000000     
   1.0000000000000000       0.25000000000000000        0.0000000000000000     
   0.0000000000000000       0.25000000000000000        0.0000000000000000     
   3.1250000000000000E-002  0.25000000000000000        0.0000000000000000     
   6.2500000000000000E-002  0.25000000000000000        0.0000000000000000     
   9.3750000000000000E-002  0.25000000000000000        0.0000000000000000     
  0.12500000000000000       0.25000000000000000        0.0000000000000000     
   0.0000000000000000       0.28125000000000000        0.0000000000000000     
   3.1250000000000000E-002  0.28125000000000000        0.0000000000000000     
   6.2500000000000000E-002  0.28125000000000000        0.0000000000000000     
   9.3750000000000000E-002  0.28125000000000000        0.0000000000000000     
  0.12500000000000000       0.28125000000000000        0.0000000000000000     
   0.0000000000000000       0.31250000000000000        0.0000000000000000     
   3.1250000000000000E-002  0.31250000000000000        0.0000000000000000     
   6.2500000000000000E-002  0.31250000000000000        0.0000000000000000     
   9.3750000000000000E-002  0.31250000000000000        0.0000000000000000     
  0.12500000000000000       0.31250000000000000        0.0000000000000000     
   0.0000000000000000       0.34375000000000000        0.0000000000000000     
   3.1250000000000000E-002  0.34375000000000000        0.0000000000000000     
   6.2500000000000000E-002  0.34375000000000000        0.0000000000000000     
   9.3750000000000000E-002  0.34375000000000000        0.0000000000000000     
  0.12500000000000000       0.34375000000000000        0.0000000000000000     
   0.0000000000000000       0.37500000000000000        0.0000000000000000     
   3.1250000000000000E-002  0.37500000000000000        0.0000000000000000     
   6.2500000000000000E-002  0.37500000000000000        0.0000000000000000     
   9.3750000000000000E-002  0.37500000000000000        0.0000000000000000     
  0.12500000000000000       0.37500000000000000        0.0000000000000000     
  0.12500000000000000       0.25000000000000000        0.0000000000000000     
  0.15625000000000000       0.25000000000000000        0.0000000000000000     
  0.18750000000000000       0.25000000000000000        0.0000000000000000     
  0.21875000000000000       0.25000000000000000        0.0000000000000000     
  0.25000000000000000       0.25000000000000000        0.0000000000000000     
  0.12500000000000000       0.28125000000000000        0.0000000000000000     
  0.15625000000000000       0.28125000000000000        0.0000000000000000     
  0.18750000000000000       0.28125000000000000        0.0000000000000000     
  0.21875000000000000       0.28125000000000000        0.0000000000000000     
  0.25000000000000000       0.28125000000000000        0.0000000000000000     
  0.12500000000000000       0.31250000000000000        0.0000000000000000     
  0.15625000000000000       0.31250000000000000        0.0000000000000000     
  0.18750000000000000       0.31250000000000000        0.0000000000000000     
  0.21875000000000000       0.31250000000000000        0.0000000000000000     
  0.25000000000000000       0.31250000000000000        0.0000000000000000     
  0.12500000000000000       0.34375000000000000        0.0000000000000000     
  0.15625000000000000       0.34375000000000000        0.0000000000000000     
  0.18750000000000000       0.34375000000000000        0.0000000000000000     
  0.21875000000000000       0.34375000000000000        0.0000000000000000     
  0.25000000000000000       0.34375000000000000        0.0000000000000000     
  0.12500000000000000       0.37500000000000000        0.0000000000000000     
  0.15625000000000000       0.37500000000000000        0.0000000000000000     
  0.18750000000000000       0.37500000000000000        0.0000000000000000     
  0.21875000000000000       0.37500000000000000        0.0000000000000000     
  0.25000000000000000       0.37500000000000000        0.0000000000000000     
  0.25000000000000000       0.25000000000000000        0.0000000000000000     
  0.28125000000000000       0.25000000000000000        0.0000000000000000     
  0.31250000000000000       0.25000000000000000        0.0000000000000000     
  0.34375000000000000       0.25000000000000000        0.0000000000000000     
  0.37500000000000000       0.25000000000000000        0.0000000000000000     
  0.25000000000000000       0.28125000000000000        0.0000000000000000     
  0.28125000000000000       0.28125000000000000        0.0000000000000000     
  0.31250000000000000       0.28125000000000000        0.0000000000000000     
  0.34375000000000000       0.28125000000000000        0.0000000000000000     
  0.37500000000000000       0.28125000000000000        0.0000000000000000     
  0.25000000000000000       0.31250000000000000        0.0000000000000000     
  0.28125000000000000       0.31250000000000000        0.0000000000000000     
  0.31250000000000000       0.31250000000000000        0.0000000000000000     
  0.34375000000000000       0.31250000000000000        0.0000000000000000     
  0.37500000000000000       0.31250000000000000        0.0000000000000000     
  0.25000000000000000       0.34375000000000000        0.0000000000000000     
  0.28125000000000000       0.34375000000000000        0.0000000000000000     
  0.31250000000000000       0.34375000000000000        0.0000000000000000     
  0.34375000000000000       0.34375000000000000        0.0000000000000000     
  0.37500000000000000       0.34375000000000000        0.0000000000000000     
  0.25000000000000000       0.37500000000000000        0.0000000000000000     
  0.28125000000000000       0.37500000000000000        0.0000000000000000     
  0.31250000000000000       0.37500000000000000        0.0000000000000000     
  0.34375000000000000       0.37500000000000000        0.0000000000000000     
  0.37500000000000000       0.37500000000000000        0.0000000000000000     
  0.37500000000000000       0.25000000000000000        0.0000000000000000     
  0.40625000000000000       0.25000000000000000        0.0000000000000000     
  0.43750000000000000       0.25000000000000000        0.0000000000000000     
  0.46875000000000000       0.25000000000000000        0.0000000000000000     
  0.50000000000000000       0.25000000000000000        0.0000000000000000     
  0.37500000000000000       0.28125000000000000        0.0000000000000000     
  0.40625000000000000       0.28125000000000000        0.0000000000000000     
  0.43750000000000000       0.28125000000000000        0.0000000000000000     
  0.46875000000000000       0.28125000000000000        0.0000000000000000     
  0.50000000000000000       0.28125000000000000        0.0000000000000000     
  0.37500000000000000       0.31250000000000000        0.0000000000000000     
  0.40625000000000000       0.31250000000000000        0.0000000000000000     
  0.43750000000000000       0.31250000000000000        0.0000000000000000     
  0.46875000000000000       0.31250000000000000        0.0000000000000000     
  0.50000000000000000       0.31250000000000000        0.0000000000000000     
  0.37500000000000000       0.34375000000000000        0.0000000000000000     
  0.40625000000000000       0.34375000000000000        0.0000000000000000     
  0.43750000000000000       0.34375000000000000        0.0000000000000000     
  0.46875000000000000       0.34375000000000000        0.0000000000000000     
  0.50000000000000000       0.34375000000000000        0.0000000000000000     
  0.37500000000000000       0.37500000000000000        0.0000000000000000     
  0.40625000000000000       0.37500000000000000        0.0000000000000000     
  0.43750000000000000       0.37500000000000000        0.0000000000000000     
  0.46875000000000000       0.37500000000000000        0.0000000000000000     
  0.50000000000000000       0.37500000000000000        0.0000000000000000     
  0.50000000000000000       0.25000000000000000        0.0000000000000000     
  0.53125000000000000       0.25000000000000000        0.0000000000000000     
  0.56250000000000000       0.25000000000000000        0.0000000000000000     
  0.59375000000000000       0.25000000000000000        0.0000000000000000     
  0.62500000000000000       0.25000000000000000        0.0000000000000000     
  0.50000000000000000       0.28125000000000000        0.0000000000000000     
  0.53125000000000000       0.28125000000000000        0.0000000000000000     
  0.56250000000000000       0.28125000000000000        0.0000000000000000     
  0.59375000000000000       0.28125000000000000        0.0000000000000000     
  0.62500000000000000       0.28125000000000000        0.0000000000000000     
  0.50000000000000000       0.31250000000000000        0.0000000000000000     
  0.53125000000000000       0.31250000000000000        0.0000000000000000     
  0.56250000000000000       0.31250000000000000        0.0000000000000000     
  0.59375000000000000       0.31250000000000000        0.0000000000000000     
  0.62500000000000000       0.31250000000000000        0.0000000000000000     
  0.50000000000000000       0.34375000000000000        0.0000000000000000     
  0.53125000000000000       0.34375000000000000        0.0000000000000000     
  0.56250000000000000       0.34375000000000000        0.0000000000000000     
  0.59375000000000000       0.34375000000000000        0.0000000000000000     
  0.62500000000000000       0.34375000000000000        0.0000000000000000     
  0.50000000000000000       0.37500000000000000        0.0000000000000000     
  0.53125000000000000       0.37500000000000000        0.0000000000000000     
  0.56250000000000000       0.37500000000000000        0.0000000000000000     
  0.59375000000000000       0.37500000000000000        0.0000000000000000     
  0.62500000000000000       0.37500000000000000        0.0000000000000000     
  0.62500000000000000       0.25000000000000000        0.0000000000000000     
  0.65625000000000000       0.25000000000000000        0.0000000000000000     
  0.68750000000000000       0.25000000000000000        0.0000000000000000     
  0.71875000000000000       0.25000000000000000        0.0000000000000000     
  0.75000000000000000       0.25000000000000000        0.0000000000000000     
  0.62500000000000000       0.28125000000000000        0.0000000000000000     
  0.65625000000000000       0.28125000000000000        0.0000000000000000     
  0.68750000000000000       0.28125000000000000        0.0000000000000000     
  0.71875000000000000       0.28125000000000000        0.0000000000000000     
  0.75000000000000000       0.28125000000000000        0.0000000000000000     
  0.62500000000000000       0.31250000000000000        0.0000000000000000     
  0.65625000000000000       0.31250000000000000        0.0000000000000000     
  0.68750000000000000       0.31250000000000000        0.0000000000000000     
  0.71875000000000000       0.31250000000000000        0.0000000000000000     
  0.75000000000000000       0.31250000000000000        0.0000000000000000     
  0.62500000000000000       0.34375000000000000        0.0000000000000000     
  0.65625000000000000       0.34375000000000000        0.0000000000000000     
  0.68750000000000000       0.34375000000000000        0.0000000000000000     
  0.71875000000000000       0.34375000000000000        0.0000000000000000     
  0.75000000000000000       0.34375000000000000        0.0000000000000000     
  0.62500000000000000       0.37500000000000000        0.0000000000000000     
  0.65625000000000000       0.37500000000000000        0.0000000000000000     
  0.68750000000000000       0.37500000000000000        0.0000000000000000     
  0.71875000000000000       0.37500000000000000        0.0000000000000000     
  0.75000000000000000       0.37500000000000000        0.0000000000000000     
  0.75000000000000000       0.25000000000000000        0.0000000000000000     
  0.78125000000000000       0.25000000000000000        0.0000000000000000     
  0.81250000000000000       0.25000000000000000        0.0000000000000000     
  0.84375000000000000       0.25000000000000000        0.0000000000000000     
  0.87500000000000000       0.25000000000000000        0.0000000000000000     
  0.75000000000000000       0.28125000000000000        0.0000000000000000     
  0.78125000000000000       0.28125000000000000        0.0000000000000000     
  0.81250000000000000       0.28125000000000000        0.0000000000000000     
  0.84375000000000000       0.28125000000000000        0.0000000000000000     
  0.87500000000000000       0.28125000000000000        0.0000000000000000     
  0.75000000000000000       0.31250000000000000        0.0000000000000000     
  0.78125000000000000       0.31250000000000000        0.0000000000000000     
  0.81250000000000000       0.31250000000000000        0.0000000000000000     
  0.84375000000000000       0.31250000000000000        0.0000000000000000     
  0.87500000000000000       0.31250000000000000        0.0000000000000000     
  0.75000000000000000       0.34375000000000000        0.0000000000000000     
  0.78125000000000000       0.34375000000000000        0.0000000000000000     
  0.81250000000000000       0.34375000000000000        0.0000000000000000     
  0.84375000000000000       0.34375000000000000        0.0000000000000000     
  0.87500000000000000       0.34375000000000000        0.0000000000000000     
  0.75000000000000000       0.37500000000000000        0.0000000000000000     
  0.78125000000000000       0.37500000000000000        0.0000000000000000     
  0.81250000000000000       0.37500000000000000        0.0000000000000000     
  0.84375000000000000       0.37500000000000000        0.0000000000000000     
  0.87500000000000000       0.37500000000000000        0.0000000000000000     
  0.87500000000000000       0.25000000000000000        0.0000000000000000     
  0.90625000000000000       0.25000000000000000        0.0000000000000000     
  0.93750000000000000       0.25000000000000000        0.0000000000000000     
  0.96875000000000000       0.25000000000000000        0.0000000000000000     
   1.0000000000000000       0.25000000000000000        0.0000000000000000     
  0.87500000000000000       0.28125000000000000        0.0000000000000000     
  0.90625000000000000       0.28125000000000000        0.0000000000000000     
  0.93750000000000000       0.28125000000000000        0.0000000000000000     
  0.96875000000000000       0.28125000000000000        0.0000000000000000     
   1.0000000000000000       0.28125000000000000        0.0000000000000000     
  0.87500000000000000       0.31250000000000000        0.0000000000000000     
  0.90625000000000000       0.31250000000000000        0.0000000000000000     
  0.93750000000000000       0.31250000000000000        0.0000000000000000     
  0.96875000000000000       0.31250000000000000        0.0000000000000000     
   1.0000000000000000       0.31250000000000000        0.0000000000000000     
  0.87500000000000000       0.34375000000000000        0.0000000000000000     
  0.90625000000000000       0.34375000000000000        0.0000000000000000     
  0.93750000000000000       0.34375000000000000        0.0000000000000000     
  0.96875000000000000       0.34375000000000000        0.0000000000000000     
   1.0000000000000000       0.34375000000000000        0.0000000000000000     
  0.87500000000000000       0.37500000000000000        0.0000000000000000     
  0.90625000000000000       0.37500000000000000        0.0000000000000000     
  0.93750000000000000       0.37500000000000000        0.0000000000000000     
  0.96875000000000000       0.37500000000000000        0.0000000000000000     
   1.0000000000000000       0.37500000000000000        0.0000000000000000     
   0.0000000000000000       0.37500000000000000        0.0000000000000000     
   3.1250000000000000E-002  0.37500000000000000        0.0000000000000000     
   6.2500000000000000E-002  0.37500000000000000        0.0000000000000000     
   9.3750000000000000E-002  0.37500000000000000        0.0000000000000000     
  0.12500000000000000       0.37500000000000000        0.0000000000000000     
   0.0000000000000000       0.40625000000000000        0.0000000000000000     
   3.1250000000000000E-002  0.40625000000000000        0.0000000000000000     
   6.2500000000000000E-002  0.40625000000000000        0.0000000000000000     
   9.3750000000000000E-002  0.40625000000000000        0.0000000000000000     
  0.12500000000000000       0.40625000000000000        0.0000000000000000     
   0.0000000000000000       0.43750000000000000        0.0000000000000000     
   3.1250000000000000E-002  0.43750000000000000        0.0000000000000000     
   6.2500000000000000E-002  0.43750000000000000        0.0000000000000000     
   9.3750000000000000E-002  0.43750000000000000        0.0000000000000000     
  0.12500000000000000       0.43750000000000000        0.0000000000000000     
   0.0000000000000000       0.46875000000000000        0.0000000000000000     
   3.1250000000000000E-002  0.46875000000000000        0.0000000000000000     
   6.2500000000000000E-002  0.46875000000000000        0.0000000000000000     
   9.3750000000000000E-002  0.46875000000000000        0.0000000000000000     
  0.12500000000000000       0.46875000000000000        0.0000000000000000     
   0.0000000000000000       0.50000000000000000        0.0000000000000000     
   3.1250000000000000E-002  0.50000000000000000        0.0000000000000000     
   6.2500000000000000E-002  0.50000000000000000        0.0000000000000000     
   9.3750000000000000E-002  0.50000000000000000        0.0000000000000000     
  0.12500000000000000       0.50000000000000000        0.0000000000000000     
  0.12500000000000000       0.37500000000000000        0.0000000000000000     
  0.15625000000000000       0.37500000000000000        0.0000000000000000     
  0.18750000000000000       0.37500000000000000        0.0000000000000000     
  0.21875000000000000       0.37500000000000000        0.0000000000000000     
  0.25000000000000000       0.37500000000000000        0.0000000000000000     
  0.12500000000000000       0.40625000000000000        0.0000000000000000     
  0.15625000000000000       0.40625000000000000        0.0000000000000000     
  0.18750000000000000       0.40625000000000000        0.0000000000000000     
  0.21875000000000000       0.40625000000000000        0.0000000000000000     
  0.25000000000000000       0.40625000000000000        0.0000000000000000     
  0.12500000000000000       0.43750000000000000        0.0000000000000000     
  0.15625000000000000       0.43750000000000000        0.0000000000000000     
  0.18750000000000000       0.43750000000000000        0.0000000000000000     
  0.21875000000000000       0.43750000000000000        0.0000000000000000     
  0.25000000000000000       0.43750000000000000        0.0000000000000000     
  0.12500000000000000       0.46875000000000000        0.0000000000000000     
  0.15625000000000000       0.46875000000000000        0.0000000000000000     
  0.18750000000000000       0.46875000000000000        0.0000000000000000     
  0.21875000000000000       0.46875000000000000        0.0000000000000000     
  0.25000000000000000       0.46875000000000000        0.0000000000000000     
  0.12500000000000000       0.50000000000000000        0.0000000000000000     
  0.15625000000000000       0.50000000000000000        0.0000000000000000     
  0.18750000000000000       0.50000000000000000        0.0000000000000000     
  0.21875000000000000       0.50000000000000000        0.0000000000000000     
  0.25000000000000000       0.50000000000000000        0.0000000000000000     
  0.25000000000000000       0.37500000000000000        0.0000000000000000     
  0.28125000000000000       0.37500000000000000        0.0000000000000000     
  0.31250000000000000       0.37500000000000000        0.0000000000000000     
  0.34375000000000000       0.37500000000000000        0.0000000000000000     
  0.37500000000000000       0.37500000000000000        0.0000000000000000     
  0.25000000000000000       0.40625000000000000        0.0000000000000000     
  0.28125000000000000       0.40625000000000000        0.0000000000000000     
  0.31250000000000000       0.40625000000000000        0.0000000000000000     
  0.34375000000000000       0.40625000000000000        0.0000000000000000     
  0.37500000000000000       0.40625000000000000        0.0000000000000000     
  0.25000000000000000       0.43750000000000000        0.0000000000000000     
  0.28125000000000000       0.43750000000000000        0.0000000000000000     
  0.31250000000000000       0.43750000000000000        0.0000000000000000     
  0.34375000000000000       0.43750000000000000        0.0000000000000000     
  0.37500000000000000       0.43750000000000000        0.0000000000000000     
  0.25000000000000000       0.46875000000000000        0.0000000000000000     
  0.28125000000000000       0.46875000000000000        0.0000000000000000     
  0.31250000000000000       0.46875000000000000        0.0000000000000000     
  0.34375000000000000       0.46875000000000000        0.0000000000000000     
  0.37500000000000000       0.46875000000000000        0.0000000000000000     
  0.25000000000000000       0.50000000000000000        0.0000000000000000     
  0.28125000000000000       0.50000000000000000        0.0000000000000000     
  0.31250000000000000       0.50000000000000000        0.0000000000000000     
  0.34375000000000000       0.50000000000000000        0.0000000000000000     
  0.37500000000000000       0.50000000000000000        0.0000000000000000     
  0.37500000000000000       0.37500000000000000        0.0000000000000000     
  0.40625000000000000       0.37500000000000000        0.0000000000000000     
  0.43750000000000000       0.37500000000000000        0.0000000000000000     
  0.46875000000000000       0.37500000000000000        0.0000000000000000     
  0.50000000000000000       0.37500000000000000        0.0000000000000000     
  0.37500000000000000       0.40625000000000000        0.0000000000000000     
  0.40625000000000000       0.40625000000000000        0.0000000000000000     
  0.43750000000000000       0.40625000000000000        0.0000000000000000     
  0.46875000000000000       0.40625000000000000        0.0000000000000000     
  0.50000000000000000       0.40625000000000000        0.0000000000000000     
  0.37500000000000000       0.43750000000000000        0.0000000000000000     
  0.40625000000000000       0.43750000000000000        0.0000000000000000     
  0.43750000000000000       0.43750000000000000        0.0000000000000000     
  0.46875000000000000       0.43750000000000000        0.0000000000000000     
  0.50000000000000000       0.43750000000000000        0.0000000000000000     
  0.37500000000000000       0.46875000000000000        0.0000000000000000     
  0.40625000000000000       0.46875000000000000        0.0000000000000000     
  0.43750000000000000       0.46875000000000000        0.0000000000000000     
  0.46875000000000000       0.46875000000000000        0.0000000000000000     
  0.50000000000000000       0.46875000000000000        0.0000000000000000     
  0.37500000000000000       0.50000000000000000        0.0000000000000000     
  0.40625000000000000       0.50000000000000000        0.0000000000000000     
  0.43750000000000000       0.50000000000000000        0.0000000000000000     
  0.46875000000000000       0.50000000000000000        0.0000000000000000     
  0.50000000000000000       0.50000000000000000        0.0000000000000000     
  0.50000000000000000       0.37500000000000000        0.0000000000000000     
  0.53125000000000000       0.37500000000000000        0.0000000000000000     
  0.56250000000000000       0.37500000000000000        0.0000000000000000     
  0.59375000000000000       0.37500000000000000        0.0000000000000000     
  0.62500000000000000       0.37500000000000000        0.0000000000000000     
  0.50000000000000000       0.40625000000000000        0.0000000000000000     
  0.53125000000000000       0.40625000000000000        0.0000000000000000     
  0.56250000000000000       0.40625000000000000        0.0000000000000000     
  0.59375000000000000       0.40625000000000000        0.0000000000000000     
  0.62500000000000000       0.40625000000000000        0.0000000000000000     
  0.50000000000000000       0.43750000000000000        0.0000000000000000     
  0.53125000000000000       0.43750000000000000        0.0000000000000000     
  0.56250000000000000       0.43750000000000000        0.0000000000000000     
  0.59375000000000000       0.43750000000000000        0.0000000000000000     
  0.62500000000000000       0.43750000000000000        0.0000000000000000     
  0.50000000000000000       0.46875000000000000        0.0000000000000000     
  0.53125000000000000       0.46875000000000000        0.0000000000000000     
  0.56250000000000000       0.46875000000000000        0.0000000000000000     
  0.59375000000000000       0.46875000000000000        0.0000000000000000     
  0.62500000000000000       0.46875000000000000        0.0000000000000000     
  0.50000000000000000       0.50000000000000000        0.0000000000000000     
  0.53125000000000000       0.50000000000000000        0.0000000000000000     
  0.56250000000000000       0.50000000000000000        0.0000000000000000     
  0.59375000000000000       0.50000000000000000        0.0000000000000000     
  0.62500000000000000       0.50000000000000000        0.0000000000000000     
  0.62500000000000000       0.37500000000000000        0.0000000000000000     
  0.65625000000000000       0.37500000000000000        0.0000000000000000     
  0.68750000000000000       0.37500000000000000        0.0000000000000000     
  0.71875000000000000       0.37500000000000000        0.0000000000000000     
  0.75000000000000000       0.37500000000000000        0.0000000000000000     
  0.62500000000000000       0.40625000000000000        0.0000000000000000     
  0.65625000000000000       0.40625000000000000        0.0000000000000000     
  0.68750000000000000       0.40625000000000000        0.0000000000000000     
  0.71875000000000000       0.40625000000000000        0.0000000000000000     
  0.75000000000000000       0.40625000000000000        0.0000000000000000     
  0.62500000000000000       0.43750000000000000        0.0000000000000000     
  0.65625000000000000       0.43750000000000000        0.0000000000000000     
  0.68750000000000000       0.43750000000000000        0.0000000000000000     
  0.71875000000000000       0.43750000000000000        0.0000000000000000     
  0.75000000000000000       0.43750000000000000        0.0000000000000000     
  0.62500000000000000       0.46875000000000000        0.0000000000000000     
  0.65625000000000000       0.46875000000000000        0.0000000000000000     
  0.68750000000000000       0.46875000000000000        0.0000000000000000     
  0.71875000000000000       0.46875000000000000        0.0000000000000000     
  0.75000000000000000       0.46875000000000000        0.0000000000000000     
  0.62500000000000000       0.50000000000000000        0.0000000000000000     
  0.65625000000000000       0.50000000000000000        0.0000000000000000     
  0.68750000000000000       0.50000000000000000        0.0000000000000000     
  0.71875000000000000       0.50000000000000000        0.0000000000000000     
  0.75000000000000000       0.50000000000000000        0.0000000000000000     
  0.75000000000000000       0.37500000000000000        0.0000000000000000     
  0.78125000000000000       0.37500000000000000        0.0000000000000000     
  0.81250000000000000       0.37500000000000000        0.0000000000000000     
  0.84375000000000000       0.37500000000000000        0.0000000000000000     
  0.87500000000000000       0.37500000000000000        0.0000000000000000     
  0.75000000000000000       0.40625000000000000        0.0000000000000000     
  0.78125000000000000       0.40625000000000000        0.0000000000000000     
  0.81250000000000000       0.40625000000000000        0.0000000000000000     
  0.84375000000000000       0.40625000000000000        0.0000000000000000     
  0.87500000000000000       0.40625000000000000        0.0000000000000000     
  0.75000000000000000       0.43750000000000000        0.0000000000000000     
  0.78125000000000000       0.43750000000000000        0.0000000000000000     
  0.81250000000000000       0.43750000000000000        0.0000000000000000     
  0.84375000000000000       0.43750000000000000        0.0000000000000000     
  0.87500000000000000       0.43750000000000000        0.0000000000000000     
  0.75000000000000000       0.46875000000000000        0.0000000000000000     
  0.78125000000000000       0.46875000000000000        0.0000000000000000     
  0.81250000000000000       0.46875000000000000        0.0000000000000000     
  0.84375000000000000       0.46875000000000000        0.0000000000000000     
  0.87500000000000000       0.46875000000000000        0.0000000000000000     
  0.75000000000000000       0.50000000000000000        0.0000000000000000     
  0.78125000000000000       0.50000000000000000        0.0000000000000000     
  0.81250000000000000       0.50000000000000000        0.0000000000000000     
  0.84375000000000000       0.50000000000000000        0.0000000000000000     
  0.87500000000000000       0.50000000000000000        0.0000000000000000     
  0.87500000000000000       0.37500000000000000        0.0000000000000000     
  0.90625000000000000       0.37500000000000000        0.0000000000000000     
  0.93750000000000000       0.37500000000000000        0.0000000000000000     
  0.96875000000000000       0.37500000000000000        0.0000000000000000     
   1.0000000000000000       0.37500000000000000        0.0000000000000000     
  0.87500000000000000       0.40625000000000000        0.0000000000000000     
  0.90625000000000000       0.40625000000000000        0.0000000000000000     
  0.93750000000000000       0.40625000000000000        0.0000000000000000     
  0.96875000000000000       0.40625000000000000        0.0000000000000000     
   1.0000000000000000       0.40625000000000000        0.0000000000000000     
  0.87500000000000000       0.43750000000000000        0.0000000000000000     
  0.90625000000000000       0.43750000000000000        0.0000000000000000     
  0.93750000000000000       0.43750000000000000        0.0000000000000000     
  0.96875000000000000       0.43750000000000000        0.0000000000000000     
   1.0000000000000000       0.43750000000000000        0.0000000000000000     
  0.87500000000000000       0.46875000000000000        0.0000000000000000     
  0.90625000000000000       0.46875000000000000        0.0000000000000000     
  0.93750000000000000       0.46875000000000000        0.0000000000000000     
  0.96875000000000000       0.46875000000000000        0.0000000000000000     
   1.0000000000000000       0.46875000000000000        0.0000000000000000     
  0.87500000000000000       0.50000000000000000        0.0000000000000000     
  0.90625000000000000       0.50000000000000000        0.0000000000000000     
  0.93750000000000000       0.50000000000000000        0.0000000000000000     
  0.96875000000000000       0.50000000000000000        0.0000000000000000     
   1.0000000000000000       0.50000000000000000        0.0000000000000000     
   0.0000000000000000       0.50000000000000000        0.0000000000000000     
   3.1250000000000000E-002  0.50000000000000000        0.0000000000000000     
   6.2500000000000000E-002  0.50000000000000000        0.0000000000000000     
   9.3750000000000000E-002  0.50000000000000000        0.0000000000000000     
  0.12500000000000000       0.50000000000000000        0.0000000000000000     
   0.0000000000000000       0.53125000000000000        0.0000000000000000     
   3.1250000000000000E-002  0.53125000000000000        0.0000000000000000     
   6.2500000000000000E-002  0.53125000000000000        0.0000000000000000     
   9.3750000000000000E-002  0.53125000000000000        0.0000000000000000     
  0.12500000000000000       0.53125000000000000        0.0000000000000000     
   0.0000000000000000       0.56250000000000000        0.0000000000000000     
   3.1250000000000000E-002  0.56250000000000000        0.0000000000000000     
   6.2500000000000000E-002  0.56250000000000000        0.0000000000000000     
   9.3750000000000000E-002  0.56250000000000000        0.0000000000000000     
  0.12500000000000000       0.56250000000000000        0.0000000000000000     
   0.0000000000000000       0.59375000000000000        0.0000000000000000     
   3.1250000000000000E-002  0.59375000000000000        0.0000000000000000     
   6.2500000000000000E-002  0.59375000000000000        0.0000000000000000     
   9.3750000000000000E-002  0.59375000000000000        0.0000000000000000     
  0.12500000000000000       0.59375000000000000        0.0000000000000000     
   0.0000000000000000       0.62500000000000000        0.0000000000000000     
   3.1250000000000000E-002  0.62500000000000000        0.0000000000000000     
   6.2500000000000000E-002  0.62500000000000000        0.0000000000000000     
   9.3750000000000000E-002  0.62500000000000000        0.0000000000000000     
  0.12500000000000000       0.62500000000000000        0.0000000000000000     
  0.12500000000000000       0.50000000000000000        0.0000000000000000     
  0.15625000000000000       0.50000000000000000        0.0000000000000000     
  0.18750000000000000       0.50000000000000000        0.0000000000000000     
  0.21875000000000000       0.50000000000000000        0.0000000000000000     
  0.25000000000000000       0.50000000000000000        0.0000000000000000     
  0.12500000000000000       0.53125000000000000        0.0000000000000000     
  0.15625000000000000       0.53125000000000000        0.0000000000000000     
  0.18750000000000000       0.53125000000000000        0.0000000000000000     
  0.21875000000000000       0.53125000000000000        0.0000000000000000     
  0.25000000000000000       0.53125000000000000        0.0000000000000000     
  0.12500000000000000       0.56250000000000000        0.0000000000000000     
  0.15625000000000000       0.56250000000000000        0.0000000000000000     
  0.18750000000000000       0.56250000000000000        0.0000000000000000     
  0.21875000000000000       0.56250000000000000        0.0000000000000000     
  0.25000000000000000       0.56250000000000000        0.0000000000000000     
  0.12500000000000000       0.59375000000000000        0.0000000000000000     
  0.15625000000000000       0.59375000000000000        0.0000000000000000     
  0.18750000000000000       0.59375000000000000        0.0000000000000000     
  0.21875000000000000       0.59375000000000000        0.0000000000000000     
  0.25000000000000000       0.59375000000000000        0.0000000000000000     
  0.12500000000000000       0.62500000000000000        0.0000000000000000     
  0.15625000000000000       0.62500000000000000        0.0000000000000000     
  0.18750000000000000       0.62500000000000000        0.0000000000000000     
  0.21875000000000000       0.62500000000000000        0.0000000000000000     
  0.25000000000000000       0.62500000000000000        0.0000000000000000     
  0.25000000000000000       0.50000000000000000        0.0000000000000000     
  0.28125000000000000       0.50000000000000000        0.0000000000000000     
  0.31250000000000000       0.50000000000000000        0.0000000000000000     
  0.34375000000000000       0.50000000000000000        0.0000000000000000     
  0.37500000000000000       0.50000000000000000        0.0000000000000000     
  0.25000000000000000       0.53125000000000000        0.0000000000000000     
  0.28125000000000000       0.53125000000000000        0.0000000000000000     
  0.31250000000000000       0.53125000000000000        0.0000000000000000     
  0.34375000000000000       0.53125000000000000        0.0000000000000000     
  0.37500000000000000       0.53125000000000000        0.0000000000000000     
  0.25000000000000000       0.56250000000000000        0.0000000000000000     
  0.28125000000000000       0.56250000000000000        0.0000000000000000     
  0.31250000000000000       0.56250000000000000        0.0000000000000000     
  0.34375000000000000       0.56250000000000000        0.0000000000000000     
  0.37500000000000000       0.56250000000000000        0.0000000000000000     
  0.25000000000000000       0.59375000000000000        0.0000000000000000     
  0.28125000000000000       0.59375000000000000        0.0000000000000000     
  0.31250000000000000       0.59375000000000000        0.0000000000000000     
  0.34375000000000000       0.59375000000000000        0.0000000000000000     
  0.37500000000000000       0.59375000000000000        0.0000000000000000     
  0.25000000000000000       0.62500000000000000        0.0000000000000000     
  0.28125000000000000       0.62500000000000000        0.0000000000000000     
  0.31250000000000000       0.62500000000000000        0.0000000000000000     
  0.34375000000000000       0.62500000000000000        0.0000000000000000     
  0.37500000000000000       0.62500000000000000        0.0000000000000000     
  0.37500000000000000       0.50000000000000000        0.0000000000000000     
  0.40625000000000000       0.50000000000000000        0.0000000000000000     
  0.43750000000000000       0.50000000000000000        0.0000000000000000     
  0.46875000000000000       0.50000000000000000        0.0000000000000000     
  0.50000000000000000       0.50000000000000000        0.0000000000000000     
  0.37500000000000000       0.53125000000000000        0.0000000000000000     
  0.40625000000000000       0.53125000000000000        0.0000000000000000     
  0.43750000000000000       0.53125000000000000        0.0000000000000000     
  0.46875000000000000       0.53125000000000000        0.0000000000000000     
  0.50000000000000000       0.53125000000000000        0.0000000000000000     
  0.37500000000000000       0.56250000000000000        0.0000000000000000     
  0.40625000000000000       0.56250000000000000        0.0000000000000000     
  0.43750000000000000       0.56250000000000000        0.0000000000000000     
  0.46875000000000000       0.56250000000000000        0.0000000000000000     
  0.50000000000000000       0.56250000000000000        0.0000000000000000     
  0.37500000000000000       0.59375000000000000        0.0000000000000000     
  0.40625000000000000       0.59375000000000000        0.0000000000000000     
  0.43750000000000000       0.59375000000000000        0.0000000000000000     
  0.46875000000000000       0.59375000000000000        0.0000000000000000     
  0.50000000000000000       0.59375000000000000        0.0000000000000000     
  0.37500000000000000       0.62500000000000000        0.0000000000000000     
  0.40625000000000000       0.62500000000000000        0.0000000000000000     
  0.43750000000000000       0.62500000000000000        0.0000000000000000     
  0.46875000000000000       0.62500000000000000        0.0000000000000000     
  0.50000000000000000       0.62500000000000000        0.0000000000000000     
  0.50000000000000000       0.50000000000000000        0.0000000000000000     
  0.53125000000000000       0.50000000000000000        0.0000000000000000     
  0.56250000000000000       0.50000000000000000        0.0000000000000000     
  0.59375000000000000       0.50000000000000000        0.0000000000000000     
  0.62500000000000000       0.50000000000000000        0.0000000000000000     
  0.50000000000000000       0.53125000000000000        0.0000000000000000     
  0.53125000000000000       0.53125000000000000        0.0000000000000000     
  0.56250000000000000       0.53125000000000000        0.0000000000000000     
  0.59375000000000000       0.53125000000000000        0.0000000000000000     
  0.62500000000000000       0.53125000000000000        0.0000000000000000     
  0.50000000000000000       0.56250000000000000        0.0000000000000000     
  0.53125000000000000       0.56250000000000000        0.0000000000000000     
  0.56250000000000000       0.56250000000000000        0.0000000000000000     
  0.59375000000000000       0.56250000000000000        0.0000000000000000     
  0.62500000000000000       0.56250000000000000        0.0000000000000000     
  0.50000000000000000       0.59375000000000000        0.0000000000000000     
  0.53125000000000000       0.59375000000000000        0.0000000000000000     
  0.56250000000000000       0.59375000000000000        0.0000000000000000     
  0.59375000000000000       0.59375000000000000        0.0000000000000000     
  0.62500000000000000       0.59375000000000000        0.0000000000000000     
  0.50000000000000000       0.62500000000000000        0.0000000000000000     
  0.53125000000000000       0.62500000000000000        0.0000000000000000     
  0.56250000000000000       0.62500000000000000        0.0000000000000000     
  0.59375000000000000       0.62500000000000000        0.0000000000000000     
  0.62500000000000000       0.62500000000000000        0.0000000000000000     
  0.62500000000000000       0.50000000000000000        0.0000000000000000     
  0.65625000000000000       0.50000000000000000        0.0000000000000000     
  0.68750000000000000       0.50000000000000000        0.0000000000000000     
  0.71875000000000000       0.50000000000000000        0.0000000000000000     
  0.75000000000000000       0.50000000000000000        0.0000000000000000     
  0.62500000000000000       0.53125000000000000        0.0000000000000000     
  0.65625000000000000       0.53125000000000000        0.0000000000000000     
  0.68750000000000000       0.53125000000000000        0.0000000000000000     
  0.71875000000000000       0.53125000000000000        0.0000000000000000     
  0.75000000000000000       0.53125000000000000        0.0000000000000000     
  0.62500000000000000       0.56250000000000000        0.0000000000000000     
  0.65625000000000000       0.56250000000000000        0.0000000000000000     
  0.68750000000000000       0.56250000000000000        0.0000000000000000     
  0.71875000000000000       0.56250000000000000        0.0000000000000000     
  0.75000000000000000       0.56250000000000000        0.0000000000000000     
  0.62500000000000000       0.59375000000000000        0.0000000000000000     
  0.65625000000000000       0.59375000000000000        0.0000000000000000     
  0.68750000000000000       0.59375000000000000        0.0000000000000000     
  0.71875000000000000       0.59375000000000000        0.0000000000000000     
  0.75000000000000000       0.59375000000000000        0.0000000000000000     
  0.62500000000000000       0.62500000000000000        0.0000000000000000     
  0.65625000000000000       0.62500000000000000        0.0000000000000000     
  0.68750000000000000       0.62500000000000000        0.0000000000000000     
  0.71875000000000000       0.62500000000000000        0.0000000000000000     
  0.75000000000000000       0.62500000000000000        0.0000000000000000     
  0.75000000000000000       0.50000000000000000        0.0000000000000000     
  0.78125000000000000       0.50000000000000000        0.0000000000000000     
  0.81250000000000000       0.50000000000000000        0.0000000000000000     
  0.84375000000000000       0.50000000000000000        0.0000000000000000     
  0.87500000000000000       0.50000000000000000        0.0000000000000000     
  0.75000000000000000       0.53125000000000000        0.0000000000000000     
  0.78125000000000000       0.53125000000000000        0.0000000000000000     
  0.81250000000000000       0.53125000000000000        0.0000000000000000     
  0.84375000000000000       0.53125000000000000        0.0000000000000000     
  0.87500000000000000       0.53125000000000000        0.0000000000000000     
  0.75000000000000000       0.56250000000000000        0.0000000000000000     
  0.78125000000000000       0.56250000000000000        0.0000000000000000     
  0.81250000000000000       0.56250000000000000        0.0000000000000000     
  0.84375000000000000       0.56250000000000000        0.0000000000000000     
  0.87500000000000000       0.56250000000000000        0.0000000000000000     
  0.75000000000000000       0.59375000000000000        0.0000000000000000     
  0.78125000000000000       0.59375000000000000        0.0000000000000000     
  0.81250000000000000       0.59375000000000000        0.0000000000000000     
  0.84375000000000000       0.59375000000000000        0.0000000000000000     
  0.87500000000000000       0.59375000000000000        0.0000000000000000     
  0.75000000000000000       0.62500000000000000        0.0000000000000000     
  0.78125000000000000       0.62500000000000000        0.0000000000000000     
  0.81250000000000000       0.62500000000000000        0.0000000000000000     
  0.84375000000000000       0.62500000000000000        0.0000000000000000     
  0.87500000000000000       0.62500000000000000        0.0000000000000000     
  0.87500000000000000       0.50000000000000000        0.0000000000000000     
  0.90625000000000000       0.50000000000000000        0.0000000000000000     
  0.93750000000000000       0.50000000000000000        0.0000000000000000     
  0.96875000000000000       0.50000000000000000        0.0000000000000000     
   1.0000000000000000       0.50000000000000000        0.0000000000000000     
  0.87500000000000000       0.53125000000000000        0.0000000000000000     
  0.90625000000000000       0.53125000000000000        0.0000000000000000     
  0.93750000000000000       0.53125000000000000        0.0000000000000000     
  0.96875000000000000       0.53125000000000000        0.0000000000000000     
   1.0000000000000000       0.53125000000000000        0.0000000000000000     
  0.87500000000000000       0.56250000000000000        0.0000000000000000     
  0.90625000000000000       0.56250000000000000        0.0000000000000000     
  0.93750000000000000       0.56250000000000000        0.0000000000000000     
  0.96875000000000000       0.56250000000000000        0.0000000000000000     
   1.0000000000000000       0.56250000000000000        0.0000000000000000     
  0.87500000000000000       0.59375000000000000        0.0000000000000000     
  0.90625000000000000       0.59375000000000000        0.0000000000000000     
  0.93750000000000000       0.59375000000000000        0.0000000000000000     
  0.96875000000000000       0.59375000000000000        0.0000000000000000     
   1.0000000000000000       0.59375000000000000        0.0000000000000000     
  0.87500000000000000       0.62500000000000000        0.0000000000000000     
  0.90625000000000000       0.62500000000000000        0.0000000000000000     
  0.93750000000000000       0.62500000000000000        0.0000000000000000     
  0.96875000000000000       0.62500000000000000        0.0000000000000000     
   1.0000000000000000       0.62500000000000000        0.0000000000000000     
   0.0000000000000000       0.62500000000000000        0.0000000000000000     
   3.1250000000000000E-002  0.62500000000000000        0.0000000000000000     
   6.2500000000000000E-002  0.62500000000000000        0.0000000000000000     
   9.3750000000000000E-002  0.62500000000000000        0.0000000000000000     
  0.12500000000000000       0.62500000000000000        0.0000000000000000     
   0.0000000000000000       0.65625000000000000        0.0000000000000000     
   3.1250000000000000E-002  0.65625000000000000        0.0000000000000000     
   6.2500000000000000E-002  0.65625000000000000        0.0000000000000000     
   9.3750000000000000E-002  0.65625000000000000        0.0000000000000000     
  0.12500000000000000       0.65625000000000000        0.0000000000000000     
   0.0000000000000000       0.68750000000000000        0.0000000000000000     
   3.1250000000000000E-002  0.68750000000000000        0.0000000000000000     
   6.2500000000000000E-002  0.68750000000000000        0.0000000000000000     
   9.3750000000000000E-002  0.68750000000000000        0.0000000000000000     
  0.12500000000000000       0.68750000000000000        0.0000000000000000     
   0.0000000000000000       0.71875000000000000        0.0000000000000000     
   3.1250000000000000E-002  0.71875000000000000        0.0000000000000000     
   6.2500000000000000E-002  0.71875000000000000        0.0000000000000000     
   9.3750000000000000E-002  0.71875000000000000        0.0000000000000000     
  0.12500000000000000       0.71875000000000000        0.0000000000000000     
   0.0000000000000000       0.75000000000000000        0.0000000000000000     
   3.1250000000000000E-002  0.75000000000000000        0.0000000000000000     
   6.2500000000000000E-002  0.75000000000000000        0.0000000000000000     
   9.3750000000000000E-002  0.75000000000000000        0.0000000000000000     
  0.12500000000000000       0.75000000000000000        0.0000000000000000     
  0.12500000000000000       0.62500000000000000        0.0000000000000000     
  0.15625000000000000       0.62500000000000000        0.0000000000000000     
  0.18750000000000000       0.62500000000000000        0.0000000000000000     
  0.21875000000000000       0.62500000000000000        0.0000000000000000     
  0.25000000000000000       0.62500000000000000        0.0000000000000000     
  0.12500000000000000       0.65625000000000000        0.0000000000000000     
  0.15625000000000000       0.65625000000000000        0.0000000000000000     
  0.18750000000000000       0.65625000000000000        0.0000000000000000     
  0.21875000000000000       0.65625000000000000        0.0000000000000000     
  0.25000000000000000       0.65625000000000000        0.0000000000000000     
  0.12500000000000000       0.68750000000000000        0.0000000000000000     
  0.15625000000000000       0.68750000000000000        0.0000000000000000     
  0.18750000000000000       0.68750000000000000        0.0000000000000000     
  0.21875000000000000       0.68750000000000000        0.0000000000000000     
  0.25000000000000000       0.68750000000000000        0.0000000000000000     
  0.12500000000000000       0.71875000000000000        0.0000000000000000     
  0.15625000000000000       0.71875000000000000        0.0000000000000000     
  0.18750000000000000       0.71875000000000000        0.0000000000000000     
  0.21875000000000000       0.71875000000000000        0.0000000000000000     
  0.25000000000000000       0.71875000000000000        0.0000000000000000     
  0.12500000000000000       0.75000000000000000        0.0000000000000000     
  0.15625000000000000       0.75000000000000000        0.0000000000000000     
  0.18750000000000000       0.75000000000000000        0.0000000000000000     
  0.21875000000000000       0.75000000000000000        0.0000000000000000     
  0.25000000000000000       0.75000000000000000        0.0000000000000000     
  0.25000000000000000       0.62500000000000000        0.0000000000000000     
  0.28125000000000000       0.62500000000000000        0.0000000000000000     
  0.31250000000000000       0.62500000000000000        0.0000000000000000     
  0.34375000000000000       0.62500000000000000        0.0000000000000000     
  0.37500000000000000       0.62500000000000000        0.0000000000000000     
  0.25000000000000000       0.65625000000000000        0.0000000000000000     
  0.28125000000000000       0.65625000000000000        0.0000000000000000     
  0.31250000000000000       0.65625000000000000        0.0000000000000000     
  0.34375000000000000       0.65625000000000000        0.0000000000000000     
  0.37500000000000000       0.65625000000000000        0.0000000000000000     
  0.25000000000000000       0.68750000000000000        0.0000000000000000     
  0.28125000000000000       0.68750000000000000        0.0000000000000000     
  0.31250000000000000       0.68750000000000000        0.0000000000000000     
  0.34375000000000000       0.68750000000000000        0.0000000000000000     
  0.37500000000000000       0.68750000000000000        0.0000000000000000     
  0.25000000000000000       0.71875000000000000        0.0000000000000000     
  0.28125000000000000       0.71875000000000000        0.0000000000000000     
  0.31250000000000000       0.71875000000000000        0.0000000000000000     
  0.34375000000000000       0.71875000000000000        0.0000000000000000     
  0.37500000000000000       0.71875000000000000        0.0000000000000000     
  0.25000000000000000       0.75000000000000000        0.0000000000000000     
  0.28125000000000000       0.75000000000000000        0.0000000000000000     
  0.31250000000000000       0.75000000000000000        0.0000000000000000     
  0.34375000000000000       0.75000000000000000        0.0000000000000000     
  0.37500000000000000       0.75000000000000000        0.0000000000000000     
  0.37500000000000000       0.62500000000000000        0.0000000000000000     
  0.40625000000000000       0.62500000000000000        0.0000000000000000     
  0.43750000000000000       0.62500000000000000        0.0000000000000000     
  0.46875000000000000       0.62500000000000000        0.0000000000000000     
  0.50000000000000000       0.62500000000000000        0.0000000000000000     
  0.37500000000000000       0.65625000000000000        0.0000000000000000     
  0.40625000000000000       0.65625000000000000        0.0000000000000000     
  0.43750000000000000       0.65625000000000000        0.0000000000000000     
  0.46875000000000000       0.65625000000000000        0.0000000000000000     
  0.50000000000000000       0.65625000000000000        0.0000000000000000     
  0.37500000000000000       0.68750000000000000        0.0000000000000000     
  0.40625000000000000       0.68750000000000000        0.0000000000000000     
  0.43750000000000000       0.68750000000000000        0.0000000000000000     
  0.46875000000000000       0.68750000000000000        0.0000000000000000     
  0.50000000000000000       0.68750000000000000        0.0000000000000000     
  0.37500000000000000       0.71875000000000000        0.0000000000000000     
  0.40625000000000000       0.71875000000000000        0.0000000000000000     
  0.43750000000000000       0.71875000000000000        0.0000000000000000     
  0.46875000000000000       0.71875000000000000        0.0000000000000000     
  0.50000000000000000       0.71875000000000000        0.0000000000000000     
  0.37500000000000000       0.75000000000000000        0.0000000000000000     
  0.40625000000000000       0.75000000000000000        0.0000000000000000     
  0.43750000000000000       0.75000000000000000        0.0000000000000000     
  0.46875000000000000       0.75000000000000000        0.0000000000000000     
  0.50000000000000000       0.75000000000000000        0.0000000000000000     
  0.50000000000000000       0.62500000000000000        0.0000000000000000     
  0.53125000000000000       0.62500000000000000        0.0000000000000000     
  0.56250000000000000       0.62500000000000000        0.0000000000000000     
  0.59375000000000000       0.62500000000000000        0.0000000000000000     
  0.62500000000000000       0.62500000000000000        0.0000000000000000     
  0.50000000000000000       0.65625000000000000        0.0000000000000000     
  0.53125000000000000       0.65625000000000000        0.0000000000000000     
  0.56250000000000000       0.65625000000000000        0.0000000000000000     
  0.59375000000000000       0.65625000000000000        0.0000000000000000     
  0.62500000000000000       0.65625000000000000        0.0000000000000000     
  0.50000000000000000       0.68750000000000000        0.0000000000000000     
  0.53125000000000000       0.68750000000000000        0.0000000000000000     
  0.56250000000000000       0.68750000000000000        0.0000000000000000     
  0.59375000000000000       0.68750000000000000        0.0000000000000000     
  0.62500000000000000       0.68750000000000000        0.0000000000000000     
  0.50000000000000000       0.71875000000000000        0.0000000000000000     
  0.53125000000000000       0.71875000000000000        0.0000000000000000     
  0.56250000000000000       0.71875000000000000        0.0000000000000000     
  0.59375000000000000       0.71875000000000000        0.0000000000000000     
  0.62500000000000000       0.71875000000000000        0.0000000000000000     
  0.50000000000000000       0.75000000000000000        0.0000000000000000     
  0.53125000000000000       0.75000000000000000        0.0000000000000000     
  0.56250000000000000       0.75000000000000000        0.0000000000000000     
  0.59375000000000000       0.75000000000000000        0.0000000000000000     
  0.62500000000000000       0.75000000000000000        0.0000000000000000     
  0.62500000000000000       0.62500000000000000        0.0000000000000000     
  0.65625000000000000       0.62500000000000000        0.0000000000000000     
  0.68750000000000000       0.62500000000000000        0.0000000000000000     
  0.71875000000000000       0.62500000000000000        0.0000000000000000     
  0.75000000000000000       0.62500000000000000        0.0000000000000000     
  0.62500000000000000       0.65625000000000000        0.0000000000000000     
  0.65625000000000000       0.65625000000000000        0.0000000000000000     
  0.68750000000000000       0.65625000000000000        0.0000000000000000     
  0.71875000000000000       0.65625000000000000        0.0000000000000000     
  0.75000000000000000       0.65625000000000000        0.0000000000000000     
  0.62500000000000000       0.68750000000000000        0.0000000000000000     
  0.65625000000000000       0.68750000000000000        0.0000000000000000     
  0.68750000000000000       0.68750000000000000        0.0000000000000000     
  0.71875000000000000       0.68750000000000000        0.0000000000000000     
  0.75000000000000000       0.68750000000000000        0.0000000000000000     
  0.62500000000000000       0.71875000000000000        0.0000000000000000     
  0.65625000000000000       0.71875000000000000        0.0000000000000000     
  0.68750000000000000       0.71875000000000000        0.0000000000000000     
  0.71875000000000000       0.71875000000000000        0.0000000000000000     
  0.75000000000000000       0.71875000000000000        0.0000000000000000     
  0.62500000000000000       0.75000000000000000        0.0000000000000000     
  0.65625000000000000       0.75000000000000000        0.0000000000000000     
  0.68750000000000000       0.75000000000000000        0.0000000000000000     
  0.71875000000000000       0.75000000000000000        0.0000000000000000     
  0.75000000000000000       0.75000000000000000        0.0000000000000000     
  0.75000000000000000       0.62500000000000000        0.0000000000000000     
  0.78125000000000000       0.62500000000000000        0.0000000000000000     
  0.81250000000000000       0.62500000000000000        0.0000000000000000     
  0.84375000000000000       0.62500000000000000        0.0000000000000000     
  0.87500000000000000       0.62500000000000000        0.0000000000000000     
  0.75000000000000000       0.65625000000000000        0.0000000000000000     
  0.78125000000000000       0.65625000000000000        0.0000000000000000     
  0.81250000000000000       0.65625000000000000        0.0000000000000000     
  0.84375000000000000       0.65625000000000000        0.0000000000000000     
  0.87500000000000000       0.65625000000000000        0.0000000000000000     
  0.75000000000000000       0.68750000000000000        0.0000000000000000     
  0.78125000000000000       0.68750000000000000        0.0000000000000000     
  0.81250000000000000       0.68750000000000000        0.0000000000000000     
  0.84375000000000000       0.68750000000000000        0.0000000000000000     
  0.87500000000000000       0.68750000000000000        0.0000000000000000     
  0.75000000000000000       0.71875000000000000        0.0000000000000000     
  0.78125000000000000       0.71875000000000000        0.0000000000000000     
  0.81250000000000000       0.71875000000000000        0.0000000000000000     
  0.84375000000000000       0.71875000000000000        0.0000000000000000     
  0.87500000000000000       0.71875000000000000        0.0000000000000000     
  0.75000000000000000       0.75000000000000000        0.0000000000000000     
  0.78125000000000000       0.75000000000000000        0.0000000000000000     
  0.81250000000000000       0.75000000000000000        0.0000000000000000     
  0.84375000000000000       0.75000000000000000        0.0000000000000000     
  0.87500000000000000       0.75000000000000000        0.0000000000000000     
  0.87500000000000000       0.62500000000000000        0.0000000000000000     
  0.90625000000000000       0.62500000000000000        0.0000000000000000     
  0.93750000000000000       0.62500000000000000        0.0000000000000000     
  0.96875000000000000       0.62500000000000000        0.0000000000000000     
   1.0000000000000000       0.62500000000000000        0.0000000000000000     
  0.87500000000000000       0.65625000000000000        0.0000000000000000     
  0.90625000000000000       0.65625000000000000        0.0000000000000000     
  0.93750000000000000       0.65625000000000000        0.0000000000000000     
  0.96875000000000000       0.65625000000000000        0.0000000000000000     
   1.0000000000000000       0.65625000000000000        0.0000000000000000     
  0.87500000000000000       0.68750000000000000        0.0000000000000000     
  0.90625000000000000       0.68750000000000000        0.0000000000000000     
  0.93750000000000000       0.68750000000000000        0.0000000000000000     
  0.96875000000000000       0.68750000000000000        0.0000000000000000     
   1.0000000000000000       0.68750000000000000        0.0000000000000000     
  0.87500000000000000       0.71875000000000000        0.0000000000000000     
  0.90625000000000000       0.71875000000000000        0.0000000000000000     
  0.93750000000000000       0.71875000000000000        0.0000000000000000     
  0.96875000000000000       0.71875000000000000        0.0000000000000000     
   1.0000000000000000       0.71875000000000000        0.0000000000000000     
  0.87500000000000000       0.75000000000000000        0.0000000000000000     
  0.90625000000000000       0.75000000000000000        0.0000000000000000     
  0.93750000000000000       0.75000000000000000        0.0000000000000000     
  0.96875000000000000       0.75000000000000000        0.0000000000000000     
   1.0000000000000000       0.75000000000000000        0.0000000000000000     
   0.0000000000000000       0.75000000000000000        0.0000000000000000     
   3.1250000000000000E-002  0.75000000000000000        0.0000000000000000     
   6.2500000000000000E-002  0.75000000000000000        0.0000000000000000     
   9.3750000000000000E-002  0.75000000000000000        0.0000000000000000     
  0.12500000000000000       0.75000000000000000        0.0000000000000000     
   0.0000000000000000       0.78125000000000000        0.0000000000000000     
   3.1250000000000000E-002  0.78125000000000000        0.0000000000000000     
   6.2500000000000000E-002  0.78125000000000000        0.0000000000000000     
   9.3750000000000000E-002  0.78125000000000000        0.0000000000000000     
  0.12500000000000000       0.78125000000000000        0.0000000000000000     
   0.0000000000000000       0.81250000000000000        0.0000000000000000     
   3.1250000000000000E-002  0.81250000000000000        0.0000000000000000     
   6.2500000000000000E-002  0.81250000000000000        0.0000000000000000     
   9.3750000000000000E-002  0.81250000000000000        0.0000000000000000     
  0.12500000000000000       0.81250000000000000        0.0000000000000000     
   0.0000000000000000       0.84375000000000000        0.0000000000000000     
   3.1250000000000000E-002  0.84375000000000000        0.0000000000000000     
   6.2500000000000000E-002  0.84375000000000000        0.0000000000000000     
   9.3750000000000000E-002  0.84375000000000000        0.0000000000000000     
  0.12500000000000000       0.84375000000000000        0.0000000000000000     
   0.0000000000000000       0.87500000000000000        0.0000000000000000     
   3.1250000000000000E-002  0.87500000000000000        0.0000000000000000     
   6.2500000000000000E-002  0.87500000000000000        0.0000000000000000     
   9.3750000000000000E-002  0.87500000000000000        0.0000000000000000     
  0.12500000000000000       0.87500000000000000        0.0000000000000000     
  0.12500000000000000       0.75000000000000000        0.0000000000000000     
  0.15625000000000000       0.75000000000000000        0.0000000000000000     
  0.18750000000000000       0.75000000000000000        0.0000000000000000     
  0.21875000000000000       0.75000000000000000        0.0000000000000000     
  0.25000000000000000       0.75000000000000000        0.0000000000000000     
  0.12500000000000000       0.78125000000000000        0.0000000000000000     
  0.15625000000000000       0.78125000000000000        0.0000000000000000     
  0.18750000000000000       0.78125000000000000        0.0000000000000000     
  0.21875000000000000       0.78125000000000000        0.0000000000000000     
  0.25000000000000000       0.78125000000000000        0.0000000000000000     
  0.12500000000000000       0.81250000000000000        0.0000000000000000     
  0.15625000000000000       0.81250000000000000        0.0000000000000000     
  0.18750000000000000       0.81250000000000000        0.0000000000000000     
  0.21875000000000000       0.81250000000000000        0.0000000000000000     
  0.25000000000000000       0.81250000000000000        0.0000000000000000     
  0.12500000000000000       0.84375000000000000        0.0000000000000000     
  0.15625000000000000       0.84375000000000000        0.0000000000000000     
  0.18750000000000000       0.84375000000000000        0.0000000000000000     
  0.21875000000000000       0.84375000000000000        0.0000000000000000     
  0.25000000000000000       0.84375000000000000        0.0000000000000000     
  0.12500000000000000       0.87500000000000000        0.0000000000000000     
  0.15625000000000000       0.87500000000000000        0.0000000000000000     
  0.18750000000000000       0.87500000000000000        0.0000000000000000     
  0.21875000000000000       0.87500000000000000        0.0000000000000000     
  0.25000000000000000       0.87500000000000000        0.0000000000000000     
  0.25000000000000000       0.75000000000000000        0.0000000000000000     
  0.28125000000000000       0.75000000000000000        0.0000000000000000     
  0.31250000000000000       0.75000000000000000        0.0000000000000000     
  0.34375000000000000       0.75000000000000000        0.0000000000000000     
  0.37500000000000000       0.75000000000000000        0.0000000000000000     
  0.25000000000000000       0.78125000000000000        0.0000000000000000     
  0.28125000000000000       0.78125000000000000        0.0000000000000000     
  0.31250000000000000       0.78125000000000000        0.0000000000000000     
  0.34375000000000000       0.78125000000000000        0.0000000000000000     
  0.37500000000000000       0.78125000000000000        0.0000000000000000     
  0.25000000000000000       0.81250000000000000        0.0000000000000000     
  0.28125000000000000       0.81250000000000000        0.0000000000000000     
  0.31250000000000000       0.81250000000000000        0.0000000000000000     
  0.34375000000000000       0.81250000000000000        0.0000000000000000     
  0.37500000000000000       0.81250000000000000        0.0000000000000000     
  0.25000000000000000       0.84375000000000000        0.0000000000000000     
  0.28125000000000000       0.84375000000000000        0.0000000000000000     
  0.31250000000000000       0.84375000000000000        0.0000000000000000     
  0.34375000000000000       0.84375000000000000        0.0000000000000000     
  0.37500000000000000       0.84375000000000000        0.0000000000000000     
  0.25000000000000000       0.87500000000000000        0.0000000000000000     
  0.28125000000000000       0.87500000000000000        0.0000000000000000     
  0.31250000000000000       0.87500000000000000        0.0000000000000000     
  0.34375000000000000       0.87500000000000000        0.0000000000000000     
  0.37500000000000000       0.87500000000000000        0.0000000000000000     
  0.37500000000000000       0.75000000000000000        0.0000000000000000     
  0.40625000000000000       0.75000000000000000        0.0000000000000000     
  0.43750000000000000       0.75000000000000000        0.0000000000000000     
  0.46875000000000000       0.75000000000000000        0.0000000000000000     
  0.50000000000000000       0.75000000000000000        0.0000000000000000     
  0.37500000000000000       0.78125000000000000        0.0000000000000000     
  0.40625000000000000       0.78125000000000000        0.0000000000000000     
  0.43750000000000000       0.78125000000000000        0.0000000000000000     
  0.46875000000000000       0.78125000000000000        0.0000000000000000     
  0.50000000000000000       0.78125000000000000        0.0000000000000000     
  0.37500000000000000       0.81250000000000000        0.0000000000000000     
  0.40625000000000000       0.81250000000000000        0.0000000000000000     
  0.43750000000000000       0.81250000000000000        0.0000000000000000     
  0.46875000000000000       0.81250000000000000        0.0000000000000000     
  0.50000000000000000       0.81250000000000000        0.0000000000000000     
  0.37500000000000000       0.84375000000000000        0.0000000000000000     
  0.40625000000000000       0.84375000000000000        0.0000000000000000     
  0.43750000000000000       0.84375000000000000        0.0000000000000000     
  0.46875000000000000       0.84375000000000000        0.0000000000000000     
  0.50000000000000000       0.84375000000000000        0.0000000000000000     
  0.37500000000000000       0.87500000000000000        0.0000000000000000     
  0.40625000000000000       0.87500000000000000        0.0000000000000000     
  0.43750000000000000       0.87500000000000000        0.0000000000000000     
  0.46875000000000000       0.87500000000000000        0.0000000000000000     
  0.50000000000000000       0.87500000000000000        0.0000000000000000     
  0.50000000000000000       0.75000000000000000        0.0000000000000000     
  0.53125000000000000       0.75000000000000000        0.0000000000000000     
  0.56250000000000000       0.75000000000000000        0.0000000000000000     
  0.59375000000000000       0.75000000000000000        0.0000000000000000     
  0.62500000000000000       0.75000000000000000        0.0000000000000000     
  0.50000000000000000       0.78125000000000000        0.0000000000000000     
  0.53125000000000000       0.78125000000000000        0.0000000000000000     
  0.56250000000000000       0.78125000000000000        0.0000000000000000     
  0.59375000000000000       0.78125000000000000        0.0000000000000000     
  0.62500000000000000       0.78125000000000000        0.0000000000000000     
  0.50000000000000000       0.81250000000000000        0.0000000000000000     
  0.53125000000000000       0.81250000000000000        0.0000000000000000     
  0.56250000000000000       0.81250000000000000        0.0000000000000000     
  0.59375000000000000       0.81250000000000000        0.0000000000000000     
  0.62500000000000000       0.81250000000000000        0.0000000000000000     
  0.50000000000000000       0.84375000000000000        0.0000000000000000     
  0.53125000000000000       0.84375000000000000        0.0000000000000000     
  0.56250000000000000       0.84375000000000000        0.0000000000000000     
  0.59375000000000000       0.84375000000000000        0.0000000000000000     
  0.62500000000000000       0.84375000000000000        0.0000000000000000     
  0.50000000000000000       0.87500000000000000        0.0000000000000000     
  0.53125000000000000       0.87500000000000000        0.0000000000000000     
  0.56250000000000000       0.87500000000000000        0.0000000000000000     
  0.59375000000000000       0.87500000000000000        0.0000000000000000     
  0.62500000000000000       0.87500000000000000        0.0000000000000000     
  0.62500000000000000       0.75000000000000000        0.0000000000000000     
  0.65625000000000000       0.75000000000000000        0.0000000000000000     
  0.68750000000000000       0.75000000000000000        0.0000000000000000     
  0.71875000000000000       0.75000000000000000        0.0000000000000000     
  0.75000000000000000       0.75000000000000000        0.0000000000000000     
  0.62500000000000000       0.78125000000000000        0.0000000000000000     
  0.65625000000000000       0.78125000000000000        0.0000000000000000     
  0.68750000000000000       0.78125000000000000        0.0000000000000000     
  0.71875000000000000       0.78125000000000000        0.0000000000000000     
  0.75000000000000000       0.78125000000000000        0.0000000000000000     
  0.62500000000000000       0.81250000000000000        0.0000000000000000     
  0.65625000000000000       0.81250000000000000        0.0000000000000000     
  0.68750000000000000       0.81250000000000000        0.0000000000000000     
  0.71875000000000000       0.81250000000000000        0.0000000000000000     
  0.75000000000000000       0.81250000000000000        0.0000000000000000     
  0.62500000000000000       0.84375000000000000        0.0000000000000000     
  0.65625000000000000       0.84375000000000000        0.0000000000000000     
  0.68750000000000000       0.84375000000000000        0.0000000000000000     
  0.71875000000000000       0.84375000000000000        0.0000000000000000     
  0.75000000000000000       0.84375000000000000        0.0000000000000000     
  0.62500000000000000       0.87500000000000000        0.0000000000000000     
  0.65625000000000000       0.87500000000000000        0.0000000000000000     
  0.68750000000000000       0.87500000000000000        0.0000000000000000     
  0.71875000000000000       0.87500000000000000        0.0000000000000000     
  0.75000000000000000       0.87500000000000000        0.0000000000000000     
  0.75000000000000000       0.75000000000000000        0.0000000000000000     
  0.78125000000000000       0.75000000000000000        0.0000000000000000     
  0.81250000000000000       0.75000000000000000        0.0000000000000000     
  0.84375000000000000       0.75000000000000000        0.0000000000000000     
  0.87500000000000000       0.75000000000000000        0.0000000000000000     
  0.75000000000000000       0.78125000000000000        0.0000000000000000     
  0.78125000000000000       0.78125000000000000        0.0000000000000000     
  0.81250000000000000       0.78125000000000000        0.0000000000000000     
  0.84375000000000000       0.78125000000000000        0.0000000000000000     
  0.87500000000000000       0.78125000000000000        0.0000000000000000     
  0.75000000000000000       0.81250000000000000        0.0000000000000000     
  0.78125000000000000       0.81250000000000000        0.0000000000000000     
  0.81250000000000000       0.81250000000000000        0.0000000000000000     
  0.84375000000000000       0.81250000000000000        0.0000000000000000     
  0.87500000000000000       0.81250000000000000        0.0000000000000000     
  0.75000000000000000       0.84375000000000000        0.0000000000000000     
  0.78125000000000000       0.84375000000000000        0.0000000000000000     
  0.81250000000000000       0.84375000000000000        0.0000000000000000     
  0.84375000000000000       0.84375000000000000        0.0000000000000000     
  0.87500000000000000       0.84375000000000000        0.0000000000000000     
  0.75000000000000000       0.87500000000000000        0.0000000000000000     
  0.78125000000000000       0.87500000000000000        0.0000000000000000     
  0.81250000000000000       0.87500000000000000        0.0000000000000000     
  0.84375000000000000       0.87500000000000000        0.0000000000000000     
  0.87500000000000000       0.87500000000000000        0.0000000000000000     
  0.87500000000000000       0.75000000000000000        0.0000000000000000     
  0.90625000000000000       0.75000000000000000        0.0000000000000000     
  0.93750000000000000       0.75000000000000000        0.0000000000000000     
  0.96875000000000000       0.75000000000000000        0.0000000000000000     
   1.0000000000000000       0.75000000000000000        0.0000000000000000     
  0.87500000000000000       0.78125000000000000        0.0000000000000000     
  0.90625000000000000       0.78125000000000000        0.0000000000000000     
  0.93750000000000000       0.78125000000000000        0.0000000000000000     
  0.96875000000000000       0.78125000000000000        0.0000000000000000     
   1.0000000000000000       0.78125000000000000        0.0000000000000000     
  0.87500000000000000       0.81250000000000000        0.0000000000000000     
  0.90625000000000000       0.81250000000000000        0.0000000000000000     
  0.93750000000000000       0.81250000000000000        0.0000000000000000     
  0.96875000000000000       0.81250000000000000        0.0000000000000000     
   1.0000000000000000       0.81250000000000000        0.0000000000000000     
  0.87500000000000000       0.84375000000000000        0.0000000000000000     
  0.90625000000000000       0.84375000000000000        0.0000000000000000     
  0.93750000000000000       0.84375000000000000        0.0000000000000000     
  0.96875000000000000       0.84375000000000000        0.0000000000000000     
   1.0000000000000000       0.84375000000000000        0.0000000000000000     
  0.87500000000000000       0.87500000000000000        0.0000000000000000     
  0.90625000000000000       0.87500000000000000        0.0000000000000000     
  0.93750000000000000       0.87500000000000000        0.0000000000000000     
  0.96875000000000000       0.87500000000000000        0.0000000000000000     
   1.0000000000000000       0.87500000000000000        0.0000000000000000     
   0.0000000000000000       0.87500000000000000        0.0000000000000000     
   3.1250000000000000E-002  0.87500000000000000        0.0000000000000000     
   6.2500000000000000E-002  0.87500000000000000        0.0000000000000000     
   9.3750000000000000E-002  0.87500000000000000        0.0000000000000000     
  0.12500000000000000       0.87500000000000000        0.0000000000000000     
   0.0000000000000000       0.90625000000000000        0.0000000000000000     
   3.1250000000000000E-002  0.90625000000000000        0.0000000000000000     
   6.2500000000000000E-002  0.90625000000000000        0.0000000000000000     
   9.3750000000000000E-002  0.90625000000000000        0.0000000000000000     
  0.12500000000000000       0.90625000000000000        0.0000000000000000     
   0.0000000000000000       0.93750000000000000        0.0000000000000000     
   3.1250000000000000E-002  0.93750000000000000        0.0000000000000000     
   6.2500000000000000E-002  0.93750000000000000        0.0000000000000000     
   9.3750000000000000E-002  0.93750000000000000        0.0000000000000000     
  0.12500000000000000       0.93750000000000000        0.0000000000000000     
   0.0000000000000000       0.96875000000000000        0.0000000000000000     
   3.1250000000000000E-002  0.96875000000000000        0.0000000000000000     
   6.2500000000000000E-002  0.96875000000000000        0.0000000000000000     
   9.3750000000000000E-002  0.96875000000000000        0.0000000000000000     
  0.12500000000000000       0.96875000000000000        0.0000000000000000     
   0.0000000000000000        1.0000000000000000        0.0000000000000000     
   3.1250000000000000E-002   1.0000000000000000        0.0000000000000000     
   6.2500000000000000E-002   1.0000000000000000        0.0000000000000000     
   9.3750000000000000E-002   1.0000000000000000        0.0000000000000000     
  0.12500000000000000        1.0000000000000000        0.0000000000000000     
  0.12500000000000000       0.87500000000000000        0.0000000000000000     
  0.15625000000000000       0.87500000000000000        0.0000000000000000     
  0.18750000000000000       0.87500000000000000        0.0000000000000000     
  0.21875000000000000       0.87500000000000000        0.0000000000000000     
  0.25000000000000000       0.87500000000000000        0.0000000000000000     
  0.12500000000000000       0.90625000000000000        0.0000000000000000     
  0.15625000000000000       0.90625000000000000        0.0000000000000000     
  0.18750000000000000       0.90625000000000000        0.0000000000000000     
  0.21875000000000000       0.90625000000000000        0.0000000000000000     
  0.25000000000000000       0.90625000000000000        0.0000000000000000     
  0.12500000000000000       0.93750000000000000        0.0000000000000000     
  0.15625000000000000       0.93750000000000000        0.0000000000000000     
  0.18750000000000000       0.93750000000000000        0.0000000000000000     
  0.21875000000000000       0.93750000000000000        0.0000000000000000     
  0.25000000000000000       0.93750000000000000        0.0000000000000000     
  0.12500000000000000       0.96875000000000000        0.0000000000000000     
  0.15625000000000000       0.96875000000000000        0.0000000000000000     
  0.18750000000000000       0.96875000000000000        0.0000000000000000     
  0.21875000000000000       0.96875000000000000        0.0000000000000000     
  0.25000000000000000       0.96875000000000000        0.0000000000000000     
  0.12500000000000000        1.0000000000000000        0.0000000000000000     
  0.15625000000000000        1.0000000000000000        0.0000000000000000     
  0.18750000000000000        1.0000000000000000        0.0000000000000000     
  0.21875000000000000        1.0000000000000000        0.0000000000000000     
  0.25000000000000000        1.0000000000000000        0.0000000000000000     
  0.25000000000000000       0.87500000000000000        0.0000000000000000     
  0.28125000000000000       0.87500000000000000        0.0000000000000000     
  0.31250000000000000       0.87500000000000000        0.0000000000000000     
  0.34375000000000000       0.87500000000000000        0.0000000000000000     
  0.37500000000000000       0.87500000000000000        0.0000000000000000     
  0.25000000000000000       0.90625000000000000        0.0000000000000000     
  0.28125000000000000       0.90625000000000000        0.0000000000000000     
  0.31250000000000000       0.90625000000000000        0.0000000000000000     
  0.34375000000000000       0.90625000000000000        0.0000000000000000     
  0.37500000000000000       0.90625000000000000        0.0000000000000000     
  0.25000000000000000       0.93750000000000000        0.0000000000000000     
  0.28125000000000000       0.93750000000000000        0.0000000000000000     
  0.31250000000000000       0.93750000000000000        0.0000000000000000     
  0.34375000000000000       0.93750000000000000        0.0000000000000000     
  0.37500000000000000       0.93750000000000000        0.0000000000000000     
  0.25000000000000000       0.96875000000000000        0.0000000000000000     
  0.28125000000000000       0.96875000000000000        0.0000000000000000     
  0.31250000000000000       0.96875000000000000        0.0000000000000000     
  0.34375000000000000       0.96875000000000000        0.0000000000000000     
  0.37500000000000000       0.96875000000000000        0.0000000000000000     
  0.25000000000000000        1.0000000000000000        0.0000000000000000     
  0.28125000000000000        1.0000000000000000        0.0000000000000000     
  0.31250000000000000        1.0000000000000000        0.0000000000000000     
  0.34375000000000000        1.0000000000000000        0.0000000000000000     
  0.37500000000000000        1.0000000000000000        0.0000000000000000     
  0.37500000000000000       0.87500000000000000        0.0000000000000000     
  0.40625000000000000       0.87500000000000000        0.0000000000000000     
  0.43750000000000000       0.87500000000000000        0.0000000000000000     
  0.46875000000000000       0.87500000000000000        0.0000000000000000     
  0.50000000000000000       0.87500000000000000        0.0000000000000000     
  0.37500000000000000       0.90625000000000000        0.0000000000000000     
  0.40625000000000000       0.90625000000000000        0.0000000000000000     
  0.43750000000000000       0.90625000000000000        0.0000000000000000     
  0.46875000000000000       0.90625000000000000        0.0000000000000000     
  0.50000000000000000       0.90625000000000000        0.0000000000000000     
  0.37500000000000000       0.93750000000000000        0.0000000000000000     
  0.40625000000000000       0.93750000000000000        0.0000000000000000     
  0.43750000000000000       0.93750000000000000        0.0000000000000000     
  0.46875000000000000       0.93750000000000000        0.0000000000000000     
  0.50000000000000000       0.93750000000000000        0.0000000000000000     
  0.37500000000000000       0.96875000000000000        0.0000000000000000     
  0.40625000000000000       0.96875000000000000        0.0000000000000000     
  0.43750000000000000       0.96875000000000000        0.0000000000000000     
  0.46875000000000000       0.96875000000000000        0.0000000000000000     
  0.50000000000000000       0.96875000000000000        0.0000000000000000     
  0.37500000000000000        1.0000000000000000        0.0000000000000000     
  0.40625000000000000        1.0000000000000000        0.0000000000000000     
  0.43750000000000000        1.0000000000000000        0.0000000000000000     
  0.46875000000000000        1.0000000000000000        0.0000000000000000     
  0.50000000000000000        1.0000000000000000        0.0000000000000000     
  0.50000000000000000       0.87500000000000000        0.0000000000000000     
  0.53125000000000000       0.87500000000000000        0.0000000000000000     
  0.56250000000000000       0.87500000000000000        0.0000000000000000     
  0.59375000000000000       0.87500000000000000        0.0000000000000000     
  0.62500000000000000       0.87500000000000000        0.0000000000000000     
  0.50000000000000000       0.90625000000000000        0.0000000000000000     
  0.53125000000000000       0.90625000000000000        0.0000000000000000     
  0.56250000000000000       0.90625000000000000        0.0000000000000000     
  0.59375000000000000       0.90625000000000000        0.0000000000000000     
  0.62500000000000000       0.90625000000000000        0.0000000000000000     
  0.50000000000000000       0.93750000000000000        0.0000000000000000     
  0.53125000000000000       0.93750000000000000        0.0000000000000000     
  0.56250000000000000       0.93750000000000000        0.0000000000000000     
  0.59375000000000000       0.93750000000000000        0.0000000000000000     
  0.62500000000000000       0.93750000000000000        0.0000000000000000     
  0.50000000000000000       0.96875000000000000        0.0000000000000000     
  0.53125000000000000       0.96875000000000000        0.0000000000000000     
  0.56250000000000000       0.96875000000000000        0.0000000000000000     
  0.59375000000000000       0.96875000000000000        0.0000000000000000     
  0.62500000000000000       0.96875000000000000        0.0000000000000000     
  0.50000000000000000        1.0000000000000000        0.0000000000000000     
  0.53125000000000000        1.0000000000000000        0.0000000000000000     
  0.56250000000000000        1.0000000000000000        0.0000000000000000     
  0.59375000000000000        1.0000000000000000        0.0000000000000000     
  0.62500000000000000        1.0000000000000000        0.0000000000000000     
  0.62500000000000000       0.87500000000000000        0.0000000000000000     
  0.65625000000000000       0.87500000000000000        0.0000000000000000     
  0.68750000000000000       0.87500000000000000        0.0000000000000000     
  0.71875000000000000       0.87500000000000000        0.0000000000000000     
  0.75000000000000000       0.87500000000000000        0.0000000000000000     
  0.62500000000000000       0.90625000000000000        0.0000000000000000     
  0.65625000000000000       0.90625000000000000        0.0000000000000000     
  0.68750000000000000       0.90625000000000000        0.0000000000000000     
  0.71875000000000000       0.90625000000000000        0.0000000000000000     
  0.75000000000000000       0.90625000000000000        0.0000000000000000     
  0.62500000000000000       0.93750000000000000        0.0000000000000000     
  0.65625000000000000       0.93750000000000000        0.0000000000000000     
  0.68750000000000000       0.93750000000000000        0.0000000000000000     
  0.71875000000000000       0.93750000000000000        0.0000000000000000     
  0.75000000000000000       0.93750000000000000        0.0000000000000000     
  0.62500000000000000       0.96875000000000000        0.0000000000000000     
  0.65625000000000000       0.96875000000000000        0.0000000000000000     
  0.68750000000000000       0.96875000000000000        0.0000000000000000     
  0.71875000000000000       0.96875000000000000        0.0000000000000000     
  0.75000000000000000       0.96875000000000000        0.0000000000000000     
  0.62500000000000000        1.0000000000000000        0.0000000000000000     
  0.65625000000000000        1.0000000000000000        0.0000000000000000     
  0.68750000000000000        1.0000000000000000        0.0000000000000000     
  0.71875000000000000        1.0000000000000000        0.0000000000000000     
  0.75000000000000000        1.0000000000000000        0.0000000000000000     
  0.75000000000000000       0.87500000000000000        0.0000000000000000     
  0.78125000000000000       0.87500000000000000        0.0000000000000000     
  0.81250000000000000       0.87500000000000000        0.0000000000000000     
  0.84375000000000000       0.87500000000000000        0.0000000000000000     
  0.87500000000000000       0.87500000000000000        0.0000000000000000     
  0.75000000000000000       0.90625000000000000        0.0000000000000000     
  0.78125000000000000       0.90625000000000000        0.0000000000000000     
  0.81250000000000000       0.90625000000000000        0.0000000000000000     
  0.84375000000000000       0.90625000000000000        0.0000000000000000     
  0.87500000000000000       0.90625000000000000        0.0000000000000000     
  0.75000000000000000       0.93750000000000000        0.0000000000000000     
  0.78125000000000000       0.93750000000000000        0.0000000000000000     
  0.81250000000000000       0.93750000000000000        0.0000000000000000     
  0.84375000000000000       0.93750000000000000        0.0000000000000000     
  0.87500000000000000       0.93750000000000000        0.0000000000000000     
  0.75000000000000000       0.96875000000000000        0.0000000000000000     
  0.78125000000000000       0.96875000000000000        0.0000000000000000     
  0.81250000000000000       0.96875000000000000        0.0000000000000000     
  0.84375000000000000       0.96875000000000000        0.0000000000000000     
  0.87500000000000000       0.96875000000000000        0.0000000000000000     
  0.75000000000000000        1.0000000000000000        0.0000000000000000     
  0.78125000000000000        1.0000000000000000        0.0000000000000000     
  0.81250000000000000        1.0000000000000000        0.0000000000000000     
  0.84375000000000000        1.0000000000000000        0.0000000000000000     
  0.87500000000000000        1.0000000000000000        0.0000000000000000     
  0.87500000000000000       0.87500000000000000        0.0000000000000000     
  0.90625000000000000       0.87500000000000000        0.0000000000000000     
  0.93750000000000000       0.87500000000000000        0.0000000000000000     
  0.96875000000000000       0.87500000000000000        0.0000000000000000     
   1.0000000000000000       0.87500000000000000        0.0000000000000000     
  0.87500000000000000       0.90625000000000000        0.0000000000000000     
  0.90625000000000000       0.90625000000000000        0.0000000000000000     
  0.93750000000000000       0.90625000000000000        0.0000000000000000     
  0.96875000000000000       0.90625000000000000        0.0000000000000000     
   1.0000000000000000       0.90625000000000000        0.0000000000000000     
  0.87500000000000000       0.93750000000000000        0.0000000000000000     
  0.90625000000000000       0.93750000000000000        0.0000000000000000     
  0.93750000000000000       0.93750000000000000        0.0000000000000000     
  0.96875000000000000       0.93750000000000000        0.0000000000000000     
   1.0000000000000000       0.93750000000000000        0.0000000000000000     
  0.87500000000000000       0.96875000000000000        0.0000000000000000     
  0.90625000000000000       0.96875000000000000        0.0000000000000000     
  0.93750000000000000       0.96875000000000000        0.0000000000000000     
  0.96875000000000000       0.96875000000000000        0.0000000000000000     
   1.0000000000000000       0.96875000000000000        0.0000000000000000     
  0.87500000000000000        1.0000000000000000        0.0000000000000000     
  0.90625000000000000        1.0000000000000000        0.0000000000000000     
  0.93750000000000000        1.0000000000000000        0.0000000000000000     
  0.96875000000000000        1.0000000000000000        0.0000000000000000     
   1.0000000000000000        1.0000000000000000        0.0000000000000000     
 </DataArray>
 </Points>
 <Cells>
 <DataArray  type="Int32"  Name="connectivity"  format="ascii">
           0           1           6           5
           1           2           7           6
           2           3           8           7
           3           4           9           8
           5           6          11          10
           6           7          12          11
           7           8          13          12
           8           9          14          13
          10          11          16          15
          11          12          17          16
          12          13          18          17
          13          14          19          18
          15          16          21          20
          16          17          22          21
          17          18          23          22
          18          19          24          23
          25          26          31          30
          26          27          32          31
          27          28          33          32
          28          29          34          33
          30          31          36          35
          31          32          37          36
          32          33          38          37
          33          34          39          38
          35          36          41          40
          36          37          42          41
          37          38          43          42
          38          39          44          43
          40          41          46          45
          41          42          47          46
          42          43          48          47
          43          44          49          48
          50          51          56          55
          51          52          57          56
          52          53          58          57
          53          54          59          58
          55          56          61          60
          56          57          62          61
          57          58          63          62
          58          59          64          63
          60          61          66          65
          61          62          67          66
          62          63          68          67
          63          64          69          68
          65          66          71          70
          66          67          72          71
          67          68          73          72
          68          69          74          73
          75          76          81          80
          76          77          82          81
          77          78          83          82
          78          79          84          83
          80          81          86          85
          81          82          87          86
          82          83          88          87
          83          84          89          88
          85          86          91          90
          86          87          92          91
          87          88          93          92
          88          89          94          93
          90          91          96          95
          91          92          97          96
          92          93          98          97
          93          94          99          98
         100         101         106         105
         101         102         107         106
         102         103         108         107
         103         104         109         108
         105         106         111         110
         106         107         112         111
         107         108         113         112
         108         109         114         113
         110         111         116         115
         111         112         117         116
         112         113         118         117
         113         114         119         118
         115         116         121         120
         116         117         122         121
         117         118         123         122
         118         119         124         123
         125         126         131         130
         126         127         132         131
         127         128         133         132
         128         129         134         133
         130         131         136         135
         131         132         137         136
         132         133         138         137
         133         134         139         138
         135         136         141         140
         136         137         142         141
         137         138         143         142
         138         139         144         143
         140         141         146         145
         141         142         147         146
         142         143         148         147
         143         144         149         148
         150         151         156         155
         151         152         157         156
         152         153         158         157
         153         154         159         158
         155         156         161         160
         156         157         162         161
         157         158         163         162
         158         159         164         163
         160         161         166         165
         161         162         167         166
         162         163         168         167
         163         164         169         168
         165         166         171         170
         166         167         172         171
         167         168         173         172
         168         169         174         173
         175         176         181         180
         176         177         182         181
         177         178         183         182
         178         179         184         183
         180         181         186         185
         181         182         187         186
         182         183         188         187
         183         184         189         188
         185         186         191         190
         186         187         192         191
         187         188         193         192
         188         189         194         193
         190         191         196         195
         191         192         197         196
         192         193         198         197
         193         194         199         198
         200         201         206         205
         201         202         207         206
         202         203         208         207
         203         204         209         208
         205         206         211         210
         206         207         212         211
         207         208         213         212
         208         209         214         213
         210         211         216         215
         211         212         217         216
         212         213         218         217
         213         214         219         218
         215         216         221         220
         216         217         222         221
         217         218         223         222
         218         219         224         223
         225         226         231         230
         226         227         232         231
         227         228         233         232
         228         229         234         233
         230         231         236         235
         231         232         237         236
         232         233         238         237
         233         234         239         238
         235         236         241         240
         236         237         242         241
         237         238         243         242
         238         239         244         243
         240         241         246         245
         241         242         247         246
         242         243         248         247
         243         244         249         248
         250         251         256         255
         251         252         257         256
         252         253         258         257
         253         254         259         258
         255         256         261         260
         256         257         262         261
         257         258         263         262
         258         259         264         263
         260         261         266         265
         261         262         267         266
         262         263         268         267
         263         264         269         268
         265         266         271         270
         266         267         272         271
         267         268         273         272
         268         269         274         273
         275         276         281         280
         276         277         282         281
         277         278         283         282
         278         279         284         283
         280         281         286         285
         281         282         287         286
         282         283         288         287
         283         284         289         288
         285         286         291         290
         286         287         292         291
         287         288         293         292
         288         289         294         293
         290         291         296         295
         291         292         297         296
         292         293         298         297
         293         294         299         298
         300         301         306         305
         301         302         307         306
         302         303         308         307
         303         304         309         308
         305         306         311         310
         306         307         312         311
         307         308         313         312
         308         309         314         313
         310         311         316         315
         311         312         317         316
         312         313         318         317
         313         314         319         318
         315         316         321         320
         316         317         322         321
         317         318         323         322
         318         319         324         323
         325         326         331         330
         326         327         332         331
         327         328         333         332
         328         329         334         333
         330         331         336         335
         331         332         337         336
         332         333         338         337
         333         334         339         338
         335         336         341         340
         336         337         342         341
         337         338         343         342
         338         339         344         343
         340         341         346         345
         341         342         347         346
         342         343         348         347
         343         344         349         348
         350         351         356         355
         351         352         357         356
         352         353         358         357
         353         354         359         358
         355         356         361         360
         356         357         362         361
         357         358         363         362
         358         359         364         363
         360         361         366         365
         361         362         367         366
         362         363         368         367
         363         364         369         368
         365         366         371         370
         366         367         372         371
         367         368         373         372
         368         369         374         373
         375         376         381         380
         376         377         382         381
         377         378         383         382
         378         379         384         383
         380         381         386         385
         381         382         387         386
         382         383         388         387
         383         384         389         388
         385         386         391         390
         386         387         392         391
         387         388         393         392
         388         389         394         393
         390         391         396         395
         391         392         397         396
         392         393         398         397
         393         394         399         398
         400         401         406         405
         401         402         407         406
         402         403         408         407
         403         404         409         408
         405         406         411         410
         406         407         412         411
         407         408         413         412
         408         409         414         413
         410         411         416         415
         411         412         417         416
         412         413         418         417
         413         414         419         418
         415         416         421         420
         416         417         422         421
         417         418         423         422
         418         419         424         423
         425         426         431         430
         426         427         432         431
         427         428         433         432
         428         429         434         433
         430         431         436         435
         431         432         437         436
         432         433         438         437
         433         434         439         438
         435         436         441         440
         436         437         442         441
         437         438         443         442
         438         439         444         443
         440         441         446         445
         441         442         447         446
         442         443         448         447
         443         444         449         448
         450         451         456         455
         451         452         457         456
         452         453         458         457
         453         454         459         458
         455         456         461         460
         456         457         462         461
         457         458         463         462
         458         459         464         463
         460         461         466         465
         461         462         467         466
         462         463         468         467
         463         464         469         468
         465         466         471         470
         466         467         472         471
         467         468         473         472
         468         469         474         473
         475         476         481         480
         476         477         482         481
         477         478         483         482
         478         479         484         483
         480         481         486         485
         481         482         487         486
         482         483         488         487
         483         484         489         488
         485         486         491         490
         486         487         492         491
         487         488         493         492
         488         489         494         493
         490         491         496         495
         491         492         497         496
         492         493         498         497
         493         494         499         498
         500         501         506         505
         501         502         507         506
         502         503         508         507
         503         504         509         508
         505         506         511         510
         506         507         512         511
         507         508         513         512
         508         509         514         513
         510         511         516         515
         511         512         517         516
         512         513         518         517
         513         514         519         518
         515         516         521         520
         516         517         522         521
         517         518         523         522
         518         519         524         523
         525         526         531         530
         526         527         532         531
         527         528         533         532
         528         529         534         533
         530         531         536         535
         531         532         537         536
         532         533         538         537
         533         534         539         538
         535         536         541         540
         536         537         542         541
         537         538         543         542
         538         539         544         543
         540         541         546         545
         541         542         547         546
         542         543         548         547
         543         544         549         548
         550         551         556         555
         551         552         557         556
         552         553         558         557
         553         554         559         558
         555         556         561         560
         556         557         562         561
         557         558         563         562
         558         559         564         563
         560         561         566         565
         561         562         567         566
         562         563         568         567
         563         564         569         568
         565         566         571         570
         566         567         572         571
         567         568         573         572
         568         569         574         573
         575         576         581         580
         576         577         582         581
         577         578         583         582
         578         579         584         583
         580         581         586         585
         581         582         587         586
         582         583         588         587
         583         584         589         588
         585         586         591         590
         586         587         592         591
         587         588         593         592
         588         589         594         593
         590         591         596         595
         591         592         597         596
         592         593         598         597
         593         594         599         598
         600         601         606         605
         601         602         607         606
         602         603         608         607
         603         604         609         608
         605         606         611         610
         606         607         612         611
         607         608         613         612
         608         609         614         613
         610         611         616         615
         611         612         617         616
         612         613         618         617
         613         614         619         618
         615         616         621         620
         616         617         622         621
         617         618         623         622
         618         619         624         623
         625         626         631         630
         626         627         632         631
         627         628         633         632
         628         629         634         633
         630         631         636         635
         631         632         637         636
         632         633         638         637
         633         634         639         638
         635         636         641         640
         636         637         642         641
         637         638         643         642
         638         639         644         643
         640         641         646         645
         641         642         647         646
         642         643         648         647
         643         644         649         648
         650         651         656         655
         651         652         657         656
         652         653         658         657
         653         654         659         658
         655         656         661         660
         656         657         662         661
         657         658         663         662
         658         659         664         663
         660         661         666         665
         661         662         667         666
         662         663         668         667
         663         664         669         668
         665         666         671         670
         666         667         672         671
         667         668         673         672
         668         669         674         673
         675         676         681         680
         676         677         682         681
         677         678         683         682
         678         679         684         683
         680         681         686         685
         681         682         687         686
         682         683         688         687
         683         684         689         688
         685         686         691         690
         686         687         692         691
         687         688         693         692
         688         689         694         693
         690         691         696         695
         691         692         697         696
         692         693         698         697
         693         694         699         698
         700         701         706         705
         701         702         707         706
         702         703         708         707
         703         704         709         708
         705         706         711         710
         706         707         712         711
         707         708         713         712
         708         709         714         713
         710         711         716         715
         711         712         717         716
         712         713         718         717
         713         714         719         718
         715         716         721         720
         716         717         722         721
         717         718         723         722
         718         719         724         723
         725         726         731         730
         726         727         732         731
         727         728         733         732
         728         729         734         733
         730         731         736         735
         731         732         737         736
         732         733         738         737
         733         734         739         738
         735         736         741         740
         736         737         742         741
         737         738         743         742
         738         739         744         743
         740         741         746         745
         741         742         747         746
         742         743         748         747
         743         744         749         748
         750         751         756         755
         751         752         757         756
         752         753         758         757
         753         754         759         758
         755         756         761         760
         756         757         762         761
         757         758         763         762
         758         759         764         763
         760         761         766         765
         761         762         767         766
         762         763         768         767
         763         764         769         768
         765         766         771         770
         766         767         772         771
         767         768         773         772
         768         769         774         773
         775         776         781         780
         776         777         782         781
         777         778         783         782
         778         779         784         783
         780         781         786         785
         781         782         787         786
         782         783         788         787
         783         784         789         788
         785         786         791         790
         786         787         792         791
         787         788         793         792
         788         789         794         793
         790         791         796         795
         791         792         797         796
         792         793         798         797
         793         794         799         798
         800         801         806         805
         801         802         807         806
         802         803         808         807
         803         804         809         808
         805         806         811         810
         806         807         812         811
         807         808         813         812
         808         809         814         813
         810         811         816         815
         811         812         817         816
         812         813         818         817
         813         814         819         818
         815         816         821         820
         816         817         822         821
         817         818         823         822
         818         819         824         823
         825         826         831         830
         826         827         832         831
         827         828         833         832
         828         829         834         833
         830         831         836         835
         831         832         837         836
         832         833         838         837
         833         834         839         838
         835         836         841         840
         836         837         842         841
         837         838         843         842
         838         839         844         843
         840         841         846         845
         841         842         847         846
         842         843         848         847
         843         844         849         848
         850         851         856         855
         851         852         857         856
         852         853         858         857
         853         854         859         858
         855         856         861         860
         856         857         862         861
         857         858         863         862
         858         859         864         863
         860         861         866         865
         861         862         867         866
         862         863         868         867
         863         864         869         868
         865         866         871         870
         866         867         872         871
         867         868         873         872
         868         869         874         873
         875         876         881         880
         876         877         882         881
         877         878         883         882
         878         879         884         883
         880         881         886         885
         881         882         887         886
         882         883         888         887
         883         884         889         888
         885         886         891         890
         886         887         892         891
         887         888         893         892
         888         889         894         893
         890         891         896         895
         891         892         897         896
         892         893         898         897
         893         894         899         898
         900         901         906         905
         901         902         907         906
         902         903         908         907
         903         904         909         908
         905         906         911         910
         906         907         912         911
         907         908         913         912
         908         909         914         913
         910         911         916         915
         911         912         917         916
         912         913         918         917
         913         914         919         918
         915         916         921         920
         916         917         922         921
         917         918         923         922
         918         919         924         923
         925         926         931         930
         926         927         932         931
         927         928         933         932
         928         929         934         933
         930         931         936         935
         931         932         937         936
         932         933         938         937
         933         934         939         938
         935         936         941         940
         936         937         942         941
         937         938         943         942
         938         939         944         943
         940         941         946         945
         941         942         947         946
         942         943         948         947
         943         944         949         948
         950         951         956         955
         951         952         957         956
         952         953         958         957
         953         954         959         958
         955         956         961         960
         956         957         962         961
         957         958         963         962
         958         959         964         963
         960         961         966         965
         961         962         967         966
         962         963         968         967
         963         964         969         968
         965         966         971         970
         966         967         972         971
         967         968         973         972
         968         969         974         973
         975         976         981         980
         976         977         982         981
         977         978         983         982
         978         979         984         983
         980         981         986         985
         981         982         987         986
         982         983         988         987
         983         984         989         988
         985         986         991         990
         986         987         992         991
         987         988         993         992
         988         989         994         993
         990         991         996         995
         991         992         997         996
         992         993         998         997
         993         994         999         998
        1000        1001        1006        1005
        1001        1002        1007        1006
        1002        1003        1008        1007
        1003        1004        1009        1008
        1005        1006        1011        1010
        1006        1007        1012        1011
        1007        1008        1013        1012
        1008        1009        1014        1013
        1010        1011        1016        1015
        1011        1012        1017        1016
        1012        1013        1018        1017
        1013        1014        1019        1018
        1015        1016        1021        1020
        1016        1017        1022        1021
        1017        1018        1023        1022
        1018        1019        1024        1023
        1025        1026        1031        1030
        1026        1027        1032        1031
        1027        1028        1033        1032
        1028        1029        1034        1033
        1030        1031        1036        1035
        1031        1032        1037        1036
        1032        1033        1038        1037
        1033        1034        1039        1038
        1035        1036        1041        1040
        1036        1037        1042        1041
        1037        1038        1043        1042
        1038        1039        1044        1043
        1040        1041        1046        1045
        1041        1042        1047        1046
        1042        1043        1048        1047
        1043        1044        1049        1048
        1050        1051        1056        1055
        1051        1052        1057        1056
        1052        1053        1058        1057
        1053        1054        1059        1058
        1055        1056        1061        1060
        1056        1057        1062        1061
        1057        1058        1063        1062
        1058        1059        1064        1063
        1060        1061        1066        1065
        1061        1062        1067        1066
        1062        1063        1068        1067
        1063        1064        1069        1068
        1065        1066        1071        1070
        1066        1067        1072        1071
        1067        1068        1073        1072
        1068        1069        1074        1073
        1075        1076        1081        1080
        1076        1077        1082        1081
        1077        1078        1083        1082
        1078        1079        1084        1083
        1080        1081        1086        1085
        1081        1082        1087        1086
        1082        1083        1088        1087
        1083        1084        1089        1088
        1085        1086        1091        1090
        1086        1087        1092        1091
        1087        1088        1093        1092
        1088        1089        1094        1093
        1090        1091        1096        1095
        1091        1092        1097        1096
        1092        1093        1098        1097
        1093        1094        1099        1098
        1100        1101        1106        1105
        1101        1102        1107        1106
        1102        1103        1108        1107
        1103        1104        1109        1108
        1105        1106        1111        1110
        1106        1107        1112        1111
        1107        1108        1113        1112
        1108        1109        1114        1113
        1110        1111        1116        1115
        1111        1112        1117        1116
        1112        1113        1118        1117
        1113        1114        1119        1118
        1115        1116        1121        1120
        1116        1117        1122        1121
        1117        1118        1123        1122
        1118        1119        1124        1123
        1125        1126        1131        1130
        1126        1127        1132        1131
        1127        1128        1133        1132
        1128        1129        1134        1133
        1130        1131        1136        1135
        1131        1132        1137        1136
        1132        1133        1138        1137
        1133        1134        1139        1138
        1135        1136        1141        1140
        1136        1137        1142        1141
        1137        1138        1143        1142
        1138        1139        1144        1143
        1140        1141        1146        1145
        1141        1142        1147        1146
        1142        1143        1148        1147
        1143        1144        1149        1148
        1150        1151        1156        1155
        1151        1152        1157        1156
        1152        1153        1158        1157
        1153        1154        1159        1158
        1155        1156        1161        1160
        1156        1157        1162        1161
        1157        1158        1163        1162
        1158        1159        1164        1163
        1160        1161        1166        1165
        1161        1162        1167        1166
        1162        1163        1168        1167
        1163        1164        1169        1168
        1165        1166        1171        1170
        1166        1167        1172        1171
        1167        1168        1173        1172
        1168        1169        1174        1173
        1175        1176        1181        1180
        1176        1177        1182        1181
        1177        1178        1183        1182
        1178        1179        1184        1183
        1180        1181        1186        1185
        1181        1182        1187        1186
        1182        1183        1188        1187
        1183        1184        1189        1188
        1185        1186        1191        1190
        1186        1187        1192        1191
        1187        1188        1193        1192
        1188        1189        1194        1193
        1190        1191        1196        1195
        1191        1192        1197        1196
        1192        1193        1198        1197
        1193        1194        1199        1198
        1200        1201        1206        1205
        1201        1202        1207        1206
        1202        1203        1208        1207
        1203        1204        1209        1208
        1205        1206        1211        1210
        1206        1207        1212        1211
        1207        1208        1213        1212
        1208        1209        1214        1213
        1210        1211        1216        1215
        1211        1212        1217        1216
        1212        1213        1218        1217
        1213        1214        1219        1218
        1215        1216        1221        1220
        1216        1217        1222        1221
        1217        1218        1223        1222
        1218        1219        1224        1223
        1225        1226        1231        1230
        1226        1227        1232        1231
        1227        1228        1233        1232
        1228        1229        1234        1233
        1230        1231        1236        1235
        1231        1232        1237        1236
        1232        1233        1238        1237
        1233        1234        1239        1238
        1235        1236        1241        1240
        1236        1237        1242        1241
        1237        1238        1243        1242
        1238        1239        1244        1243
        1240        1241        1246        1245
        1241        1242        1247        1246
        1242        1243        1248        1247
        1243        1244        1249        1248
        1250        1251        1256        1255
        1251        1252        1257        1256
        1252        1253        1258        1257
        1253        1254        1259        1258
        1255        1256        1261        1260
        1256        1257        1262        1261
        1257        1258        1263        1262
        1258        1259        1264        1263
        1260        1261        1266        1265
        1261        1262        1267        1266
        1262        1263        1268        1267
        1263        1264        1269        1268
        1265        1266        1271        1270
        1266        1267        1272        1271
        1267        1268        1273        1272
        1268        1269        1274        1273
        1275        1276        1281        1280
        1276        1277        1282        1281
        1277        1278        1283        1282
        1278        1279        1284        1283
        1280        1281        1286        1285
        1281        1282        1287        1286
        1282        1283        1288        1287
        1283        1284        1289        1288
        1285        1286        1291        1290
        1286        1287        1292        1291
        1287        1288        1293        1292
        1288        1289        1294        1293
        1290        1291        1296        1295
        1291        1292        1297        1296
        1292        1293        1298        1297
        1293        1294        1299        1298
        1300        1301        1306        1305
        1301        1302        1307        1306
        1302        1303        1308        1307
        1303        1304        1309        1308
        1305        1306        1311        1310
        1306        1307        1312        1311
        1307        1308        1313        1312
        1308        1309        1314        1313
        1310        1311        1316        1315
        1311        1312        1317        1316
        1312        1313        1318        1317
        1313        1314        1319        1318
        1315        1316        1321        1320
        1316        1317        1322        1321
        1317        1318        1323        1322
        1318        1319        1324        1323
        1325        1326        1331        1330
        1326        1327        1332        1331
        1327        1328        1333        1332
        1328        1329        1334        1333
        1330        1331        1336        1335
        1331        1332        1337        1336
        1332        1333        1338        1337
        1333        1334        1339        1338
        1335        1336        1341        1340
        1336        1337        1342        1341
        1337        1338        1343        1342
        1338        1339        1344        1343
        1340        1341        1346        1345
        1341        1342        1347        1346
        1342        1343        1348        1347
        1343        1344        1349        1348
        1350        1351        1356        1355
        1351        1352        1357        1356
        1352        1353        1358        1357
        1353        1354        1359        1358
        1355        1356        1361        1360
        1356        1357        1362        1361
        1357        1358        1363        1362
        1358        1359        1364        1363
        1360        1361        1366        1365
        1361        1362        1367        1366
        1362        1363        1368        1367
        1363        1364        1369        1368
        1365        1366        1371        1370
        1366        1367        1372        1371
        1367        1368        1373        1372
        1368        1369        1374        1373
        1375        1376        1381        1380
        1376        1377        1382        1381
        1377        1378        1383        1382
        1378        1379        1384        1383
        1380        1381        1386        1385
        1381        1382        1387        1386
        1382        1383        1388        1387
        1383        1384        1389        1388
        1385        1386        1391        1390
        1386        1387        1392        1391
        1387        1388        1393        1392
        1388        1389        1394        1393
        1390        1391        1396        1395
        1391        1392        1397        1396
        1392        1393        1398        1397
        1393        1394        1399        1398
        1400        1401        1406        1405
        1401        1402        1407        1406
        1402        1403        1408        1407
        1403        1404        1409        1408
        1405        1406        1411        1410
        1406        1407        1412        1411
        1407        1408        1413        1412
        1408        1409        1414        1413
        1410        1411        1416        1415
        1411        1412        1417        1416
        1412        1413        1418        1417
        1413        1414        1419        1418
        1415        1416        1421        1420
        1416        1417        1422        1421
        1417        1418        1423        1422
        1418        1419        1424        1423
        1425        1426        1431        1430
        1426        1427        1432        1431
        1427        1428        1433        1432
        1428        1429        1434        1433
        1430        1431        1436        1435
        1431        1432        1437        1436
        1432        1433        1438        1437
        1433        1434        1439        1438
        1435        1436        1441        1440
        1436        1437        1442        1441
        1437        1438        1443        1442
        1438        1439        1444        1443
        1440        1441        1446        1445
        1441        1442        1447        1446
        1442        1443        1448        1447
        1443        1444        1449        1448
        1450        1451        1456        1455
        1451        1452        1457        1456
        1452        1453        1458        1457
        1453        1454        1459        1458
        1455        1456        1461        1460
        1456        1457        1462        1461
        1457        1458        1463        1462
        1458        1459        1464        1463
        1460        1461        1466        1465
        1461        1462        1467        1466
        1462        1463        1468        1467
        1463        1464        1469        1468
        1465        1466        1471        1470
        1466        1467        1472        1471
        1467        1468        1473        1472
        1468        1469        1474        1473
        1475        1476        1481        1480
        1476        1477        1482        1481
        1477        1478        1483        1482
        1478        1479        1484        1483
        1480        1481        1486        1485
        1481        1482        1487        1486
        1482        1483        1488        1487
        1483        1484        1489        1488
        1485        1486        1491        1490
        1486        1487        1492        1491
        1487        1488        1493        1492
        1488        1489        1494        1493
        1490        1491        1496        1495
        1491        1492        1497        1496
        1492        1493        1498        1497
        1493        1494        1499        1498
        1500        1501        1506        1505
        1501        1502        1507        1506
        1502        1503        1508        1507
        1503        1504        1509        1508
        1505        1506        1511        1510
        1506        1507        1512        1511
        1507        1508        1513        1512
        1508        1509        1514        1513
        1510        1511        1516        1515
        1511        1512        1517        1516
        1512        1513        1518        1517
        1513        1514        1519        1518
        1515        1516        1521        1520
        1516        1517        1522        1521
        1517        1518        1523        1522
        1518        1519        1524        1523
        1525        1526        1531        1530
        1526        1527        1532        1531
        1527        1528        1533        1532
        1528        1529        1534        1533
        1530        1531        1536        1535
        1531        1532        1537        1536
        1532        1533        1538        1537
        1533        1534        1539        1538
        1535        1536        1541        1540
        1536        1537        1542        1541
        1537        1538        1543        1542
        1538        1539        1544        1543
        1540        1541        1546        1545
        1541        1542        1547        1546
        1542        1543        1548        1547
        1543        1544        1549        1548
        1550        1551        1556        1555
        1551        1552        1557        1556
        1552        1553        1558        1557
        1553        1554        1559        1558
        1555        1556        1561        1560
        1556        1557        1562        1561
        1557        1558        1563        1562
        1558        1559        1564        1563
        1560        1561        1566        1565
        1561        1562        1567        1566
        1562        1563        1568        1567
        1563        1564        1569        1568
        1565        1566        1571        1570
        1566        1567        1572        1571
        1567        1568        1573        1572
        1568        1569        1574        1573
        1575        1576        1581        1580
        1576        1577        1582        1581
        1577        1578        1583        1582
        1578        1579        1584        1583
        1580        1581        1586        1585
        1581        1582        1587        1586
        1582        1583        1588        1587
        1583        1584        1589        1588
        1585        1586        1591        1590
        1586        1587        1592        1591
        1587        1588        1593        1592
        1588        1589        1594        1593
        1590        1591        1596        1595
        1591        1592        1597        1596
        1592        1593        1598        1597
        1593        1594        1599        1598
 </DataArray>
 <DataArray  type="Int32"  Name="offsets"  format="ascii"> 
           4
           8
          12
          16
          20
          24
          28
          32
          36
          40
          44
          48
          52
          56
          60
          64
          68
          72
          76
          80
          84
          88
          92
          96
         100
         104
         108
         112
         116
         120
         124
         128
         132
         136
         140
         144
         148
         152
         156
         160
         164
         168
         172
         176
         180
         184
         188
         192
         196
         200
         204
         208
         212
         216
         220
         224
         228
         232
         236
         240
         244
         248
         252
         256
         260
         264
         268
         272
         276
         280
         284
         288
         292
         296
         300
         304
         308
         312
         316
         320
         324
         328
         332
         336
         340
         344
         348
         352
         356
         360
         364
         368
         372
         376
         380
         384
         388
         392
         396
         400
         404
         408
         412
         416
         420
         424
         428
         432
         436
         440
         444
         448
         452
         456
         460
         464
         468
         472
         476
         480
         484
         488
         492
         496
         500
         504
         508
         512
         516
         520
         524
         528
         532
         536
         540
         544
         548
         552
         556
         560
         564
         568
         572
         576
         580
         584
         588
         592
         596
         600
         604
         608
         612
         616
         620
         624
         628
         632
         636
         640
         644
         648
         652
         656
         660
         664
         668
         672
         676
         680
         684
         688
         692
         696
         700
         704
         708
         712
         716
         720
         724
         728
         732
         736
         740
         744
         748
         752
         756
         760
         764
         768
         772
         776
         780
         784
         788
         792
         796
         800
         804
         808
         812
         816
         820
         824
         828
         832
         836
         840
         844
         848
         852
         856
         860
         864
         868
         872
         876
         880
         884
         888
         892
         896
         900
         904
         908
         912
         916
         920
         924
         928
         932
         936
         940
         944
         948
         952
         956
         960
         964
         968
         972
         976
         980
         984
         988
         992
         996
        1000
        1004
        1008
        1012
        1016
        1020
        1024
        1028
        1032
        1036
        1040
        1044
        1048
        1052
        1056
        1060
        1064
        1068
        1072
        1076
        1080
        1084
        1088
        1092
        1096
        1100
        1104
        1108
        1112
        1116
        1120
        1124
        1128
        1132
        1136
        1140
        1144
        1148
        1152
        1156
        1160
        1164
        1168
        1172
        1176
        1180
        1184
        1188
        1192
        1196
        1200
        1204
        1208
        1212
        1216
        1220
        1224
        1228
        1232
        1236
        1240
        1244
        1248
        1252
        1256
        1260
        1264
        1268
        1272
        1276
        1280
        1284
        1288
        1292
        1296
        1300
        1304
        1308
        1312
        1316
        1320
        1324
        1328
        1332
        1336
        1340
        1344
        1348
        1352
        1356
        1360
        1364
        1368
        1372
        1376
        1380
        1384
        1388
        1392
        1396
        1400
        1404
        1408
        1412
        1416
        1420
        1424
        1428
        1432
        1436
        1440
        1444
        1448
        1452
        1456
        1460
        1464
        1468
        1472
        1476
        1480
        1484
        1488
        1492
        1496
        1500
        1504
        1508
        1512
        1516
        1520
        1524
        1528
        1532
        1536
        1540
        1544
        1548
        1552
        1556
        1560
        1564
        1568
        1572
        1576
        1580
        1584
        1588
        1592
        1596
        1600
        1604
        1608
        1612
        1616
        1620
        1624
        1628
        1632
        1636
        1640
        1644
        1648
        1652
        1656
        1660
        1664
        1668
        1672
        1676
        1680
        1684
        1688
        1692
        1696
        1700
        1704
        1708
        1712
        1716
        1720
        1724
        1728
        1732
        1736
        1740
        1744
        1748
        1752
        1756
        1760
        1764
        1768
        1772
        1776
        1780
        1784
        1788
        1792
        1796
        1800
        1804
        1808
        1812
        1816
        1820
        1824
        1828
        1832
        1836
        1840
        1844
        1848
        1852
        1856
        1860
        1864
        1868
        1872
        1876
        1880
        1884
        1888
        1892
        1896
        1900
        1904
        1908
        1912
        1916
        1920
        1924
        1928
        1932
        1936
        1940
        1944
        1948
        1952
        1956
        1960
        1964
        1968
        1972
        1976
        1980
        1984
        1988
        1992
        1996
        2000
        2004
        2008
        2012
        2016
        2020
        2024
        2028
        2032
        2036
        2040
        2044
        2048
        2052
        2056
        2060
        2064
        2068
        2072
        2076
        2080
        2084
        2088
        2092
        2096
        2100
        2104
        2108
        2112
        2116
        2120
        2124
        2128
        2132
        2136
        2140
        2144
        2148
        2152
        2156
        2160
        2164
        2168
        2172
        2176
        2180
        2184
        2188
        2192
        2196
        2200
        2204
        2208
        2212
        2216
        2220
        2224
        2228
        2232
        2236
        2240
        2244
        2248
        2252
        2256
        2260
        2264
        2268
        2272
        2276
        2280
        2284
        2288
        2292
        2296
        2300
        2304
        2308
        2312
        2316
        2320
        2324
        2328
        2332
        2336
        2340
        2344
        2348
        2352
        2356
        2360
        2364
        2368
        2372
        2376
        2380
        2384
        2388
        2392
        2396
        2400
        2404
        2408
        2412
        2416
        2420
        2424
        2428
        2432
        2436
        2440
        2444
        2448
        2452
        2456
        2460
        2464
        2468
        2472
        2476
        2480
        2484
        2488
        2492
        2496
        2500
        2504
        2508
        2512
        2516
        2520
        2524
        2528
        2532
        2536
        2540
        2544
        2548
        2552
        2556
        2560
        2564
        2568
        2572
        2576
        2580
        2584
        2588
        2592
        2596
        2600
        2604
        2608
        2612
        2616
        2620
        2624
        2628
        2632
        2636
        2640
        2644
        2648
        2652
        2656
        2660
        2664
        2668
        2672
        2676
        2680
        2684
        2688
        2692
        2696
        2700
        2704
        2708
        2712
        2716
        2720
        2724
        2728
        2732
        2736
        2740
        2744
        2748
        2752
        2756
        2760
        2764
        2768
        2772
        2776
        2780
        2784
        2788
        2792
        2796
        2800
        2804
        2808
        2812
        2816
        2820
        2824
        2828
        2832
        2836
        2840
        2844
        2848
        2852
        2856
        2860
        2864
        2868
        2872
        2876
        2880
        2884
        2888
        2892
        2896
        2900
        2904
        2908
        2912
        2916
        2920
        2924
        2928
        2932
        2936
        2940
        2944
        2948
        2952
        2956
        2960
        2964
        2968
        2972
        2976
        2980
        2984
        2988
        2992
        2996
        3000
        3004
        3008
        3012
        3016
        3020
        3024
        3028
        3032
        3036
        3040
        3044
        3048
        3052
        3056
        3060
        3064
        3068
        3072
        3076
        3080
        3084
        3088
        3092
        3096
        3100
        3104
        3108
        3112
        3116
        3120
        3124
        3128
        3132
        3136
        3140
        3144
        3148
        3152
        3156
        3160
        3164
        3168
        3172
        3176
        3180
        3184
        3188
        3192
        3196
        3200
        3204
        3208
        3212
        3216
        3220
        3224
        3228
        3232
        3236
        3240
        3244
        3248
        3252
        3256
        3260
        3264
        3268
        3272
        3276
        3280
        3284
        3288
        3292
        3296
        3300
        3304
        3308
        3312
        3316
        3320
        3324
        3328
        3332
        3336
        3340
        3344
        3348
        3352
        3356
        3360
        3364
        3368
        3372
        3376
        3380
        3384
        3388
        3392
        3396
        3400
        3404
        3408
        3412
        3416
        3420
        3424
        3428
        3432
        3436
        3440
        3444
        3448
        3452
        3456
        3460
        3464
        3468
        3472
        3476
        3480
        3484
        3488
        3492
        3496
        3500
        3504
        3508
        3512
        3516
        3520
        3524
        3528
        3532
        3536
        3540
        3544
        3548
        3552
        3556
        3560
        3564
        3568
        3572
        3576
        3580
        3584
        3588
        3592
        3596
        3600
        3604
        3608
        3612
        3616
        3620
        3624
        3628
        3632
        3636
        3640
        3644
        3648
        3652
        3656
        3660
        3664
        3668
        3672
        3676
        3680
        3684
        3688
        3692
        3696
        3700
        3704
        3708
        3712
        3716
        3720
        3724
        3728
        3732
        3736
        3740
        3744
        3748
        3752
        3756
        3760
        3764
        3768
        3772
        3776
        3780
        3784
        3788
        3792
        3796
        3800
        3804
        3808
        3812
        3816
        3820
        3824
        3828
        3832
        3836
        3840
        3844
        3848
        3852
        3856
        3860
        3864
        3868
        3872
        3876
        3880
        3884
        3888
        3892
        3896
        3900
        3904
        3908
        3912
        3916
        3920
        3924
        3928
        3932
        3936
        3940
        3944
        3948
        3952
        3956
        3960
        3964
        3968
        3972
        3976
        3980
        3984
        3988
        3992
        3996
        4000
        4004
        4008
        4012
        4016
        4020
        4024
        4028
        4032
        4036
        4040
        4044
        4048
        4052
        4056
        4060
        4064
        4068
        4072
        4076
        4080
        4084
        4088
        4092
        4096
 </DataArray>
 <DataArray  type="UInt8"  Name="types"  format="ascii">
 9
 9
 9
 9
 9
 9
 9
 9
 9
 9
 9
 9
 9
 9
 9
 9
 9
 9
 9
 9
 9
 9
 9
 9
 9
 9
 9
 9
 9
 9
 9
 9
 9
 9
 9
 9
 9
 9
 9
 9
 9
 9
 9
 9
 9
 9
 9
 9
 9
 9
 9
 9
 9
 9
 9
 9
 9
 9
 9
 9
 9
 9
 9
 9
 9
 9
 9
 9
 9
 9
 9
 9
 9
 9
 9
 9
 9
 9
 9
 9
 9
 9
 9
 9
 9
 9
 9
 9
 9
 9
 9
 9
 9
 9
 9
 9
 9
 9
 9
 9
 9
 9
 9
 9
 9
 9
 9
 9
 9
 9
 9
 9
 9
 9
 9
 9
 9
 9
 9
 9
 9
 9
 9
 9
 9
 9
 9
 9
 9
 9
 9
 9
 9
 9
 9
 9
 9
 9
 9
 9
 9
 9
 9
 9
 9
 9
 9
 9
 9
 9
 9
 9
 9
 9
 9
 9
 9
 9
 9
 9
 9
 9
 9
 9
 9
 9
 9
 9
 9
 9
 9
 9
 9
 9
 9
 9
 9
 9
 9
 9
 9
 9
 9
 9
 9
 9
 9
 9
 9
 9
 9
 9
 9
 9
 9
 9
 9
 9
 9
 9
 9
 9
 9
 9
 9
 9
 9
 9
 9
 9
 9
 9
 9
 9
 9
 9
 9
 9
 9
 9
 9
 9
 9
 9
 9
 9
 9
 9
 9
 9
 9
 9
 9
 9
 9
 9
 9
 9
 9
 9
 9
 9
 9
 9
 9
 9
 9
 9
 9
 9
 9
 9
 9
 9
 9
 9
 9
 9
 9
 9
 9
 9
 9
 9
 9
 9
 9
 9
 9
 9
 9
 9
 9
 9
 9
 9
 9
 9
 9
 9
 9
 9
 9
 9
 9
 9
 9
 9
 9
 9
 9
 9
 9
 9
 9
 9
 9
 9
 9
 9
 9
 9
 9
 9
 9
 9
 9
 9
 9
 9
 9
 9
 9
 9
 9
 9
 9
 9
 9
 9
 9
 9
 9
 9
 9
 9
 9
 9
 9
 9
 9
 9
 9
 9
 9
 9
 9
 9
 9
 9
 9
 9
 9
 9
 9
 9
 9
 9
 9
 9
 9
 9
 9
 9
 9
 9
 9
 9
 9
 9
 9
 9
 9
 9
 9
 9
 9
 9
 9
 9
 9
 9
 9
 9
 9
 9
 9
 9
 9
 9
 9
 9
 9
 9
 9
 9
 9
 9
 9
 9
 9
 9
 9
 9
 9
 9
 9
 9
 9
 9
 9
 9
 9
 9
 9
 9
 9
 9
 9
 9
 9
 9
 9
 9
 9
 9
 9
 9
 9
 9
 9
 9
 9
 9
 9
 9
 9
 9
 9
 9
 9
 9
 9
 9
 9
 9
 9
 9
 9
 9
 9
 9
 9
 9
 9
 9
 9
 9
 9
 9
 9
 9
 9
 9
 9
 9
 9
 9
 9
 9
 9
 9
 9
 9
 9
 9
 9
 9
 9
 9
 9
 9
 9
 9
 9
 9
 9
 9
 9
 9
 9
 9
 9
 9
 9
 9
 9
 9
 9
 9
 9
 9
 9
 9
 9
 9
 9
 9
 9
 9
 9
 9
 9
 9
 9
 9
 9
 9
 9
 9
 9
 9
 9
 9
 9
 9
 9
 9
 9
 9
 9
 9
 9
 9
 9
 9
 9
 9
 9
 9
 9
 9
 9
 9
 9
 9
 9
 9
 9
 9
 9
 9
 9
 9
 9
 9
 9
 9
 9
 9
 9
 9
 9
 9
 9
 9
 9
 9
 9
 9
 9
 9
 9
 9
 9
 9
 9
 9
 9
 9
 9
 9
 9
 9
 9
 9
 9
 9
 9
 9
 9
 9
 9
 9
 9
 9
 9
 9
 9
 9
 9
 9
 9
 9
 9
 9
 9
 9
 9
 9
 9
 9
 9
 9
 9
 9
 9
 9
 9
 9
 9
 9
 9
 9
 9
 9
 9
 9
 9
 9
 9
 9
 9
 9
 9
 9
 9
 9
 9
 9
 9
 9
 9
 9
 9
 9
 9
 9
 9
 9
 9
 9
 9
 9
 9
 9
 9
 9
 9
 9
 9
 9
 9
 9
 9
 9
 9
 9
 9
 9
 9
 9
 9
 9
 9
 9
 9
 9
 9
 9
 9
 9
 9
 9
 9
 9
 9
 9
 9
 9
 9
 9
 9
 9
 9
 9
 9
 9
 9
 9
 9
 9
 9
 9
 9
 9
 9
 9
 9
 9
 9
 9
 9
 9
 9
 9
 9
 9
 9
 9
 9
 9
 9
 9
 9
 9
 9
 9
 9
 9
 9
 9
 9
 9
 9
 9
 9
 9
 9
 9
 9
 9
 9
 9
 9
 9
 9
 9
 9
 9
 9
 9
 9
 9
 9
 9
 9
 9
 9
 9
 9
 9
 9
 9
 9
 9
 9
 9
 9
 9
 9
 9
 9
 9
 9
 9
 9
 9
 9
 9
 9
 9
 9
 9
 9
 9
 9
 9
 9
 9
 9
 9
 9
 9
 9
 9
 9
 9
 9
 9
 9
 9
 9
 9
 9
 9
 9
 9
 9
 9
 9
 9
 9
 9
 9
 9
 9
 9
 9
 9
 9
 9
 9
 9
 9
 9
 9
 9
 9
 9
 9
 9
 9
 9
 9
 9
 9
 9
 9
 9
 9
 9
 9
 9
 9
 9
 9
 9
 9
 9
 9
 9
 9
 9
 9
 9
 9
 9
 9
 9
 9
 9
 9
 9
 9
 9
 9
 9
 9
 9
 9
 9
 9
 9
 9
 9
 9
 9
 9
 9
 9
 9
 9
 9
 9
 9
 9
 9
 9
 9
 9
 9
 9
 9
 9
 9
 9
 9
 9
 9
 9
 9
 9
 9
 9
 9
 9
 9
 9
 9
 9
 9
 9
 9
 9
 9
 9
 9
 9
 9
 9
 9
 9
 9
 9
 9
 9
 9
 9
 9
 9
 9
 9
 9
 9
 9
 9
 9
 9
 9
 9
 9
 9
 9
 9
 9
 9
 9
 9
 9
 9
 9
 9
 9
 9
 9
 9
 9
 9
 9
 9
 9
 9
 9
 9
 9
 9
 9
 9
 9
 9
 9
 9
 9
 9
 9
 9
 9
 9
 9
 9
 9
 9
 9
 9
 9
 9
 9
 9
 9
 9
 9
 9
 9
 9
 9
 9
 9
 9
 9
 9
 9
 9
 9
 9
 9
 9
 9
 9
 9
 9
 9
 9
 9
 9
 9
 9
 9
 9
 9
 9
 9
 9
 9
 9
 9
 9
 9
 9
 9
 9
 9
 9
 9
 </DataArray>
 </Cells> 
 <PointData>
 <DataArray  type="Float64" Name="disp" NumberOfComponents="3" format="ascii">
   0.0000000000000000        0.0000000000000000        0.0000000000000000     
   6.0960500504925290E-003   3.7905448692759488E-003   0.0000000000000000     
   1.1666100819805417E-002   7.3241053625436904E-003   0.0000000000000000     
   1.6710152307938660E-002   1.0600681479803226E-002   0.0000000000000000     
   2.1228204514892258E-002   1.3620273221054552E-002   0.0000000000000000     
   0.0000000000000000        0.0000000000000000        0.0000000000000000     
   4.8911580876283781E-003   3.0222866936795547E-003   0.0000000000000000     
   9.5736065295584302E-003   6.0608373026835426E-003   0.0000000000000000     
   1.4047345325790160E-002   9.1156518270119630E-003   0.0000000000000000     
   1.8312374476323560E-002   1.2186730266664815E-002   0.0000000000000000     
   0.0000000000000000        0.0000000000000000        0.0000000000000000     
   3.9535245239426461E-003   2.4252771759277923E-003   0.0000000000000000     
   7.9105226198109488E-003   5.0632212309637305E-003   0.0000000000000000     
   1.1870994287604908E-002   7.9138321651078154E-003   0.0000000000000000     
   1.5834939527324520E-002   1.0977109978360045E-002   0.0000000000000000     
   0.0000000000000000        0.0000000000000000        0.0000000000000000     
   3.2831493594353313E-003   1.9995163160206604E-003   0.0000000000000000     
   6.6768490905629663E-003   4.3312571473842531E-003   0.0000000000000000     
   1.0181099193382902E-002   6.9952224940907776E-003   0.0000000000000000     
   1.3795899667895146E-002   9.9914123561402352E-003   0.0000000000000000     
   0.0000000000000000        0.0000000000000000        0.0000000000000000     
   2.8800325941064344E-003   1.7450041139581598E-003   0.0000000000000000     
   5.8725859418144854E-003   3.8649450519451112E-003   0.0000000000000000     
   8.9776600431241502E-003   6.3598228139608538E-003   0.0000000000000000     
   1.2195254898035432E-002   9.2296374000053888E-003   0.0000000000000000     
   2.1228204514892258E-002   1.3620273221054552E-002   0.0000000000000000     
   2.5433172478838320E-002   1.6613486627871193E-002   0.0000000000000000     
   2.9537971237948948E-002   1.9810927741826669E-002   0.0000000000000000     
   3.3542600792224139E-002   2.3212596562920972E-002   0.0000000000000000     
   3.7447061141663900E-002   2.6818493091154114E-002   0.0000000000000000     
   1.8312374476323560E-002   1.2186730266664815E-002   0.0000000000000000     
   2.2406914400918972E-002   1.5342445283414377E-002   0.0000000000000000     
   2.6369185519336744E-002   1.8651169539032918E-002   0.0000000000000000     
   3.0199187831576869E-002   2.2112903033520443E-002   0.0000000000000000     
   3.3896921337639357E-002   2.5727645766876944E-002   0.0000000000000000     
   1.5834939527324520E-002   1.0977109978360045E-002   0.0000000000000000     
   1.9730571649471635E-002   1.4211911410622806E-002   0.0000000000000000     
   2.3486103964548095E-002   1.7577093201798476E-002   0.0000000000000000     
   2.7101536472553901E-002   2.1072655351887067E-002   0.0000000000000000     
   3.0576869173489053E-002   2.4698597860888571E-002   0.0000000000000000     
   1.3795899667895146E-002   9.9914123561402352E-003   0.0000000000000000     
   1.7404144224496303E-002   1.3221885009496472E-002   0.0000000000000000     
   2.0888726573582997E-002   1.6588698730123350E-002   0.0000000000000000     
   2.4249646715155230E-002   2.0091853518020852E-002   0.0000000000000000     
   2.7486904649212988E-002   2.3731349373188992E-002   0.0000000000000000     
   1.2195254898035432E-002   9.2296374000053888E-003   0.0000000000000000     
   1.5427632125992980E-002   1.2372366080035386E-002   0.0000000000000000     
   1.8577053346441452E-002   1.5685986124007522E-002   0.0000000000000000     
   2.1643518559380844E-002   1.9170497531921796E-002   0.0000000000000000     
   2.4627027764811158E-002   2.2825900303778207E-002   0.0000000000000000     
   3.7447061141663900E-002   2.6818493091154114E-002   0.0000000000000000     
   4.1255231550003948E-002   3.0624055206720575E-002   0.0000000000000000     
   4.4970991280980005E-002   3.4624720789814829E-002   0.0000000000000000     
   4.8594340334592076E-002   3.8820489840436893E-002   0.0000000000000000     
   5.2125278710840155E-002   4.3211362358586754E-002   0.0000000000000000     
   3.3896921337639357E-002   2.5727645766876944E-002   0.0000000000000000     
   3.7485294600878183E-002   2.9524314051622737E-002   0.0000000000000000     
   4.0987216184647346E-002   3.3531824200278129E-002   0.0000000000000000     
   4.4402686088946854E-002   3.7750176212843115E-002   0.0000000000000000     
   4.7731704313776699E-002   4.2179370089317693E-002   0.0000000000000000     
   3.0576869173489053E-002   2.4698597860888571E-002   0.0000000000000000     
   3.3941427282508048E-002   2.8499520747015658E-002   0.0000000000000000     
   3.7224536014765379E-002   3.2520024028481011E-002   0.0000000000000000     
   4.0426195370261049E-002   3.6760107705284616E-002   0.0000000000000000     
   4.3546405348995072E-002   4.1219771777426480E-002   0.0000000000000000     
   2.7486904649212988E-002   2.3731349373188992E-002   0.0000000000000000     
   3.0623629594893523E-002   2.7549675292899343E-002   0.0000000000000000     
   3.3682950771334083E-002   3.1589320274423488E-002   0.0000000000000000     
   3.6664868178534663E-002   3.5850284317761424E-002   0.0000000000000000     
   3.9569381816495261E-002   4.0332567422913135E-002   0.0000000000000000     
   2.4627027764811158E-002   2.2825900303778207E-002   0.0000000000000000     
   2.7531901538034628E-002   2.6674777689273781E-002   0.0000000000000000     
   3.0362460454353465E-002   3.0739712938105544E-002   0.0000000000000000     
   3.3118704513767694E-002   3.5020706050273499E-002   0.0000000000000000     
   3.5800633716277286E-002   3.9517757025777644E-002   0.0000000000000000     
   5.2125278710840155E-002   4.3211362358586754E-002   0.0000000000000000     
   5.5559945189852286E-002   4.7800909186586735E-002   0.0000000000000000     
   5.8894478551756488E-002   5.2592701166759147E-002   0.0000000000000000     
   6.2128878796552767E-002   5.7586738299103990E-002   0.0000000000000000     
   6.5263145924241137E-002   6.2783020583621257E-002   0.0000000000000000     
   4.7731704313776699E-002   4.2179370089317693E-002   0.0000000000000000     
   5.0970341207535082E-002   4.6811678058995887E-002   0.0000000000000000     
   5.4114667118620230E-002   5.1639372351171699E-002   0.0000000000000000     
   5.7164682047032150E-002   5.6662452965845163E-002   0.0000000000000000     
   6.0120385992770815E-002   6.1880919903016245E-002   0.0000000000000000     
   4.3546405348995072E-002   4.1219771777426480E-002   0.0000000000000000     
   4.6581925674026962E-002   4.5885281058711216E-002   0.0000000000000000     
   4.9529516068416282E-002   5.0742900362943433E-002   0.0000000000000000     
   5.2389176532163038E-002   5.5792629690123136E-002   0.0000000000000000     
   5.5160907065267197E-002   6.1034469040250311E-002   0.0000000000000000     
   3.9569381816495261E-002   4.0332567422913135E-002   0.0000000000000000     
   4.2394698589327907E-002   4.5021718185732744E-002   0.0000000000000000     
   4.5139025401144624E-002   4.9903285202074335E-002   0.0000000000000000     
   4.7802362251945417E-002   5.4977268471937908E-002   0.0000000000000000     
   5.0384709141730294E-002   6.0243667995323463E-002   0.0000000000000000     
   3.5800633716277286E-002   3.9517757025777644E-002   0.0000000000000000     
   3.8408659953437924E-002   4.4220989440060456E-002   0.0000000000000000     
   4.0943195116805269E-002   4.9120526868564392E-002   0.0000000000000000     
   4.3404239206379328E-002   5.4216369311289481E-002   0.0000000000000000     
   4.5791792222160080E-002   5.9508516768235709E-002   0.0000000000000000     
   6.5263145924241137E-002   6.2783020583621257E-002   0.0000000000000000     
   6.8302641783560228E-002   6.8171207531902853E-002   0.0000000000000000     
   7.1252728223248685E-002   7.3740958655540603E-002   0.0000000000000000     
   7.4113405243306521E-002   7.9492273954534537E-002   0.0000000000000000     
   7.6884672843733723E-002   8.5425153428884640E-002   0.0000000000000000     
   6.0120385992770815E-002   6.1880919903016245E-002   0.0000000000000000     
   6.2985527305471148E-002   6.7289365757919994E-002   0.0000000000000000     
   6.5763854334768015E-002   7.2882383125791428E-002   0.0000000000000000     
   6.8455367080661439E-002   7.8659972006630566E-002   0.0000000000000000     
   7.1060065543151418E-002   8.4622132400437394E-002   0.0000000000000000     
   5.5160907065267197E-002   6.1034469040250311E-002   0.0000000000000000     
   5.7846950711875421E-002   6.6465300149413986E-002   0.0000000000000000     
   6.0449550516134341E-002   7.2082004753703147E-002   0.0000000000000000     
   6.2968706478043923E-002   7.7884582853117793E-002   0.0000000000000000     
   6.5404418597604194E-002   8.3873034447657924E-002   0.0000000000000000     
   5.0384709141730294E-002   6.0243667995323463E-002   0.0000000000000000     
   5.2886912002773082E-002   6.5699010706384800E-002   0.0000000000000000     
   5.5309816767347635E-002   7.1339823539275704E-002   0.0000000000000000     
   5.7653423435453960E-002   7.7166106493996203E-002   0.0000000000000000     
   5.9917732007092078E-002   8.3177859570546228E-002   0.0000000000000000     
   4.5791792222160080E-002   5.9508516768235709E-002   0.0000000000000000     
   4.8105411178164102E-002   6.4990497428832478E-002   0.0000000000000000     
   5.0344653088407930E-002   7.0655839482509156E-002   0.0000000000000000     
   5.2509517952891584E-002   7.6504542929265770E-002   0.0000000000000000     
   5.4600005771615043E-002   8.2536607769102308E-002   0.0000000000000000     
   7.6884672843733723E-002   8.5425153428884640E-002   0.0000000000000000     
   7.9561285482599636E-002   9.1526031540044767E-002   0.0000000000000000     
   8.2137997617973593E-002   9.7781342749468772E-002   0.0000000000000000     
   8.4614809249855580E-002  0.10419108705715663        0.0000000000000000     
   8.6991720378245596E-002  0.11075526446310835        0.0000000000000000     
   7.1060065543151418E-002   8.4622132400437394E-002   0.0000000000000000     
   7.3575042743655131E-002   9.0753184690785485E-002   0.0000000000000000     
   7.5997391703589767E-002   9.7037449261248396E-002   0.0000000000000000     
   7.8327112422955342E-002  0.10347492611182615        0.0000000000000000     
   8.0564204901751826E-002  0.11006561524251873        0.0000000000000000     
   6.5404418597604194E-002   8.3873034447657924E-002   0.0000000000000000     
   6.7755540510853737E-002   9.0030928459725434E-002   0.0000000000000000     
   7.0020925853831142E-002   9.6341833811722163E-002   0.0000000000000000     
   7.2200574626536410E-002  0.10280575050364815        0.0000000000000000     
   7.4294486828969539E-002  0.10942267853550336        0.0000000000000000     
   5.9917732007092078E-002   8.3177859570546228E-002   0.0000000000000000     
   6.2102778784195484E-002   8.9359262846864601E-002   0.0000000000000000     
   6.4208600068697733E-002   9.5694496400890061E-002   0.0000000000000000     
   6.6235195860598839E-002  0.10218356023262259        0.0000000000000000     
   6.8182566159898775E-002  0.10882645434206219        0.0000000000000000     
   5.4600005771615043E-002   8.2536607769102308E-002   0.0000000000000000     
   5.6616757563680342E-002   8.8738187852203013E-002   0.0000000000000000     
   5.8560414348189510E-002   9.5095437028752075E-002   0.0000000000000000     
   6.0430976125142574E-002  0.10160835529874951        0.0000000000000000     
   6.2228442894539493E-002  0.10827694266219529        0.0000000000000000     
   8.6991720378245596E-002  0.11075526446310835        0.0000000000000000     
   8.9268896675423176E-002  0.11746598496762661        0.0000000000000000     
   9.1446503813667826E-002  0.12431535857101404        0.0000000000000000     
   9.3524541792979532E-002  0.13130338527327065        0.0000000000000000     
   9.5503010613358294E-002  0.13843006507439645        0.0000000000000000     
   8.0564204901751826E-002  0.11006561524251873        0.0000000000000000     
   8.2710042865889510E-002  0.11680211504941393        0.0000000000000000     
   8.4766000041278711E-002  0.12367702392859957        0.0000000000000000     
   8.6732076427919386E-002  0.13069034188007561        0.0000000000000000     
   8.8608272025811535E-002  0.13784206890384204        0.0000000000000000     
   7.4294486828969539E-002  0.10942267853550336        0.0000000000000000     
   7.6304611038092121E-002  0.11618495338911849        0.0000000000000000     
   7.8232895830865762E-002  0.12308491054632421        0.0000000000000000     
   8.0079341207290461E-002  0.13012255000712059        0.0000000000000000     
   8.1843947167366191E-002  0.13729787177150757        0.0000000000000000     
   6.8182566159898775E-002  0.10882645434206219        0.0000000000000000     
   7.0052601192030994E-002  0.11561449998674024        0.0000000000000000     
   7.1847191182428993E-002  0.12253901842418806        0.0000000000000000     
   7.3566336131092744E-002  0.12960000965440560        0.0000000000000000     
   7.5210036038022260E-002  0.13679747367739298        0.0000000000000000     
   6.2228442894539493E-002  0.10827694266219529        0.0000000000000000     
   6.3954013327706144E-002  0.11509075484227922        0.0000000000000000     
   6.5608886095968405E-002  0.12203934756219102        0.0000000000000000     
   6.7193061199326276E-002  0.12912272082193069        0.0000000000000000     
   6.8706538637779729E-002  0.13634087462149827        0.0000000000000000     
   9.5503010613358294E-002  0.13843006507439645        0.0000000000000000     
   9.7358780835519770E-002  0.14567279111105652        0.0000000000000000     
   9.9068723020179661E-002  0.15300895651991597        0.0000000000000000     
  0.10063283716733792       0.16043856130097489        0.0000000000000000     
  0.10205112327699457       0.16796160545423314        0.0000000000000000     
   8.8608272025811535E-002  0.13784206890384204        0.0000000000000000     
   9.0387125124820389E-002  0.14511206515907557        0.0000000000000000     
   9.2061174014811092E-002  0.15248019080495268        0.0000000000000000     
   9.3630418695783674E-002  0.15994644584147341        0.0000000000000000     
   9.5094859167738077E-002  0.16751083026863778        0.0000000000000000     
   8.1843947167366191E-002  0.13729787177150757        0.0000000000000000     
   8.3529034231715121E-002  0.14459314071934010        0.0000000000000000     
   8.5136922920959368E-002  0.15199062173047304        0.0000000000000000     
   8.6667613235098903E-002  0.15949031480490639        0.0000000000000000     
   8.8121105174133768E-002  0.16709221994264020        0.0000000000000000     
   7.5210036038022260E-002  0.13679747367739298        0.0000000000000000     
   7.6784508156204023E-002  0.14411601779185013        0.0000000000000000     
   7.8295969738624502E-002  0.15154024929647705        0.0000000000000000     
   7.9744420785283709E-002  0.15907016819127390        0.0000000000000000     
   8.1129861296181646E-002  0.16670577447624049        0.0000000000000000     
   6.8706538637779729E-002  0.13634087462149827        0.0000000000000000     
   7.0153546898287053E-002  0.14368069637660563        0.0000000000000000     
   7.1538314467806494E-002  0.15112907350296484        0.0000000000000000     
   7.2860841346338051E-002  0.15868600600057581        0.0000000000000000     
   7.4121127533881712E-002  0.16635149386943862        0.0000000000000000     
   0.0000000000000000        0.0000000000000000        0.0000000000000000     
   2.8800325941064344E-003   1.7450041139581598E-003   0.0000000000000000     
   5.8725859418144854E-003   3.8649450519451112E-003   0.0000000000000000     
   8.9776600431241502E-003   6.3598228139608538E-003   0.0000000000000000     
   1.2195254898035432E-002   9.2296374000053888E-003   0.0000000000000000     
   0.0000000000000000        0.0000000000000000        0.0000000000000000     
   2.6103141652855837E-003   1.5890799621326496E-003   0.0000000000000000     
   5.2897226127183320E-003   3.5569724013103329E-003   0.0000000000000000     
   8.0382253422982431E-003   5.9036773175330497E-003   0.0000000000000000     
   1.0855822354025321E-002   8.6291947108008017E-003   0.0000000000000000     
   0.0000000000000000        0.0000000000000000        0.0000000000000000     
   2.3401340103024072E-003   1.4590832529364889E-003   0.0000000000000000     
   4.7202485424273355E-003   3.3000266521439471E-003   0.0000000000000000     
   7.1403435963747859E-003   5.5228301976223745E-003   0.0000000000000000     
   9.6004191721447592E-003   8.1274938893717702E-003   0.0000000000000000     
   0.0000000000000000        0.0000000000000000        0.0000000000000000     
   2.0694921291569044E-003   1.3550139863696784E-003   0.0000000000000000     
   4.1641637309414951E-003   3.0941078044459543E-003   0.0000000000000000     
   6.2840148053537742E-003   5.2172814542288271E-003   0.0000000000000000     
   8.4290453523937405E-003   7.7245349357182979E-003   0.0000000000000000     
   0.0000000000000000        0.0000000000000000        0.0000000000000000     
   1.7983885218490758E-003   1.2768721624322171E-003   0.0000000000000000     
   3.6214681782608133E-003   2.9392158582163532E-003   0.0000000000000000     
   5.4692389692352116E-003   4.9870310873524077E-003   0.0000000000000000     
   7.3417008947722715E-003   7.4203178498403804E-003   0.0000000000000000     
   1.2195254898035432E-002   9.2296374000053888E-003   0.0000000000000000     
   1.5427632125992980E-002   1.2372366080035386E-002   0.0000000000000000     
   1.8577053346441452E-002   1.5685986124007522E-002   0.0000000000000000     
   2.1643518559380844E-002   1.9170497531921796E-002   0.0000000000000000     
   2.4627027764811158E-002   2.2825900303778207E-002   0.0000000000000000     
   1.0855822354025321E-002   8.6291947108008017E-003   0.0000000000000000     
   1.3689191818742981E-002   1.1651310062197716E-002   0.0000000000000000     
   1.6485011907294646E-002   1.4887808852807922E-002   0.0000000000000000     
   1.9243282619680311E-002   1.8338691082631420E-002   0.0000000000000000     
   2.1964003955899987E-002   2.2003956751668212E-002   0.0000000000000000     
   9.6004191721447592E-003   8.1274938893717702E-003   0.0000000000000000     
   1.2076979767527628E-002   1.1046672395941634E-002   0.0000000000000000     
   1.4546529880313769E-002   1.4213020385881457E-002   0.0000000000000000     
   1.7009069510503187E-002   1.7626537859191244E-002   0.0000000000000000     
   1.9464598658095873E-002   2.1287224815870996E-002   0.0000000000000000     
   8.4290453523937405E-003   7.7245349357182979E-003   0.0000000000000000     
   1.0590995972346915E-002   1.0558453081267143E-002   0.0000000000000000     
   1.2761607265498822E-002   1.3661620723228131E-002   0.0000000000000000     
   1.4940879231849455E-002   1.7034037861601275E-002   0.0000000000000000     
   1.7128811871398825E-002   2.0675704496386563E-002   0.0000000000000000     
   7.3417008947722715E-003   7.4203178498403804E-003   0.0000000000000000     
   9.2312404332008484E-003   1.0186652118174239E-002   0.0000000000000000     
   1.1130244062849803E-002   1.3233609864847944E-002   0.0000000000000000     
   1.3038711783719131E-002   1.6561191089861496E-002   0.0000000000000000     
   1.4956643595808833E-002   2.0169395793214907E-002   0.0000000000000000     
   2.4627027764811158E-002   2.2825900303778207E-002   0.0000000000000000     
   2.7531901538034628E-002   2.6674777689273781E-002   0.0000000000000000     
   3.0362460454353465E-002   3.0739712938105544E-002   0.0000000000000000     
   3.3118704513767694E-002   3.5020706050273499E-002   0.0000000000000000     
   3.5800633716277286E-002   3.9517757025777644E-002   0.0000000000000000     
   2.1964003955899987E-002   2.2003956751668212E-002   0.0000000000000000     
   2.4630804245241222E-002   2.5881380924570069E-002   0.0000000000000000     
   2.7227311816991586E-002   2.9968738665988769E-002   0.0000000000000000     
   2.9753526671151082E-002   3.4266029975924310E-002   0.0000000000000000     
   3.2209448807719698E-002   3.8773254854376694E-002   0.0000000000000000     
   1.9464598658095873E-002   2.1287224815870996E-002   0.0000000000000000     
   2.1884898849823194E-002   2.5176037987219294E-002   0.0000000000000000     
   2.4241751612416488E-002   2.9273934104534716E-002   0.0000000000000000     
   2.6535156945875781E-002   3.3580913167817271E-002   0.0000000000000000     
   2.8765114850201050E-002   3.8096975177066950E-002   0.0000000000000000     
   1.7128811871398825E-002   2.0675704496386563E-002   0.0000000000000000     
   1.9294185351780530E-002   2.4558748877221450E-002   0.0000000000000000     
   2.1405779840628188E-002   2.8655299253743396E-002   0.0000000000000000     
   2.3463595337941793E-002   3.2965355625952403E-002   0.0000000000000000     
   2.5467631843721354E-002   3.7488917993848452E-002   0.0000000000000000     
   1.4956643595808833E-002   2.0169395793214907E-002   0.0000000000000000     
   1.6858663751113237E-002   2.4029513594576547E-002   0.0000000000000000     
   1.8719396501626667E-002   2.8112834113614798E-002   0.0000000000000000     
   2.0538841847349117E-002   3.2419357350329671E-002   0.0000000000000000     
   2.2316999788280598E-002   3.6949083304721159E-002   0.0000000000000000     
   3.5800633716277286E-002   3.9517757025777644E-002   0.0000000000000000     
   3.8408659953437924E-002   4.4220989440060456E-002   0.0000000000000000     
   4.0943195116805269E-002   4.9120526868564392E-002   0.0000000000000000     
   4.3404239206379328E-002   5.4216369311289481E-002   0.0000000000000000     
   4.5791792222160080E-002   5.9508516768235709E-002   0.0000000000000000     
   3.2209448807719698E-002   3.8773254854376694E-002   0.0000000000000000     
   3.4597216776364390E-002   4.3486048863052851E-002   0.0000000000000000     
   3.6918969126752119E-002   4.8400047563659732E-002   0.0000000000000000     
   3.9174705858882865E-002   5.3515250956197323E-002   0.0000000000000000     
   4.1364426972756649E-002   5.8831659040665646E-002   0.0000000000000000     
   2.8765114850201050E-002   3.8096975177066950E-002   0.0000000000000000     
   3.0933776068114687E-002   4.2819850496068457E-002   0.0000000000000000     
   3.3043291342339062E-002   4.7747269488606435E-002   0.0000000000000000     
   3.5093660672874186E-002   5.2879232154680919E-002   0.0000000000000000     
   3.7084884059720054E-002   5.8215738494291874E-002   0.0000000000000000     
   2.5467631843721354E-002   3.7488917993848452E-002   0.0000000000000000     
   2.7418337828688813E-002   4.2222394339107260E-002   0.0000000000000000     
   2.9316161763566124E-002   4.7162192643404523E-002   0.0000000000000000     
   3.1161103648353283E-002   5.2308312906740248E-002   0.0000000000000000     
   3.2953163483050302E-002   5.7660755129114422E-002   0.0000000000000000     
   2.2316999788280598E-002   3.6949083304721159E-002   0.0000000000000000     
   2.4050902058086767E-002   4.1693680392169273E-002   0.0000000000000000     
   2.5737580390433286E-002   4.6644817028053988E-002   0.0000000000000000     
   2.7377034785320165E-002   5.1802493212375331E-002   0.0000000000000000     
   2.8969265242747389E-002   5.7166708945133288E-002   0.0000000000000000     
   4.5791792222160080E-002   5.9508516768235709E-002   0.0000000000000000     
   4.8105411178164102E-002   6.4990497428832478E-002   0.0000000000000000     
   5.0344653088407930E-002   7.0655839482509156E-002   0.0000000000000000     
   5.2509517952891584E-002   7.6504542929265770E-002   0.0000000000000000     
   5.4600005771615043E-002   8.2536607769102308E-002   0.0000000000000000     
   4.1364426972756649E-002   5.8831659040665646E-002   0.0000000000000000     
   4.3486721858381469E-002   6.4339174121742310E-002   0.0000000000000000     
   4.5540179905765345E-002   7.0027698504104924E-002   0.0000000000000000     
   4.7524801114908255E-002   7.5897232187753516E-002   0.0000000000000000     
   4.9440585485810234E-002   8.1947775172688045E-002   0.0000000000000000     
   3.7084884059720054E-002   5.8215738494291874E-002   0.0000000000000000     
   3.9015117663758155E-002   6.3744454590099628E-002   0.0000000000000000     
   4.0882517645869976E-002   6.9453046524764459E-002   0.0000000000000000     
   4.2687084006055517E-002   7.5341514298286352E-002   0.0000000000000000     
   4.4428816744314779E-002   8.1409857910665295E-002   0.0000000000000000     
   3.2953163483050302E-002   5.7660755129114422E-002   0.0000000000000000     
   3.4690598594294159E-002   6.3206338833904474E-002   0.0000000000000000     
   3.6371666308721844E-002   6.8931883544487746E-002   0.0000000000000000     
   3.7996366626333371E-002   7.4837389260864279E-002   0.0000000000000000     
   3.9564699547128712E-002   8.0922855983034073E-002   0.0000000000000000     
   2.8969265242747389E-002   5.7166708945133288E-002   0.0000000000000000     
   3.0513164649989478E-002   6.2724826853156793E-002   0.0000000000000000     
   3.2007625894320942E-002   6.8464209563274814E-002   0.0000000000000000     
   3.3452648975741787E-002   7.4384857075487337E-002   0.0000000000000000     
   3.4848233894251998E-002   8.0486769389794349E-002   0.0000000000000000     
   5.4600005771615043E-002   8.2536607769102308E-002   0.0000000000000000     
   5.6616757563680342E-002   8.8738187852203013E-002   0.0000000000000000     
   5.8560414348189510E-002   9.5095437028752075E-002   0.0000000000000000     
   6.0430976125142574E-002  0.10160835529874951        0.0000000000000000     
   6.2228442894539493E-002  0.10827694266219529        0.0000000000000000     
   4.9440585485810234E-002   8.1947775172688045E-002   0.0000000000000000     
   5.1288339468700879E-002   8.8167637403333193E-002   0.0000000000000000     
   5.3068869513809812E-002   9.4545128824113575E-002   0.0000000000000000     
   5.4782175621137047E-002  0.10108024943502922        0.0000000000000000     
   5.6428257790682591E-002  0.10777299923608009        0.0000000000000000     
   4.4428816744314779E-002   8.1409857910665295E-002   0.0000000000000000     
   4.6108387118649653E-002   8.7647545427847695E-002   0.0000000000000000     
   4.7726466387061961E-002   9.4044044915779973E-002   0.0000000000000000     
   4.9283054549551709E-002  0.10059935637446207        0.0000000000000000     
   5.0778151606118933E-002  0.10731347980389401        0.0000000000000000     
   3.9564699547128712E-002   8.0922855983034073E-002   0.0000000000000000     
   4.1076900513526651E-002   8.7177911925746573E-002   0.0000000000000000     
   4.2533204967945923E-002   9.3592185303751213E-002   0.0000000000000000     
   4.3933612910386555E-002  0.10016567611704806        0.0000000000000000     
   4.5278124340848519E-002  0.10689838436563708        0.0000000000000000     
   3.4848233894251998E-002   8.0486769389794349E-002   0.0000000000000000     
   3.6193879653331887E-002   8.6758736897029745E-002   0.0000000000000000     
   3.7489085256461739E-002   9.3189549988027365E-002   0.0000000000000000     
   3.8733850703641562E-002   9.9779208662787208E-002   0.0000000000000000     
   3.9928175994871362E-002  0.10652771292130928        0.0000000000000000     
   6.2228442894539493E-002  0.10827694266219529        0.0000000000000000     
   6.3954013327706144E-002  0.11509075484227922        0.0000000000000000     
   6.5608886095968405E-002  0.12203934756219102        0.0000000000000000     
   6.7193061199326276E-002  0.12912272082193069        0.0000000000000000     
   6.8706538637779729E-002  0.13634087462149827        0.0000000000000000     
   5.6428257790682591E-002  0.10777299923608009        0.0000000000000000     
   5.8007489161590861E-002  0.11461119487210511        0.0000000000000000     
   5.9520242873006335E-002  0.12158265298794324        0.0000000000000000     
   6.0966518924928992E-002  0.12868737358359439        0.0000000000000000     
   6.2346317317358839E-002  0.13592535665905867        0.0000000000000000     
   5.0778151606118933E-002  0.10731347980389401        0.0000000000000000     
   5.2211670410158437E-002  0.11417329699258763        0.0000000000000000     
   5.3583523815065093E-002  0.12116568972905474        0.0000000000000000     
   5.4893711820838881E-002  0.12829065801329534        0.0000000000000000     
   5.6142234427479801E-002  0.13554820184530944        0.0000000000000000     
   4.5278124340848519E-002  0.10689838436563708        0.0000000000000000     
   4.6566557073408892E-002  0.11377706120372673        0.0000000000000000     
   4.7798728922144686E-002  0.12078845778552554        0.0000000000000000     
   4.8974639887055929E-002  0.12793257411103348        0.0000000000000000     
   5.0094289968142608E-002  0.13520941018025057        0.0000000000000000     
   3.9928175994871362E-002  0.10652771292130928        0.0000000000000000     
   4.1072149151342184E-002  0.11342248750552245        0.0000000000000000     
   4.2165858194245114E-002  0.12045095715735567        0.0000000000000000     
   4.3209303123580144E-002  0.12761312187680887        0.0000000000000000     
   4.4202483939347274E-002  0.13490898166388207        0.0000000000000000     
   6.8706538637779729E-002  0.13634087462149827        0.0000000000000000     
   7.0153546898287053E-002  0.14368069637660563        0.0000000000000000     
   7.1538314467806494E-002  0.15112907350296484        0.0000000000000000     
   7.2860841346338051E-002  0.15868600600057581        0.0000000000000000     
   7.4121127533881712E-002  0.16635149386943862        0.0000000000000000     
   6.2346317317358839E-002  0.13592535665905867        0.0000000000000000     
   6.3659662825371569E-002  0.14328530415172758        0.0000000000000000     
   6.4906580224042845E-002  0.15075591799899271        0.0000000000000000     
   6.6087069513372690E-002  0.15833719820085410        0.0000000000000000     
   6.7201130693361089E-002  0.16602914475731170        0.0000000000000000     
   5.6142234427479801E-002  0.13554820184530944        0.0000000000000000     
   5.7326368304864858E-002  0.14292796879533676        0.0000000000000000     
   5.8443390122871058E-002  0.15041960643361713        0.0000000000000000     
   5.9493299881498415E-002  0.15802311476015049        0.0000000000000000     
   6.0476097580746915E-002  0.16573849377493685        0.0000000000000000     
   5.0094289968142608E-002  0.13520941018025057        0.0000000000000000     
   5.1153663336766950E-002  0.14260869030743328        0.0000000000000000     
   5.2148744164291154E-002  0.15012013880683808        0.0000000000000000     
   5.3079532450715235E-002  0.15774375567846502        0.0000000000000000     
   5.3946028196039178E-002  0.16547954092231407        0.0000000000000000     
   4.4202483939347274E-002  0.13490898166388207        0.0000000000000000     
   4.5141547921077829E-002  0.14232746868801704        0.0000000000000000     
   4.6022642348303111E-002  0.14985751511865561        0.0000000000000000     
   4.6845767221023127E-002  0.15749912095579771        0.0000000000000000     
   4.7610922539237883E-002  0.16525228619944335        0.0000000000000000     
   0.0000000000000000        0.0000000000000000        0.0000000000000000     
   1.7983885218490758E-003   1.2768721624322171E-003   0.0000000000000000     
   3.6214681782608133E-003   2.9392158582163532E-003   0.0000000000000000     
   5.4692389692352116E-003   4.9870310873524077E-003   0.0000000000000000     
   7.3417008947722715E-003   7.4203178498403804E-003   0.0000000000000000     
   0.0000000000000000        0.0000000000000000        0.0000000000000000     
   1.5350953618704891E-003   1.2175514688269184E-003   0.0000000000000000     
   3.0995146351536036E-003   2.8208502626276858E-003   0.0000000000000000     
   4.6932578198493440E-003   4.8098963814023031E-003   0.0000000000000000     
   6.3163249159577115E-003   7.1846898251507673E-003   0.0000000000000000     
   0.0000000000000000        0.0000000000000000        0.0000000000000000     
   1.2878848227127117E-003   1.1699455932565946E-003   0.0000000000000000     
   2.6056558523881853E-003   2.7245104668524945E-003   0.0000000000000000     
   3.9533130890264216E-003   4.6636946207877002E-003   0.0000000000000000     
   5.3308565326274197E-003   6.9874980550622082E-003   0.0000000000000000     
   0.0000000000000000        0.0000000000000000        0.0000000000000000     
   1.0567569043757438E-003   1.1340545357212462E-003   0.0000000000000000     
   2.1398918299645581E-003   2.6501964708907787E-003   0.0000000000000000     
   3.2494047767664433E-003   4.5484258055085982E-003   0.0000000000000000     
   4.3852957447813989E-003   6.8287425395747031E-003   0.0000000000000000     
   0.0000000000000000        0.0000000000000000        0.0000000000000000     
   8.4171160685958535E-004   1.1098782962208726E-003   0.0000000000000000     
   1.7022225678827219E-003   2.5979082747425381E-003   0.0000000000000000     
   2.5815328830694094E-003   4.4640899355649979E-003   0.0000000000000000     
   3.4796425524196476E-003   6.7084232786882511E-003   0.0000000000000000     
   7.3417008947722715E-003   7.4203178498403804E-003   0.0000000000000000     
   9.2312404332008484E-003   1.0186652118174239E-002   0.0000000000000000     
   1.1130244062849803E-002   1.3233609864847944E-002   0.0000000000000000     
   1.3038711783719131E-002   1.6561191089861496E-002   0.0000000000000000     
   1.4956643595808833E-002   2.0169395793214907E-002   0.0000000000000000     
   6.3163249159577115E-003   7.1846898251507673E-003   0.0000000000000000     
   7.9560760235522134E-003   9.8956392680389915E-003   0.0000000000000000     
   9.5998712427063683E-003   1.2893153384232884E-002   0.0000000000000000     
   1.1247710573420172E-002   1.6177232173732441E-002   0.0000000000000000     
   1.2899594015693624E-002   1.9747875636537675E-002   0.0000000000000000     
   5.3308565326274197E-003   6.9874980550622082E-003   0.0000000000000000     
   6.7238656168637969E-003   9.6497842922374753E-003   0.0000000000000000     
   8.1179197754081729E-003   1.2604416854874945E-002   0.0000000000000000     
   9.5130190082605426E-003   1.5851395742974620E-002   0.0000000000000000     
   1.0909163315420913E-002   1.9390720956536503E-002   0.0000000000000000     
   4.3852957447813989E-003   6.8287425395747031E-003   0.0000000000000000     
   5.5346092131355979E-003   9.4490871907696831E-003   0.0000000000000000     
   6.6843896609552140E-003   1.2367400276774129E-002   0.0000000000000000     
   7.8346370882402469E-003   1.5583681797588031E-002   0.0000000000000000     
   8.9853514949906968E-003   1.9097931753211398E-002   0.0000000000000000     
   3.4796425524196476E-003   6.7084232786882511E-003   0.0000000000000000     
   4.3883068123676157E-003   9.2935479636356202E-003   0.0000000000000000     
   5.2992808993474940E-003   1.2182103649930427E-002   0.0000000000000000     
   6.2125648133592812E-003   1.5374090337572673E-002   0.0000000000000000     
   7.1281585544029774E-003   1.8869508026562357E-002   0.0000000000000000     
   1.4956643595808833E-002   2.0169395793214907E-002   0.0000000000000000     
   1.6858663751113237E-002   2.4029513594576547E-002   0.0000000000000000     
   1.8719396501626667E-002   2.8112834113614798E-002   0.0000000000000000     
   2.0538841847349117E-002   3.2419357350329671E-002   0.0000000000000000     
   2.2316999788280598E-002   3.6949083304721159E-002   0.0000000000000000     
   1.2899594015693624E-002   1.9747875636537675E-002   0.0000000000000000     
   1.4539016453787362E-002   2.3578919995461259E-002   0.0000000000000000     
   1.6149472771962013E-002   2.7644201473315890E-002   0.0000000000000000     
   1.7730962970217583E-002   3.1943720070101572E-002   0.0000000000000000     
   1.9283487048554069E-002   3.6477475785818302E-002   0.0000000000000000     
   1.0909163315420913E-002   1.9390720956536503E-002   0.0000000000000000     
   1.2295925865768947E-002   2.3197555936052279E-002   0.0000000000000000     
   1.3662879828184312E-002   2.7247064122013623E-002   0.0000000000000000     
   1.5010025202667013E-002   3.1539245514420555E-002   0.0000000000000000     
   1.6337361989217047E-002   3.6074100113273055E-002   0.0000000000000000     
   8.9853514949906968E-003   1.9097931753211398E-002   0.0000000000000000     
   1.0129391987057992E-002   2.2885421416349597E-002   0.0000000000000000     
   1.1259617670293560E-002   2.6921422059708003E-002   0.0000000000000000     
   1.2376028544697406E-002   3.1205933683286613E-002   0.0000000000000000     
   1.3478624610269522E-002   3.5738956287085434E-002   0.0000000000000000     
   7.1281585544029774E-003   1.8869508026562357E-002   0.0000000000000000     
   8.0394148176544996E-003   2.2642516436353222E-002   0.0000000000000000     
   8.9396862982897597E-003   2.6667275286399023E-002   0.0000000000000000     
   9.8289729963087612E-003   3.0943784576699759E-002   0.0000000000000000     
   1.0707274911711502E-002   3.5472044307255424E-002   0.0000000000000000     
   2.2316999788280598E-002   3.6949083304721159E-002   0.0000000000000000     
   2.4050902058086767E-002   4.1693680392169273E-002   0.0000000000000000     
   2.5737580390433286E-002   4.6644817028053988E-002   0.0000000000000000     
   2.7377034785320165E-002   5.1802493212375331E-002   0.0000000000000000     
   2.8969265242747389E-002   5.7166708945133288E-002   0.0000000000000000     
   1.9283487048554069E-002   3.6477475785818302E-002   0.0000000000000000     
   2.0800708740536279E-002   4.1231555680378874E-002   0.0000000000000000     
   2.2276291779729007E-002   4.6192046813696097E-002   0.0000000000000000     
   2.3710236166132267E-002   5.1358949185769963E-002   0.0000000000000000     
   2.5102541899746048E-002   5.6732262796600479E-002   0.0000000000000000     
   1.6337361989217047E-002   3.6074100113273055E-002   0.0000000000000000     
   1.7636997860265066E-002   4.0833867228860461E-002   0.0000000000000000     
   1.8901040488241736E-002   4.5800786171472103E-002   0.0000000000000000     
   2.0129489873147048E-002   5.0974856941107961E-002   0.0000000000000000     
   2.1322346014981008E-002   5.6356079537768063E-002   0.0000000000000000     
   1.3478624610269522E-002   3.5738956287085434E-002   0.0000000000000000     
   1.4559769417273136E-002   4.0500615037614034E-002   0.0000000000000000     
   1.5611826515971462E-002   4.5471035101381993E-002   0.0000000000000000     
   1.6634795906364516E-002   5.0650216478389340E-002   0.0000000000000000     
   1.7628677588452272E-002   5.6038159168636040E-002   0.0000000000000000     
   1.0707274911711502E-002   3.5472044307255424E-002   0.0000000000000000     
   1.1569023411560483E-002   4.0231799106639585E-002   0.0000000000000000     
   1.2408649862918199E-002   4.5202793603425794E-002   0.0000000000000000     
   1.3226154265784655E-002   5.0385027797614071E-002   0.0000000000000000     
   1.4021536620159848E-002   5.5778501689204396E-002   0.0000000000000000     
   2.8969265242747389E-002   5.7166708945133288E-002   0.0000000000000000     
   3.0513164649989478E-002   6.2724826853156793E-002   0.0000000000000000     
   3.2007625894320942E-002   6.8464209563274814E-002   0.0000000000000000     
   3.3452648975741787E-002   7.4384857075487337E-002   0.0000000000000000     
   3.4848233894251998E-002   8.0486769389794349E-002   0.0000000000000000     
   2.5102541899746048E-002   5.6732262796600479E-002   0.0000000000000000     
   2.6452780053694069E-002   6.2300253711416446E-002   0.0000000000000000     
   2.7760521701100049E-002   6.8051187995446696E-002   0.0000000000000000     
   2.9025766841963983E-002   7.3985065648691201E-002   0.0000000000000000     
   3.0248515476285869E-002   8.0101886671149966E-002   0.0000000000000000     
   2.1322346014981008E-002   5.6356079537768063E-002   0.0000000000000000     
   2.2479409028257884E-002   6.1932954472243271E-002   0.0000000000000000     
   2.3600479027491923E-002   6.7693982255324456E-002   0.0000000000000000     
   2.4685556012683144E-002   7.3639162887011597E-002   0.0000000000000000     
   2.5734639983831537E-002   7.9768496367304709E-002   0.0000000000000000     
   1.7628677588452272E-002   5.6038159168636040E-002   0.0000000000000000     
   1.8593051573680915E-002   6.1622929135637231E-002   0.0000000000000000     
   1.9527497873496585E-002   6.7392592342908064E-002   0.0000000000000000     
   2.0432016487899277E-002   7.3347148790448499E-002   0.0000000000000000     
   2.1306607416889001E-002   7.9486598478258549E-002   0.0000000000000000     
   1.4021536620159848E-002   5.5778501689204396E-002   0.0000000000000000     
   1.4793707689963170E-002   6.1370177701598361E-002   0.0000000000000000     
   1.5541578239114015E-002   6.7147018258197549E-002   0.0000000000000000     
   1.6265148267612380E-002   7.3109023359001907E-002   0.0000000000000000     
   1.6964417775458270E-002   7.9256193004011516E-002   0.0000000000000000     
   3.4848233894251998E-002   8.0486769389794349E-002   0.0000000000000000     
   3.6193879653331887E-002   8.6758736897029745E-002   0.0000000000000000     
   3.7489085256461739E-002   9.3189549988027365E-002   0.0000000000000000     
   3.8733850703641562E-002   9.9779208662787208E-002   0.0000000000000000     
   3.9928175994871362E-002  0.10652771292130928        0.0000000000000000     
   3.0248515476285869E-002   8.0101886671149966E-002   0.0000000000000000     
   3.1427583288391868E-002   8.6389314396957767E-002   0.0000000000000000     
   3.2561785962608135E-002   9.2835012160249336E-002   0.0000000000000000     
   3.3651123498934656E-002   9.9438979961024646E-002   0.0000000000000000     
   3.4695595897371451E-002  0.10620121779928374        0.0000000000000000     
   2.5734639983831537E-002   7.9768496367304709E-002   0.0000000000000000     
   2.6746270169033103E-002   8.6068938480791085E-002   0.0000000000000000     
   2.7718985796383828E-002   9.2527445012058021E-002   0.0000000000000000     
   2.8652786865883736E-002   9.9144015961105517E-002   0.0000000000000000     
   2.9547673377532807E-002  0.10591865132793360        0.0000000000000000     
   2.1306607416889001E-002   7.9486598478258549E-002   0.0000000000000000     
   2.2149940295255591E-002   8.5797609148529727E-002   0.0000000000000000     
   2.2960684757788851E-002   9.2266848543453489E-002   0.0000000000000000     
   2.3738840804488792E-002   9.8894316663029863E-002   0.0000000000000000     
   2.4484408435355421E-002  0.10568001350725882        0.0000000000000000     
   1.6964417775458270E-002   7.9256193004011516E-002   0.0000000000000000     
   1.7638593667059322E-002   8.5575326400173665E-002   0.0000000000000000     
   1.8286882846823178E-002   9.2053222754435698E-002   0.0000000000000000     
   1.8909285314749839E-002   9.8689882066797616E-002   0.0000000000000000     
   1.9505801070839303E-002  0.10548530433725943        0.0000000000000000     
   3.9928175994871362E-002  0.10652771292130928        0.0000000000000000     
   4.1072149151342184E-002  0.11342248750552245        0.0000000000000000     
   4.2165858194245114E-002  0.12045095715735567        0.0000000000000000     
   4.3209303123580144E-002  0.12761312187680887        0.0000000000000000     
   4.4202483939347274E-002  0.13490898166388207        0.0000000000000000     
   3.4695595897371451E-002  0.10620121779928374        0.0000000000000000     
   3.5695629351670831E-002  0.11311003288155551        0.0000000000000000     
   3.6651650055585135E-002  0.12015373241436882        0.0000000000000000     
   3.7563658009114348E-002  0.12733231639772366        0.0000000000000000     
   3.8431653212258478E-002  0.13464578483162007        0.0000000000000000     
   2.9547673377532807E-002  0.10591865132793360        0.0000000000000000     
   3.0404180382107307E-002  0.11284015431540656        0.0000000000000000     
   3.1222842930383486E-002  0.11989732812638872        0.0000000000000000     
   3.2003661022361352E-002  0.12709017276088011        0.0000000000000000     
   3.2746634658040910E-002  0.13441868821888073        0.0000000000000000     
   2.4484408435355421E-002  0.10568001350725882        0.0000000000000000     
   2.5197802242651595E-002  0.11261285180707559        0.0000000000000000     
   2.5879436818640172E-002  0.11968174429341541        0.0000000000000000     
   2.6529312163321161E-002  0.12688669096627822        0.0000000000000000     
   2.7147428276694557E-002  0.13422769182566407        0.0000000000000000     
   1.9505801070839303E-002  0.10548530433725943        0.0000000000000000     
   2.0076494933303712E-002  0.11242812535656269        0.0000000000000000     
   2.0621431720355198E-002  0.11950698091544884        0.0000000000000000     
   2.1140611431993771E-002  0.12672187101391796        0.0000000000000000     
   2.1634034068219427E-002  0.13407279565197003        0.0000000000000000     
   4.4202483939347274E-002  0.13490898166388207        0.0000000000000000     
   4.5141547921077829E-002  0.14232746868801704        0.0000000000000000     
   4.6022642348303111E-002  0.14985751511865561        0.0000000000000000     
   4.6845767221023127E-002  0.15749912095579771        0.0000000000000000     
   4.7610922539237883E-002  0.16525228619944335        0.0000000000000000     
   3.8431653212258478E-002  0.13464578483162007        0.0000000000000000     
   3.9252615955710120E-002  0.14208206534746337        0.0000000000000000     
   4.0023526530161842E-002  0.14962908557665894        0.0000000000000000     
   4.0744384935613664E-002  0.15728684551920680        0.0000000000000000     
   4.1415191172065574E-002  0.16505534517510687        0.0000000000000000     
   3.2746634658040910E-002  0.13441868821888073        0.0000000000000000     
   3.3449461338576451E-002  0.14187024169614754        0.0000000000000000     
   3.4109838565122272E-002  0.14943220038843746        0.0000000000000000     
   3.4727766337678385E-002  0.15710456429575057        0.0000000000000000     
   3.5303244656244792E-002  0.16488733341808676        0.0000000000000000     
   2.7147428276694557E-002  0.13422769182566407        0.0000000000000000     
   2.7732084069676814E-002  0.14169199773406949        0.0000000000000000     
   2.8281578453184398E-002  0.14926685955399119        0.0000000000000000     
   2.8795911427217304E-002  0.15695227728542901        0.0000000000000000     
   2.9275082991775534E-002  0.16474825092838308        0.0000000000000000     
   2.1634034068219427E-002  0.13407279565197003        0.0000000000000000     
   2.2100484149011220E-002  0.14154733346122930        0.0000000000000000     
   2.2538746194348213E-002  0.14913306307332000        0.0000000000000000     
   2.2948820204230412E-002  0.15682998448824217        0.0000000000000000     
   2.3330706178657810E-002  0.16463809770599577        0.0000000000000000     
   0.0000000000000000        0.0000000000000000        0.0000000000000000     
   8.4171160685958535E-004   1.1098782962208726E-003   0.0000000000000000     
   1.7022225678827219E-003   2.5979082747425381E-003   0.0000000000000000     
   2.5815328830694094E-003   4.4640899355649979E-003   0.0000000000000000     
   3.4796425524196476E-003   6.7084232786882511E-003   0.0000000000000000     
   0.0000000000000000        0.0000000000000000        0.0000000000000000     
   6.3385164110163895E-004   1.0938493195483652E-003   0.0000000000000000     
   1.2781172459570072E-003   2.5617923905312638E-003   0.0000000000000000     
   1.9327968145661048E-003   4.4038292129486957E-003   0.0000000000000000     
   2.5978903469289325E-003   6.6199597868006610E-003   0.0000000000000000     
   0.0000000000000000        0.0000000000000000        0.0000000000000000     
   4.2427971803930700E-004   1.0824000504966152E-003   0.0000000000000000     
   8.5304504400174558E-004   2.5359953303804444E-003   0.0000000000000000     
   1.2862959778873156E-003   4.3607858396514888E-003   0.0000000000000000     
   1.7240325196960177E-003   6.5567715783097459E-003   0.0000000000000000     
   0.0000000000000000        0.0000000000000000        0.0000000000000000     
   2.1299583767258961E-004   1.0755304890656230E-003   0.0000000000000000     
   4.2700596201693697E-004   2.5205170942900804E-003   0.0000000000000000     
   6.4203037303304188E-004   4.3349598156733737E-003   0.0000000000000000     
   8.5806907072090454E-004   6.5188586532155023E-003   0.0000000000000000     
   0.0000000000000000        0.0000000000000000        0.0000000000000000     
   1.4868206492379965E-015   1.0732406352553878E-003   0.0000000000000000     
   2.5811601120362404E-015   2.5153576822601722E-003   0.0000000000000000     
   3.2829099681774832E-015   4.3263511410143538E-003   0.0000000000000000     
   3.5922599530419097E-015   6.5062210115179328E-003   0.0000000000000000     
   3.4796425524196476E-003   6.7084232786882511E-003   0.0000000000000000     
   4.3883068123676157E-003   9.2935479636356202E-003   0.0000000000000000     
   5.2992808993474940E-003   1.2182103649930427E-002   0.0000000000000000     
   6.2125648133592812E-003   1.5374090337572673E-002   0.0000000000000000     
   7.1281585544029774E-003   1.8869508026562357E-002   0.0000000000000000     
   2.5978903469289325E-003   6.6199597868006610E-003   0.0000000000000000     
   3.2704185871289737E-003   9.1772077099144585E-003   0.0000000000000000     
   3.9474022792497154E-003   1.2042596580117382E-002   0.0000000000000000     
   4.6288414232911563E-003   1.5216126397409430E-002   0.0000000000000000     
   5.3147360192532973E-003   1.8697797161790607E-002   0.0000000000000000     
   1.7240325196960177E-003   6.5567715783097459E-003   0.0000000000000000     
   2.1664047099887924E-003   9.0941075286853721E-003   0.0000000000000000     
   2.6135625893265804E-003   1.1942948673108520E-002   0.0000000000000000     
   3.0655061577093820E-003   1.5103295011579193E-002   0.0000000000000000     
   3.5222354151371962E-003   1.8575146544097389E-002   0.0000000000000000     
   8.5806907072090454E-004   6.5188586532155023E-003   0.0000000000000000     
   1.0762651809470712E-003   9.0442474199483609E-003   0.0000000000000000     
   1.2977618295780889E-003   1.1883159928903847E-002   0.0000000000000000     
   1.5225590166139565E-003   1.5035596180081956E-002   0.0000000000000000     
   1.7506567420546755E-003   1.8501556173482692E-002   0.0000000000000000     
   3.5922599530419097E-015   6.5062210115179328E-003   0.0000000000000000     
   3.8109841888137042E-015   9.0276273837034283E-003   0.0000000000000000     
   4.2408771264677847E-015   1.1863230347503357E-002   0.0000000000000000     
   4.8817066789766037E-015   1.5013029902917722E-002   0.0000000000000000     
   5.7341284498413359E-015   1.8477026049946520E-002   0.0000000000000000     
   7.1281585544029774E-003   1.8869508026562357E-002   0.0000000000000000     
   8.0394148176544996E-003   2.2642516436353222E-002   0.0000000000000000     
   8.9396862982897597E-003   2.6667275286399023E-002   0.0000000000000000     
   9.8289729963087612E-003   3.0943784576699759E-002   0.0000000000000000     
   1.0707274911711502E-002   3.5472044307255424E-002   0.0000000000000000     
   5.3147360192532973E-003   1.8697797161790607E-002   0.0000000000000000     
   5.9981772804890482E-003   2.2460262502478477E-002   0.0000000000000000     
   6.6722564203513211E-003   2.6476176048690587E-002   0.0000000000000000     
   7.3369734388401154E-003   3.0745537800426947E-002   0.0000000000000000     
   7.9923283359554301E-003   3.5268347757687557E-002   0.0000000000000000     
   3.5222354151371962E-003   1.8575146544097389E-002   0.0000000000000000     
   3.9778622984922227E-003   2.2330081121140665E-002   0.0000000000000000     
   4.4264987446566558E-003   2.6339676593186583E-002   0.0000000000000000     
   4.8681447536304979E-003   3.0603932960235135E-002   0.0000000000000000     
   5.3028003254137488E-003   3.5122850222286325E-002   0.0000000000000000     
   1.7506567420546755E-003   1.8501556173482692E-002   0.0000000000000000     
   1.9784698716640201E-003   2.2251972292339797E-002   0.0000000000000000     
   2.2024132712057656E-003   2.6257776919887010E-002   0.0000000000000000     
   2.4224869406799122E-003   3.0518970056124327E-002   0.0000000000000000     
   2.6386908800864594E-003   3.5035551701051756E-002   0.0000000000000000     
   5.7341284498413359E-015   1.8477026049946520E-002   0.0000000000000000     
   4.4416510400213660E-015   2.2225936016075865E-002   0.0000000000000000     
  -1.3506990664824414E-015   2.6230477028791863E-002   0.0000000000000000     
  -1.1644439752711566E-014   3.0490649088094519E-002   0.0000000000000000     
  -2.6438053135624529E-014   3.5006452193983829E-002   0.0000000000000000     
   1.0707274911711502E-002   3.5472044307255424E-002   0.0000000000000000     
   1.1569023411560483E-002   4.0231799106639585E-002   0.0000000000000000     
   1.2408649862918199E-002   4.5202793603425794E-002   0.0000000000000000     
   1.3226154265784655E-002   5.0385027797614071E-002   0.0000000000000000     
   1.4021536620159848E-002   5.5778501689204396E-002   0.0000000000000000     
   7.9923283359554301E-003   3.5268347757687557E-002   0.0000000000000000     
   8.6353308580306189E-003   4.0024776030907580E-002   0.0000000000000000     
   9.2629907513990337E-003   4.4994992730522217E-002   0.0000000000000000     
   9.8753080160606781E-003   5.0178997856531453E-002   0.0000000000000000     
   1.0472282652015545E-002   5.5576791408935296E-002   0.0000000000000000     
   5.3028003254137488E-003   3.5122850222286325E-002   0.0000000000000000     
   5.7292627715870553E-003   3.9876902405388499E-002   0.0000000000000000     
   6.1463294037310649E-003   4.4846563535589988E-002   0.0000000000000000     
   6.5540002218457795E-003   5.0031833612890778E-002   0.0000000000000000     
   6.9522752259311947E-003   5.5432712637290875E-002   0.0000000000000000     
   2.6386908800864594E-003   3.5035551701051756E-002   0.0000000000000000     
   2.8508191522297914E-003   3.9788178230082329E-002   0.0000000000000000     
   3.0586658199142922E-003   4.4757506018629087E-002   0.0000000000000000     
   3.2622308831399601E-003   4.9943535066692010E-002   0.0000000000000000     
   3.4615143419067964E-003   5.5346265374271134E-002   0.0000000000000000     
  -2.6438053135624529E-014   3.5006452193983829E-002   0.0000000000000000     
  -4.1171710138399042E-014   3.9758603504989075E-002   0.0000000000000000     
  -5.1285798524647319E-014   4.4727820179639520E-002   0.0000000000000000     
  -5.6778149890024388E-014   4.9914102217935193E-002   0.0000000000000000     
  -5.7650932638875219E-014   5.5317449619876072E-002   0.0000000000000000     
   1.4021536620159848E-002   5.5778501689204396E-002   0.0000000000000000     
   1.4793707689963170E-002   6.1370177701598361E-002   0.0000000000000000     
   1.5541578239114015E-002   6.7147018258197549E-002   0.0000000000000000     
   1.6265148267612380E-002   7.3109023359001907E-002   0.0000000000000000     
   1.6964417775458270E-002   7.9256193004011516E-002   0.0000000000000000     
   1.0472282652015545E-002   5.5576791408935296E-002   0.0000000000000000     
   1.1052223135621665E-002   6.1174077529170694E-002   0.0000000000000000     
   1.1613437943237062E-002   6.6956560358674588E-002   0.0000000000000000     
   1.2155927074861735E-002   7.2924239897446994E-002   0.0000000000000000     
   1.2679690530495683E-002   7.9077116145487902E-002   0.0000000000000000     
   6.9522752259311947E-003   5.5432712637290875E-002   0.0000000000000000     
   7.3394436691734226E-003   6.1034005977398262E-002   0.0000000000000000     
   7.7137948047585631E-003   6.6820519001820927E-002   0.0000000000000000     
   8.0753286326866180E-003   7.2792251710558836E-002   0.0000000000000000     
   8.4240451529575908E-003   7.8949204103612031E-002   0.0000000000000000     
   3.4615143419067964E-003   5.5346265374271134E-002   0.0000000000000000     
   3.6553692906184368E-003   6.0949963046281086E-002   0.0000000000000000     
   3.8426488236785157E-003   6.6738894187636510E-002   0.0000000000000000     
   4.0233529410870321E-003   7.2713058798337421E-002   0.0000000000000000     
   4.1974816428439901E-003   7.8872456878383859E-002   0.0000000000000000     
  -5.7650932638875219E-014   5.5317449619876072E-002   0.0000000000000000     
  -4.3289156981263233E-014   6.0921948735819138E-002   0.0000000000000000     
  -3.0793510102933297E-015   6.6711685916121408E-002   0.0000000000000000     
   6.2977455281970629E-014   7.2686661160782845E-002   0.0000000000000000     
   1.5488391819085123E-013   7.8846874469803443E-002   0.0000000000000000     
   1.6964417775458270E-002   7.9256193004011516E-002   0.0000000000000000     
   1.7638593667059322E-002   8.5575326400173665E-002   0.0000000000000000     
   1.8286882846823178E-002   9.2053222754435698E-002   0.0000000000000000     
   1.8909285314749839E-002   9.8689882066797616E-002   0.0000000000000000     
   1.9505801070839303E-002  0.10548530433725943        0.0000000000000000     
   1.2679690530495683E-002   7.9077116145487902E-002   0.0000000000000000     
   1.3184540308829719E-002   8.5402286875786854E-002   0.0000000000000000     
   1.3670288408554649E-002   9.1886849861333400E-002   0.0000000000000000     
   1.4136934829670482E-002   9.8530805102127555E-002   0.0000000000000000     
   1.4584479572177209E-002  0.10533415259816928        0.0000000000000000     
   8.4240451529575908E-003   7.8949204103612031E-002   0.0000000000000000     
   8.7600902449521800E-003   8.5278687215433274E-002   0.0000000000000000     
   9.0836097880510960E-003   9.1768012080475372E-002   0.0000000000000000     
   9.3946037822543356E-003   9.8417178698738353E-002   0.0000000000000000     
   9.6930722275619004E-003  0.10522618707022220        0.0000000000000000     
   4.1974816428439901E-003   7.8872456878383859E-002   0.0000000000000000     
   4.3652434754267088E-003   8.5204527419112899E-002   0.0000000000000000     
   4.5268469853125140E-003   9.1696709411861616E-002   0.0000000000000000     
   4.6822921725014049E-003   9.8349002856630049E-002   0.0000000000000000     
   4.8315790369933822E-003  0.10516140775341819        0.0000000000000000     
   1.5488391819085123E-013   7.8846874469803443E-002   0.0000000000000000     
   2.5330497248343686E-013   8.5179807486825729E-002   0.0000000000000000     
   3.3890576976725040E-013   9.1672941855492129E-002   0.0000000000000000     
   4.1168734003435570E-013   9.8326277575802631E-002   0.0000000000000000     
   4.7165093011725112E-013  0.10513981464775726        0.0000000000000000     
   1.9505801070839303E-002  0.10548530433725943        0.0000000000000000     
   2.0076494933303712E-002  0.11242812535656269        0.0000000000000000     
   2.0621431720355198E-002  0.11950698091544884        0.0000000000000000     
   2.1140611431993771E-002  0.12672187101391796        0.0000000000000000     
   2.1634034068219427E-002  0.13407279565197003        0.0000000000000000     
   1.4584479572177209E-002  0.10533415259816928        0.0000000000000000     
   1.5012635079281687E-002  0.11228511673766377        0.0000000000000000     
   1.5421113794190771E-002  0.11937192190881610        0.0000000000000000     
   1.5809915716904460E-002  0.12659456811162637        0.0000000000000000     
   1.6179040847422752E-002  0.13395305534609447        0.0000000000000000     
   9.6930722275619004E-003  0.10522618707022220        0.0000000000000000     
   9.9785993058035642E-003  0.11218296772417483        0.0000000000000000     
   1.0250769198809096E-002  0.11927545118984421        0.0000000000000000     
   1.0509581906578502E-002  0.12650363746723031        0.0000000000000000     
   1.0755037429111776E-002  0.13386752655633316        0.0000000000000000     
   4.8315790369933822E-003  0.10516140775341819        0.0000000000000000     
   4.9743876128693415E-003  0.11212167831609594        0.0000000000000000     
   5.1103979342101806E-003  0.11921756875853316        0.0000000000000000     
   5.2396100010158979E-003  0.12644907908072989        0.0000000000000000     
   5.3620238132864933E-003  0.13381620928268612        0.0000000000000000     
   4.7165093011725112E-013  0.10513981464775726        0.0000000000000000     
   4.7901960176233160E-013  0.11210124851342702        0.0000000000000000     
   3.9401836827990255E-013  0.11919827461488297        0.0000000000000000     
   2.1664793440137609E-013  0.12643089295212506        0.0000000000000000     
  -5.3092079344008170E-014  0.13379910352515334        0.0000000000000000     
   2.1634034068219427E-002  0.13407279565197003        0.0000000000000000     
   2.2100484149011220E-002  0.14154733346122930        0.0000000000000000     
   2.2538746194348213E-002  0.14913306307332000        0.0000000000000000     
   2.2948820204230412E-002  0.15682998448824217        0.0000000000000000     
   2.3330706178657810E-002  0.16463809770599577        0.0000000000000000     
   1.6179040847422752E-002  0.13395305534609447        0.0000000000000000     
   1.6527670454760515E-002  0.14143544333662583        0.0000000000000000     
   1.6854985807932616E-002  0.14902979180762579        0.0000000000000000     
   1.7160986906939051E-002  0.15673610075909433        0.0000000000000000     
   1.7445673751779821E-002  0.16455437019103150        0.0000000000000000     
   1.0755037429111776E-002  0.13386752655633316        0.0000000000000000     
   1.0986651865105558E-002  0.14135552181925806        0.0000000000000000     
   1.1203941313256489E-002  0.14895602661811030        0.0000000000000000     
   1.1406905773564560E-002  0.15666904095288994        0.0000000000000000     
   1.1595545246029779E-002  0.16449456482359692        0.0000000000000000     
   5.3620238132864933E-003  0.13381620928268612        0.0000000000000000     
   5.4774283800463463E-003  0.14130756890912591        0.0000000000000000     
   5.5856127103198283E-003  0.14891176750477356        0.0000000000000000     
   5.6865768041069421E-003  0.15662880506962887        0.0000000000000000     
   5.7803206614076875E-003  0.16445868160369198        0.0000000000000000     
  -5.3092079344008170E-014  0.13379910352515334        0.0000000000000000     
  -4.1712141553296167E-013  0.14129158460622954        0.0000000000000000     
  -8.7735775675806815E-013  0.14889701446761552        0.0000000000000000     
  -1.4338026480074234E-012  0.15661539310931125        0.0000000000000000     
  -2.0864542732423885E-012  0.16444672053131676        0.0000000000000000     
   0.0000000000000000        0.0000000000000000        0.0000000000000000     
   1.4868206492379965E-015   1.0732406352553878E-003   0.0000000000000000     
   2.5811601120362404E-015   2.5153576822601722E-003   0.0000000000000000     
   3.2829099681774832E-015   4.3263511410143538E-003   0.0000000000000000     
   3.5922599530419097E-015   6.5062210115179328E-003   0.0000000000000000     
   0.0000000000000000        0.0000000000000000        0.0000000000000000     
  -2.1299583766963331E-004   1.0755304890657871E-003   0.0000000000000000     
  -4.2700596201175308E-004   2.5205170942905171E-003   0.0000000000000000     
  -6.4203037302635962E-004   4.3349598156741899E-003   0.0000000000000000     
  -8.5806907071345260E-004   6.5188586532168051E-003   0.0000000000000000     
   0.0000000000000000        0.0000000000000000        0.0000000000000000     
  -4.2427971803640259E-004   1.0824000504966985E-003   0.0000000000000000     
  -8.5304504399649739E-004   2.5359953303809128E-003   0.0000000000000000     
  -1.2862959778802844E-003   4.3607858396526433E-003   0.0000000000000000     
  -1.7240325196877632E-003   6.5567715783118900E-003   0.0000000000000000     
   0.0000000000000000        0.0000000000000000        0.0000000000000000     
  -6.3385164109882122E-004   1.0938493195481213E-003   0.0000000000000000     
  -1.2781172459516519E-003   2.5617923905313597E-003   0.0000000000000000     
  -1.9327968145584917E-003   4.4038292129497140E-003   0.0000000000000000     
  -2.5978903469193407E-003   6.6199597868031876E-003   0.0000000000000000     
   0.0000000000000000        0.0000000000000000        0.0000000000000000     
  -8.4171160685688894E-004   1.1098782962200558E-003   0.0000000000000000     
  -1.7022225678772159E-003   2.5979082747418572E-003   0.0000000000000000     
  -2.5815328830609808E-003   4.4640899355654039E-003   0.0000000000000000     
  -3.4796425524081832E-003   6.7084232786906971E-003   0.0000000000000000     
   3.5922599530419097E-015   6.5062210115179328E-003   0.0000000000000000     
   3.8109841888137042E-015   9.0276273837034283E-003   0.0000000000000000     
   4.2408771264677847E-015   1.1863230347503357E-002   0.0000000000000000     
   4.8817066789766037E-015   1.5013029902917722E-002   0.0000000000000000     
   5.7341284498413359E-015   1.8477026049946520E-002   0.0000000000000000     
  -8.5806907071345260E-004   6.5188586532168051E-003   0.0000000000000000     
  -1.0762651809390169E-003   9.0442474199503142E-003   0.0000000000000000     
  -1.2977618295690380E-003   1.1883159928906666E-002   0.0000000000000000     
  -1.5225590166035149E-003   1.5035596180085866E-002   0.0000000000000000     
  -1.7506567420424485E-003   1.8501556173487910E-002   0.0000000000000000     
  -1.7240325196877632E-003   6.5567715783118900E-003   0.0000000000000000     
  -2.1664047099794405E-003   9.0941075286887687E-003   0.0000000000000000     
  -2.6135625893158217E-003   1.1942948673113393E-002   0.0000000000000000     
  -3.0655061576969063E-003   1.5103295011585770E-002   0.0000000000000000     
  -3.5222354151226948E-003   1.8575146544105893E-002   0.0000000000000000     
  -2.5978903469193407E-003   6.6199597868031876E-003   0.0000000000000000     
  -3.2704185871174594E-003   9.1772077099187901E-003   0.0000000000000000     
  -3.9474022792361100E-003   1.2042596580123539E-002   0.0000000000000000     
  -4.6288414232752905E-003   1.5216126397417431E-002   0.0000000000000000     
  -5.3147360192350047E-003   1.8697797161800464E-002   0.0000000000000000     
  -3.4796425524081832E-003   6.7084232786906971E-003   0.0000000000000000     
  -4.3883068123530735E-003   9.2935479636403785E-003   0.0000000000000000     
  -5.2992808993299039E-003   1.2182103649937097E-002   0.0000000000000000     
  -6.2125648133386710E-003   1.5374090337580849E-002   0.0000000000000000     
  -7.1281585543793756E-003   1.8869508026571634E-002   0.0000000000000000     
   5.7341284498413359E-015   1.8477026049946520E-002   0.0000000000000000     
   4.4416510400213660E-015   2.2225936016075865E-002   0.0000000000000000     
  -1.3506990664824414E-015   2.6230477028791863E-002   0.0000000000000000     
  -1.1644439752711566E-014   3.0490649088094519E-002   0.0000000000000000     
  -2.6438053135624529E-014   3.5006452193983829E-002   0.0000000000000000     
  -1.7506567420424485E-003   1.8501556173487910E-002   0.0000000000000000     
  -1.9784698716539964E-003   2.2251972292347526E-002   0.0000000000000000     
  -2.2024132712063146E-003   2.6257776919899441E-002   0.0000000000000000     
  -2.4224869406994040E-003   3.0518970056143655E-002   0.0000000000000000     
  -2.6386908801332640E-003   3.5035551701080171E-002   0.0000000000000000     
  -3.5222354151226948E-003   1.8575146544105893E-002   0.0000000000000000     
  -3.9778622984787777E-003   2.2330081121153422E-002   0.0000000000000000     
  -4.4264987446507465E-003   2.6339676593208010E-002   0.0000000000000000     
  -4.8681447536385990E-003   3.0603932960269663E-002   0.0000000000000000     
  -5.3028003254423379E-003   3.5122850222338374E-002   0.0000000000000000     
  -5.3147360192350047E-003   1.8697797161800464E-002   0.0000000000000000     
  -5.9981772804699046E-003   2.2460262502493545E-002   0.0000000000000000     
  -6.6722564203346452E-003   2.6476176048717579E-002   0.0000000000000000     
  -7.3369734388292326E-003   3.0745537800472549E-002   0.0000000000000000     
  -7.9923283359536607E-003   3.5268347757758473E-002   0.0000000000000000     
  -7.1281585543793756E-003   1.8869508026571634E-002   0.0000000000000000     
  -8.0394148176273737E-003   2.2642516436367909E-002   0.0000000000000000     
  -8.9396862982580143E-003   2.6667275286428135E-002   0.0000000000000000     
  -9.8289729962712982E-003   3.0943784576752315E-002   0.0000000000000000     
  -1.0707274911667231E-002   3.5472044307340439E-002   0.0000000000000000     
  -2.6438053135624529E-014   3.5006452193983829E-002   0.0000000000000000     
  -4.1171710138399042E-014   3.9758603504989075E-002   0.0000000000000000     
  -5.1285798524647319E-014   4.4727820179639520E-002   0.0000000000000000     
  -5.6778149890024388E-014   4.9914102217935193E-002   0.0000000000000000     
  -5.7650932638875219E-014   5.5317449619876072E-002   0.0000000000000000     
  -2.6386908801332640E-003   3.5035551701080171E-002   0.0000000000000000     
  -2.8508191523041394E-003   3.9788178230108204E-002   0.0000000000000000     
  -3.0586658200082773E-003   4.4757506018626957E-002   0.0000000000000000     
  -3.2622308832456742E-003   4.9943535066636444E-002   0.0000000000000000     
  -3.4615143420163330E-003   5.5346265374136665E-002   0.0000000000000000     
  -5.3028003254423379E-003   3.5122850222338374E-002   0.0000000000000000     
  -5.7292627716374177E-003   3.9876902405439153E-002   0.0000000000000000     
  -6.1463294037992933E-003   4.4846563535597017E-002   0.0000000000000000     
  -6.5540002219279673E-003   5.0031833612811931E-002   0.0000000000000000     
  -6.9522752260234343E-003   5.5432712637083922E-002   0.0000000000000000     
  -7.9923283359536607E-003   3.5268347757758473E-002   0.0000000000000000     
  -8.6353308580410064E-003   4.0024776030981979E-002   0.0000000000000000     
  -9.2629907514243347E-003   4.4994992730549702E-002   0.0000000000000000     
  -9.8753080161036542E-003   5.0178997856461648E-002   0.0000000000000000     
  -1.0472282652078956E-002   5.5576791408717824E-002   0.0000000000000000     
  -1.0707274911667231E-002   3.5472044307340439E-002   0.0000000000000000     
  -1.1569023411514898E-002   4.0231799106736632E-002   0.0000000000000000     
  -1.2408649862883399E-002   4.5202793603485024E-002   0.0000000000000000     
  -1.3226154265772732E-002   5.0385027797585601E-002   0.0000000000000000     
  -1.4021536620182899E-002   5.5778501689038376E-002   0.0000000000000000     
  -5.7650932638875219E-014   5.5317449619876072E-002   0.0000000000000000     
  -4.3289156981263233E-014   6.0921948735819138E-002   0.0000000000000000     
  -3.0793510102933297E-015   6.6711685916121408E-002   0.0000000000000000     
   6.2977455281970629E-014   7.2686661160782845E-002   0.0000000000000000     
   1.5488391819085123E-013   7.8846874469803443E-002   0.0000000000000000     
  -3.4615143420163330E-003   5.5346265374136665E-002   0.0000000000000000     
  -3.6553692907038454E-003   6.0949963046058209E-002   0.0000000000000000     
  -3.8426488236918068E-003   6.6738894187331629E-002   0.0000000000000000     
  -4.0233529409802165E-003   7.2713058797956948E-002   0.0000000000000000     
  -4.1974816425690738E-003   7.8872456877934163E-002   0.0000000000000000     
  -6.9522752260234343E-003   5.5432712637083922E-002   0.0000000000000000     
  -7.3394436692553224E-003   6.1034005977044031E-002   0.0000000000000000     
  -7.7137948047932507E-003   6.6820519001323311E-002   0.0000000000000000     
  -8.0753286326372183E-003   7.2792251709921763E-002   0.0000000000000000     
  -8.4240451527872288E-003   7.8949204102839399E-002   0.0000000000000000     
  -1.0472282652078956E-002   5.5576791408717824E-002   0.0000000000000000     
  -1.1052223135697719E-002   6.1174077528776620E-002   0.0000000000000000     
  -1.1613437943307410E-002   6.6956560358096426E-002   0.0000000000000000     
  -1.2155927074908032E-002   7.2924239896677290E-002   0.0000000000000000     
  -1.2679690530499579E-002   7.9077116144519163E-002   0.0000000000000000     
  -1.4021536620182899E-002   5.5778501689038376E-002   0.0000000000000000     
  -1.4793707690031039E-002   6.1370177701255968E-002   0.0000000000000000     
  -1.5541578239234289E-002   6.7147018257651014E-002   0.0000000000000000     
  -1.6265148267792653E-002   7.3109023358223502E-002   0.0000000000000000     
  -1.6964417775706127E-002   7.9256193002973443E-002   0.0000000000000000     
   1.5488391819085123E-013   7.8846874469803443E-002   0.0000000000000000     
   2.5330497248343686E-013   8.5179807486825729E-002   0.0000000000000000     
   3.3890576976725040E-013   9.1672941855492129E-002   0.0000000000000000     
   4.1168734003435570E-013   9.8326277575802631E-002   0.0000000000000000     
   4.7165093011725112E-013  0.10513981464775726        0.0000000000000000     
  -4.1974816425690738E-003   7.8872456877934163E-002   0.0000000000000000     
  -4.3652434749711097E-003   8.5204527418631312E-002   0.0000000000000000     
  -4.5268469846990568E-003   9.1696709411416444E-002   0.0000000000000000     
  -4.6822921717529107E-003   9.8349002856289544E-002   0.0000000000000000     
  -4.8315790361326758E-003  0.10516140775325060        0.0000000000000000     
  -8.4240451527872288E-003   7.8949204102839399E-002   0.0000000000000000     
  -8.7600902446496095E-003   8.5278687214589172E-002   0.0000000000000000     
  -9.0836097876306945E-003   9.1768012079684116E-002   0.0000000000000000     
  -9.3946037817304855E-003   9.8417178698124191E-002   0.0000000000000000     
  -9.6930722269489809E-003  0.10522618706990938        0.0000000000000000     
  -1.2679690530499579E-002   7.9077116144519163E-002   0.0000000000000000     
  -1.3184540308782196E-002   8.5402286874699362E-002   0.0000000000000000     
  -1.3670288408456013E-002   9.1886849860295175E-002   0.0000000000000000     
  -1.4136934829521039E-002   9.8530805101306587E-002   0.0000000000000000     
  -1.4584479571977263E-002  0.10533415259773363        0.0000000000000000     
  -1.6964417775706127E-002   7.9256193002973443E-002   0.0000000000000000     
  -1.7638593667368866E-002   8.5575326398961815E-002   0.0000000000000000     
  -1.8286882847175008E-002   9.2053222753249592E-002   0.0000000000000000     
  -1.8909285315124563E-002   9.8689882065836745E-002   0.0000000000000000     
  -1.9505801071217528E-002  0.10548530433672333        0.0000000000000000     
   4.7165093011725112E-013  0.10513981464775726        0.0000000000000000     
   4.7901960176233160E-013  0.11210124851342702        0.0000000000000000     
   3.9401836827990255E-013  0.11919827461488297        0.0000000000000000     
   2.1664793440137609E-013  0.12643089295212506        0.0000000000000000     
  -5.3092079344008170E-014  0.13379910352515334        0.0000000000000000     
  -4.8315790361326758E-003  0.10516140775325060        0.0000000000000000     
  -4.9743876119948127E-003  0.11212167831615105        0.0000000000000000     
  -5.1103979334957868E-003  0.11921756875884230        0.0000000000000000     
  -5.2396100006355936E-003  0.12644907908132436        0.0000000000000000     
  -5.3620238134142375E-003  0.13381620928359722        0.0000000000000000     
  -9.6930722269489809E-003  0.10522618706990938        0.0000000000000000     
  -9.9785993051795668E-003  0.11218296772425090        0.0000000000000000     
  -1.0250769198315633E-002  0.11927545119035989        0.0000000000000000     
  -1.0509581906357176E-002  0.12650363746823634        0.0000000000000000     
  -1.0755037429304200E-002  0.13386752655788026        0.0000000000000000     
  -1.4584479571977263E-002  0.10533415259773363        0.0000000000000000     
  -1.5012635079075244E-002  0.11228511673772658        0.0000000000000000     
  -1.5421113794065522E-002  0.11937192190943569        0.0000000000000000     
  -1.5809915716948095E-002  0.12659456811286093        0.0000000000000000     
  -1.6179040847722974E-002  0.13395305534800239        0.0000000000000000     
  -1.9505801071217528E-002  0.10548530433672333        0.0000000000000000     
  -2.0076494933681844E-002  0.11242812535657806        0.0000000000000000     
  -2.0621431720745459E-002  0.11950698091606970        0.0000000000000000     
  -2.1140611432408359E-002  0.12672187101519825        0.0000000000000000     
  -2.1634034068670566E-002  0.13407279565396368        0.0000000000000000     
  -5.3092079344008170E-014  0.13379910352515334        0.0000000000000000     
  -4.1712141553296167E-013  0.14129158460622954        0.0000000000000000     
  -8.7735775675806815E-013  0.14889701446761552        0.0000000000000000     
  -1.4338026480074234E-012  0.15661539310931125        0.0000000000000000     
  -2.0864542732423885E-012  0.16444672053131676        0.0000000000000000     
  -5.3620238134142375E-003  0.13381620928359722        0.0000000000000000     
  -5.4774283808562071E-003  0.14130756891036528        0.0000000000000000     
  -5.5856127119859964E-003  0.14891176750633300        0.0000000000000000     
  -5.6865768068035992E-003  0.15662880507150032        0.0000000000000000     
  -5.7803206653090182E-003  0.16445868160586732        0.0000000000000000     
  -1.0755037429304200E-002  0.13386752655788026        0.0000000000000000     
  -1.0986651865842282E-002  0.14135552182132971        0.0000000000000000     
  -1.1203941314657002E-002  0.14895602662062279        0.0000000000000000     
  -1.1406905775748368E-002  0.15666904095575954        0.0000000000000000     
  -1.1595545249116372E-002  0.16449456482673991        0.0000000000000000     
  -1.6179040847722974E-002  0.13395305534800239        0.0000000000000000     
  -1.6527670455375339E-002  0.14143544333912275        0.0000000000000000     
  -1.6854985808890388E-002  0.14902979181048492        0.0000000000000000     
  -1.7160986908268113E-002  0.15673610076208880        0.0000000000000000     
  -1.7445673753508521E-002  0.16455437019393446        0.0000000000000000     
  -2.1634034068670566E-002  0.13407279565396368        0.0000000000000000     
  -2.2100484149455386E-002  0.14154733346374454        0.0000000000000000     
  -2.2538746194686134E-002  0.14913306307591939        0.0000000000000000     
  -2.2948820204362830E-002  0.15682998449048821        0.0000000000000000     
  -2.3330706178485455E-002  0.16463809770745103        0.0000000000000000     
   0.0000000000000000        0.0000000000000000        0.0000000000000000     
  -8.4171160685688894E-004   1.1098782962200558E-003   0.0000000000000000     
  -1.7022225678772159E-003   2.5979082747418572E-003   0.0000000000000000     
  -2.5815328830609808E-003   4.4640899355654039E-003   0.0000000000000000     
  -3.4796425524081832E-003   6.7084232786906971E-003   0.0000000000000000     
   0.0000000000000000        0.0000000000000000        0.0000000000000000     
  -1.0567569043732742E-003   1.1340545357197045E-003   0.0000000000000000     
  -2.1398918299591176E-003   2.6501964708890262E-003   0.0000000000000000     
  -3.2494047767575294E-003   4.5484258055079651E-003   0.0000000000000000     
  -4.3852957447685099E-003   6.8287425395765220E-003   0.0000000000000000     
   0.0000000000000000        0.0000000000000000        0.0000000000000000     
  -1.2878848227106450E-003   1.1699455932542694E-003   0.0000000000000000     
  -2.6056558523832834E-003   2.7245104668494869E-003   0.0000000000000000     
  -3.9533130890179145E-003   4.6636946207856524E-003   0.0000000000000000     
  -5.3308565326145385E-003   6.9874980550627651E-003   0.0000000000000000     
   0.0000000000000000        0.0000000000000000        0.0000000000000000     
  -1.5350953618690016E-003   1.2175514688237518E-003   0.0000000000000000     
  -3.0995146351497135E-003   2.8208502626232402E-003   0.0000000000000000     
  -4.6932578198421362E-003   4.8098963813984642E-003   0.0000000000000000     
  -6.3163249159462701E-003   7.1846898251494255E-003   0.0000000000000000     
   0.0000000000000000        0.0000000000000000        0.0000000000000000     
  -1.7983885218483438E-003   1.2768721624281507E-003   0.0000000000000000     
  -3.6214681782584090E-003   2.9392158582102848E-003   0.0000000000000000     
  -5.4692389692301948E-003   4.9870310873464021E-003   0.0000000000000000     
  -7.3417008947637020E-003   7.4203178498365050E-003   0.0000000000000000     
  -3.4796425524081832E-003   6.7084232786906971E-003   0.0000000000000000     
  -4.3883068123530735E-003   9.2935479636403785E-003   0.0000000000000000     
  -5.2992808993299039E-003   1.2182103649937097E-002   0.0000000000000000     
  -6.2125648133386710E-003   1.5374090337580849E-002   0.0000000000000000     
  -7.1281585543793756E-003   1.8869508026571634E-002   0.0000000000000000     
  -4.3852957447685099E-003   6.8287425395765220E-003   0.0000000000000000     
  -5.5346092131185907E-003   9.4490871907741900E-003   0.0000000000000000     
  -6.6843896609343010E-003   1.2367400276780464E-002   0.0000000000000000     
  -7.8346370882156399E-003   1.5583681797595346E-002   0.0000000000000000     
  -8.9853514949626064E-003   1.9097931753218833E-002   0.0000000000000000     
  -5.3308565326145385E-003   6.9874980550627651E-003   0.0000000000000000     
  -6.7238656168463144E-003   9.6497842922408754E-003   0.0000000000000000     
  -8.1179197753863969E-003   1.2604416854880033E-002   0.0000000000000000     
  -9.5130190082347906E-003   1.5851395742980248E-002   0.0000000000000000     
  -1.0909163315391488E-002   1.9390720956541509E-002   0.0000000000000000     
  -6.3163249159462701E-003   7.1846898251494255E-003   0.0000000000000000     
  -7.9560760235362453E-003   9.8956392680404383E-003   0.0000000000000000     
  -9.5998712426861987E-003   1.2893153384235813E-002   0.0000000000000000     
  -1.1247710573396120E-002   1.6177232173735550E-002   0.0000000000000000     
  -1.2899594015666024E-002   1.9747875636539652E-002   0.0000000000000000     
  -7.3417008947637020E-003   7.4203178498365050E-003   0.0000000000000000     
  -9.2312404331883861E-003   1.0186652118172873E-002   0.0000000000000000     
  -1.1130244062833698E-002   1.3233609864847793E-002   0.0000000000000000     
  -1.3038711783699636E-002   1.6561191089861257E-002   0.0000000000000000     
  -1.4956643595786209E-002   2.0169395793213273E-002   0.0000000000000000     
  -7.1281585543793756E-003   1.8869508026571634E-002   0.0000000000000000     
  -8.0394148176273737E-003   2.2642516436367909E-002   0.0000000000000000     
  -8.9396862982580143E-003   2.6667275286428135E-002   0.0000000000000000     
  -9.8289729962712982E-003   3.0943784576752315E-002   0.0000000000000000     
  -1.0707274911667231E-002   3.5472044307340439E-002   0.0000000000000000     
  -8.9853514949626064E-003   1.9097931753218833E-002   0.0000000000000000     
  -1.0129391987023903E-002   2.2885421416362114E-002   0.0000000000000000     
  -1.1259617670248228E-002   2.6921422059736393E-002   0.0000000000000000     
  -1.2376028544635584E-002   3.1205933683341659E-002   0.0000000000000000     
  -1.3478624610185964E-002   3.5738956287177916E-002   0.0000000000000000     
  -1.0909163315391488E-002   1.9390720956541509E-002   0.0000000000000000     
  -1.2295925865732209E-002   2.3197555936061782E-002   0.0000000000000000     
  -1.3662879828132662E-002   2.7247064122039050E-002   0.0000000000000000     
  -1.5010025202592852E-002   3.1539245514473305E-002   0.0000000000000000     
  -1.6337361989112779E-002   3.6074100113364538E-002   0.0000000000000000     
  -1.2899594015666024E-002   1.9747875636539652E-002   0.0000000000000000     
  -1.4539016453752293E-002   2.3578919995466907E-002   0.0000000000000000     
  -1.6149472771911325E-002   2.7644201473336100E-002   0.0000000000000000     
  -1.7730962970143118E-002   3.1943720070147230E-002   0.0000000000000000     
  -1.9283487048447671E-002   3.6477475785900312E-002   0.0000000000000000     
  -1.4956643595786209E-002   2.0169395793213273E-002   0.0000000000000000     
  -1.6858663751084153E-002   2.4029513594577487E-002   0.0000000000000000     
  -1.8719396501584204E-002   2.8112834113627548E-002   0.0000000000000000     
  -2.0538841847286368E-002   3.2419357350363456E-002   0.0000000000000000     
  -2.2316999788190645E-002   3.6949083304785219E-002   0.0000000000000000     
  -1.0707274911667231E-002   3.5472044307340439E-002   0.0000000000000000     
  -1.1569023411514898E-002   4.0231799106736632E-002   0.0000000000000000     
  -1.2408649862883399E-002   4.5202793603485024E-002   0.0000000000000000     
  -1.3226154265772732E-002   5.0385027797585601E-002   0.0000000000000000     
  -1.4021536620182899E-002   5.5778501689038376E-002   0.0000000000000000     
  -1.3478624610185964E-002   3.5738956287177916E-002   0.0000000000000000     
  -1.4559769417175022E-002   4.0500615037727880E-002   0.0000000000000000     
  -1.5611826515878401E-002   4.5471035101474280E-002   0.0000000000000000     
  -1.6634795906296105E-002   5.0650216478417123E-002   0.0000000000000000     
  -1.7628677588428128E-002   5.6038159168556402E-002   0.0000000000000000     
  -1.6337361989112779E-002   3.6074100113364538E-002   0.0000000000000000     
  -1.7636997860137293E-002   4.0833867228980469E-002   0.0000000000000000     
  -1.8901040488111250E-002   4.5800786171588816E-002   0.0000000000000000     
  -2.0129489873034652E-002   5.0974856941189570E-002   0.0000000000000000     
  -2.1322346014907505E-002   5.6356079537782738E-002   0.0000000000000000     
  -1.9283487048447671E-002   3.6477475785900312E-002   0.0000000000000000     
  -2.0800708740401713E-002   4.1231555680494400E-002   0.0000000000000000     
  -2.2276291779581948E-002   4.6192046813828623E-002   0.0000000000000000     
  -2.3710236165988385E-002   5.1358949185902933E-002   0.0000000000000000     
  -2.5102541899621023E-002   5.6732262796717385E-002   0.0000000000000000     
  -2.2316999788190645E-002   3.6949083304785219E-002   0.0000000000000000     
  -2.4050902057968278E-002   4.1693680392269672E-002   0.0000000000000000     
  -2.5737580390290494E-002   4.6644817028193682E-002   0.0000000000000000     
  -2.7377034785157302E-002   5.1802493212557220E-002   0.0000000000000000     
  -2.8969265242568695E-002   5.7166708945360328E-002   0.0000000000000000     
  -1.4021536620182899E-002   5.5778501689038376E-002   0.0000000000000000     
  -1.4793707690031039E-002   6.1370177701255968E-002   0.0000000000000000     
  -1.5541578239234289E-002   6.7147018257651014E-002   0.0000000000000000     
  -1.6265148267792653E-002   7.3109023358223502E-002   0.0000000000000000     
  -1.6964417775706127E-002   7.9256193002973443E-002   0.0000000000000000     
  -1.7628677588428128E-002   5.6038159168556402E-002   0.0000000000000000     
  -1.8593051573727402E-002   6.1622929135403216E-002   0.0000000000000000     
  -1.9527497873646861E-002   6.7392592342468693E-002   0.0000000000000000     
  -2.0432016488186502E-002   7.3347148789752820E-002   0.0000000000000000     
  -2.1306607417346326E-002   7.9486598477255602E-002   0.0000000000000000     
  -2.1322346014907505E-002   5.6356079537782738E-002   0.0000000000000000     
  -2.2479409028258936E-002   6.1932954472139520E-002   0.0000000000000000     
  -2.3600479027618103E-002   6.7693982255031163E-002   0.0000000000000000     
  -2.4685556012984996E-002   7.3639162886457665E-002   0.0000000000000000     
  -2.5734639984359622E-002   7.9768496366418987E-002   0.0000000000000000     
  -2.5102541899621023E-002   5.6732262796717385E-002   0.0000000000000000     
  -2.6452780053625641E-002   6.2300253711464880E-002   0.0000000000000000     
  -2.7760521701148011E-002   6.8051187995338450E-002   0.0000000000000000     
  -2.9025766842188137E-002   7.3985065648338025E-002   0.0000000000000000     
  -3.0248515476746011E-002   8.0101886670463585E-002   0.0000000000000000     
  -2.8969265242568695E-002   5.7166708945360328E-002   0.0000000000000000     
  -3.0513164649827514E-002   6.2724826853379295E-002   0.0000000000000000     
  -3.2007625894236592E-002   6.8464209563390457E-002   0.0000000000000000     
  -3.3452648975795918E-002   7.4384857075393843E-002   0.0000000000000000     
  -3.4848233894505504E-002   8.0486769389389423E-002   0.0000000000000000     
  -1.6964417775706127E-002   7.9256193002973443E-002   0.0000000000000000     
  -1.7638593667368866E-002   8.5575326398961815E-002   0.0000000000000000     
  -1.8286882847175008E-002   9.2053222753249592E-002   0.0000000000000000     
  -1.8909285315124563E-002   9.8689882065836745E-002   0.0000000000000000     
  -1.9505801071217528E-002  0.10548530433672333        0.0000000000000000     
  -2.1306607417346326E-002   7.9486598477255602E-002   0.0000000000000000     
  -2.2149940295880778E-002   8.5797609147302417E-002   0.0000000000000000     
  -2.2960684758544320E-002   9.2266848542218602E-002   0.0000000000000000     
  -2.3738840805336947E-002   9.8894316662004197E-002   0.0000000000000000     
  -2.4484408436258657E-002  0.10568001350665918        0.0000000000000000     
  -2.5734639984359622E-002   7.9768496366418987E-002   0.0000000000000000     
  -2.6746270169789105E-002   8.6068938479646986E-002   0.0000000000000000     
  -2.7718985797320586E-002   9.2527445010873455E-002   0.0000000000000000     
  -2.8652786866954064E-002   9.9144015960098364E-002   0.0000000000000000     
  -2.9547673378689548E-002  0.10591865132732180        0.0000000000000000     
  -3.0248515476746011E-002   8.0101886670463585E-002   0.0000000000000000     
  -3.1427583289093834E-002   8.6389314395995523E-002   0.0000000000000000     
  -3.2561785963503814E-002   9.2835012159214095E-002   0.0000000000000000     
  -3.3651123499975927E-002   9.9438979960119342E-002   0.0000000000000000     
  -3.4695595898510186E-002  0.10620121779871121        0.0000000000000000     
  -3.4848233894505504E-002   8.0486769389389423E-002   0.0000000000000000     
  -3.6193879653794982E-002   8.6758736896348054E-002   0.0000000000000000     
  -3.7489085257093990E-002   9.3189549987240577E-002   0.0000000000000000     
  -3.8733850704402530E-002   9.9779208662067048E-002   0.0000000000000000     
  -3.9928175995720593E-002  0.10652771292082741        0.0000000000000000     
  -1.9505801071217528E-002  0.10548530433672333        0.0000000000000000     
  -2.0076494933681844E-002  0.11242812535657806        0.0000000000000000     
  -2.0621431720745459E-002  0.11950698091606970        0.0000000000000000     
  -2.1140611432408359E-002  0.12672187101519825        0.0000000000000000     
  -2.1634034068670566E-002  0.13407279565396368        0.0000000000000000     
  -2.4484408436258657E-002  0.10568001350665918        0.0000000000000000     
  -2.5197802243558255E-002  0.11261285180703051        0.0000000000000000     
  -2.5879436819484541E-002  0.11968174429396518        0.0000000000000000     
  -2.6529312164037522E-002  0.12688669096746319        0.0000000000000000     
  -2.7147428277217198E-002  0.13422769182752450        0.0000000000000000     
  -2.9547673378689548E-002  0.10591865132732180        0.0000000000000000     
  -3.0404180383263375E-002  0.11284015431530901        0.0000000000000000     
  -3.1222842931411910E-002  0.11989732812682531        0.0000000000000000     
  -3.2003661023135156E-002  0.12709017276187073        0.0000000000000000     
  -3.2746634658433103E-002  0.13441868822044531        0.0000000000000000     
  -3.4695595898510186E-002  0.10620121779871121        0.0000000000000000     
  -3.5695629352797194E-002  0.11311003288141354        0.0000000000000000     
  -3.6651650056527540E-002  0.12015373241465011        0.0000000000000000     
  -3.7563658009701247E-002  0.12733231639842094        0.0000000000000000     
  -3.8431653212318298E-002  0.13464578483272607        0.0000000000000000     
  -3.9928175995720593E-002  0.10652771292082741        0.0000000000000000     
  -4.1072149152159731E-002  0.11342248750534410        0.0000000000000000     
  -4.2165858194831464E-002  0.12045095715743957        0.0000000000000000     
  -4.3209303123735818E-002  0.12761312187711379        0.0000000000000000     
  -4.4202483938872751E-002  0.13490898166436677        0.0000000000000000     
  -2.1634034068670566E-002  0.13407279565396368        0.0000000000000000     
  -2.2100484149455386E-002  0.14154733346374454        0.0000000000000000     
  -2.2538746194686134E-002  0.14913306307591939        0.0000000000000000     
  -2.2948820204362830E-002  0.15682998449048821        0.0000000000000000     
  -2.3330706178485455E-002  0.16463809770745103        0.0000000000000000     
  -2.7147428277217198E-002  0.13422769182752450        0.0000000000000000     
  -2.7732084069862009E-002  0.14169199773629870        0.0000000000000000     
  -2.8281578452810416E-002  0.14926685955593527        0.0000000000000000     
  -2.8795911426062408E-002  0.15695227728643427        0.0000000000000000     
  -2.9275082989617993E-002  0.16474825092779566        0.0000000000000000     
  -3.2746634658433103E-002  0.13441868822044531        0.0000000000000000     
  -3.3449461338374835E-002  0.14187024169788895        0.0000000000000000     
  -3.4109838564029368E-002  0.14943220038954172        0.0000000000000000     
  -3.4727766335396745E-002  0.15710456429540354        0.0000000000000000     
  -3.5303244652476938E-002  0.16488733341547446        0.0000000000000000     
  -3.8431653212318298E-002  0.13464578483272607        0.0000000000000000     
  -3.9252615954993825E-002  0.14208206534851531        0.0000000000000000     
  -4.0023526528343012E-002  0.14962908557673860        0.0000000000000000     
  -4.0744384932365832E-002  0.15728684551739602        0.0000000000000000     
  -4.1415191167062285E-002  0.16505534517048753        0.0000000000000000     
  -4.4202483938872751E-002  0.13490898166436677        0.0000000000000000     
  -4.5141547919719027E-002  0.14232746868817778        0.0000000000000000     
  -4.6022642345751333E-002  0.14985751511752610        0.0000000000000000     
  -4.6845767216969668E-002  0.15749912095241178        0.0000000000000000     
  -4.7610922533374046E-002  0.16525228619283472        0.0000000000000000     
   0.0000000000000000        0.0000000000000000        0.0000000000000000     
  -1.7983885218483438E-003   1.2768721624281507E-003   0.0000000000000000     
  -3.6214681782584090E-003   2.9392158582102848E-003   0.0000000000000000     
  -5.4692389692301948E-003   4.9870310873464021E-003   0.0000000000000000     
  -7.3417008947637020E-003   7.4203178498365050E-003   0.0000000000000000     
   0.0000000000000000        0.0000000000000000        0.0000000000000000     
  -2.0694921291570184E-003   1.3550139863649224E-003   0.0000000000000000     
  -4.1641637309408827E-003   3.0941078044385371E-003   0.0000000000000000     
  -6.2840148053515945E-003   5.2172814542208448E-003   0.0000000000000000     
  -8.4290453523891539E-003   7.7245349357118447E-003   0.0000000000000000     
   0.0000000000000000        0.0000000000000000        0.0000000000000000     
  -2.3401340103033734E-003   1.4590832529315235E-003   0.0000000000000000     
  -4.7202485424286530E-003   3.3000266521359132E-003   0.0000000000000000     
  -7.1403435963758415E-003   5.5228301976131692E-003   0.0000000000000000     
  -9.6004191721449361E-003   8.1274938893632909E-003   0.0000000000000000     
   0.0000000000000000        0.0000000000000000        0.0000000000000000     
  -2.6103141652874078E-003   1.5890799621279539E-003   0.0000000000000000     
  -5.2897226127217182E-003   3.5569724013024121E-003   0.0000000000000000     
  -8.0382253423029338E-003   5.9036773175233743E-003   0.0000000000000000     
  -1.0855822354031054E-002   8.6291947107908426E-003   0.0000000000000000     
   0.0000000000000000        0.0000000000000000        0.0000000000000000     
  -2.8800325941091215E-003   1.7450041139542138E-003   0.0000000000000000     
  -5.8725859418200799E-003   3.8649450519380349E-003   0.0000000000000000     
  -8.9776600431328742E-003   6.3598228139514629E-003   0.0000000000000000     
  -1.2195254898047505E-002   9.2296373999944982E-003   0.0000000000000000     
  -7.3417008947637020E-003   7.4203178498365050E-003   0.0000000000000000     
  -9.2312404331883861E-003   1.0186652118172873E-002   0.0000000000000000     
  -1.1130244062833698E-002   1.3233609864847793E-002   0.0000000000000000     
  -1.3038711783699636E-002   1.6561191089861257E-002   0.0000000000000000     
  -1.4956643595786209E-002   2.0169395793213273E-002   0.0000000000000000     
  -8.4290453523891539E-003   7.7245349357118447E-003   0.0000000000000000     
  -1.0590995972339545E-002   1.0558453081262726E-002   0.0000000000000000     
  -1.2761607265488755E-002   1.3661620723224681E-002   0.0000000000000000     
  -1.4940879231836790E-002   1.7034037861597701E-002   0.0000000000000000     
  -1.7128811871383643E-002   2.0675704496381796E-002   0.0000000000000000     
  -9.6004191721449361E-003   8.1274938893632909E-003   0.0000000000000000     
  -1.2076979767526535E-002   1.1046672395934543E-002   0.0000000000000000     
  -1.4546529880311233E-002   1.4213020385875188E-002   0.0000000000000000     
  -1.7009069510499027E-002   1.7626537859185228E-002   0.0000000000000000     
  -1.9464598658089922E-002   2.1287224815864661E-002   0.0000000000000000     
  -1.0855822354031054E-002   8.6291947107908426E-003   0.0000000000000000     
  -1.3689191818749356E-002   1.1651310062188322E-002   0.0000000000000000     
  -1.6485011907301124E-002   1.4887808852799318E-002   0.0000000000000000     
  -1.9243282619686351E-002   1.8338691082623832E-002   0.0000000000000000     
  -2.1964003955905038E-002   2.2003956751661863E-002   0.0000000000000000     
  -1.2195254898047505E-002   9.2296373999944982E-003   0.0000000000000000     
  -1.5427632126008013E-002   1.2372366080024060E-002   0.0000000000000000     
  -1.8577053346458431E-002   1.5685986123997065E-002   0.0000000000000000     
  -2.1643518559398760E-002   1.9170497531913511E-002   0.0000000000000000     
  -2.4627027764829001E-002   2.2825900303773409E-002   0.0000000000000000     
  -1.4956643595786209E-002   2.0169395793213273E-002   0.0000000000000000     
  -1.6858663751084153E-002   2.4029513594577487E-002   0.0000000000000000     
  -1.8719396501584204E-002   2.8112834113627548E-002   0.0000000000000000     
  -2.0538841847286368E-002   3.2419357350363456E-002   0.0000000000000000     
  -2.2316999788190645E-002   3.6949083304785219E-002   0.0000000000000000     
  -1.7128811871383643E-002   2.0675704496381796E-002   0.0000000000000000     
  -1.9294185351760636E-002   2.4558748877218501E-002   0.0000000000000000     
  -2.1405779840599083E-002   2.8655299253749347E-002   0.0000000000000000     
  -2.3463595337898983E-002   3.2965355625974350E-002   0.0000000000000000     
  -2.5467631843660337E-002   3.7488917993893499E-002   0.0000000000000000     
  -1.9464598658089922E-002   2.1287224815864661E-002   0.0000000000000000     
  -2.1884898849814594E-002   2.5176037987214926E-002   0.0000000000000000     
  -2.4241751612403724E-002   2.9273934104537474E-002   0.0000000000000000     
  -2.6535156945857324E-002   3.3580913167832287E-002   0.0000000000000000     
  -2.8765114850175379E-002   3.8096975177099382E-002   0.0000000000000000     
  -2.1964003955905038E-002   2.2003956751661863E-002   0.0000000000000000     
  -2.4630804245246028E-002   2.5881380924566769E-002   0.0000000000000000     
  -2.7227311816998140E-002   2.9968738665991902E-002   0.0000000000000000     
  -2.9753526671161389E-002   3.4266029975937265E-002   0.0000000000000000     
  -3.2209448807735769E-002   3.8773254854402868E-002   0.0000000000000000     
  -2.4627027764829001E-002   2.2825900303773409E-002   0.0000000000000000     
  -2.7531901538054931E-002   2.6674777689274023E-002   0.0000000000000000     
  -3.0362460454382321E-002   3.0739712938112656E-002   0.0000000000000000     
  -3.3118704513811187E-002   3.5020706050289292E-002   0.0000000000000000     
  -3.5800633716341505E-002   3.9517757025803950E-002   0.0000000000000000     
  -2.2316999788190645E-002   3.6949083304785219E-002   0.0000000000000000     
  -2.4050902057968278E-002   4.1693680392269672E-002   0.0000000000000000     
  -2.5737580390290494E-002   4.6644817028193682E-002   0.0000000000000000     
  -2.7377034785157302E-002   5.1802493212557220E-002   0.0000000000000000     
  -2.8969265242568695E-002   5.7166708945360328E-002   0.0000000000000000     
  -2.5467631843660337E-002   3.7488917993893499E-002   0.0000000000000000     
  -2.7418337828603256E-002   4.2222394339188597E-002   0.0000000000000000     
  -2.9316161763447854E-002   4.7162192643541441E-002   0.0000000000000000     
  -3.1161103648194136E-002   5.2308312906952051E-002   0.0000000000000000     
  -3.2953163482842093E-002   5.7660755129420413E-002   0.0000000000000000     
  -2.8765114850175379E-002   3.8096975177099382E-002   0.0000000000000000     
  -3.0933776068072925E-002   4.2819850496133495E-002   0.0000000000000000     
  -3.3043291342265017E-002   4.7747269488729378E-002   0.0000000000000000     
  -3.5093660672751631E-002   5.2879232154887032E-002   0.0000000000000000     
  -3.7084884059532787E-002   5.8215738494606449E-002   0.0000000000000000     
  -3.2209448807735769E-002   3.8773254854402868E-002   0.0000000000000000     
  -3.4597216776377289E-002   4.3486048863104365E-002   0.0000000000000000     
  -3.6918969126741960E-002   4.8400047563757473E-002   0.0000000000000000     
  -3.9174705858829796E-002   5.3515250956362170E-002   0.0000000000000000     
  -4.1364426972640776E-002   5.8831659040918464E-002   0.0000000000000000     
  -3.5800633716341505E-002   3.9517757025803950E-002   0.0000000000000000     
  -3.8408659953516333E-002   4.4220989440101222E-002   0.0000000000000000     
  -4.0943195116878696E-002   4.9120526868625718E-002   0.0000000000000000     
  -4.3404239206428601E-002   5.4216369311377466E-002   0.0000000000000000     
  -4.5791792222166068E-002   5.9508516768356431E-002   0.0000000000000000     
  -2.8969265242568695E-002   5.7166708945360328E-002   0.0000000000000000     
  -3.0513164649827514E-002   6.2724826853379295E-002   0.0000000000000000     
  -3.2007625894236592E-002   6.8464209563390457E-002   0.0000000000000000     
  -3.3452648975795918E-002   7.4384857075393843E-002   0.0000000000000000     
  -3.4848233894505504E-002   8.0486769389389423E-002   0.0000000000000000     
  -3.2953163482842093E-002   5.7660755129420413E-002   0.0000000000000000     
  -3.4690598594059825E-002   6.3206338834260758E-002   0.0000000000000000     
  -3.6371666308515425E-002   6.8931883544787395E-002   0.0000000000000000     
  -3.7996366626208894E-002   7.4837389261000281E-002   0.0000000000000000     
  -3.9564699547140252E-002   8.0922855982899417E-002   0.0000000000000000     
  -3.7084884059532787E-002   5.8215738494606449E-002   0.0000000000000000     
  -3.9015117663517826E-002   6.3744454590487304E-002   0.0000000000000000     
  -4.0882517645616102E-002   6.9453046525129278E-002   0.0000000000000000     
  -4.2687084005827623E-002   7.5341514298532336E-002   0.0000000000000000     
  -4.4428816744152375E-002   8.1409857910696506E-002   0.0000000000000000     
  -4.1364426972640776E-002   5.8831659040918464E-002   0.0000000000000000     
  -4.3486721858201523E-002   6.4339174122058931E-002   0.0000000000000000     
  -4.5540179905538623E-002   7.0027698504416092E-002   0.0000000000000000     
  -4.7524801114652085E-002   7.5897232187990049E-002   0.0000000000000000     
  -4.9440585485541901E-002   8.1947775172780707E-002   0.0000000000000000     
  -4.5791792222166068E-002   5.9508516768356431E-002   0.0000000000000000     
  -4.8105411178110909E-002   6.4990497428975585E-002   0.0000000000000000     
  -5.0344653088282981E-002   7.0655839482647906E-002   0.0000000000000000     
  -5.2509517952682286E-002   7.6504542929373393E-002   0.0000000000000000     
  -5.4600005771308815E-002   8.2536607769152018E-002   0.0000000000000000     
  -3.4848233894505504E-002   8.0486769389389423E-002   0.0000000000000000     
  -3.6193879653794982E-002   8.6758736896348054E-002   0.0000000000000000     
  -3.7489085257093990E-002   9.3189549987240577E-002   0.0000000000000000     
  -3.8733850704402530E-002   9.9779208662067048E-002   0.0000000000000000     
  -3.9928175995720593E-002  0.10652771292082741        0.0000000000000000     
  -3.9564699547140252E-002   8.0922855982899417E-002   0.0000000000000000     
  -4.1076900513687800E-002   8.7177911925355275E-002   0.0000000000000000     
  -4.2533204968229918E-002   9.3592185303238359E-002   0.0000000000000000     
  -4.3933612910766605E-002  0.10016567611654867        0.0000000000000000     
  -4.5278124341297854E-002  0.10689838436528619        0.0000000000000000     
  -4.4428816744152375E-002   8.1409857910696506E-002   0.0000000000000000     
  -4.6108387118567587E-002   8.7647545427667964E-002   0.0000000000000000     
  -4.7726466387050408E-002   9.4044044915492925E-002   0.0000000000000000     
  -4.9283054549600906E-002  0.10059935637417140        0.0000000000000000     
  -5.0778151606219041E-002  0.10731347980370337        0.0000000000000000     
  -4.9440585485541901E-002   8.1947775172780707E-002   0.0000000000000000     
  -5.1288339468434287E-002   8.8167637403286106E-002   0.0000000000000000     
  -5.3068869513555481E-002   9.4545128824004301E-002   0.0000000000000000     
  -5.4782175620905420E-002  0.10108024943493524        0.0000000000000000     
  -5.6428257790484167E-002  0.10777299923607894        0.0000000000000000     
  -5.4600005771308815E-002   8.2536607769152018E-002   0.0000000000000000     
  -5.6616757563287962E-002   8.8738187852209729E-002   0.0000000000000000     
  -5.8560414347745074E-002   9.5095437028772434E-002   0.0000000000000000     
  -6.0430976124680173E-002  0.10160835529884014        0.0000000000000000     
  -6.2228442894093239E-002  0.10827694266241288        0.0000000000000000     
  -3.9928175995720593E-002  0.10652771292082741        0.0000000000000000     
  -4.1072149152159731E-002  0.11342248750534410        0.0000000000000000     
  -4.2165858194831464E-002  0.12045095715743957        0.0000000000000000     
  -4.3209303123735818E-002  0.12761312187711379        0.0000000000000000     
  -4.4202483938872751E-002  0.13490898166436677        0.0000000000000000     
  -4.5278124341297854E-002  0.10689838436528619        0.0000000000000000     
  -4.6566557073812367E-002  0.11377706120355544        0.0000000000000000     
  -4.7798728922298903E-002  0.12078845778546091        0.0000000000000000     
  -4.8974639886757446E-002  0.12793257411100256        0.0000000000000000     
  -5.0094289967188010E-002  0.13520941018018048        0.0000000000000000     
  -5.0778151606219041E-002  0.10731347980370337        0.0000000000000000     
  -5.2211670410216529E-002  0.11417329699250221        0.0000000000000000     
  -5.3583523814905130E-002  0.12116568972898129        0.0000000000000000     
  -5.4893711820284803E-002  0.12829065801314063        0.0000000000000000     
  -5.6142234426355568E-002  0.13554820184498018        0.0000000000000000     
  -5.6428257790484167E-002  0.10777299923607894        0.0000000000000000     
  -5.8007489161372223E-002  0.11461119487218444        0.0000000000000000     
  -5.9520242872650113E-002  0.12158265298800076        0.0000000000000000     
  -6.0966518924317856E-002  0.12868737358352791        0.0000000000000000     
  -6.2346317316375431E-002  0.13592535665876593        0.0000000000000000     
  -6.2228442894093239E-002  0.10827694266241288        0.0000000000000000     
  -6.3954013327279430E-002  0.11509075484260209        0.0000000000000000     
  -6.5608886095533892E-002  0.12203934756251929        0.0000000000000000     
  -6.7193061198856624E-002  0.12912272082216447        0.0000000000000000     
  -6.8706538637247599E-002  0.13634087462153763        0.0000000000000000     
  -4.4202483938872751E-002  0.13490898166436677        0.0000000000000000     
  -4.5141547919719027E-002  0.14232746868817778        0.0000000000000000     
  -4.6022642345751333E-002  0.14985751511752610        0.0000000000000000     
  -4.6845767216969668E-002  0.15749912095241178        0.0000000000000000     
  -4.7610922533374046E-002  0.16525228619283472        0.0000000000000000     
  -5.0094289967188010E-002  0.13520941018018048        0.0000000000000000     
  -5.1153663334929426E-002  0.14260869030681794        0.0000000000000000     
  -5.2148744161320551E-002  0.15012013880473837        0.0000000000000000     
  -5.3079532446361391E-002  0.15774375567394175        0.0000000000000000     
  -5.3946028190051939E-002  0.16547954091442801        0.0000000000000000     
  -5.6142234426355568E-002  0.13554820184498018        0.0000000000000000     
  -5.7326368303004062E-002  0.14292796879437741        0.0000000000000000     
  -5.8443390120116907E-002  0.15041960643120966        0.0000000000000000     
  -5.9493299877694125E-002  0.15802311475547698        0.0000000000000000     
  -6.0476097575735709E-002  0.16573849376717936        0.0000000000000000     
  -6.2346317316375431E-002  0.13592535665876593        0.0000000000000000     
  -6.3659662823942934E-002  0.14328530415085614        0.0000000000000000     
  -6.4906580222140395E-002  0.15075591799694005        0.0000000000000000     
  -6.6087069510967877E-002  0.15833719819701747        0.0000000000000000     
  -6.7201130690425326E-002  0.16602914475108865        0.0000000000000000     
  -6.8706538637247599E-002  0.13634087462153763        0.0000000000000000     
  -7.0153546897746027E-002  0.14368069637625416        0.0000000000000000     
  -7.1538314467391034E-002  0.15112907350192939        0.0000000000000000     
  -7.2860841346182634E-002  0.15868600599856333        0.0000000000000000     
  -7.4121127534120826E-002  0.16635149386615597        0.0000000000000000     
   0.0000000000000000        0.0000000000000000        0.0000000000000000     
  -2.8800325941091215E-003   1.7450041139542138E-003   0.0000000000000000     
  -5.8725859418200799E-003   3.8649450519380349E-003   0.0000000000000000     
  -8.9776600431328742E-003   6.3598228139514629E-003   0.0000000000000000     
  -1.2195254898047505E-002   9.2296373999944982E-003   0.0000000000000000     
   0.0000000000000000        0.0000000000000000        0.0000000000000000     
  -3.2831493594387856E-003   1.9995163160177040E-003   0.0000000000000000     
  -6.6768490905705271E-003   4.3312571473784712E-003   0.0000000000000000     
  -1.0181099193395226E-002   6.9952224940823026E-003   0.0000000000000000     
  -1.3795899667912883E-002   9.9914123561291989E-003   0.0000000000000000     
   0.0000000000000000        0.0000000000000000        0.0000000000000000     
  -3.9535245239466690E-003   2.4252771759258255E-003   0.0000000000000000     
  -7.9105226198198531E-003   5.0632212309594145E-003   0.0000000000000000     
  -1.1870994287619556E-002   7.9138321651007655E-003   0.0000000000000000     
  -1.5834939527345774E-002   1.0977109978349883E-002   0.0000000000000000     
   0.0000000000000000        0.0000000000000000        0.0000000000000000     
  -4.8911580876327722E-003   3.0222866936785789E-003   0.0000000000000000     
  -9.5736065295680597E-003   6.0608373026808616E-003   0.0000000000000000     
  -1.4047345325805861E-002   9.1156518270068508E-003   0.0000000000000000     
  -1.8312374476346184E-002   1.2186730266656542E-002   0.0000000000000000     
   0.0000000000000000        0.0000000000000000        0.0000000000000000     
  -6.0960500504970939E-003   3.7905448692759636E-003   0.0000000000000000     
  -1.1666100819815143E-002   7.3241053625428161E-003   0.0000000000000000     
  -1.6710152307954147E-002   1.0600681479800558E-002   0.0000000000000000     
  -2.1228204514914105E-002   1.3620273221049188E-002   0.0000000000000000     
  -1.2195254898047505E-002   9.2296373999944982E-003   0.0000000000000000     
  -1.5427632126008013E-002   1.2372366080024060E-002   0.0000000000000000     
  -1.8577053346458431E-002   1.5685986123997065E-002   0.0000000000000000     
  -2.1643518559398760E-002   1.9170497531913511E-002   0.0000000000000000     
  -2.4627027764829001E-002   2.2825900303773409E-002   0.0000000000000000     
  -1.3795899667912883E-002   9.9914123561291989E-003   0.0000000000000000     
  -1.7404144224519216E-002   1.3221885009484109E-002   0.0000000000000000     
  -2.0888726573609944E-002   1.6588698730111987E-002   0.0000000000000000     
  -2.4249646715185078E-002   2.0091853518012827E-002   0.0000000000000000     
  -2.7486904649244602E-002   2.3731349373186640E-002   0.0000000000000000     
  -1.5834939527345774E-002   1.0977109978349883E-002   0.0000000000000000     
  -1.9730571649499689E-002   1.4211911410610819E-002   0.0000000000000000     
  -2.3486103964582464E-002   1.7577093201787634E-002   0.0000000000000000     
  -2.7101536472594112E-002   2.1072655351880330E-002   0.0000000000000000     
  -3.0576869173534631E-002   2.4698597860888911E-002   0.0000000000000000     
  -1.8312374476346184E-002   1.2186730266656542E-002   0.0000000000000000     
  -2.2406914400949423E-002   1.5342445283404183E-002   0.0000000000000000     
  -2.6369185519375990E-002   1.8651169539024008E-002   0.0000000000000000     
  -3.0199187831625878E-002   2.2112903033516026E-002   0.0000000000000000     
  -3.3896921337699094E-002   2.5727645766880223E-002   0.0000000000000000     
  -2.1228204514914105E-002   1.3620273221049188E-002   0.0000000000000000     
  -2.5433172478868428E-002   1.6613486627864205E-002   0.0000000000000000     
  -2.9537971237990512E-002   1.9810927741821110E-002   0.0000000000000000     
  -3.3542600792280365E-002   2.3212596562919904E-002   0.0000000000000000     
  -3.7447061141737993E-002   2.6818493091160578E-002   0.0000000000000000     
  -2.4627027764829001E-002   2.2825900303773409E-002   0.0000000000000000     
  -2.7531901538054931E-002   2.6674777689274023E-002   0.0000000000000000     
  -3.0362460454382321E-002   3.0739712938112656E-002   0.0000000000000000     
  -3.3118704513811187E-002   3.5020706050289292E-002   0.0000000000000000     
  -3.5800633716341505E-002   3.9517757025803950E-002   0.0000000000000000     
  -2.7486904649244602E-002   2.3731349373186640E-002   0.0000000000000000     
  -3.0623629594930570E-002   2.7549675292904186E-002   0.0000000000000000     
  -3.3682950771385022E-002   3.1589320274436249E-002   0.0000000000000000     
  -3.6664868178607972E-002   3.5850284317782817E-002   0.0000000000000000     
  -3.9569381816599407E-002   4.0332567422943902E-002   0.0000000000000000     
  -3.0576869173534631E-002   2.4698597860888911E-002   0.0000000000000000     
  -3.3941427282562199E-002   2.8499520747024745E-002   0.0000000000000000     
  -3.7224536014835004E-002   3.2520024028499205E-002   0.0000000000000000     
  -4.0426195370353024E-002   3.6760107705312288E-002   0.0000000000000000     
  -4.3546405349116274E-002   4.1219771777464019E-002   0.0000000000000000     
  -3.3896921337699094E-002   2.5727645766880223E-002   0.0000000000000000     
  -3.7485294600949820E-002   2.9524314051635702E-002   0.0000000000000000     
  -4.0987216184732236E-002   3.3531824200301527E-002   0.0000000000000000     
  -4.4402686089046337E-002   3.7750176212877740E-002   0.0000000000000000     
  -4.7731704313892127E-002   4.2179370089364294E-002   0.0000000000000000     
  -3.7447061141737993E-002   2.6818493091160578E-002   0.0000000000000000     
  -4.1255231550093432E-002   3.0624055206737055E-002   0.0000000000000000     
  -4.4970991281076740E-002   3.4624720789843237E-002   0.0000000000000000     
  -4.8594340334687909E-002   3.8820489840479130E-002   0.0000000000000000     
  -5.2125278710926946E-002   4.3211362358644728E-002   0.0000000000000000     
  -3.5800633716341505E-002   3.9517757025803950E-002   0.0000000000000000     
  -3.8408659953516333E-002   4.4220989440101222E-002   0.0000000000000000     
  -4.0943195116878696E-002   4.9120526868625718E-002   0.0000000000000000     
  -4.3404239206428601E-002   5.4216369311377466E-002   0.0000000000000000     
  -4.5791792222166068E-002   5.9508516768356431E-002   0.0000000000000000     
  -3.9569381816599407E-002   4.0332567422943902E-002   0.0000000000000000     
  -4.2394698589459517E-002   4.5021718185767341E-002   0.0000000000000000     
  -4.5139025401288488E-002   4.9903285202100973E-002   0.0000000000000000     
  -4.7802362252086332E-002   5.4977268471944798E-002   0.0000000000000000     
  -5.0384709141853036E-002   6.0243667995298823E-002   0.0000000000000000     
  -4.3546405349116274E-002   4.1219771777464019E-002   0.0000000000000000     
  -4.6581925674176294E-002   4.5885281058746057E-002   0.0000000000000000     
  -4.9529516068584592E-002   5.0742900362950073E-002   0.0000000000000000     
  -5.2389176532341201E-002   5.5792629690076097E-002   0.0000000000000000     
  -5.5160907065446074E-002   6.1034469040124106E-002   0.0000000000000000     
  -4.7731704313892127E-002   4.2179370089364294E-002   0.0000000000000000     
  -5.0970341207666664E-002   4.6811678059037354E-002   0.0000000000000000     
  -5.4114667118767036E-002   5.1639372351173038E-002   0.0000000000000000     
  -5.7164682047193195E-002   5.6662452965771347E-002   0.0000000000000000     
  -6.0120385992945183E-002   6.1880919902832267E-002   0.0000000000000000     
  -5.2125278710926946E-002   4.3211362358644728E-002   0.0000000000000000     
  -5.5559945189930640E-002   4.7800909186641233E-002   0.0000000000000000     
  -5.8894478551835772E-002   5.2592701166769833E-002   0.0000000000000000     
  -6.2128878796642334E-002   5.7586738299030521E-002   0.0000000000000000     
  -6.5263145924350341E-002   6.2783020583423318E-002   0.0000000000000000     
  -4.5791792222166068E-002   5.9508516768356431E-002   0.0000000000000000     
  -4.8105411178110909E-002   6.4990497428975585E-002   0.0000000000000000     
  -5.0344653088282981E-002   7.0655839482647906E-002   0.0000000000000000     
  -5.2509517952682286E-002   7.6504542929373393E-002   0.0000000000000000     
  -5.4600005771308815E-002   8.2536607769152018E-002   0.0000000000000000     
  -5.0384709141853036E-002   6.0243667995298823E-002   0.0000000000000000     
  -5.2886912002850686E-002   6.5699010706331204E-002   0.0000000000000000     
  -5.5309816767341383E-002   7.1339823539210090E-002   0.0000000000000000     
  -5.7653423435325105E-002   7.7166106493935516E-002   0.0000000000000000     
  -5.9917732006801859E-002   8.3177859570507454E-002   0.0000000000000000     
  -5.5160907065446074E-002   6.1034469040124106E-002   0.0000000000000000     
  -5.7846950712025579E-002   6.6465300149219600E-002   0.0000000000000000     
  -6.0449550516206020E-002   7.2082004753488124E-002   0.0000000000000000     
  -6.2968706477987399E-002   7.7884582852929610E-002   0.0000000000000000     
  -6.5404418597369757E-002   8.3873034447544098E-002   0.0000000000000000     
  -6.0120385992945183E-002   6.1880919902832267E-002   0.0000000000000000     
  -6.2985527305635558E-002   6.7289365757640787E-002   0.0000000000000000     
  -6.5763854334876901E-002   7.2882383125481912E-002   0.0000000000000000     
  -6.8455367080669224E-002   7.8659972006355633E-002   0.0000000000000000     
  -7.1060065543012516E-002   8.4622132400261924E-002   0.0000000000000000     
  -6.5263145924350341E-002   6.2783020583423318E-002   0.0000000000000000     
  -6.8302641783680618E-002   6.8171207531594794E-002   0.0000000000000000     
  -7.1252728223354017E-002   7.3740958655191563E-002   0.0000000000000000     
  -7.4113405243370511E-002   7.9492273954213599E-002   0.0000000000000000     
  -7.6884672843730115E-002   8.5425153428660916E-002   0.0000000000000000     
  -5.4600005771308815E-002   8.2536607769152018E-002   0.0000000000000000     
  -5.6616757563287962E-002   8.8738187852209729E-002   0.0000000000000000     
  -5.8560414347745074E-002   9.5095437028772434E-002   0.0000000000000000     
  -6.0430976124680173E-002  0.10160835529884014        0.0000000000000000     
  -6.2228442894093239E-002  0.10827694266241288        0.0000000000000000     
  -5.9917732006801859E-002   8.3177859570507454E-002   0.0000000000000000     
  -6.2102778783750770E-002   8.9359262846877521E-002   0.0000000000000000     
  -6.4208600068150920E-002   9.5694496400997267E-002   0.0000000000000000     
  -6.6235195860002330E-002  0.10218356023286673        0.0000000000000000     
  -6.8182566159305000E-002  0.10882645434248588        0.0000000000000000     
  -6.5404418597369757E-002   8.3873034447544098E-002   0.0000000000000000     
  -6.7755540510444898E-002   9.0030928459728252E-002   0.0000000000000000     
  -7.0020925853304702E-002   9.6341833811878733E-002   0.0000000000000000     
  -7.2200574625949115E-002  0.10280575050399551        0.0000000000000000     
  -7.4294486828378192E-002  0.10942267853607862        0.0000000000000000     
  -7.1060065543012516E-002   8.4622132400261924E-002   0.0000000000000000     
  -7.3575042743370345E-002   9.0753184690761934E-002   0.0000000000000000     
  -7.5997391703206366E-002   9.7037449261416817E-002   0.0000000000000000     
  -7.8327112422520509E-002  0.10347492611222656        0.0000000000000000     
  -8.0564204901312830E-002  0.11006561524319113        0.0000000000000000     
  -7.6884672843730115E-002   8.5425153428660916E-002   0.0000000000000000     
  -7.9561285482527166E-002   9.1526031539978556E-002   0.0000000000000000     
  -8.2137997617855979E-002   9.7781342749611491E-002   0.0000000000000000     
  -8.4614809249716538E-002  0.10419108705755976        0.0000000000000000     
  -8.6991720378108900E-002  0.11075526446382336        0.0000000000000000     
  -6.2228442894093239E-002  0.10827694266241288        0.0000000000000000     
  -6.3954013327279430E-002  0.11509075484260209        0.0000000000000000     
  -6.5608886095533892E-002  0.12203934756251929        0.0000000000000000     
  -6.7193061198856624E-002  0.12912272082216447        0.0000000000000000     
  -6.8706538637247599E-002  0.13634087462153763        0.0000000000000000     
  -6.8182566159305000E-002  0.10882645434248588        0.0000000000000000     
  -7.0052601191498365E-002  0.11561449998731993        0.0000000000000000     
  -7.1847191182021805E-002  0.12253901842483404        0.0000000000000000     
  -7.3566336130875390E-002  0.12960000965502827        0.0000000000000000     
  -7.5210036038059064E-002  0.13679747367790254        0.0000000000000000     
  -7.4294486828378192E-002  0.10942267853607862        0.0000000000000000     
  -7.6304611037589162E-002  0.11618495338990263        0.0000000000000000     
  -7.8232895830579255E-002  0.12308491054724219        0.0000000000000000     
  -8.0079341207348470E-002  0.13012255000809722        0.0000000000000000     
  -8.1843947167896794E-002  0.13729787177246777        0.0000000000000000     
  -8.0564204901312830E-002  0.11006561524319113        0.0000000000000000     
  -8.2710042865551864E-002  0.11680211505035028        0.0000000000000000     
  -8.4766000041206199E-002  0.12367702392974368        0.0000000000000000     
  -8.6732076428275837E-002  0.13069034188137135        0.0000000000000000     
  -8.8608272026760818E-002  0.13784206890523332        0.0000000000000000     
  -8.6991720378108900E-002  0.11075526446382336        0.0000000000000000     
  -8.9268896675386455E-002  0.11746598496866278        0.0000000000000000     
  -9.1446503813902666E-002  0.12431535857233857        0.0000000000000000     
  -9.3524541793657545E-002  0.13130338527485069        0.0000000000000000     
  -9.5503010614651065E-002  0.13843006507619918        0.0000000000000000     
  -6.8706538637247599E-002  0.13634087462153763        0.0000000000000000     
  -7.0153546897746027E-002  0.14368069637625416        0.0000000000000000     
  -7.1538314467391034E-002  0.15112907350192939        0.0000000000000000     
  -7.2860841346182634E-002  0.15868600599856333        0.0000000000000000     
  -7.4121127534120826E-002  0.16635149386615597        0.0000000000000000     
  -7.5210036038059064E-002  0.13679747367790254        0.0000000000000000     
  -7.6784508156660367E-002  0.14411601779219482        0.0000000000000000     
  -7.8295969739766755E-002  0.15154024929664300        0.0000000000000000     
  -7.9744420787378242E-002  0.15907016819124711        0.0000000000000000     
  -8.1129861299494843E-002  0.16670577447600710        0.0000000000000000     
  -8.1843947167896794E-002  0.13729787177246777        0.0000000000000000     
  -8.3529034232932939E-002  0.14459314072030152        0.0000000000000000     
  -8.5136922923165506E-002  0.15199062173154612        0.0000000000000000     
  -8.6667613238594537E-002  0.15949031480620160        0.0000000000000000     
  -8.8121105179220005E-002  0.16709221994426793        0.0000000000000000     
  -8.8608272026760818E-002  0.13784206890523332        0.0000000000000000     
  -9.0387125126563703E-002  0.14511206516057418        0.0000000000000000     
  -9.2061174017587288E-002  0.15248019080663869        0.0000000000000000     
  -9.3630418699831477E-002  0.15994644584342674        0.0000000000000000     
  -9.5094859173296312E-002  0.16751083027093844        0.0000000000000000     
  -9.5503010614651065E-002  0.13843006507619918        0.0000000000000000     
  -9.7358780837552755E-002  0.14567279111301287        0.0000000000000000     
  -9.9068723023032101E-002  0.15300895652192067        0.0000000000000000     
 -0.10063283717108912       0.16043856130292258        0.0000000000000000     
 -0.10205112328172378       0.16796160545601857        0.0000000000000000     
 </DataArray>
 <DataArray  type="Float64" Name="stress" NumberOfComponents="3" format="ascii">
   13416896051.514410        4025068815.4543228        2894058134.6068077     
   11766615894.956509        1890530359.8110311        1715838660.0505741     
   10313613178.114750        413583369.88821983        810733901.36632919     
   9057887900.9891376       -405772154.31410885        178743858.55407304     
   7999440063.5796690       -567536212.79595518       -180131468.38619578     
   10539983283.644922        3161994985.0934768        2225837343.5204964     
   9667544145.8151913        1589606258.1303270        1446761271.1878128     
   8943741888.7255821        512673800.30091333        863182867.69400907     
   8368576512.3760920       -68802388.394766331        475102133.03908551     
   7942048016.7667227       -154822307.95671129        282519067.22303951     
   8337837864.7486267        2501351359.4245882        1712450759.1682851     
   8021476754.1238995        1424583463.6846311        1275770770.2537906     
   7805111965.2632685        681136640.49166250        956971403.14506686     
   7688743498.1667328        271010889.84568214        756052657.84211457     
   7672371352.8342962        194206211.74669075        673014534.34493160     
   6810459794.8255224        2043137938.4476566        1353898381.5501745     
   6828413719.8826303        1395461976.4739418        1202867157.2485075     
   6897723407.7278109        918971890.46046877        1092099507.7195029     
   7018388858.3610630        613667680.40723681        1021595432.9631597     
   7190410071.7823896        479549346.31424689        991354932.97947860     
   5957849073.8756084        1787354722.1626825        1150180210.6661642     
   6088355043.0913839        1502241796.4982595        1228050432.1719635     
   6221576216.1192064        1226179550.2073312        1268567181.4173162     
   6357512592.9590769        959167983.28989744        1271730458.4022217     
   6496164173.6109982        701207095.74595904        1237540263.1266804     
   7999440063.5796690       -567536212.79595518       -180131468.38619578     
   7917351744.9315472       -200081030.67625475       -78194570.414246365     
   7793795690.9451733        29148366.982619762       -8922707.4454786573     
   7628771901.6205568        120151980.18067169        27684120.520104196     
   7422280376.9576893        72929808.917898178        31625913.482507240     
   7942048016.7667227       -154822307.95671129        282519067.22303951     
   7739433998.5990353        16317991.021259308        281294194.33898550     
   7513448511.9818296        109553395.16749001        265325714.47577003     
   7264091556.9150982        124883904.48198080        234613627.63339940     
   6991363133.3988495        62309518.964734554        189157933.81186828     
   7672371352.8342962        194206211.74669075        673014534.34493160     
   7400435715.2156887        184392851.60351944        589740201.97505116     
   7123224876.0362825        156995486.25769567        509643690.65003711     
   6840738835.2960815        112014115.70921946        432725000.36988735     
   6552977592.9950848        49448739.958089828        358984131.13460481     
   7190410071.7823896        479549346.31424689        991354932.97947860     
   6900356894.7814989        304143551.07052922        847143452.49395347     
   6623124783.1085367        171474640.25324345        724031221.07731712     
   6358713736.7635069        81542613.862392902        622018238.72957158     
   6107123755.7464046        34347471.897972345        541104505.45071638     
   6496164173.6109982        701207095.74595904        1237540263.1266804     
   6239197537.2964668        375570089.42228508        1053503945.8956900     
   6013148233.1985893        152990857.15413070        908488305.75761282     
   5818016261.3173685        33469398.941494942        802493342.71245062     
   5653801621.6528053        17005714.784380913        735519056.76020205     
   7422280376.9576893        72929808.917898178        31625913.482507240     
   7217513238.9733715       -18198982.566963196        14874154.949009050     
   7024923328.9257793       -68737014.262742996        2876128.4678127235     
   6844510646.8149061       -78684286.169462681       -4368165.9610826969     
   6676275192.6407471       -48040798.287126064       -6858728.3376839384     
   6991363133.3988495        62309518.964734554        189157933.81186828     
   6807491350.2556696        2694323.7599821091        181061230.48810434     
   6631366111.2986612       -31099057.490871429        177011776.61750641     
   6462987416.5278177       -39070624.787841082        177009572.20007712     
   6302355265.9431419       -21220378.130920410        181054617.23581624     
   6552977592.9950848        49448739.958089828        358984131.13460481     
   6387982642.9812460        20741584.519913435        354373351.97825634     
   6226303553.4030228        3087297.2004473209        353103339.67594463     
   6067940324.2604094       -3514122.0003046989        355174094.22767299     
   5912892955.5534077        937326.91764974594        360585615.63343292     
   6107123755.7464046        34347471.897972345        541104505.45071638     
   5958987117.1500998        35942799.712828159        534810519.41947365     
   5809735655.2388544        33822049.811210871        531150817.64313626     
   5659369370.0126686        27985222.193129778        530125400.12170410     
   5507888261.4715414        18432316.858572245        531734266.85518050     
   5653801621.6528053        17005714.784380913        735519056.76020205     
   5520504772.7622318        48297969.338722944        722372732.81175208     
   5381662416.8061647        61105200.341417551        711154210.51907814     
   5237274553.7846031        55427407.792465687        701863489.88217664     
   5087341183.6975451        31264591.691860914        694500570.90105104     
   6676275192.6407471       -48040798.287126064       -6858728.3376839384     
   6495097240.7946873       -11115354.949963093        347961.13068007282     
   6308444064.1479836        7559339.0517132282        11647703.376905965     
   6116315662.7006388        7983283.7179172039        27040498.400994696     
   5918712036.4526434       -9843520.9513671398        46526346.202943392     
   6302355265.9431419       -21220378.130920410        181054617.23581624     
   6127410320.6831322       -779906.55555272102        177962860.07213646     
   5949257774.0859909        8968560.5627133846        179376894.83411536     
   5767897626.1517210        8025023.2238972187        185296721.52177146     
   5583329876.8803301       -3610518.5720164776        195722340.13508558     
   5912892955.5534077        937326.91764974594        360585615.63343292     
   5745360271.5874548        5246603.1436233521        349840972.54514623     
   5576887609.7478895        6422619.7908847332        344014860.53033143     
   5407474970.0347157        4465376.8594510555        343107279.58898276     
   5237122352.4479265       -625125.65068888664        347118229.72110122     
   5507888261.4715414        18432316.858572245        531734266.85518050     
   5348947093.5076590        6964174.1475558281        515982298.54971892     
   5191333571.1336794       -78483.263775348663        505561600.46553308     
   5035047694.3496065       -2695655.3754260540        500472172.60262096     
   4880089463.1554384       -887342.18739175797        500714014.96098149     
   5087341183.6975451        31264591.691860914        694500570.90105104     
   4938170786.4437418        4372806.4562582970        676386838.08585453     
   4792595658.2433596       -10534748.601274252        664017114.63973320     
   4650615799.0964003       -13458073.480728388        657391400.56269217     
   4512231209.0028658       -4397168.1821153164        656509695.85472786     
   5918712036.4526434       -9843520.9513671398        46526346.202943392     
   5742218252.2810965       -25935849.220509768        53601685.383797280     
   5568167730.5654831       -33883969.303198338        62307166.457853816     
   5396560471.3058186       -33687881.199401140        72642789.425100833     
   5227396474.5020866       -25347584.909149170        84608554.285542801     
   5583329876.8803301       -3610518.5720164776        195722340.13508558     
   5413657452.9236498       -13573851.312211752        201515871.17183635     
   5245348857.6412077       -18991088.471606016        209512076.89706463     
   5078404091.0330153       -19862230.050165892        219710957.31078303     
   4912823153.0990658       -16187276.047927618        232112512.41297927     
   5237122352.4479265       -625125.65068888664        347118229.72110122     
   5075907096.6926508       -3968720.4659824371        350370613.20176226     
   4914976235.8299246       -6364332.3061149120        356398204.16618884     
   4754329769.8597469       -7811961.1710834503        365201002.61439574     
   4593967698.7821236       -8311607.0608823299        376779008.54637229     
   4880089463.1554384       -887342.18739175797        500714014.96098149     
   4728967183.5881100        2879543.3181796074        500165911.47356772     
   4577049865.1316395        3996299.1932716370        502965548.26522416     
   4424337507.7860165        2462925.4378671646        509112925.33594042     
   4270830111.5512557       -1720577.9480147362        518608042.68572384     
   4512231209.0028658       -4397168.1821153164        656509695.85472786     
   4372837713.6100264        6970940.0402901173        650901765.98727417     
   4231569745.5463443        12090806.026552677        649214109.19417202     
   4088427304.8118219        10962429.776679516        651446725.47542346     
   3943410391.4064612        3585811.2906715870        657599614.83102679     
   5227396474.5020866       -25347584.909149170        84608554.285542801     
   5036771318.7423487       -21401548.426377773        80109539.649968728     
   4845050650.7767792       -21107219.296413898        81121337.988564730     
   4652234470.6053591       -24464597.519262075        87643949.301337823     
   4458322778.2280989       -31473683.094914198        99677373.588282257     
   4912823153.0990658       -16187276.047927618        232112512.41297927     
   4735432337.2404966       -14669255.934409618        225072697.50096348     
   4557591558.3045893       -14651112.745353937        223262642.54703581     
   4379300816.2913532       -16132846.480731010        226682347.55120486     
   4200560111.2007818       -19114457.140562534        235331812.51345113     
   4593967698.7821236       -8311607.0608823299        376779008.54637229     
   4429008214.2073193       -9462505.9018459320        367951534.00784898     
   4264244315.6836948       -9961451.2389063835        364072766.41132498     
   4099676003.2112403       -9808443.0720453262        365142705.75680429     
   3935303276.7899575       -9003481.4012866020        371161352.04428113     
   4270830111.5512557       -1720577.9480147362        518608042.68572384     
   4117498949.6428328       -5781298.3286819458        508746049.17061329     
   3965008922.9140873       -7038234.7770819664        503551709.58141971     
   3813360031.3650293       -5491387.2931923866        503025023.91813743     
   3662552274.9956541       -1140755.8770294189        507165992.18076992     
   3943410391.4064612        3585811.2906715870        657599614.83102679     
   3800904543.5470271       -3625633.2148997784        647456242.98926258     
   3659885379.9957800       -5881463.3598570824        641699472.05732572     
   3520352900.7527270       -3181679.1441557407        640329302.03520811     
   3382307105.8178611        4473719.4321677685        643345732.92292440     
   4458322778.2280989       -31473683.094914198        99677373.588282257     
   4264561589.9282160       -40101693.590391159        106694587.23769300     
   4070798720.7728271       -48735306.937550068        121474411.89770573     
   3877034170.7619467       -57374523.136336327        144016847.56832173     
   3683267939.8955617       -66019342.186828375        174321894.24954230     
   4200560111.2007818       -19114457.140562534        235331812.51345113     
   4027237625.6433663       -21619027.674796820        238937741.07684365     
   3853607899.3824143       -25147733.887497902        249090036.13277295     
   3679670932.4179182       -29700575.778677225        265788697.68126684     
   3505426724.7498817       -35277553.348337650        289033725.72230965     
   3935303276.7899575       -9003481.4012866020        371161352.04428113     
   3778944509.6377420       -6427107.2754235268        370999509.03225571     
   3621972941.9339323       -5893401.6548717022        376167787.99473166     
   3464388573.6785283       -7402364.5396263599        386666188.93170857     
   3306191404.8715453       -10953995.929660559        402494711.84318614     
   3662552274.9956541       -1140755.8770294189        507165992.18076992     
   3519682241.9113326        5474067.6077086926        502879891.10395163     
   3375893848.4273744        9027689.7603278160        502707667.48357737     
   3231187094.5437818        9520110.5808373690        506649321.31965739     
   3085561980.2605529        6951330.0692150593        514704852.61217892     
   3382307105.8178611        4473719.4321677685        643345732.92292440     
   3249450822.4641480        14084496.974608302        634578887.29192305     
   3115370618.8627529        19615540.358119488        628709674.59931779     
   2980066495.0136724        21066849.582674980        625738094.84510875     
   2843538450.9169159        18438424.648310304        625664148.02929831     
   3683267939.8955617       -66019342.186828375        174321894.24954230     
   3393480139.2096395       -98679237.796243429        192744076.25597614     
   3106853180.5134439       -120802993.43990040        246415114.21452442     
   2823387063.8069649       -132390609.11783743        335335008.12518394     
   2543081789.0902176       -133442084.83000231        459503757.98796427     
   3505426724.7498817       -35277553.348337650        289033725.72230965     
   3300930325.9617891       -46185278.259240627        298477032.85142410     
   3099210339.3023739       -47838296.074542522        333260523.01940233     
   2900266764.7716436       -40236606.794244289        393384196.22623724     
   2704099602.3695884       -23380210.418341041        478848052.47195506     
   3306191404.8715453       -10953995.929660559        402494711.84318614     
   3158675913.9434204       -8602698.3534005880        402510642.59042805     
   3013552405.2829328        1721873.4483296871        417958083.46328264     
   2870820878.8900752        20019719.475471020        448837034.46175307     
   2730481334.7648540        46290839.728088617        495147495.58582628     
   3085561980.2605529        6951330.0692150593        514704852.61217892     
   2966716903.1545372        14068501.921302199        504844905.47299600     
   2849879378.4551077        27877515.128674030        500507795.54617381     
   2735049406.1622639        48378369.691335440        501693522.83170950     
   2622226986.2760067        75571065.609277725        508402087.32960409     
   2843538450.9169159        18438424.648310304        625664148.02929831     
   2725053293.5951376        21828322.564846754        605479821.49913299     
   2608191258.8189077        30628628.966521025        580909659.26807427     
   2492952346.5882020        44839343.853301525        551953661.33612013     
   2379336556.9030552        64460467.225249052        518611827.70327646     
   5957849073.8756084        1787354722.1626825        1150180210.6661642     
   6088355043.0913839        1502241796.4982595        1228050432.1719635     
   6221576216.1192064        1226179550.2073312        1268567181.4173162     
   6357512592.9590769        959167983.28989744        1271730458.4022217     
   6496164173.6109982        701207095.74595904        1237540263.1266804     
   5434585369.7659807        1630375610.9297943        1033605211.2813288     
   5489877472.7861071        1372479215.2550280        1113996486.4638667     
   5547360693.1751852        1121886544.1434383        1167603676.0664315     
   5607035030.9332170        878597597.59502530        1194426780.0890231     
   5668900486.0602016        642612375.60978818        1194465798.5316417     
   4895248350.3637362        1468574505.1091208        936482348.16074181     
   4905524834.8467102        1246954113.7215605        1018783242.8364066     
   4917468350.2555418        1030890492.0868585        1084869438.6125720     
   4931078896.5902309        820383640.20501506        1134740935.4892387     
   4946356473.8507757        615433558.07602906        1168397733.4664054     
   4339838015.6688757        1301951404.7006626        858811621.30440319     
   4335297129.2731915        1125666491.8978565        942410701.28958380     
   4331899187.3602734        953191394.03759122        1020364469.0557388     
   4329644189.9301138        784526111.11986578        1092672924.6028688     
   4328532136.9827194        619670643.14468002        1159336067.9309735     
   3768354365.6813960        1130506309.7044189        800593030.71231353     
   3779194356.0655556        1008616349.7839173        884878861.82339799     
   3790653204.4893818        888789249.99563730        974088767.39593148     
   3802730910.9528737        771025010.33957934        1068222747.4299132     
   3815427475.4560332        655323630.81574297        1167280801.9253440     
   6496164173.6109982        701207095.74595904        1237540263.1266804     
   6239197537.2964668        375570089.42228508        1053503945.8956900     
   6013148233.1985893        152990857.15413070        908488305.75761282     
   5818016261.3173685        33469398.941494942        802493342.71245062     
   5653801621.6528053        17005714.784380913        735519056.76020205     
   5668900486.0602016        642612375.60978818        1194465798.5316417     
   5518925483.6478577        383011708.36435437        1073708966.2308058     
   5393091248.7027845        203880266.00981402        980993558.51299298     
   5291397781.2249756        105218048.54616356        916319575.37820196     
   5213845081.2144346        87025055.973407745        879687016.82643247     
   4946356473.8507757        615433558.07602906        1168397733.4664054     
   4872003812.4552145        412458442.04321218        1103014393.8881068     
   4815015353.7775345        267364001.73666215        1054693226.3829364     
   4775391097.8177309        180150237.15637612        1023434230.9508983     
   4753131044.5758114        150817148.30235839        1009237407.5919876     
   4328532136.9827194        619670643.14468002        1159336067.9309735     
   4298432523.7185354        463910290.45885992        1141420228.8675904     
   4278920548.4228435        343442064.33467913        1129587309.3674452     
   4269996211.0956421        258265964.77213645        1123837309.4305382     
   4271659511.7369328        208381991.77123237        1124170229.0568690     
   3815427475.4560332        655323630.81574297        1167280801.9253440     
   3798211617.4378185        537367253.61129594        1188926471.1692586     
   3784806832.6387081        432114453.80386209        1205675807.4665182     
   3775213121.0587025        339565231.39343917        1217528810.8171239     
   3769430482.6977997        259719586.38003123        1224485481.2210753     
   5653801621.6528053        17005714.784380913        735519056.76020205     
   5520504772.7622318        48297969.338722944        722372732.81175208     
   5381662416.8061647        61105200.341417551        711154210.51907814     
   5237274553.7846031        55427407.792465687        701863489.88217664     
   5087341183.6975451        31264591.691860914        694500570.90105104     
   5213845081.2144346        87025055.973407745        879687016.82643247     
   5078174189.5123558        84662142.881395817        855795406.56336796     
   4940295851.4341326        74941075.202243805        835916385.01560473     
   4800210066.9797678        57861852.935955048        820049952.18314207     
   4657916836.1492643        33424476.082524538        808196108.06598163     
   4753131044.5758114        150817148.30235839        1009237407.5919876     
   4621042644.5180130        116586027.90072989        978494915.15188730     
   4490084858.7734251        86123621.876468420        953849798.48661339     
   4360257687.3420477        59429930.229577780        935302057.59616745     
   4231561130.2238817        36504952.960055590        922851692.48054981     
   4271659511.7369328        208381991.77123237        1124170229.0568690     
   4149110137.7792058        144069624.39672446        1090471258.5773108     
   4031029438.8240409        94652840.364089727        1064954450.9321040     
   3917417414.8714380        60131639.673335552        1047619806.1212530     
   3808274065.9214020        40506022.324458361        1038467324.1447566     
   3769430482.6977997        259719586.38003123        1224485481.2210753     
   3662376669.2959313        167112932.36937749        1191724436.8396366     
   3563129591.5859790        100528730.66510808        1169230342.3520772     
   3471689249.5679431        59966981.267225981        1157003197.7583981     
   3388055643.2418218        45427684.175729632        1155043003.0585995     
   5087341183.6975451        31264591.691860914        694500570.90105104     
   4938170786.4437418        4372806.4562582970        676386838.08585453     
   4792595658.2433596       -10534748.601274252        664017114.63973320     
   4650615799.0964003       -13458073.480728388        657391400.56269217     
   4512231209.0028658       -4397168.1821153164        656509695.85472786     
   4657916836.1492643        33424476.082524538        808196108.06598163     
   4524847791.6499214        12360951.262664795        794550950.38515830     
   4394386147.0218105       -11240.653092384338        786202456.12736309     
   4266531902.2649307       -3692099.6647391319        783150625.29259646     
   4141285057.3792844        1318374.2277162075        785395457.88085854     
   4231561130.2238817        36504952.960055590        922851692.48054981     
   4113315307.2045774        20886249.173608303        912522595.88821125     
   3996689014.8743114        10665981.017300129        907042816.77285254     
   3881682253.2330918        5844148.4911344051        906412355.13447249     
   3768295022.2809138        6420751.5951097012        910631210.97307634     
   3808274065.9214020        40506022.324458361        1038467324.1447566     
   3703573333.1077085        29948700.189096212        1030301774.5950116     
   3599504261.8008695        21496916.409912586        1026538196.5762020     
   3496066852.0008817        15150670.986898899        1027176590.0883230     
   3393261103.7077475        10909963.920066357        1032216955.1313781     
   3388055643.2418218        45427684.175729632        1155043003.0585995     
   3295621869.3593211        39548304.309132218        1147888486.5055642     
   3202831887.8014808        32481565.524738669        1144688595.5374155     
   3109685698.5683022        24227467.822551847        1145443330.1541486     
   3016183301.6597881        14786011.202584028        1150152690.3557663     
   4512231209.0028658       -4397168.1821153164        656509695.85472786     
   4372837713.6100264        6970940.0402901173        650901765.98727417     
   4231569745.5463443        12090806.026552677        649214109.19417202     
   4088427304.8118219        10962429.776679516        651446725.47542346     
   3943410391.4064612        3585811.2906715870        657599614.83102679     
   4141285057.3792844        1318374.2277162075        785395457.88085854     
   4010837888.0585613        7050241.2340483665        777506196.56615174     
   3879287598.2804894        9105040.0492303371        773879122.51319885     
   3746634188.0450730        7482770.6732640266        774514235.72199595     
   3612877657.3523145        2183433.1061527729        779411536.19254088     
   3768295022.2809138        6420751.5951097012        910631210.97307634     
   3647771076.7105827        6809446.6888520718        901360529.12686241     
   3526915362.8964038        6092247.6364388466        896693948.72980034     
   3405727880.8383760        4269154.4378619194        896631469.78188646     
   3284208630.5365014        1340167.0931320190        901173092.28312552     
   3393261103.7077475        10909963.920066357        1032216955.1313781     
   3283637279.5660958        6248556.4047048092        1022464763.6694077     
   3174453039.3940897        3052428.7881754637        1017658587.8439825     
   3065708383.1917310        1321581.0704734325        1017798427.6551051     
   2957403310.9590287        1056013.2516127825        1022884283.1027807     
   3016183301.6597881        14786011.202584028        1150152690.3557663     
   2918436496.6250949        5367570.3816035986        1140818900.1937816     
   2821900627.7735472       -14416.495552539825        1136773039.8557427     
   2726575695.1051431       -1359949.4288920164        1138015109.3416507     
   2632461698.6198893        1330971.5815937519        1144545108.6515064     
   3943410391.4064612        3585811.2906715870        657599614.83102679     
   3800904543.5470271       -3625633.2148997784        647456242.98926258     
   3659885379.9957800       -5881463.3598570824        641699472.05732572     
   3520352900.7527270       -3181679.1441557407        640329302.03520811     
   3382307105.8178611        4473719.4321677685        643345732.92292440     
   3612877657.3523145        2183433.1061527729        779411536.19254088     
   3482469943.5882144       -2275744.3046247959        771316876.20732439     
   3353056898.6843548       -3419358.8479182720        767506733.74835193     
   3224638522.6407437       -1247410.5237146616        767981108.81562304     
   3097214815.4573817        4240100.6679766178        772740001.40914333     
   3284208630.5365014        1340167.0931320190        901173092.28312552     
   3165607384.0575013       -454243.26591134071        894553126.13185775     
   3047508790.9908028       -573142.25061464310        892115594.12325001     
   2929912851.3364096        983470.13902747631        893860496.25730765     
   2812819565.0943146        4215593.9030028582        899787832.53403354     
   2957403310.9590287        1056013.2516127825        1022884283.1027807     
   2850316864.9548988        1838869.9012377262        1017164992.7628579     
   2743241056.9151220        2657186.4320471287        1015526053.1820165     
   2636175886.8397045        3510962.8440477848        1017967464.3602535     
   2529121354.7286453        4400199.1372565031        1024489226.2975783     
   2632461698.6198893        1330971.5815937519        1144545108.6515064     
   2536598386.2803912        4603595.1968002319        1139152476.1003258     
   2440253696.4573159        6271627.2000763416        1137738110.9246495     
   2343427629.1506443        6335067.5913720131        1140302013.1244712     
   2246120184.3603907        4793916.3707247972        1146844182.6997962     
   3382307105.8178611        4473719.4321677685        643345732.92292440     
   3249450822.4641480        14084496.974608302        634578887.29192305     
   3115370618.8627529        19615540.358119488        628709674.59931779     
   2980066495.0136724        21066849.582674980        625738094.84510875     
   2843538450.9169159        18438424.648310304        625664148.02929831     
   3097214815.4573817        4240100.6679766178        772740001.40914333     
   2971514086.0655117        10694690.115709066        763314769.59339607     
   2845115513.0344491        14823134.099492192        757224528.21635497     
   2718019096.3641958        16625432.619297147        754469277.27804697     
   2590224836.0547576        16101585.675157547        755049016.77845168     
   2812819565.0943146        4215593.9030028582        899787832.53403354     
   2695523982.5223494        7888873.1134556532        890317970.57676637     
   2578056632.9196973        10989595.554931402        884620456.55854845     
   2460417516.2863421        13517761.227416277        882695290.47937441     
   2342606632.6222973        15473370.130920529        884542472.33924472     
   2529121354.7286453        4400199.1372565031        1024489226.2975783     
   2421480511.8346710        5667045.9678437710        1015588490.2420487     
   2314193978.5184932        8114924.7244344950        1010897459.6258849     
   2207261754.7801132        11743835.407010794        1010416134.4490930     
   2100683840.6195290        16553778.015581131        1014144514.7116770     
   2246120184.3603907        4793916.3707247972        1146844182.6997962     
   2149383674.0024719        4029208.6788790226        1139126328.5892394     
   2053527549.8308415        6199121.6080006361        1136055537.4183745     
   1958551811.8455033        11303655.158095837        1137631809.1872065     
   1864456460.0464597        19342809.329168081        1143855143.8957338     
   2843538450.9169159        18438424.648310304        625664148.02929831     
   2725053293.5951376        21828322.564846754        605479821.49913299     
   2608191258.8189077        30628628.966521025        580909659.26807427     
   2492952346.5882020        44839343.853301525        551953661.33612013     
   2379336556.9030552        64460467.225249052        518611827.70327646     
   2590224836.0547576        16101585.675157547        755049016.77845168     
   2462710820.8914404        16194768.249315619        739710552.55822682     
   2336246048.9109287        19785428.099488735        722573429.23979163     
   2210830520.1132050        26873565.225630641        703637646.82315361     
   2086464234.4982867        37459179.627786875        682903205.30830848     
   2342606632.6222973        15473370.130920529        884542472.33924472     
   2213455692.7679834        14487417.307877898        873380344.50575590     
   2084780116.7337184        15086010.551679730        863006734.17674458     
   1956579904.5195189        17269149.862351298        853421641.35221350     
   1828855056.1253693        21036835.239880085        844625066.03218031     
   2100683840.6195290        16553778.015581131        1014144514.7116770     
   1977287909.2247508        16706269.740487099        1006489197.3417230     
   1853793462.2872882        16530376.323114991        1002209574.0789374     
   1730200499.8071461        16026097.763469934        1001305644.9233241     
   1606509021.7843149        15193434.061528742        1003777409.8748906     
   1864456460.0464597        19342809.329168081        1143855143.8957338     
   1754207470.2617521        22851325.547179699        1139037111.0661252     
   1643286085.5716233        24118525.413772464        1140181948.9463704     
   1531692305.9760718        23144408.928963244        1147289657.5364738     
   1419426131.4750941        19928976.092734337        1160360236.8364432     
   3768354365.6813960        1130506309.7044189        800593030.71231353     
   3779194356.0655556        1008616349.7839173        884878861.82339799     
   3790653204.4893818        888789249.99563730        974088767.39593148     
   3802730910.9528737        771025010.33957934        1068222747.4299132     
   3815427475.4560332        655323630.81574297        1167280801.9253440     
   3207947406.4123282        962384221.92369843        756685149.29722631     
   3235977140.4669013        868143635.73147297        853051038.82756495     
   3263737150.4911098        773003969.43802893        951335108.93640244     
   3291227436.4849529        676965223.04336631        1051537359.6237384     
   3318447998.4484291        580027396.54748464        1153657790.8895738     
   2685767143.8726978        805730143.16180944        721946549.97189593     
   2722398353.3606858        736562450.22676039        829355818.83978426     
   2757871256.7482767        663533736.95705223        935677374.40322161     
   2792185854.0354700        586644003.35268450        1040911216.6622077     
   2825342145.2222652        505893249.41365761        1145057345.6167431     
   2201813578.0625062        660544073.41875184        696377232.73632216     
   2238457994.7469096        613872793.26977944        813793201.86005616     
   2273055523.2608833        560378552.55270720        927115563.79638934     
   2305606163.6044273        500061351.26753497        1036344318.5453217     
   2336109915.7775407        432921189.41426247        1141479466.1068523     
   1756086708.9817529        526826012.69452584        679977197.59050512     
   1784156064.6255722        500074664.86053038        806363187.88838053     
   1809289950.0289292        463538416.22499418        925649677.11590540     
   1831488365.1918240        417217266.78791702        1037836665.2730789     
   1850751310.1142566        361111216.54929984        1142924152.3599017     
   3815427475.4560332        655323630.81574297        1167280801.9253440     
   3798211617.4378185        537367253.61129594        1188926471.1692586     
   3784806832.6387081        432114453.80386209        1205675807.4665182     
   3775213121.0587025        339565231.39343917        1217528810.8171239     
   3769430482.6977997        259719586.38003123        1224485481.2210753     
   3318447998.4484291        580027396.54748464        1153657790.8895738     
   3294051142.6471686        472822229.89485753        1181940458.8597157     
   3273364374.7263904        377984022.84383750        1207114566.7391336     
   3256387694.6860933        295512775.39442396        1229180114.5278275     
   3243121102.5262780        225408487.54661763        1248137102.2257981     
   2825342145.2222652        505893249.41365761        1145057345.6167431     
   2798872214.0834732        410971670.04650557        1179859196.0847206     
   2776011385.4865432        328080432.48555529        1213340259.3179052     
   2756759659.4314728        257219536.73080456        1245500535.3162949     
   2741117035.9182620        198388982.78225505        1276340024.0798919     
   2336109915.7775407        432921189.41426247        1141479466.1068523     
   2312674831.7467351        351815574.06624067        1182682682.8442736     
   2292747864.9191666        282403682.72901314        1224352885.2028320     
   2276329015.2948380        224685515.40258151        1266490073.1825264     
   2263418282.8737469        178661072.08694327        1309094246.7833581     
   1850751310.1142566        361111216.54929984        1142924152.3599017     
   1835458995.6369512        295353941.95406187        1190410919.1383748     
   1823573813.0242622        240953773.57421368        1240152444.3939145     
   1815095762.2761908        197910711.40975386        1292148728.1265209     
   1810024843.3927352        166224755.46068275        1346399770.3361957     
   3769430482.6977997        259719586.38003123        1224485481.2210753     
   3662376669.2959313        167112932.36937749        1191724436.8396366     
   3563129591.5859790        100528730.66510808        1169230342.3520772     
   3471689249.5679431        59966981.267225981        1157003197.7583981     
   3388055643.2418218        45427684.175729632        1155043003.0585995     
   3243121102.5262780        225408487.54661763        1248137102.2257981     
   3165142637.7611694        150863439.14505327        1230863243.6063724     
   3093326261.7493134        96858686.587666988        1221520025.0577075     
   3027671974.4907098        63394229.874454260        1220107446.5798025     
   2968179775.9853601        50470069.005423188        1226625508.1726573     
   2741117035.9182620        198388982.78225505        1276340024.0798919     
   2685538748.8667102        139902988.71281981        1272634596.4607089     
   2634477903.6297498        96475134.025352240        1274523499.0891647     
   2587934500.2073784        68105418.719853878        1282006731.9652610     
   2545908538.5995994        54793842.796324492        1295084295.0889981     
   2263418282.8737469        178661072.08694327        1309094246.7833581     
   2223565002.6125531        134231581.07267761        1317038495.4026437     
   2186584517.2272873        99378072.978170395        1328240764.4464481     
   2152476826.7179503        74100547.803424120        1342701053.9147720     
   2121241931.0845394        58399005.548436522        1360419363.8076169     
   1810024843.3927352        166224755.46068275        1346399770.3361957     
   1779221398.9986985        133849216.22462451        1364074940.4321766     
   1749646102.5419271        105567503.44611824        1382671821.1295564     
   1721298954.0224216        81379617.125163674        1402190412.4283345     
   1694179953.4401815        61285557.261760950        1422630714.3285134     
   3388055643.2418218        45427684.175729632        1155043003.0585995     
   3295621869.3593211        39548304.309132218        1147888486.5055642     
   3202831887.8014808        32481565.524738669        1144688595.5374155     
   3109685698.5683022        24227467.822551847        1145443330.1541486     
   3016183301.6597881        14786011.202584028        1150152690.3557663     
   2968179775.9853601        50470069.005423188        1226625508.1726573     
   2885127858.1263771        40117720.661454201        1218707752.6360965     
   2802269716.3478699        30411292.585739017        1215084407.3352151     
   2719605350.6498432        21350784.778285027        1215755472.2700081     
   2637134761.0322886        12936197.239080429        1220720947.4404795     
   2545908538.5995994        54793842.796324492        1295084295.0889981     
   2473209290.0521193        40259769.961385846        1287044948.2840266     
   2401253801.3409271        28204896.580744386        1283639796.3655250     
   2330042072.4660234        18629222.654400945        1284868839.3334937     
   2259574103.4274125        11532748.182359934        1290732077.1879368     
   2121241931.0845394        58399005.548436522        1360419363.8076169     
   2059866165.1365404        39974452.208920121        1352900073.4493480     
   1999784142.7806461        25862377.509747744        1350354762.6283462     
   1940995864.0168545        16062781.450915933        1352783431.3446074     
   1883501328.8451641        10575664.032429695        1360186079.5981338     
   1694179953.4401815        61285557.261760950        1422630714.3285134     
   1645098483.3796473        39261767.404060006        1416273128.1320672     
   1597860740.6670294        23383735.372746110        1415229306.1236777     
   1552466725.3023291        13651461.167821825        1419499248.3033483     
   1508916437.2855444        10064944.789288282        1429082954.6710758     
   3016183301.6597881        14786011.202584028        1150152690.3557663     
   2918436496.6250949        5367570.3816035986        1140818900.1937816     
   2821900627.7735472       -14416.495552539825        1136773039.8557427     
   2726575695.1051431       -1359949.4288920164        1138015109.3416507     
   2632461698.6198893        1330971.5815937519        1144545108.6515064     
   2637134761.0322886        12936197.239080429        1220720947.4404795     
   2553408091.8645515        5824941.8823776245        1212985690.0115511     
   2470595441.8125362        1760416.9114052057        1210214795.2415001     
   2388696810.8762360        742622.32615149021        1212408263.1303279     
   2307712199.0556531        2771558.1266261339        1219566093.6780369     
   2259574103.4274125        11532748.182359934        1290732077.1879368     
   2188943092.5121589        6451335.0055987835        1284248949.2467284     
   2118929183.6451924        3426928.6564660072        1282406616.7993309     
   2049532376.8265121        2459529.1349532604        1285205079.8457470     
   1980752672.0561221        3549136.4410716295        1292644338.3859735     
   1883501328.8451641        10575664.032429695        1360186079.5981338     
   1825041498.5679109        7246749.7512638569        1354608677.8993130     
   1766901853.2715170        4985118.7396242619        1353348504.5292354     
   1709082392.9559810        3790770.9975162745        1356405559.4879022     
   1651583117.6213014        3663706.5249295235        1363779842.7753122     
   1508916437.2855444        10064944.789288282        1429082954.6710758     
   1461703310.0318117        8211186.1193704009        1424064875.9693081     
   1414513450.6915100        6434987.1608896255        1423040458.4312127     
   1367346859.2646327        4736347.9138240814        1426009702.0567954     
   1320203535.7511880        3115268.3781995177        1432972606.8460541     
   2632461698.6198893        1330971.5815937519        1144545108.6515064     
   2536598386.2803912        4603595.1968002319        1139152476.1003258     
   2440253696.4573159        6271627.2000763416        1137738110.9246495     
   2343427629.1506443        6335067.5913720131        1140302013.1244712     
   2246120184.3603907        4793916.3707247972        1146844182.6997962     
   2307712199.0556531        2771558.1266261339        1219566093.6780369     
   2222063431.8600402        4412549.9688975811        1213113601.7725153     
   2136167438.5075960        5229454.6217184067        1210916715.3190091     
   2050024218.9983087        5222272.0850751400        1212975434.3175087     
   1963633773.3321950        4391002.3589996099        1219289758.7680244     
   1980752672.0561221        3549136.4410716295        1292644338.3859735     
   1906110844.5087109        3796214.8616874218        1285405163.6739855     
   1831455942.1312187        3999710.5153665543        1282698932.4905214     
   1756787964.9236407        4159623.4020888805        1284525644.8355806     
   1682106912.8859782        4275953.5218713284        1290885300.7091618     
   1651583117.6213014        3663706.5249295235        1363779842.7753122     
   1588740624.2264090        2754589.8751908541        1356027161.8047357     
   1526119207.3281856        2582394.8810147047        1353084762.4391925     
   1463718866.9266267        3147121.5423902869        1354952644.6786852     
   1401539603.0217402        4448769.8593350649        1361630808.5232122     
   1320203535.7511880        3115268.3781995177        1432972606.8460541     
   1269952771.0131328        1287675.0094037056        1424979596.1647651     
   1220157234.0984976        977507.71867221594        1422074205.1650212     
   1170816925.0072792        2184766.5059989691        1424256433.8468225     
   1121931843.7394814        4909451.3713924885        1431526282.2101707     
   2246120184.3603907        4793916.3707247972        1146844182.6997962     
   2149383674.0024719        4029208.6788790226        1139126328.5892394     
   2053527549.8308415        6199121.6080006361        1136055537.4183745     
   1958551811.8455033        11303655.158095837        1137631809.1872065     
   1864456460.0464597        19342809.329168081        1143855143.8957338     
   1963633773.3321950        4391002.3589996099        1219289758.7680244     
   1879230805.6392884        4729379.1805112362        1212755389.2369850     
   1795453132.1179106        7152069.9071199894        1210806739.3131847     
   1712300752.7680645        11659074.538836837        1213443808.9966094     
   1629773667.5897498        18250393.075651228        1220666598.2872627     
   1682106912.8859782        4275953.5218713284        1290885300.7091618     
   1609862221.1938939        5664834.8574700952        1285236808.4070952     
   1537987731.6585820        8287723.3823096752        1284112692.3797958     
   1466483444.2800400        12144619.096385181        1287512952.6272628     
   1395349359.0582736        17235521.999709547        1295437589.1494918     
   1401539603.0217402        4448769.8593350649        1361630808.5232122     
   1341277920.6662931        6835575.7097721100        1356570586.0995643     
   1281131348.4528596        9606082.0335864425        1355973396.6182125     
   1221099886.3814368        12760288.830771625        1359839240.0791669     
   1161183534.4520266        16298196.101330817        1368168116.4824185     
   1121931843.7394814        4909451.3713924885        1431526282.2101707     
   1073477904.0564820        8241601.7374026179        1426756722.3143852     
   1024883982.5007423        11107145.860947073        1426388852.0284383     
   976150079.07224643        13506083.741969287        1430422671.3523216     
   927276193.77101278        15438415.380531967        1438858180.2860456     
   1864456460.0464597        19342809.329168081        1143855143.8957338     
   1754207470.2617521        22851325.547179699        1139037111.0661252     
   1643286085.5716233        24118525.413772464        1140181948.9463704     
   1531692305.9760718        23144408.928963244        1147289657.5364738     
   1419426131.4750941        19928976.092734337        1160360236.8364432     
   1629773667.5897498        18250393.075651228        1220666598.2872627     
   1534634078.6030884        21452311.386193573        1215217536.9369254     
   1439129207.0380032        23436621.101998389        1215498974.2384846     
   1343259052.8945079        24203322.223098099        1221510910.1919348     
   1247023616.1725919        23752414.749462306        1233253344.7972889     
   1395349359.0582736        17235521.999709547        1295437589.1494918     
   1314655250.7040365        19931666.353084445        1289715796.9932706     
   1233902972.0983922        22433909.868427455        1289492131.4309769     
   1153092523.2413416        24742252.545747221        1294766592.4626243     
   1072223904.1328758        26856694.385026276        1305539180.0881870     
   1161183534.4520266        16298196.101330817        1368168116.4824185     
   1094270986.5646098        18289390.447866261        1362531891.2351534     
   1027607380.7527883        21110391.713058472        1362161420.5238593     
   961192717.01656950        24761199.896920562        1367056704.3485291     
   895026995.35594225        29241814.999421507        1377217742.7091699     
   927276193.77101278        15438415.380531967        1438858180.2860456     
   873481286.18479896        16525483.670532763        1433665819.6625791     
   820242433.00119019        19466066.635885358        1433506841.5171225     
   767559634.22019136        24260164.276600480        1438381245.8496606     
   715432889.84179378        30907776.592659086        1448289032.6602123     
   1756086708.9817529        526826012.69452584        679977197.59050512     
   1784156064.6255722        500074664.86053038        806363187.88838053     
   1809289950.0289292        463538416.22499418        925649677.11590540     
   1831488365.1918240        417217266.78791702        1037836665.2730789     
   1850751310.1142566        361111216.54929984        1142924152.3599017     
   1326371149.1335895        397911344.74007684        669638727.75219572     
   1339647056.4287262        375515001.03333086        791763877.55482531     
   1350721361.0435214        345779981.72544622        908603951.82253110     
   1359594062.9779749        308706286.81642282        1020158950.5553125     
   1366265162.2320869        264293916.30626130        1126428873.7531703     
   890451511.02116823        267135453.30635047        662254106.43914449     
   894118042.92598462        250649335.61436269        780974594.56666899     
   896316839.71057987        229270767.52163824        896224432.69469631     
   897047901.37495434        202999749.02817708        1008003620.8232265     
   896311227.91910768        171836280.13397944        1116312158.9522593     
   448327794.64448875        134498338.39334661        657823333.65135145     
   447569024.11734724        125477668.60362582        773995338.92391157     
   446076386.03010523        114010773.61357015        888511119.73240149     
   443849880.38276291        100097653.42318001        1001370676.0768205     
   440889507.17532021        83738308.032455385        1112574007.9571691     
   3.5511314584872472E-003   1.0653394375461742E-003   656346409.38881660     
   2.8139464201993982E-003   1.1201090421486903E-003   770826110.62655294     
   2.0969575663799399E-003   1.2422426297327442E-003   885464012.93564582     
   1.4001863427861314E-003   1.4317466340255133E-003   1000260116.3160948     
   7.2362560083221979E-004   1.6886189104512717E-003   1115214420.7679005     
   1850751310.1142566        361111216.54929984        1142924152.3599017     
   1835458995.6369512        295353941.95406187        1190410919.1383748     
   1823573813.0242622        240953773.57421368        1240152444.3939145     
   1815095762.2761908        197910711.40975386        1292148728.1265209     
   1810024843.3927352        166224755.46068275        1346399770.3361957     
   1366265162.2320869        264293916.30626130        1126428873.7531703     
   1360541329.4090991        216699581.27049196        1181809732.0386076     
   1357372845.4846001        177623075.89634931        1238104754.7596526     
   1356759710.4585898        147064400.18383700        1295313941.9163060     
   1358701924.3310678        125023554.13295192        1353437293.5085669     
   896311227.91910768        171836280.13397944        1116312158.9522593     
   896325608.06055427        141255804.05071414        1178593361.9508448     
   898043554.13436019        116353881.07531428        1240448135.3435798     
   901465066.14052641        97130511.207781941        1301876479.1304619     
   906590144.07905209        83585694.448115170        1362878393.3114920     
   440889507.17532021        83738308.032455385        1112574007.9571691     
   442811831.59131485        69022610.294727102        1180761808.8750877     
   445585938.97354132        57146189.111104503        1247182586.1456938     
   449211829.32199943        48109044.481586978        1311836339.7689896     
   453689502.63668913        41911176.406175390        1374723069.7449725     
   7.2362560083221979E-004   1.6886189104512717E-003   1115214420.7679005     
   1.3826794562778874E-003   2.5336818266152371E-003   1188315072.8113344     
   2.1444584889891596E-003   3.7210318960705195E-003   1258308107.1659973     
   3.0100378462632358E-003   5.2543613633583633E-003   1325193523.8318884     
   3.9782508789052810E-003   7.1299765542203741E-003   1388971322.8090088     
   1810024843.3927352        166224755.46068275        1346399770.3361957     
   1779221398.9986985        133849216.22462451        1364074940.4321766     
   1749646102.5419271        105567503.44611824        1382671821.1295564     
   1721298954.0224216        81379617.125163674        1402190412.4283345     
   1694179953.4401815        61285557.261760950        1422630714.3285134     
   1358701924.3310678        125023554.13295192        1353437293.5085669     
   1333228806.8932807        100030739.46392655        1372366658.8569973     
   1308676800.4086144        78108294.638636231        1392770859.4395194     
   1285045904.8770688        59256219.657081902        1414649895.2561367     
   1262336120.2986443        43474514.519263029        1438003766.3068449     
   906590144.07905209        83585694.448115170        1362878393.3114920     
   888027709.69092500        66449711.174145669        1382703744.0975373     
   870079349.27177382        51360641.130095005        1404557054.7503684     
   852745062.82159865        38318484.315965772        1428438325.2699862     
   836024850.34039915        27323240.731754512        1454347555.6563900     
   453689502.63668913        41911176.406175390        1374723069.7449725     
   443618107.39163131        33106131.355282903        1395086196.1537969     
   433853749.13140547        25324542.920496836        1418030407.0621014     
   424396427.85601014        18566411.101812512        1443555702.4698853     
   415246143.56544644        12831735.899233654        1471662082.3771486     
   3.9782508789052810E-003   7.1299765542203741E-003   1388971322.8090088     
  -4.5992056317236164E-003   7.3418034472429493E-003   1409514015.0257771     
  -1.2491816189511281E-002   9.8362767107220417E-003   1433190916.3747180     
  -1.9695443193024076E-002   1.4627361821784035E-002   1460002026.8558326     
  -2.6214836162636059E-002   2.1699400518196320E-002   1489947346.4691200     
   1694179953.4401815        61285557.261760950        1422630714.3285134     
   1645098483.3796473        39261767.404060006        1416273128.1320672     
   1597860740.6670294        23383735.372746110        1415229306.1236777     
   1552466725.3023291        13651461.167821825        1419499248.3033483     
   1508916437.2855444        10064944.789288282        1429082954.6710758     
   1262336120.2986443        43474514.519263029        1438003766.3068449     
   1228160075.6764262        27747189.501887202        1435157292.1333807     
   1195366826.5627897        16629182.846448004        1437009735.2997181     
   1163956372.9577377        10120494.552955329        1443561095.8058589     
   1133928714.8612633        8221124.6213920116        1454811373.6518013     
   836024850.34039915        27323240.731754512        1454347555.6563900     
   814997525.87576902        17365368.970485181        1454474439.6933494     
   794892065.08038592        10480376.106705755        1458685394.2218575     
   775708467.95424891        6668262.1404121220        1466980419.2419119     
   757446734.49735820        5929027.0716067851        1479359514.7535143     
   415246143.56544644        12831735.899233654        1471662082.3771486     
   405610833.97767383        8116305.8098500669        1474224570.8119750     
   396436456.21981382        4937315.1535071135        1480256282.8900936     
   387723010.29186523        3294763.9302016795        1489757218.6115048     
   379470496.19382805        3188652.1399366111        1502727377.9762077     
  -2.6214836162636059E-002   2.1699400518196320E-002   1489947346.4691200     
  -1.7857830598881734E-002   1.9985295469819694E-002   1494407685.4892561     
  -1.8922340800480601E-002  -1.3133862129734240E-002   1501722401.3044281     
  -2.9412810328336508E-002  -7.7672884150144977E-002   1511891493.9146385     
  -4.9327025980300435E-002 -0.17362439325091578        1524914963.3198843     
   1508916437.2855444        10064944.789288282        1429082954.6710758     
   1461703310.0318117        8211186.1193704009        1424064875.9693081     
   1414513450.6915100        6434987.1608896255        1423040458.4312127     
   1367346859.2646327        4736347.9138240814        1426009702.0567954     
   1320203535.7511880        3115268.3781995177        1432972606.8460541     
   1133928714.8612633        8221124.6213920116        1454811373.6518013     
   1097463321.9813476        6514141.3623043895        1449417204.5352156     
   1061015380.0373622        4865327.8896546364        1448262990.9861608     
   1024584889.0293047        3274684.2034286857        1451348733.0046339     
   988171848.95717525        1742210.3036334515        1458674430.5906391     
   757446734.49735820        5929027.0716067851        1479359514.7535143     
   732432774.28798318        4579928.7123681903        1473582468.7483630     
   707430448.03703868        3269610.2145652175        1472291672.7145963     
   682439755.74452484        1998071.5781978667        1475487126.6522112     
   657460697.41043997        765312.80326059461        1483168830.5612106     
   379470496.19382805        3188652.1399366111        1502727377.9762077     
   366611666.95171756        2408548.1695583612        1496560668.6087434     
   353758654.69053847        1647834.1356186122        1495126503.6165152     
   340911459.41029310        906510.03812466562        1498424882.9995258     
   328070081.11097860        184575.87706653774        1506455806.7577715     
  -4.9327025980300435E-002 -0.17362439325091578        1524914963.3198843     
  -2.7445994195300742E-002 -0.26611501463974080        1518351804.1163585     
  -2.1339157547211468E-003 -0.34716881384329945        1516767483.6919227     
   2.6612297530483497E-002 -0.41677549689810800        1520162002.0465782     
   5.8788322195650000E-002 -0.47494947535304377        1528535359.1803219     
   1320203535.7511880        3115268.3781995177        1432972606.8460541     
   1269952771.0131328        1287675.0094037056        1424979596.1647651     
   1220157234.0984976        977507.71867221594        1422074205.1650212     
   1170816925.0072792        2184766.5059989691        1424256433.8468225     
   1121931843.7394814        4909451.3713924885        1431526282.2101707     
   988171848.95717525        1742210.3036334515        1458674430.5906391     
   951144920.58393049        569858.82440632582        1451531185.3803189     
   914459413.08413482        535576.92334240675        1449321292.6407144     
   878115326.45778966        1639364.6004467607        1452044752.3718283     
   842112660.70489490        3881221.8557187915        1459701564.5736568     
   657460697.41043997        765312.80326059461        1483168830.5612106     
   633216841.94248712        115974.17573916912        1476742576.0469000     
   609200600.39801502        225348.62648594379        1475095406.7924755     
   585411972.77702546        1093436.1555088758        1478227322.7979343     
   561850959.07952046        2720236.7628121376        1486138324.0632787     
   328070081.11097860        184575.87706653774        1506455806.7577715     
   316168535.08880186       -73978.936603486538        1500613768.1645041     
   304380796.04013950        46822.828104197979        1499396547.6202955     
   292706863.96499252        546981.17119695246        1502804145.1251426     
   281146738.86336076        1426496.0926748812        1510836560.6790390     
   5.8788322195650000E-002 -0.47494947535304377        1528535359.1803219     
   2.2876069170819996E-002 -0.51261497336296324        1523144761.7331400     
   1.0505378618301642E-002 -0.47180929035456770        1522224715.1241829     
   2.1683685067277678E-002 -0.35250625678513375        1525775219.3534491     
   5.6409181355269872E-002 -0.15471328430836973        1533796274.4209406     
   1121931843.7394814        4909451.3713924885        1431526282.2101707     
   1073477904.0564820        8241601.7374026179        1426756722.3143852     
   1024883982.5007423        11107145.860947073        1426388852.0284383     
   976150079.07224643        13506083.741969287        1430422671.3523216     
   927276193.77101278        15438415.380531967        1438858180.2860456     
   842112660.70489490        3881221.8557187915        1459701564.5736568     
   805014785.72013462        6153108.6237162948        1454722590.7003107     
   767811924.33376408        8075040.7196764946        1454322037.8153217     
   730504076.54577613        9647018.1435776055        1458499905.9186802     
   693091242.35617840        10869040.895450771        1467256195.0103965     
   561850959.07952046        2720236.7628121376        1486138324.0632787     
   536614095.58876568        4083343.9715243280        1480990764.2620273     
   511307241.16753173        5213148.0786399841        1480598356.8276508     
   485930395.81581378        6109649.0841417909        1484961101.7601423     
   460483559.53362185        6772846.9880646169        1494078999.0595038     
   281146738.86336076        1426496.0926748812        1510836560.6790390     
   268275833.66237527        2032307.7808321416        1505561242.9995406     
   255369933.00203934        2521467.9378186315        1505217809.0654323     
   242429036.88235927        2893976.5636598915        1509806258.8767118     
   229453145.30333313        3149833.6583463252        1519326592.4333787     
   5.6409181355269872E-002 -0.15471328430836973        1533796274.4209406     
  -5.9042285712532991E-002   5.1615191058958010E-002   1528434026.9128487     
 -0.16270872012362353       0.29722641472593642        1528180394.5286639     
 -0.25459009900252738       0.58212185072292755        1533035377.2683821     
 -0.33467807280108536       0.90632794309834774        1542998975.1320095     
   927276193.77101278        15438415.380531967        1438858180.2860456     
   873481286.18479896        16525483.670532763        1433665819.6625791     
   820242433.00119019        19466066.635885358        1433506841.5171225     
   767559634.22019136        24260164.276600480        1438381245.8496606     
   715432889.84179378        30907776.592659086        1448289032.6602123     
   693091242.35617840        10869040.895450771        1467256195.0103965     
   652379570.55137241        11574694.873014569        1463226157.8925540     
   612084939.55054939        13670484.863853633        1464314784.5083544     
   572207349.35370588        17156410.867965162        1470522074.8577938     
   532746799.96084714        22032472.885351300        1481848028.9408746     
   460483559.53362185        6772846.9880646169        1494078999.0595038     
   433098784.24061120        7170184.8722958863        1491049102.9155583     
   405992036.15295923        8494280.1077234149        1493223151.7608931     
   379163315.27067029        10745132.694359720        1500601145.5955024     
   352612621.59373671        13922742.632187709        1513183084.4193962     
   229453145.30333313        3149833.6583463252        1519326592.4333787     
   215638927.25251162        3311953.6683691144        1517134654.7316017     
   201963722.80842948        3937452.3675214723        1520231943.2747424     
   188427531.97108412        5026329.7557950020        1528618458.0627961     
   175030354.74047112        6578585.8331809342        1542294199.0957720     
 -0.33467807280108536       0.90632794309834774        1542998975.1320095     
 -0.41291795989765634        1.2612566211214424        1541482813.3406763     
 -0.48304858281831686        1.6432175675096861        1545341159.0499022     
 -0.54505571301798483        2.0522564760232092        1554574012.2596755     
 -0.59895330453604922        2.4883264862526868        1569181372.9700017     
   3.5511314584872472E-003   1.0653394375461742E-003   656346409.38881660     
   2.8139464201993982E-003   1.1201090421486903E-003   770826110.62655294     
   2.0969575663799399E-003   1.2422426297327442E-003   885464012.93564582     
   1.4001863427861314E-003   1.4317466340255133E-003   1000260116.3160948     
   7.2362560083221979E-004   1.6886189104512717E-003   1115214420.7679005     
  -448327794.63748229       -134498338.39124468        657823333.65143323     
  -447569024.11185217       -125477668.60189739        773995338.92404711     
  -446076386.02602631       -114010773.61189702        888511119.73267353     
  -443849880.38000447       -100097653.42124352        1001370676.0773122     
  -440889507.17378658       -83738308.029936641        1112574007.9579635     
  -890451511.01444900       -267135453.30433473        662254106.43909442     
  -894118042.92057729       -250649335.61313248        780974594.56679070     
  -896316839.70633376       -229270767.52069145        896224432.69515538     
  -897047901.37171876       -202999749.02701160        1008003620.8241891     
  -896311227.91673195       -171836280.13209286        1116312158.9538906     
  -1326371149.1273491       -397911344.73820472        669638727.75180018     
  -1339647056.4233613       -375515001.03258544        791763877.55478382     
  -1350721361.0388260       -345779981.72514135        908603951.82309210     
  -1359594062.9737430       -308706286.81587261        1020158950.5567255     
  -1366265162.2281127       -264293916.30477911        1126428873.7556829     
  -1756086708.9761829       -526826012.69285488        679977197.58955050     
  -1784156064.6202040       -500074664.86025584        806363187.88802660     
  -1809289950.0235019       -463538416.22524643        925649677.11648381     
  -1831488365.1860769       -417217266.78782660        1037836665.2749213     
  -1850751310.1079288       -361111216.54799652        1142924152.3633397     
   7.2362560083221979E-004   1.6886189104512717E-003   1115214420.7679005     
   1.3826794562778874E-003   2.5336818266152371E-003   1188315072.8113344     
   2.1444584889891596E-003   3.7210318960705195E-003   1258308107.1659973     
   3.0100378462632358E-003   5.2543613633583633E-003   1325193523.8318884     
   3.9782508789052810E-003   7.1299765542203741E-003   1388971322.8090088     
  -440889507.17378658       -83738308.029936641        1112574007.9579635     
  -442811831.58855319       -69022610.290637910        1180761808.8762875     
  -445585938.96948057       -57146189.105207846        1247182586.1472583     
  -449211829.31656772       -48109044.473644421        1311836339.7708755     
  -453689502.62981546       -41911176.395948783        1374723069.7471402     
  -896311227.91673195       -171836280.13209286        1116312158.9538906     
  -896325608.05715871       -141255804.04741037        1178593361.9531307     
  -898043554.13000953       -116353881.07080781        1240448135.3464351     
  -901465066.13528359       -97130511.202284217        1301876479.1338046     
  -906590144.07298207       -83585694.441840857        1362878393.3152385     
  -1366265162.2281127       -264293916.30477911        1126428873.7556829     
  -1360541329.4044340       -216699581.26778397        1181809732.0418646     
  -1357372845.4794421       -177623075.89307961        1238104754.7635288     
  -1356759710.4531379       -147064400.18066645        1295313941.9206758     
  -1358701924.3255212       -125023554.13054442        1353437293.5133057     
  -1850751310.1079288       -361111216.54799652        1142924152.3633397     
  -1835458995.6303782       -295353941.95175785        1190410919.1424892     
  -1823573813.0177789       -240953773.57202166        1240152444.3985391     
  -1815095762.2701304       -197910711.40878844        1292148728.1314898     
  -1810024843.3874326       -166224755.46205872        1346399770.3413410     
   3.9782508789052810E-003   7.1299765542203741E-003   1388971322.8090088     
  -4.5992056317236164E-003   7.3418034472429493E-003   1409514015.0257771     
  -1.2491816189511281E-002   9.8362767107220417E-003   1433190916.3747180     
  -1.9695443193024076E-002   1.4627361821784035E-002   1460002026.8558326     
  -2.6214836162636059E-002   2.1699400518196320E-002   1489947346.4691200     
  -453689502.62981546       -41911176.395948783        1374723069.7471402     
  -443618107.40107232       -33106131.345870882        1395086196.1581450     
  -433853749.15576059       -25324542.907231018        1418030407.0695624     
  -424396427.89387971       -18566411.080026135        1443555702.4813924     
  -415246143.61543006       -12831735.864260346        1471662082.3936331     
  -906590144.07298207       -83585694.441840857        1362878393.3152385     
  -888027709.69766450       -66449711.169117332        1382703744.1056783     
  -870079349.28989685       -51360641.121559441        1404557054.7647676     
  -852745062.84967697       -38318484.299161911        1428438325.2925072     
  -836024850.37700677       -27323240.701930672        1454347555.6888976     
  -1358701924.3255212       -125023554.13054442        1353437293.5133057     
  -1333228806.8943772       -100030739.46240127        1372366658.8683743     
  -1308676800.4148993       -78108294.633147299        1392770859.4603326     
  -1285045904.8870883       -59256219.642783463        1414649895.2891781     
  -1262336120.3109443       -43474514.491306484        1438003766.3549135     
  -1810024843.3874326       -166224755.46205872        1346399770.3413410     
  -1779221398.9912088       -133849216.22572011        1364074940.4462352     
  -1749646102.5307686       -105567503.44199556        1382671821.1562572     
  -1721298954.0061133       -81379617.110886931        1402190412.4714072     
  -1694179953.4172432       -61285557.232394040        1422630714.3916833     
  -2.6214836162636059E-002   2.1699400518196320E-002   1489947346.4691200     
  -1.7857830598881734E-002   1.9985295469819694E-002   1494407685.4892561     
  -1.8922340800480601E-002  -1.3133862129734240E-002   1501722401.3044281     
  -2.9412810328336508E-002  -7.7672884150144977E-002   1511891493.9146385     
  -4.9327025980300435E-002 -0.17362439325091578        1524914963.3198843     
  -415246143.61543006       -12831735.864260346        1471662082.3936331     
  -405610834.01141346       -8116305.7713366896        1474224570.8125081     
  -396436456.25067806       -4937315.1560167819        1480256282.8727047     
  -387723010.33322114       -3294764.0182922781        1489757218.5742249     
  -379470496.25904632       -3188652.3581739962        1502727377.9170704     
  -836024850.37700677       -27323240.701930672        1454347555.6888976     
  -814997525.90222931       -17365368.931839854        1454474439.7003460     
  -794892065.10458732       -10480376.085535914        1458685394.1994023     
  -775708467.98408473       -6668262.1630282998        1466980419.1860676     
  -757446734.54071784       -5929027.1643076241        1479359514.6603417     
  -1262336120.3109443       -43474514.491306484        1438003766.3549135     
  -1228160075.6903028       -27747189.461519659        1435157292.1527693     
  -1195366826.5806551       -16629182.801708400        1437009735.2845173     
  -1163956372.9820023       -10120494.511879623        1443561095.7501607     
  -1133928714.8943415       -8221124.5920268297        1454811373.5497003     
  -1694179953.4172432       -61285557.232394040        1422630714.3916833     
  -1645098483.3756359       -39261767.360376060        1416273128.1697783     
  -1597860740.6788790       -23383735.304524302        1415229306.1280534     
  -1552466725.3269744       -13651461.064846039        1419499248.2665100     
  -1508916437.3199184       -10064944.641333699        1429082954.5851452     
  -4.9327025980300435E-002 -0.17362439325091578        1524914963.3198843     
  -2.7445994195300742E-002 -0.26611501463974080        1518351804.1163585     
  -2.1339157547211468E-003 -0.34716881384329945        1516767483.6919227     
   2.6612297530483497E-002 -0.41677549689810800        1520162002.0465782     
   5.8788322195650000E-002 -0.47494947535304377        1528535359.1803219     
  -379470496.25904632       -3188652.3581739962        1502727377.9170704     
  -366611666.96229202       -2408548.5127911866        1496560668.5475433     
  -353758654.64523309       -1647834.5997257084        1495126503.5477819     
  -340911459.30787051       -906510.61898036301        1498424882.9177854     
  -328070080.95020324       -184576.57055395842        1506455806.6575520     
  -757446734.54071784       -5929027.1643076241        1479359514.6603417     
  -732432774.28144968       -4579928.8747554719        1473582468.6444995     
  -707430447.98500657       -3269610.4612870216        1472291672.5890956     
  -682439755.65138626       -1998071.9238935411        1475487126.4941299     
  -657460697.28058946       -765313.26258021593        1483168830.3596020     
  -1133928714.8943415       -8221124.5920268297        1454811373.5497003     
  -1097463321.9849217       -6514141.3520191312        1449417204.4072263     
  -1061015380.0214536       -4865327.9318493009        1448262990.8158629     
  -1024584889.0039365       -3274684.3315195441        1451348732.7756135     
  -988171848.93237138       -1742210.5510250926        1458674430.2864742     
  -1508916437.3199184       -10064944.641333699        1429082954.5851452     
  -1461703310.0727048       -8211185.9445695877        1424064875.8357213     
  -1414513450.7545724       -6434987.0114105940        1423040458.2280853     
  -1367346859.3655193       -4736347.8418487906        1426009701.7622347     
  -1320203535.9055467       -3115268.4358879924        1432972606.4381700     
   5.8788322195650000E-002 -0.47494947535304377        1528535359.1803219     
   2.2876069170819996E-002 -0.51261497336296324        1523144761.7331400     
   1.0505378618301642E-002 -0.47180929035456770        1522224715.1241829     
   2.1683685067277678E-002 -0.35250625678513375        1525775219.3534491     
   5.6409181355269872E-002 -0.15471328430836973        1533796274.4209406     
  -328070080.95020324       -184576.57055395842        1506455806.6575520     
  -316168534.99880069        73978.153274953365        1500613768.0908387     
  -304380795.98157543       -46823.570154219866        1499396547.5773337     
  -292706863.89853787       -546981.74087604880        1502804145.1170444     
  -281146738.74968207       -1426496.3588693738        1510836560.7099652     
  -657460697.28058946       -765313.26258021593        1483168830.3596020     
  -633216841.87047422       -115974.73582085967        1476742575.8893392     
  -609200600.35226977       -225349.18209612370        1475095406.6872771     
  -585411972.72597599       -1093436.6014073491        1478227322.7534089     
  -561850958.99159598       -2720236.9937622547        1486138324.0877445     
  -988171848.93237138       -1742210.5510250926        1458674430.2864742     
  -951144920.59215331       -569859.17992323637        1451531185.1286464     
  -914459413.10157299       -535577.30761414766        1449321292.4540033     
  -878115326.46063495       -1639364.9341133237        1452044752.2625468     
  -842112660.66933393       -3881222.0594007373        1459701564.5542729     
  -1320203535.9055467       -3115268.4358879924        1432972606.4381700     
  -1269952771.1638336       -1287675.1790277362        1424979595.8087575     
  -1220157234.2294853       -977507.94671249390        1422074204.8775172     
  -1170816925.1025090       -2184766.7389731407        1424256433.6444516     
  -1121931843.7829030       -4909451.5558018684        1431526282.1095588     
   5.6409181355269872E-002 -0.15471328430836973        1533796274.4209406     
  -5.9042285712532991E-002   5.1615191058958010E-002   1528434026.9128487     
 -0.16270872012362353       0.29722641472593642        1528180394.5286639     
 -0.25459009900252738       0.58212185072292755        1533035377.2683821     
 -0.33467807280108536       0.90632794309834774        1542998975.1320095     
  -281146738.74968207       -1426496.3588693738        1510836560.7099652     
  -268275833.79264927       -2032307.7468798757        1505561243.0522316     
  -255369933.36021701       -2521467.5502239913        1505217809.1558127     
  -242429037.45238584       -2893975.7689060718        1509806259.0207083     
  -229453146.06914827       -3149832.4028980583        1519326592.6469152     
  -561850958.99159598       -2720236.9937622547        1486138324.0877445     
  -536614095.71234667       -4083344.0012036860        1480990764.3212523     
  -511307241.49408311       -5213147.8785946369        1480598356.9534848     
  -485930396.33679706       -6109648.6259118617        1484961101.9844360     
  -460483560.24049479       -6772846.2431753278        1494078999.4141130     
  -842112660.66933393       -3881222.0594007373        1459701564.5542729     
  -805014785.81813312       -6153108.7113533914        1454722590.7199132     
  -767811924.56429768       -8075040.6878583729        1454322037.9216840     
  -730504076.90782726       -9647017.9889134169        1458499906.1595802     
  -693091242.84872234       -10869040.614519358        1467256195.4336107     
  -1121931843.7829030       -4909451.5558018684        1431526282.1095588     
  -1073477904.1100084       -8241601.8773298264        1426756722.2482126     
  -1024883982.5708683       -11107145.978035569        1426388852.0604038     
  -976150079.16547251       -13506083.857891977        1430422671.5461311     
  -927276193.89383113       -15438415.516927779        1438858180.7053936     
 -0.33467807280108536       0.90632794309834774        1542998975.1320095     
 -0.41291795989765634        1.2612566211214424        1541482813.3406763     
 -0.48304858281831686        1.6432175675096861        1545341159.0499022     
 -0.54505571301798483        2.0522564760232092        1554574012.2596755     
 -0.59895330453604922        2.4883264862526868        1569181372.9700017     
  -229453146.06914827       -3149832.4028980583        1519326592.6469152     
  -215638928.21981752       -3311951.9697700739        1517134655.0069978     
  -201963724.00372797       -3937450.3141118810        1520231943.6389194     
  -188427533.42087325       -5026327.4359049127        1528618458.5426888     
  -175030356.47125065       -6578583.3351383582        1542294199.7182868     
  -460483560.24049479       -6772846.2431753278        1494078999.4141130     
  -433098785.11706674       -7170183.9279116690        1491049103.3440356     
  -405992037.26822466       -8494279.1946027577        1493223152.3170860     
  -379163316.69397008       -10745132.043248296        1500601146.3332601     
  -352612623.39429873       -13922742.473841757        1513183085.3925664     
  -693091242.84872234       -10869040.614519358        1467256195.4336107     
  -652379571.10465801       -11574694.613144219        1463226158.3517938     
  -612084940.27653337       -13670484.998239100        1464314785.0843971     
  -572207350.36434007       -17156411.769771188        1470522075.6314118     
  -532746801.36808681       -22032474.927763820        1481848029.9928360     
  -927276193.89383113       -15438415.516927779        1438858180.7053936     
  -873481286.18259704       -16525484.025487721        1433665820.0302682     
  -820242433.02864838       -19466067.724999011        1433506841.9408472     
  -767559634.43199205       -24260166.615479112        1438381246.4371231     
  -715432890.39261496       -30907780.696901232        1448289033.5191047     
  -1756086708.9761829       -526826012.69285488        679977197.58955050     
  -1784156064.6202040       -500074664.86025584        806363187.88802660     
  -1809289950.0235019       -463538416.22524643        925649677.11648381     
  -1831488365.1860769       -417217266.78782660        1037836665.2749213     
  -1850751310.1079288       -361111216.54799652        1142924152.3633397     
  -2201813578.0578246       -660544073.41734731        696377232.73469210     
  -2238457994.7416477       -613872793.26964891        813793201.85917664     
  -2273055523.2548213       -560378552.55312145        927115563.79650223     
  -2305606163.5973473       -500061351.26776612        1036344318.5466689     
  -2336109915.7692251       -432921189.41358244        1141479466.1096766     
  -2685767143.8691483       -805730143.16074443        721946549.96957242     
  -2722398353.3560290       -736562450.22692323        829355818.83831131     
  -2757871256.7423348       -663533736.95785522        935677374.40275168     
  -2792185854.0280685       -586644003.35354114        1040911216.6628938     
  -2825342145.2132258       -505893249.41397995        1145057345.6187370     
  -3207947406.4101543       -962384221.92304635        756685149.29419076     
  -3235977140.4633489       -868143635.73207891        853051038.82543063     
  -3263737150.4860439       -773003969.43944716        951335108.93523240     
  -3291227436.4782391       -676965223.04515076        1051537359.6235958     
  -3318447998.4399357       -580027396.54919028        1153657790.8905213     
  -3768354365.6808434       -1130506309.7042530        800593030.70854795     
  -3779194356.0636077       -1008616349.7851164        884878861.82053471     
  -3790653204.4859462       -888789249.99789739        974088767.39394379     
  -3802730910.9478607       -771025010.34259605        1068222747.4287753     
  -3815427475.4493504       -655323630.81921148        1167280801.9250293     
  -1850751310.1079288       -361111216.54799652        1142924152.3633397     
  -1835458995.6303782       -295353941.95175785        1190410919.1424892     
  -1823573813.0177789       -240953773.57202166        1240152444.3985391     
  -1815095762.2701304       -197910711.40878844        1292148728.1314898     
  -1810024843.3874326       -166224755.46205872        1346399770.3413410     
  -2336109915.7692251       -432921189.41358244        1141479466.1096766     
  -2312674831.7386971       -351815574.06513274        1182682682.8470287     
  -2292747864.9116473       -282403682.72827095        1224352885.2054136     
  -2276329015.2880735       -224685515.40299881        1266490073.1848309     
  -2263418282.8679771       -178661072.08931470        1309094246.7852814     
  -2825342145.2132258       -505893249.41397995        1145057345.6187370     
  -2798872214.0750604       -410971670.04692143        1179859196.0860124     
  -2776011385.4788966       -328080432.48653567        1213340259.3184521     
  -2756759659.4247341       -257219536.73282385        1245500535.3160565     
  -2741117035.9125738       -198388982.78578556        1276340024.0788257     
  -3318447998.4399357       -580027396.54919028        1153657790.8905213     
  -3294051142.6394668       -472822229.89712238        1181940458.8594396     
  -3273364374.7195253       -377984022.84681439        1207114566.7376544     
  -3256387694.6801124       -295512775.39826345        1229180114.5251663     
  -3243121102.5212269       -225408487.55147254        1248137102.2219744     
  -3815427475.4493504       -655323630.81921148        1167280801.9250293     
  -3798211617.4319167       -537367253.61573792        1188926471.1673105     
  -3784806832.6335349       -432114453.80910552        1205675807.4630210     
  -3775213121.0542083       -339565231.39932024        1217528810.8121598     
  -3769430482.6939335       -259719586.38637757        1224485481.2147279     
  -1810024843.3874326       -166224755.46205872        1346399770.3413410     
  -1779221398.9912088       -133849216.22572011        1364074940.4462352     
  -1749646102.5307686       -105567503.44199556        1382671821.1562572     
  -1721298954.0061133       -81379617.110886931        1402190412.4714072     
  -1694179953.4172432       -61285557.232394040        1422630714.3916833     
  -2263418282.8679771       -178661072.08931470        1309094246.7852814     
  -2223565002.5960011       -134231581.07268238        1317038495.4139292     
  -2186584517.1991978       -99378072.973284364        1328240764.4694979     
  -2152476826.6775637       -74100547.791120887        1342701053.9519866     
  -2121241931.0311012       -58399005.526195526        1360419363.8613970     
  -2741117035.9125738       -198388982.78578556        1276340024.0788257     
  -2685538748.8454399       -139902988.71303606        1272634596.4686105     
  -2634477903.5928621       -96475134.022140861        1274523499.1071093     
  -2587934500.1548409       -68105418.713103771        1282006731.9943206     
  -2545908538.5313768       -54793842.785918951        1295084295.1302474     
  -3243121102.5212269       -225408487.55147254        1248137102.2219744     
  -3165142637.7395234       -150863439.14678299        1230863243.6102788     
  -3093326261.7117624       -96858686.588569403        1221520025.0690897     
  -3027671974.4379458       -63394229.876831293        1220107446.5984075     
  -2968179775.9180694       -50470069.011569858        1226625508.1982324     
  -3769430482.6939335       -259719586.38637757        1224485481.2147279     
  -3662376669.2782531       -167112932.37392664        1191724436.8389342     
  -3563129591.5559001       -100528730.67256916        1169230342.3554406     
  -3471689249.5268803       -59966981.282314301        1157003197.7642474     
  -3388055643.1911836       -45427684.203146458        1155043003.0653548     
  -1694179953.4172432       -61285557.232394040        1422630714.3916833     
  -1645098483.3756359       -39261767.360376060        1416273128.1697783     
  -1597860740.6788790       -23383735.304524302        1415229306.1280534     
  -1552466725.3269744       -13651461.064846039        1419499248.2665100     
  -1508916437.3199184       -10064944.641333699        1429082954.5851452     
  -2121241931.0311012       -58399005.526195526        1360419363.8613970     
  -2059866165.1192460       -39974452.181686640        1352900073.4796226     
  -1999784142.7937841       -25862377.458486438        1350354762.6318986     
  -1940995864.0547166       -16062781.356602073        1352783431.3182261     
  -1883501328.9020426       -10575663.876028419        1360186079.5386040     
  -2545908538.5313768       -54793842.785918951        1295084295.1302474     
  -2473209290.0239301       -40259769.951320052        1287044948.3068030     
  -2401253801.3444185       -28204896.543170691        1283639796.3712811     
  -2330042072.4928422       -18629222.561473966        1284868839.3236806     
  -2259574103.4692006       -11532748.006223202        1290732077.1640022     
  -2968179775.9180694       -50470069.011569858        1226625508.1982324     
  -2885127858.0896873       -40117720.669275999        1218707752.6513219     
  -2802269716.3307810       -30411292.558572650        1215084407.3462019     
  -2719605350.6413517       -21350784.679460526        1215755472.2828753     
  -2637134761.0213985       -12936197.031933188        1220720947.4613402     
  -3388055643.1911836       -45427684.203146458        1155043003.0653548     
  -3295621869.3165164       -39548304.335552335        1147888486.5131745     
  -3202831887.7528710       -32481565.504690409        1144688595.5566592     
  -3109685698.5002446       -24227467.710560441        1145443330.1958060     
  -3016183301.5586343       -14786010.953158021        1150152690.4306173     
  -1508916437.3199184       -10064944.641333699        1429082954.5851452     
  -1461703310.0727048       -8211185.9445695877        1424064875.8357213     
  -1414513450.7545724       -6434987.0114105940        1423040458.2280853     
  -1367346859.3655193       -4736347.8418487906        1426009701.7622347     
  -1320203535.9055467       -3115268.4358879924        1432972606.4381700     
  -1883501328.9020426       -10575663.876028419        1360186079.5386040     
  -1825041498.6763930       -7246749.5546951294        1354608677.7911620     
  -1766901853.4453287       -4985118.5486471653        1353348504.3565996     
  -1709082393.2088456       -3790770.8578692675        1356405559.2349167     
  -1651583117.9669445       -3663706.4823652506        1363779842.4261134     
  -2259574103.4692006       -11532748.006223202        1290732077.1640022     
  -2188943092.6334243       -6451334.7708295584        1284248949.1754565     
  -2118929183.8577313       -3426928.4023822546        1282406616.6708827     
  -2049532377.1421194       -2459528.9008740187        1285205079.6502838     
  -1980752672.4865911       -3549136.2663121223        1292644338.1136575     
  -2637134761.0213985       -12936197.031933188        1220720947.4613402     
  -2553408091.9437933       -5824941.5929569006        1212985689.9886043     
  -2470595441.9917731       -1760416.5725966692        1210214795.1709359     
  -2388696811.1653409       -742621.97086119652        1212408263.0083332     
  -2307712199.4644909       -2771557.7877390385        1219566093.5007985     
  -3016183301.5586343       -14786010.953158021        1150152690.4306173     
  -2918436496.6075063       -5367570.0210970640        1140818900.2306066     
  -2821900627.8474660        14416.940672636032        1136773039.8567569     
  -2726575695.2785110        1359949.9321624041        1138015109.3090687     
  -2632461698.9006386       -1330971.0466370583        1144545108.5875409     
  -1320203535.9055467       -3115268.4358879924        1432972606.4381700     
  -1269952771.1638336       -1287675.1790277362        1424979595.8087575     
  -1220157234.2294853       -977507.94671249390        1422074204.8775172     
  -1170816925.1025090       -2184766.7389731407        1424256433.6444516     
  -1121931843.7829030       -4909451.5558018684        1431526282.1095588     
  -1651583117.9669445       -3663706.4823652506        1363779842.4261134     
  -1588740624.5195060       -2754589.8980923295        1356027161.5542481     
  -1526119207.5629110       -2582394.9499731660        1353084762.2976737     
  -1463718867.0971594       -3147121.6379927993        1354952644.6563897     
  -1401539603.1222541       -4448769.9621660709        1361630808.6303976     
  -1980752672.4865911       -3549136.2663121223        1292644338.1136575     
  -1906110844.8559494       -3796214.7113958597        1285405163.5352855     
  -1831455942.3996267       -3999710.4042103291        1282698932.4893208     
  -1756787965.1176233       -4159623.3447529078        1284525644.9757640     
  -1682106913.0099373       -4275953.5330299139        1290885300.9946196     
  -2307712199.4644909       -2771557.7877390385        1219566093.5007985     
  -2222063432.1731668       -4412549.6189260483        1213113601.7518654     
  -2136167438.7396364       -5229454.3094375134        1210916715.4524579     
  -2050024219.1638994       -5222271.8592618704        1212975434.6025763     
  -1963633773.4459598       -4391002.2683970928        1219289759.2022200     
  -2632461698.9006386       -1330971.0466370583        1144545108.5875409     
  -2536598386.4711518       -4603594.6206898689        1139152476.2039909     
  -2440253696.5829401       -6271626.6656596661        1137738111.1870832     
  -2343427629.2359905       -6335067.1815087795        1140302013.5368209     
  -2246120184.4303155       -4793916.1682642698        1146844183.2532010     
  -1121931843.7829030       -4909451.5558018684        1431526282.1095588     
  -1073477904.1100084       -8241601.8773298264        1426756722.2482126     
  -1024883982.5708683       -11107145.978035569        1426388852.0604038     
  -976150079.16547251       -13506083.857891977        1430422671.5461311     
  -927276193.89383113       -15438415.516927779        1438858180.7053936     
  -1401539603.1222541       -4448769.9621660709        1361630808.6303976     
  -1341277920.6399426       -6835575.8103018999        1356570586.2367282     
  -1281131348.3104196       -9606082.1677343845        1355973396.8367548     
  -1221099886.1336994       -12760289.034502983        1359839240.4304719     
  -1161183534.1097703       -16298196.410580218        1368168117.0178850     
  -1682106913.0099373       -4275953.5330299139        1290885300.9946196     
  -1609862221.0891862       -5664834.9190567732        1285236808.7130744     
  -1537987731.3402758       -8287723.5445512533        1284112692.7453830     
  -1466483443.7631989       -12144619.409492373        1287512953.0915408     
  -1395349358.3579626       -17235522.513905227        1295437589.7515483     
  -1963633773.4459598       -4391002.2683970928        1219289759.2022200     
  -1879230805.4577489       -4729379.2036123276        1212755389.6772511     
  -1795453131.6604228       -7152070.1084387302        1210806739.7862892     
  -1712300752.0539756       -11659074.982866645        1213443809.5293341     
  -1629773666.6384141       -18250393.826909661        1220666598.9063871     
  -2246120184.4303155       -4793916.1682642698        1146844183.2532010     
  -2149383673.7456245       -4029208.6639652252        1139126329.1292560     
  -2053527549.2708635       -6199121.8594175577        1136055537.9594736     
  -1958551811.0060277       -11303655.754626036        1137631809.7438571     
  -1864456458.9511168       -19342810.349586248        1143855144.4824057     
  -927276193.89383113       -15438415.516927779        1438858180.7053936     
  -873481286.18259704       -16525484.025487721        1433665820.0302682     
  -820242433.02864838       -19466067.724999011        1433506841.9408472     
  -767559634.43199205       -24260166.615479112        1438381246.4371231     
  -715432890.39261496       -30907780.696901232        1448289033.5191047     
  -1161183534.1097703       -16298196.410580218        1368168117.0178850     
  -1094270985.8636274       -18289390.980462313        1362531891.5044923     
  -1027607379.8122655       -21110392.866277039        1362161420.6002491     
  -961192715.95567381       -24761202.067990601        1367056704.3051519     
  -895026994.29385519       -29241818.585621893        1377217742.6192095     
  -1395349358.3579626       -17235522.513905227        1295437589.7515483     
  -1314655249.5099204       -19931667.125018954        1289715797.1561522     
  -1233902970.4941440       -22433911.177019238        1289492131.1933508     
  -1153092521.3106275       -24742254.669885039        1294766591.8631523     
  -1072223901.9593759       -26856697.603633344        1305539179.1655431     
  -1629773666.6384141       -18250393.826909661        1220666598.9063871     
  -1534634077.1214736       -21452312.459152102        1215217536.9852543     
  -1439129205.0742881       -23436622.657241464        1215498973.7201641     
  -1343259050.4968507       -24203324.421156347        1221510909.1111200     
  -1247023613.3891673       -23752417.750919402        1233253343.1581199     
  -1864456458.9511168       -19342810.349586248        1143855144.4824057     
  -1754207468.6982868       -22851326.982853174        1139037110.9917936     
  -1643286083.5527077       -24118527.306957185        1140181948.1806726     
  -1531692303.5143578       -23144411.321825504        1147289656.0490508     
  -1419426128.5832479       -19928979.027498841        1160360234.5969167     
  -3768354365.6808434       -1130506309.7042530        800593030.70854795     
  -3779194356.0636077       -1008616349.7851164        884878861.82053471     
  -3790653204.4859462       -888789249.99789739        974088767.39394379     
  -3802730910.9478607       -771025010.34259605        1068222747.4287753     
  -3815427475.4493504       -655323630.81921148        1167280801.9250293     
  -4339838015.6700039       -1301951404.7010012        858811621.30011773     
  -4335297129.2728310       -1125666491.8986111        942410701.28621829     
  -4331899187.3584757       -953191394.03893948        1020364469.0531732     
  -4329644189.9269342       -784526111.12198448        1092672924.6009829     
  -4328532136.9782076       -619670643.14774692        1159336067.9296463     
  -4895248350.3664236       -1468574505.1099269        936482348.15637434     
  -4905524834.8480806       -1246954113.7219141        1018783242.8328090     
  -4917468350.2557955       -1030890492.0874182        1084869438.6095297     
  -4931078896.5895634       -820383640.20644021        1134740935.4865372     
  -4946356473.8493881       -615433558.07897913        1168397733.4638307     
  -5434585369.7701044       -1630375610.9310312        1033605211.2773184     
  -5489877472.7893572       -1372479215.2550244        1113996486.4603066     
  -5547360693.1779060       -1121886544.1433353        1167603676.0630136     
  -5607035030.9357491       -878597597.59596241        1194426780.0854387     
  -5668900486.0628901       -642612375.61290741        1194465798.5275824     
  -5957849073.8810434       -1787354722.1643131        1150180210.6629488     
  -6088355043.0966597       -1502241796.4979429        1228050432.1687114     
  -6221576216.1248093       -1226179550.2066894        1268567181.4136245     
  -6357512592.9654951       -959167983.29055309        1271730458.3976877     
  -6496164173.6187162       -701207095.74953389        1237540263.1209016     
  -3815427475.4493504       -655323630.81921148        1167280801.9250293     
  -3798211617.4319167       -537367253.61573792        1188926471.1673105     
  -3784806832.6335349       -432114453.80910552        1205675807.4630210     
  -3775213121.0542083       -339565231.39932024        1217528810.8121598     
  -3769430482.6939335       -259719586.38637757        1224485481.2147279     
  -4328532136.9782076       -619670643.14774692        1159336067.9296463     
  -4298432523.7145691       -463910290.46316683        1141420228.8644991     
  -4278920548.4191923       -343442064.33945501        1129587309.3627479     
  -4269996211.0920744       -258265964.77660918        1123837309.4243925     
  -4271659511.7332172       -208381991.77463102        1124170229.0494330     
  -4946356473.8493881       -615433558.07897913        1168397733.4638307     
  -4872003812.4539261       -412458442.04760766        1103014393.8838463     
  -4815015353.7759304       -267364001.74112773        1054693226.3772252     
  -4775391097.8154030       -180150237.15953684        1023434230.9439672     
  -4753131044.5723438       -150817148.30283833        1009237407.5840720     
  -5668900486.0628901       -642612375.61290741        1194465798.5275824     
  -5518925483.6499825       -383011708.36905861        1073708966.2253526     
  -5393091248.7037506       -203880266.01412439        980993558.50645423     
  -5291397781.2241917       -105218048.54810262        916319575.37088537     
  -5213845081.2113075       -87025055.970998049        879687016.81864750     
  -6496164173.6187162       -701207095.74953389        1237540263.1209016     
  -6239197537.3027420       -375570089.42751956        1053503945.8890189     
  -6013148233.2026520       -152990857.15844727        908488305.75043273     
  -5818016261.3184395       -33469398.942306042        802493342.70514596     
  -5653801621.6501112       -17005714.779106379        735519056.75315547     
  -3769430482.6939335       -259719586.38637757        1224485481.2147279     
  -3662376669.2782531       -167112932.37392664        1191724436.8389342     
  -3563129591.5559001       -100528730.67256916        1169230342.3554406     
  -3471689249.5268803       -59966981.282314301        1157003197.7642474     
  -3388055643.1911836       -45427684.203146458        1155043003.0653548     
  -4271659511.7332172       -208381991.77463102        1124170229.0494330     
  -4149110137.7661943       -144069624.39791322        1090471258.5737031     
  -4031029438.8030281       -94652840.367383957        1064954450.9303362     
  -3917417414.8437171       -60131639.683039904        1047619806.1193336     
  -3808274065.8882604       -40506022.344879627        1038467324.1406949     
  -4753131044.5723438       -150817148.30283833        1009237407.5840720     
  -4621042644.5109377       -116586027.89894295        978494915.14612377     
  -4490084858.7639160       -86123621.876322746        953849798.48060346     
  -4360257687.3312769       -59429930.234983683        935302057.58750975     
  -4231561130.2130203       -36504952.974915504        922851692.46684313     
  -5213845081.2113075       -87025055.970998049        879687016.81864750     
  -5078174189.5124807       -84662142.877011061        855795406.55619907     
  -4940295851.4385672       -74941075.199393749        835916385.00624049     
  -4800210066.9895630       -57861852.938143492        820049952.16877460     
  -4657916836.1654663       -33424476.093260765        808196108.04379892     
  -5653801621.6501112       -17005714.779106379        735519056.75315547     
  -5520504772.7708273       -48297969.332120657        722372732.80392516     
  -5381662416.8269787       -61105200.336590052        711154210.50725043     
  -5237274553.8185720       -55427407.792525291        701863489.86312807     
  -5087341183.7455950       -31264591.699905872        694500570.87156308     
  -3388055643.1911836       -45427684.203146458        1155043003.0653548     
  -3295621869.3165164       -39548304.335552335        1147888486.5131745     
  -3202831887.7528710       -32481565.504690409        1144688595.5566592     
  -3109685698.5002446       -24227467.710560441        1145443330.1958060     
  -3016183301.5586343       -14786010.953158021        1150152690.4306173     
  -3808274065.8882604       -40506022.344879627        1038467324.1406949     
  -3703573333.0585041       -29948700.208276033        1030301774.6006019     
  -3599504261.7285266       -21496916.404281855        1026538196.5989915     
  -3496066851.8983312       -15150670.932885885        1027176590.1358632     
  -3393261103.5679140       -10909963.794091702        1032216955.2112167     
  -4231561130.2130203       -36504952.974915504        922851692.46684313     
  -4113315307.1629763       -20886249.189750910        912522595.88528168     
  -3996689014.8014746       -10665981.033061266        907042816.78502071     
  -3881682253.1285138       -5844148.5048418045        906412355.16606259     
  -3768295022.1440954       -6420751.6051008701        910631211.02840245     
  -4657916836.1654663       -33424476.093260765        808196108.04379892     
  -4524847791.6299400       -12360951.279973507        794550950.36721528     
  -4394386146.9717140        11240.608968257904        786202456.11474931     
  -4266531902.1907930        3692099.5735681057        783150625.28640378     
  -4141285057.2871728       -1318374.3861763477        785395457.88217759     
  -5087341183.7455950       -31264591.699905872        694500570.87156308     
  -4938170786.4593868       -4372806.4789357185        676386838.04640079     
  -4792595658.2392426        10534748.521818399        664017114.58817387     
  -4650615799.0851641        13458073.302357435        657391400.49688935     
  -4512231208.9971514        4397167.8626761436        656509695.77253973     
  -3016183301.5586343       -14786010.953158021        1150152690.4306173     
  -2918436496.6075063       -5367570.0210970640        1140818900.2306066     
  -2821900627.8474660        14416.940672636032        1136773039.8567569     
  -2726575695.2785110        1359949.9321624041        1138015109.3090687     
  -2632461698.9006386       -1330971.0466370583        1144545108.5875409     
  -3393261103.5679140       -10909963.794091702        1032216955.2112167     
  -3283637279.5157075       -6248556.2310247421        1022464763.6960027     
  -3174453039.4311433       -3052428.5600986481        1017658587.8252259     
  -3065708383.3142204       -1321580.7813173532        1017798427.5988855     
  -2957403311.1649404       -1056012.8946787119        1022884283.0169821     
  -3768295022.1440954       -6420751.6051008701        910631211.02840245     
  -3647771076.6528788       -6809446.7096438408        901360529.12533689     
  -3526915362.9058604       -6092247.6281864643        896693948.68498349     
  -3405727880.9030414       -4269154.3607323170        896631469.70734048     
  -3284208630.6444278       -1340166.9072828293        901173092.19241190     
  -4141285057.2871728       -1318374.3861763477        785395457.88217759     
  -4010837888.0190167       -7050241.4569528103        777506196.51860976     
  -3879287598.2716150       -9105040.2635860443        773879122.43602991     
  -3746634188.0449748       -7482770.8060834408        774514235.63443542     
  -3612877657.3390884       -2183433.0844376087        779411536.11382973     
  -4512231208.9971514        4397167.8626761436        656509695.77253973     
  -4372837713.6141262       -6970940.4729597569        650901765.87582099     
  -4231569745.5284119       -12090806.466299295        649214109.07836211     
  -4088427304.7400155       -10962430.117364168        651446725.38016760     
  -3943410391.2489324       -3585811.4261436462        657599614.78123724     
  -2632461698.9006386       -1330971.0466370583        1144545108.5875409     
  -2536598386.4711518       -4603594.6206898689        1139152476.2039909     
  -2440253696.5829401       -6271626.6656596661        1137738111.1870832     
  -2343427629.2359905       -6335067.1815087795        1140302013.5368209     
  -2246120184.4303155       -4793916.1682642698        1146844183.2532010     
  -2957403311.1649404       -1056012.8946787119        1022884283.0169821     
  -2850316865.0834656       -1838869.4579114914        1017164992.8245066     
  -2743241056.9878793       -2657185.9741038084        1015526053.3798035     
  -2636175886.8781819       -3510962.4432655573        1017967464.6828747     
  -2529121354.7543764       -4400198.8653879166        1024489226.7337162     
  -3284208630.6444278       -1340166.9072828293        901173092.19241190     
  -3165607384.1077318        454243.58129119873        894553126.17228889     
  -3047508791.0015516        573142.63481879234        892115594.28106976     
  -2929912851.3258729       -983469.74666571617        893860496.51875138     
  -2812819565.0807080       -4215593.5631877184        899787832.88533330     
  -3612877657.3390884       -2183433.0844376087        779411536.11382973     
  -3482469943.5439558        2275744.4968965054        771316876.24733841     
  -3353056898.6239495        3419359.1611320972        767506733.89087760     
  -3224638522.5790691        1247410.9082760811        767981109.04444671     
  -3097214815.4093246       -4240100.2616788149        772740001.70804548     
  -3943410391.2489324       -3585811.4261436462        657599614.78123724     
  -3800904543.3921256        3625633.2889299393        647456243.04965270     
  -3659885379.8550744        5881463.6048247814        641699472.20922792     
  -3520352900.6377659        3181679.5215742588        640329302.25996101     
  -3382307105.7402062       -4473718.9608428478        643345733.20185769     
  -2246120184.4303155       -4793916.1682642698        1146844183.2532010     
  -2149383673.7456245       -4029208.6639652252        1139126329.1292560     
  -2053527549.2708635       -6199121.8594175577        1136055537.9594736     
  -1958551811.0060277       -11303655.754626036        1137631809.7438571     
  -1864456458.9511168       -19342810.349586248        1143855144.4824057     
  -2529121354.7543764       -4400198.8653879166        1024489226.7337162     
  -2421480511.4939404       -5667045.7764042616        1015588490.6281440     
  -2314193977.8277578       -8114924.6682642698        1010897459.9532852     
  -2207261753.7558365       -11743835.540996075        1010416134.7091399     
  -2100683839.2781689       -16553778.394564748        1014144514.8957074     
  -2812819565.0807080       -4215593.5631877184        899787832.88533330     
  -2695523982.1686764       -7888872.7667742968        890317970.84974861     
  -2578056632.2352233       -10989595.232298970        884620456.72142482     
  -2460417515.2803640       -13517760.959785223        882695290.50036657     
  -2342606631.3040805       -15473369.949202776        884542472.18656790     
  -3097214815.4093246       -4240100.2616788149        772740001.70804548     
  -2971514085.7698340       -10694689.635070205        763314769.79406726     
  -2845115512.4932561       -14823133.551491976        757224528.26389718     
  -2718019095.5795965       -16625432.010980964        754469277.11754334     
  -2590224835.0288463       -16101585.013499498        755049016.35499489     
  -3382307105.7402062       -4473718.9608428478        643345733.20185769     
  -3249450822.2974091       -14084496.381286144        634578887.46110046     
  -3115370618.6018538       -19615539.625863791        628709674.58069873     
  -2980066494.6535444       -21066848.694591761        625738094.56066251     
  -2843538450.4524751       -18438423.587452054        625664147.40098679     
  -1864456458.9511168       -19342810.349586248        1143855144.4824057     
  -1754207468.6982868       -22851326.982853174        1139037110.9917936     
  -1643286083.5527077       -24118527.306957185        1140181948.1806726     
  -1531692303.5143578       -23144411.321825504        1147289656.0490508     
  -1419426128.5832479       -19928979.027498841        1160360234.5969167     
  -2100683839.2781689       -16553778.394564748        1014144514.8957074     
  -1977287907.4524770       -16706270.284110665        1006489196.7776728     
  -1853793460.0371678       -16530376.874935389        1002209572.7107184     
  -1730200497.0322504       -16026098.167060375        1001305642.6948420     
  -1606509018.4377160       -15193434.160470188        1003777406.7300485     
  -2342606631.3040805       -15473369.949202776        884542472.18656790     
  -2213455691.1295538       -14487417.062202573        873380343.58743727     
  -2084780114.6685624       -15086009.886993527        863006732.41097581     
  -1956579901.9211161       -17269148.423585534        853421638.65717649     
  -1828855052.8872015       -21036832.671960115        844625062.32605386     
  -2590224835.0288463       -16101585.013499498        755049016.35499489     
  -2462710819.7295270       -16194767.317172408        739710551.42109549     
  -2336246047.4468899       -19785426.343138456        722573427.28144503     
  -2210830518.1809454       -26873562.091393828        703637643.93604648     
  -2086464231.9316852       -37459174.561939478        682903201.38491070     
  -2843538450.4524751       -18438423.587452054        625664147.40098679     
  -2725053293.2523980       -21828321.049025178        605479820.27863884     
  -2608191258.3721547       -30628626.243353724        580909657.32213020     
  -2492952345.8117552       -44839339.170507193        551953658.53146458     
  -2379336555.5711837       -64460459.830429792        518611823.90663654     
  -5957849073.8810434       -1787354722.1643131        1150180210.6629488     
  -6088355043.0966597       -1502241796.4979429        1228050432.1687114     
  -6221576216.1248093       -1226179550.2066894        1268567181.4136245     
  -6357512592.9654951       -959167983.29055309        1271730458.3976877     
  -6496164173.6187162       -701207095.74953389        1237540263.1209016     
  -6810459794.8321209       -2043137938.4496362        1353898381.5479424     
  -6828413719.8899794       -1395461976.4742465        1202867157.2458797     
  -6897723407.7362928       -918971890.46036363        1092099507.7162428     
  -7018388858.3710575       -613667680.40798712        1021595432.9590325     
  -7190410071.7942696       -479549346.31711435        991354932.97424746     
  -8337837864.7562065       -2501351359.4268618        1712450759.1669738     
  -8021476754.1326666       -1424583463.6853602        1275770770.2518504     
  -7805111965.2734976       -681136640.49175406        956971403.14242780     
  -7688743498.1786966       -271010889.84604359        756052657.83870673     
  -7672371352.8482637       -194206211.74822903        673014534.34068620     
  -10539983283.653303       -3161994985.0959911        2225837343.5200443     
  -9667544145.8247223       -1589606258.1312847        1446761271.1866229     
  -8943741888.7364273       -512673800.30086184        863182867.69217753     
  -8368576512.3884172        68802388.395274639        475102133.03670990     
  -7942048016.7806892        154822307.95712805        282519067.22021800     
  -13416896051.523411       -4025068815.4570236        2894058134.6071525     
  -11766615894.966143       -1890530359.8120179        1715838660.0501974     
  -10313613178.125076       -413583369.88768673        810733901.36549413     
  -9057887901.0002136        405772154.31597090        178743858.55304343     
  -7999440063.5915508        567536212.79895496       -180131468.38715592     
  -6496164173.6187162       -701207095.74953389        1237540263.1209016     
  -6239197537.3027420       -375570089.42751956        1053503945.8890189     
  -6013148233.2026520       -152990857.15844727        908488305.75043273     
  -5818016261.3184395       -33469398.942306042        802493342.70514596     
  -5653801621.6501112       -17005714.779106379        735519056.75315547     
  -7190410071.7942696       -479549346.31711435        991354932.97424746     
  -6900356894.7914238       -304143551.07414103        847143452.48902643     
  -6623124783.1159782       -171474640.25584793        724031221.07249880     
  -6358713736.7679386       -81542613.862235069        622018238.72466397     
  -6107123755.7473049       -34347471.893306494        541104505.44552183     
  -7672371352.8482637       -194206211.74822903        673014534.34068620     
  -7400435715.2288380       -184392851.60538244        589740201.97201645     
  -7123224876.0483389       -156995486.25896025        509643690.64743686     
  -6840738835.3067694       -112014115.70896387        432725000.36694330     
  -6552977593.0041246       -49448739.955395460        358984131.13053936     
  -7942048016.7806892        154822307.95712805        282519067.22021800     
  -7739433998.6149855       -16317991.021241188        281294194.33798993     
  -7513448511.9997330       -109553395.16778421        265325714.47524622     
  -7264091556.9349289       -124883904.48249245        234613627.63198680     
  -6991363133.4205799       -62309518.965373993        189157933.80820894     
  -7999440063.5915508        567536212.79895496       -180131468.38715592     
  -7917351744.9498682        200081030.67827511       -78194570.413053080     
  -7793795690.9701595       -29148366.982313633       -8922707.4440701678     
  -7628771901.6524258       -120151980.18281889        27684120.519790322     
  -7422280376.9966631       -72929808.923240662        31625913.478529014     
  -5653801621.6501112       -17005714.779106379        735519056.75315547     
  -5520504772.7708273       -48297969.332120657        722372732.80392516     
  -5381662416.8269787       -61105200.336590052        711154210.50725043     
  -5237274553.8185720       -55427407.792525291        701863489.86312807     
  -5087341183.7455950       -31264591.699905872        694500570.87156308     
  -6107123755.7473049       -34347471.893306494        541104505.44552183     
  -5958987117.1676941       -35942799.709616661        534810519.41255605     
  -5809735655.2736034       -33822049.810988665        531150817.63420171     
  -5659369370.0650301       -27985222.197423458        530125400.11045504     
  -5507888261.5419760       -18432316.868919611        531734266.84131914     
  -6552977593.0041246       -49448739.955395460        358984131.13053936     
  -6387982643.0040359       -20741584.518956184        354373351.97207999     
  -6226303553.4395466       -3087297.2011845112        353103339.67028219     
  -6067940324.3106565        3514121.9979252815        355174094.22515172     
  -5912892955.6173649       -937326.92163395882        360585615.63668400     
  -6991363133.4205799       -62309518.965373993        189157933.80820894     
  -6807491350.2798519       -2694323.7601385117        181061230.48249111     
  -6631366111.3248072        31099057.492826462        177011776.61549309     
  -6462987416.5554428        39070624.793524027        177009572.20721817     
  -6302355265.9717550        21220378.141958475        181054617.25765237     
  -7422280376.9966631       -72929808.923240662        31625913.478529014     
  -7217513238.9951439        18198982.566836357        14874154.943793990     
  -7024923328.9293861        68737014.271039963        2876128.4698301805     
  -6844510646.7993898        78684286.189375401       -4368165.9433522886     
  -6676275192.6051550        48040798.321835041       -6858728.2957661869     
  -5087341183.7455950       -31264591.699905872        694500570.87156308     
  -4938170786.4593868       -4372806.4789357185        676386838.04640079     
  -4792595658.2392426        10534748.521818399        664017114.58817387     
  -4650615799.0851641        13458073.302357435        657391400.49688935     
  -4512231208.9971514        4397167.8626761436        656509695.77253973     
  -5507888261.5419760       -18432316.868919611        531734266.84131914     
  -5348947093.5514364       -6964174.1663846970        515982298.52200854     
  -5191333571.1608000        78483.203143358231        505561600.42026651     
  -5035047694.3700609        2695655.2396709919        500472172.53609645     
  -4880089463.1792278        887341.94319796562        500714014.86950004     
  -5912892955.6173649       -937326.92163395882        360585615.63668400     
  -5745360271.6349726       -5246603.1512851715        349840972.53374797     
  -5576887609.7863159       -6422619.8267192841        344014860.49901617     
  -5407474970.0714016       -4465376.9479532242        343107279.53248894     
  -5237122352.4902143        625125.48504042625        347118229.63416612     
  -6302355265.9717550        21220378.141958475        181054617.25765237     
  -6127410320.7099924        779906.56637287140        177962860.08162084     
  -5949257774.1157961       -8968560.5677714348        179376894.82442528     
  -5767897626.1891727       -8025023.2605009079        185296721.48606253     
  -5583329876.9301205        3610518.4882087708        195722340.06653875     
  -6676275192.6051550        48040798.321835041       -6858728.2957661869     
  -6495097240.7764893        11115354.986587763        347961.16562519653     
  -6308444064.1492357       -7559339.0200145245        11647703.396486135     
  -6116315662.7233896       -7983283.6979873180        27040498.396821994     
  -5918712036.4989443        9843520.9527080059        46526346.166622445     
  -4512231208.9971514        4397167.8626761436        656509695.77253973     
  -4372837713.6141262       -6970940.4729597569        650901765.87582099     
  -4231569745.5284119       -12090806.466299295        649214109.07836211     
  -4088427304.7400155       -10962430.117364168        651446725.38016760     
  -3943410391.2489324       -3585811.4261436462        657599614.78123724     
  -4880089463.1792278        887341.94319796562        500714014.86950004     
  -4728967183.5588312       -2879543.6334023476        500165911.38336647     
  -4577049865.0257816       -3996299.5011501312        502965548.19001228     
  -4424337507.5800762       -2462925.6600532532        509112925.28944206     
  -4270830111.2217193        1720577.8898911476        518608042.68165338     
  -5237122352.4902143        625125.48504042625        347118229.63416612     
  -5075907096.6509695        3968720.2619273663        350370613.13691479     
  -4914976235.6891012        6364332.1142234802        356398204.12596470     
  -4754329769.6046133        7811961.0419163704        365201002.60131311     
  -4593967698.3975039        8311607.0450232029        376779008.56296223     
  -5583329876.9301205        3610518.4882087708        195722340.06653875     
  -5413657452.8905449        13573851.213021517        201515871.13646492     
  -5245348857.5183802        18991088.379797935        209512076.88621321     
  -5078404090.8136234        19862229.988546848        219710957.31577951     
  -4912823152.7762718        16187276.039268494        232112512.42516312     
  -5918712036.4989443        9843520.9527080059        46526346.166622445     
  -5742218252.2775545        25935849.219891787        53601685.382028185     
  -5568167730.5136089        33883969.295601845        62307166.470771052     
  -5396560471.2071056        33687881.179833174        72642789.432845429     
  -5227396474.3580446        25347584.872592449        84608554.268256620     
  -3943410391.2489324       -3585811.4261436462        657599614.78123724     
  -3800904543.3921256        3625633.2889299393        647456243.04965270     
  -3659885379.8550744        5881463.6048247814        641699472.20922792     
  -3520352900.6377659        3181679.5215742588        640329302.25996101     
  -3382307105.7402062       -4473718.9608428478        643345733.20185769     
  -4270830111.2217193        1720577.8898911476        518608042.68165338     
  -4117498949.3733606        5781298.4057862759        508746049.23059833     
  -3965008922.7108688        7038234.9687905312        503551709.69708180     
  -3813360031.2342448        5491387.5788924694        503025024.08110565     
  -3662552274.9435010        1140756.2360789776        507165992.38266516     
  -4593967698.3975039        8311607.0450232029        376779008.56296223     
  -4429008213.9107885        9462505.9558041096        367951534.04862851     
  -4264244315.4760690        9961451.3599338531        364072766.47821110     
  -4099676003.0933523        9808443.2574017048        365142705.85170573     
  -3935303276.7626166        9003481.6482479572        371161352.16911906     
  -4912823152.7762718        16187276.039268494        232112512.42516312     
  -4735432337.0044212        14669255.938945770        225072697.50374147     
  -4557591558.1506777        14651112.778245211        223262642.55260992     
  -4379300816.2150517        16132846.557155132        226682347.57177141     
  -4200560111.1975451        19114457.275681496        235331812.56122613     
  -5227396474.3580446        25347584.872592449        84608554.268256620     
  -5036771318.6542444        21401548.355236769        80109539.595936313     
  -4845050650.7346907        21107219.223743439        81121337.920284733     
  -4652234470.5993805        24464597.478102446        87643949.241298348     
  -4458322778.2482977        31473683.118357658        99677373.558987737     
  -3382307105.7402062       -4473718.9608428478        643345733.20185769     
  -3249450822.2974091       -14084496.381286144        634578887.46110046     
  -3115370618.6018538       -19615539.625863791        628709674.58069873     
  -2980066494.6535444       -21066848.694591761        625738094.56066251     
  -2843538450.4524751       -18438423.587452054        625664147.40098679     
  -3662552274.9435010        1140756.2360789776        507165992.38266516     
  -3519682241.9621725       -5474067.1801173687        502879891.21419227     
  -3375893848.5733671       -9027689.2380473614        502707667.44478983     
  -3231187094.7770758       -9520109.9376925230        506649321.07445759     
  -3085561980.5733042       -6951329.2790791988        514704852.10318714     
  -3935303276.7626166        9003481.6482479572        371161352.16911906     
  -3778944509.8464489        6427107.5552031994        370999509.08678323     
  -3621972942.3680825        5893402.0028245449        376167787.94221967     
  -3464388574.3275094        7402364.9911360741        386666188.73542941     
  -3306191405.7247353        10953996.520114660        402494711.46641672     
  -4200560111.1975451        19114457.275681496        235331812.56122613     
  -4027237625.9502397        21619027.824650526        238937741.07886705     
  -3853607899.9860067        25147734.096729040        249090036.07298738     
  -3679670933.3048444        29700576.091897488        265788697.54358572     
  -3505426725.9067626        35277553.810132265        289033725.49066460     
  -4458322778.2482977        31473683.118357658        99677373.558987737     
  -4264561590.2735443        40101693.628269434        106694587.19044490     
  -4070798721.4271388        48735307.043681383        121474411.83709140     
  -3877034171.7090917        57374523.364572763        144016847.49891859     
  -3683267941.1193924        66019342.590962410        174321894.17593962     
  -2843538450.4524751       -18438423.587452054        625664147.40098679     
  -2725053293.2523980       -21828321.049025178        605479820.27863884     
  -2608191258.3721547       -30628626.243353724        580909657.32213020     
  -2492952345.8117552       -44839339.170507193        551953658.53146458     
  -2379336555.5711837       -64460459.830429792        518611823.90663654     
  -3085561980.5733042       -6951329.2790791988        514704852.10318714     
  -2966716903.9052129       -14068500.886121511        504844904.69670498     
  -2849879379.5159869       -27877513.422734976        500507794.44104588     
  -2735049407.4056511       -48378366.888957620        501693521.33620548     
  -2622226987.5741844       -75571061.284775376        508402085.38218689     
  -3306191405.7247353        10953996.520114660        402494711.46641672     
  -3158675915.3458200        8602699.0404344797        402510642.15691775     
  -3013552407.2048244       -1721872.5656315088        417958082.98321813     
  -2870820881.3017454       -20019718.298082709        448837033.94532168     
  -2730481337.6365767       -46290838.156924605        495147495.04323083     
  -3505426725.9067626        35277553.810132265        289033725.49066460     
  -3300930327.5742307        46185278.730654478        298477032.65927273     
  -3099210341.4386501        47838296.327995539        333260522.94866288     
  -2900266767.5000267        40236606.602143526        393384196.35883534     
  -2704099605.7583623        23380209.553104520        478848052.88979101     
  -3683267941.1193924        66019342.590962410        174321894.17593962     
  -3393480140.5904307        98679238.184524059        192744076.20376405     
  -3106853182.2174683        120802993.25811148        246415114.33736655     
  -2823387066.0005007        132390607.81170881        335335008.57671773     
  -2543081791.9395280        133442081.84531295        459503758.92184287     
 </DataArray>
 <DataArray  type="Float64" Name="VM" NumberOfComponents="1" format="ascii">
   12935882891.731606     
   11340834052.270252     
   10210190863.748634     
   9272608643.5336285     
   8303640926.6971197     
   10130406766.702290     
   9322018221.3757000     
   8826289438.0310001     
   8443385030.5497913     
   8035493383.8291378     
   7982349253.9607973     
   7734923231.5776777     
   7669077843.5185890     
   7669506967.8613081     
   7666278219.7911491     
   6491624523.1891775     
   6586837218.7187090     
   6757390593.2233286     
   6961205604.2175798     
   7171621987.7872591     
   5657787232.1975613     
   5890920108.1073074     
   6116416063.1347160     
   6331819812.1674900     
   6536910711.9910851     
   8303640926.6971197     
   8020408103.1881561     
   7779277815.2364855     
   7569563026.1301880     
   7386288638.8756971     
   8035493383.8291378     
   7746624565.0805426     
   7473418220.5318336     
   7213916043.5588408     
   6968124183.5392294     
   7666278219.7911491     
   7381005525.7804804     
   7101117949.9012232     
   6826693814.8160753     
   6557936630.2558374     
   7171621987.7872591     
   6910982970.0769510     
   6658239341.7948513     
   6409532238.2385082     
   6161717156.1754684     
   6536910711.9910851     
   6328901525.2666550     
   6143081814.4881630     
   5965542272.5527735     
   5787277415.3384228     
   7386288638.8756971     
   7226675838.6405849     
   7059544576.3742676     
   6884194207.6250372     
   6700435290.5219927     
   6968124183.5392294     
   6813365810.3064613     
   6654037300.5100679     
   6489856930.7981892     
   6320776288.3790789     
   6557936630.2558374     
   6407105196.2827835     
   6254733321.7703590     
   6100793515.7699213     
   5945319808.6639261     
   6161717156.1754684     
   6012878141.2742920     
   5865495607.3067293     
   5719612307.5929356     
   5575291355.7183514     
   5787277415.3384228     
   5637121922.1348619     
   5491301993.8117552     
   5349735084.2943010     
   5212480913.9294662     
   6700435290.5219927     
   6500662073.4346151     
   6304700071.6531343     
   6112507366.1332884     
   5924188056.9376793     
   6320776288.3790789     
   6135547978.1712427     
   5952891770.4047050     
   5772817729.6171083     
   5595414727.2035980     
   5945319808.6639261     
   5774618140.6333580     
   5605438172.5131636     
   5437814532.8306341     
   5271830610.0465927     
   5575291355.7183514     
   5419662877.6198158     
   5264706001.4151793     
   5110450321.7392454     
   4956989796.1737661     
   5212480913.9294662     
   5073110844.1106415     
   4933794594.4629450     
   4794526787.9430056     
   4655438303.7844954     
   5924188056.9376793     
   5755978791.9966602     
   5586229334.0427818     
   5414945004.9293489     
   5242165020.3006458     
   5595414727.2035980     
   5431683108.1497097     
   5267385130.6997032     
   5102574817.1520720     
   4937331996.2649822     
   5271830610.0465927     
   5114027000.4333334     
   4956750093.0890932     
   4800100888.9189320     
   4644209170.4047613     
   4956989796.1737661     
   4806247961.3902721     
   4657255973.8380737     
   4510150723.3841543     
   4365112141.0618982     
   4655438303.7844954     
   4512459950.0675659     
   4372596767.2268438     
   4235998986.3985286     
   4102885546.5230269     
   5242165020.3006458     
   5049412902.8927736     
   4857671137.9341297     
   4666984413.4576359     
   4477472407.7617979     
   4937331996.2649822     
   4758778523.3239002     
   4581284522.6937370     
   4404922377.9928093     
   4229835129.4627790     
   4644209170.4047613     
   4479316667.8675776     
   4315553708.8420229     
   4153027638.0316949     
   3991917662.0524297     
   4365112141.0618982     
   4213561811.7165718     
   4063243154.4145761     
   3914305563.5745707     
   3766977644.9172826     
   4102885546.5230269     
   3964627087.1154709     
   3827748124.6024771     
   3692446363.5182838     
   3559012654.5738926     
   4477472407.7617979     
   4288736532.7254610     
   4100784934.4440770     
   3913994294.9680185     
   3728961325.2941175     
   4229835129.4627790     
   4059242413.2798109     
   3890240775.9629130     
   3723181372.9520516     
   3558587555.5431733     
   3991917662.0524297     
   3836361883.8017616     
   3683011686.0782633     
   3532169287.6408582     
   3384264112.3367038     
   3766977644.9172826     
   3623201709.1962256     
   3482012241.4410224     
   3343647711.4650302     
   3208435062.6361318     
   3559012654.5738926     
   3423657873.2373052     
   3290993276.9600687     
   3161187119.4661589     
   3034466576.8916230     
   3728961325.2941175     
   3460023398.4167695     
   3197594164.1200986     
   2949606824.9227533     
   2730907728.6958408     
   3558587555.5431733     
   3364222659.0730238     
   3176293736.4526567     
   2999019266.7436318     
   2839684856.3773193     
   3384264112.3367038     
   3238908014.1345091     
   3098447835.1200004     
   2964608630.1049280     
   2840209149.8072109     
   3208435062.6361318     
   3086174813.5034871     
   2965580252.2125607     
   2847034889.5054011     
   2731124111.6237254     
   3034466576.8916230     
   2909763912.9366794     
   2781381406.7553716     
   2649339192.0298352     
   2513742059.2032299     
   5657787232.1975613     
   5890920108.1073074     
   6116416063.1347160     
   6331819812.1674900     
   6536910711.9910851     
   5151450915.0306931     
   5311372294.6501522     
   5467927010.6707945     
   5618221610.7754631     
   5760791908.1740236     
   4643503863.5198402     
   4755613733.4630508     
   4868848314.6972475     
   4980572549.2372580     
   5088861056.9856901     
   4134209170.3777952     
   4224481190.5058322     
   4320674290.7819233     
   4421129207.7982082     
   4524389265.8443956     
   3625084599.9096231     
   3719797239.8688583     
   3825761755.4289136     
   3942910197.0663347     
   4071145969.7326941     
   6536910711.9910851     
   6328901525.2666550     
   6143081814.4881630     
   5965542272.5527735     
   5787277415.3384228     
   5760791908.1740236     
   5652431000.6817122     
   5560080987.4348078     
   5474681311.3581629     
   5390692578.3205938     
   5088861056.9856901     
   5054400683.7853718     
   5030469958.0121489     
   5011863853.0514965     
   4995380596.5242577     
   4524389265.8443956     
   4539401750.7336006     
   4559106784.6067448     
   4581026648.5257483     
   4603437545.2672548     
   4071145969.7326941     
   4112758073.6213059     
   4151744016.9724078     
   4187211095.0228558     
   4218430938.4829159     
   5787277415.3384228     
   5637121922.1348619     
   5491301993.8117552     
   5349735084.2943010     
   5212480913.9294662     
   5390692578.3205938     
   5249976095.4067698     
   5112550908.2784472     
   4978459742.1721239     
   4847799590.0695915     
   4995380596.5242577     
   4868391450.4285450     
   4744582727.7938881     
   4623918146.2609901     
   4506432625.6306610     
   4603437545.2672548     
   4495052052.0139761     
   4390785016.2083082     
   4290307221.9270406     
   4193516092.0916138     
   4218430938.4829159     
   4133947326.1524830     
   4055749055.0473714     
   3982964318.0780492     
   3915283669.3150625     
   5212480913.9294662     
   5073110844.1106415     
   4933794594.4629450     
   4794526787.9430056     
   4655438303.7844954     
   4847799590.0695915     
   4723600591.2826290     
   4600545827.5182819     
   4478731435.5003300     
   4358362304.4526625     
   4506432625.6306610     
   4396814731.9931297     
   4289427496.7623644     
   4184442162.8544812     
   4082112311.2817316     
   4193516092.0916138     
   4097682319.4543614     
   4005103845.4694858     
   3915995462.1455150     
   3830631164.2362442     
   3915283669.3150625     
   3832139774.3234792     
   3753144028.9507747     
   3678520568.3346243     
   3608536635.3480544     
   4655438303.7844954     
   4512459950.0675659     
   4372596767.2268438     
   4235998986.3985286     
   4102885546.5230269     
   4358362304.4526625     
   4227545452.4608407     
   4100036681.7587957     
   3976041427.1568451     
   3855833021.0137711     
   4082112311.2817316     
   3964693343.0435781     
   3850956032.4415984     
   3741163592.1879325     
   3635652013.5142264     
   3830631164.2362442     
   3728015211.1138210     
   3629649932.0228596     
   3535853358.5534029     
   3447026134.4533997     
   3608536635.3480544     
   3522220715.8926501     
   3440918869.6601119     
   3364990348.1183419     
   3294890461.2581334     
   4102885546.5230269     
   3964627087.1154709     
   3827748124.6024771     
   3692446363.5182838     
   3559012654.5738926     
   3855833021.0137711     
   3730994032.2539067     
   3608554741.3959169     
   3488796720.3970242     
   3372092290.8882399     
   3635652013.5142264     
   3524653764.3561373     
   3417113916.0904689     
   3313377213.9840345     
   3213871248.6235895     
   3447026134.4533997     
   3350065987.0670719     
   3257601686.5391316     
   3170008421.6156678     
   3087730570.4178987     
   3294890461.2581334     
   3211803260.7303705     
   3134153330.9770780     
   3062305252.1146555     
   2996675806.6364126     
   3559012654.5738926     
   3423657873.2373052     
   3290993276.9600687     
   3161187119.4661589     
   3034466576.8916230     
   3372092290.8882399     
   3247488141.6559081     
   3126163053.5583067     
   3008386218.7117910     
   2894497242.7823825     
   3213871248.6235895     
   3102038909.2007771     
   2994298754.3870397     
   2891025886.3102112     
   2792676744.0947304     
   3087730570.4178987     
   2990675055.5302172     
   2898710253.5292006     
   2812302072.5558386     
   2732002866.3944368     
   2996675806.6364126     
   2916167429.1255999     
   2841856842.3326755     
   2774262528.6437011     
   2713986363.3634372     
   3034466576.8916230     
   2909763912.9366794     
   2781381406.7553716     
   2649339192.0298352     
   2513742059.2032299     
   2894497242.7823825     
   2768905728.1790967     
   2641694629.9532084     
   2512846730.9144340     
   2382362129.6715093     
   2792676744.0947304     
   2675052973.5503554     
   2559184748.6468959     
   2445342546.2504601     
   2333849727.1179442     
   2732002866.3944368     
   2629824135.4405570     
   2533663679.6800776     
   2444168821.2249274     
   2362075560.6768131     
   2713986363.3634372     
   2632469693.4587388     
   2561519442.6734138     
   2501996711.7561502     
   2454829451.3175993     
   3625084599.9096231     
   3719797239.8688583     
   3825761755.4289136     
   3942910197.0663347     
   4071145969.7326941     
   3138080500.8354850     
   3255613105.1694231     
   3382565449.5095730     
   3518466411.9909368     
   3662856404.7030864     
   2694840094.0357842     
   2830592492.4917407     
   2973662172.2637229     
   3122966926.7459335     
   3277595715.3181963     
   2298854137.7232752     
   2449527232.9353209     
   2604930666.2349949     
   2763144086.5005488     
   2922739284.6656532     
   1955336540.3439834     
   2119372798.6467130     
   2284776698.6946869     
   2448592685.8126550     
   2608865945.1233940     
   4071145969.7326941     
   4112758073.6213059     
   4151744016.9724078     
   4187211095.0228558     
   4218430938.4829159     
   3662856404.7030864     
   3702402318.7212205     
   3740572623.0567613     
   3776471331.1448975     
   3809351011.2768798     
   3277595715.3181963     
   3320922968.6997776     
   3364476886.7151546     
   3407434227.9620214     
   3449116545.4145703     
   2922739284.6656532     
   2975704796.6641464     
   3030855346.9279180     
   3087505550.6164136     
   3145120125.8156815     
   2608865945.1233940     
   2676801840.8630109     
   2749184867.7229385     
   2825501617.2587385     
   2905396133.1873875     
   4218430938.4829159     
   4133947326.1524830     
   4055749055.0473714     
   3982964318.0780492     
   3915283669.3150625     
   3809351011.2768798     
   3756122517.2124925     
   3708741964.9722519     
   3666724154.3319016     
   3629967573.4390416     
   3449116545.4145703     
   3422685023.3363495     
   3401301238.7247567     
   3384732595.8012085     
   3372963464.6766319     
   3145120125.8156815     
   3141266939.8507757     
   3141082597.0758629     
   3144469117.2438135     
   3151415854.9778056     
   2905396133.1873875     
   2920188065.6796603     
   2936502052.7494259     
   2954289752.1204076     
   2973517667.6239443     
   3915283669.3150625     
   3832139774.3234792     
   3753144028.9507747     
   3678520568.3346243     
   3608536635.3480544     
   3629967573.4390416     
   3558872461.1552248     
   3492522028.0588937     
   3431155419.9472980     
   3375057257.6163845     
   3372963464.6766319     
   3314855698.3832479     
   3262251001.9853506     
   3215384897.2878776     
   3174542001.4975200     
   3151415854.9778056     
   3106979301.4673352     
   3068951003.6342959     
   3037534230.4374304     
   3012986614.0708866     
   2973517667.6239443     
   2942921975.3152571     
   2919754058.0769181     
   2904148791.6684756     
   2896304064.0073376     
   3608536635.3480544     
   3522220715.8926501     
   3440918869.6601119     
   3364990348.1183419     
   3294890461.2581334     
   3375057257.6163845     
   3304399523.7151022     
   3239344873.5878453     
   3180235918.2482281     
   3127486480.7466140     
   3174542001.4975200     
   3118537793.2143197     
   3068600886.7943320     
   3025029656.0750942     
   2988168659.8018079     
   3012986614.0708866     
   2970268906.7778940     
   2933907857.9767809     
   2904136081.7493353     
   2881210801.0337377     
   2896304064.0073376     
   2865052178.4278054     
   2840232345.1346731     
   2822001886.4572706     
   2810527667.2348952     
   3294890461.2581334     
   3211803260.7303705     
   3134153330.9770780     
   3062305252.1146555     
   2996675806.6364126     
   3127486480.7466140     
   3056585387.6991825     
   2991826458.2305927     
   2933572736.2937498     
   2882231271.7149191     
   2988168659.8018079     
   2929647804.9219971     
   2877997780.8015685     
   2833554671.5312872     
   2796688026.5664148     
   2881210801.0337377     
   2834811637.5963187     
   2796000819.8042231     
   2765061723.1009789     
   2742300731.0300126     
   2810527667.2348952     
   2775400324.4076695     
   2748540895.3328476     
   2730160847.1934357     
   2720487012.4402370     
   2996675806.6364126     
   2916167429.1255999     
   2841856842.3326755     
   2774262528.6437011     
   2713986363.3634372     
   2882231271.7149191     
   2816907896.1182971     
   2758445354.7820711     
   2707301902.7467828     
   2663988008.0212622     
   2796688026.5664148     
   2745554555.8244376     
   2701770669.8382940     
   2665704430.5075207     
   2637749602.3337679     
   2742300731.0300126     
   2703840979.7913718     
   2673027256.3108363     
   2650123477.6567698     
   2635401225.5824857     
   2720487012.4402370     
   2692671497.0722709     
   2672617159.6329679     
   2660487640.0040374     
   2656445444.2130399     
   2713986363.3634372     
   2632469693.4587388     
   2561519442.6734138     
   2501996711.7561502     
   2454829451.3175993     
   2663988008.0212622     
   2598634544.3314738     
   2543664107.7274270     
   2499737198.8785486     
   2467540008.1307688     
   2637749602.3337679     
   2587008492.5919557     
   2546312712.1133418     
   2516141098.3228459     
   2496975499.5108838     
   2635401225.5824857     
   2597542956.0277762     
   2569276277.4703107     
   2550928530.9418812     
   2542821724.9428802     
   2656445444.2130399     
   2629638947.7646084     
   2611902616.2582693     
   2603447147.5474124     
   2604478918.5106816     
   1955336540.3439834     
   2119372798.6467130     
   2284776698.6946869     
   2448592685.8126550     
   2608865945.1233940     
   1653802833.7946956     
   1820241275.0572488     
   1988376978.1422424     
   2155516923.1624479     
   2319905648.9781976     
   1393605245.5181258     
   1570963405.9344671     
   1749315412.8065352     
   1926659605.4829066     
   2101747188.8622015     
   1207055461.0019610     
   1398967159.3750632     
   1590434253.4276557     
   1780680661.3645785     
   1969248356.5957208     
   1136825328.4268327     
   1335109987.4058979     
   1533668658.6783640     
   1732501342.2442310     
   1931608038.1034997     
   2608865945.1233940     
   2676801840.8630109     
   2749184867.7229385     
   2825501617.2587385     
   2905396133.1873875     
   2319905648.9781976     
   2406912006.9899588     
   2496321375.5588570     
   2587741954.1138945     
   2680897160.8514218     
   2101747188.8622015     
   2205445202.6493611     
   2309039698.0774179     
   2412293709.2544155     
   2515040126.0717349     
   1969248356.5957208     
   2086355137.1560016     
   2200623136.1053638     
   2311977150.1683879     
   2420364973.7589083     
   1931608038.1034997     
   2058222081.5091410     
   2179453573.1873307     
   2295302513.1380687     
   2405768901.3613553     
   2905396133.1873875     
   2920188065.6796603     
   2936502052.7494259     
   2954289752.1204076     
   2973517667.6239443     
   2680897160.8514218     
   2702649084.8733196     
   2726893720.1911101     
   2753617673.7603097     
   2782816479.7146111     
   2515040126.0717349     
   2543542514.7409039     
   2575525134.1077843     
   2610991133.1507826     
   2649947478.6414809     
   2420364973.7589083     
   2453976985.6094346     
   2492050153.2426143     
   2534588076.8772664     
   2581595153.8660536     
   2405768901.3613553     
   2441349888.0050478     
   2482359484.1072097     
   2528797689.6678424     
   2580664504.6869450     
   2973517667.6239443     
   2942921975.3152571     
   2919754058.0769181     
   2904148791.6684756     
   2896304064.0073376     
   2782816479.7146111     
   2766604136.3272748     
   2757587957.6687927     
   2755852492.4964991     
   2761515552.5037751     
   2649947478.6414809     
   2645157363.4927826     
   2647059066.8803272     
   2655690139.4712019     
   2671101553.3752832     
   2581595153.8660536     
   2584822666.4606929     
   2593974729.6928592     
   2609059647.3835516     
   2630088732.9388857     
   2580664504.6869450     
   2588390038.4888029     
   2601059497.9236083     
   2618672882.9913659     
   2641230193.6920705     
   2896304064.0073376     
   2865052178.4278054     
   2840232345.1346731     
   2822001886.4572706     
   2810527667.2348952     
   2761515552.5037751     
   2738567115.1755128     
   2722684740.0226111     
   2713976632.3266521     
   2712555680.2705355     
   2671101553.3752832     
   2654705281.4414110     
   2645956125.1041327     
   2644910439.2739062     
   2651626167.2978468     
   2630088732.9388857     
   2617748730.8888097     
   2613575089.9846869     
   2617583579.4171052     
   2629790248.5765061     
   2641230193.6920705     
   2629862468.4934006     
   2627118345.0228086     
   2632997823.2802968     
   2647500903.2658606     
   2810527667.2348952     
   2775400324.4076695     
   2748540895.3328476     
   2730160847.1934357     
   2720487012.4402370     
   2712555680.2705355     
   2687929186.7086434     
   2671580650.0210872     
   2663635025.9686012     
   2664223403.5446820     
   2651626167.2978468     
   2634994507.2613001     
   2626539075.8961740     
   2626316111.2964787     
   2634383587.6768866     
   2629790248.5765061     
   2618303072.8851295     
   2614804665.7958407     
   2619308763.4094009     
   2631829365.3262463     
   2647500903.2658606     
   2638164114.6041903     
   2636570547.1321449     
   2642720200.8497229     
   2656613075.7569256     
   2720487012.4402370     
   2692671497.0722709     
   2672617159.6329679     
   2660487640.0040374     
   2656445444.2130399     
   2664223403.5446820     
   2644198700.9744573     
   2632215419.3575463     
   2628373643.8001089     
   2632770896.7193727     
   2634383587.6768866     
   2620263557.8961425     
   2614442815.2368479     
   2616968711.0116506     
   2627886672.1492739     
   2631829365.3262463     
   2621368879.6895719     
   2619469070.5497746     
   2626142312.8046298     
   2641400350.4821534     
   2656613075.7569256     
   2647325390.6301508     
   2646886086.4542975     
   2655295163.2293596     
   2672552620.9553471     
   2656445444.2130399     
   2629638947.7646084     
   2611902616.2582693     
   2603447147.5474124     
   2604478918.5106816     
   2632770896.7193727     
   2615582984.8404145     
   2607512362.7451391     
   2608678609.3026667     
   2619195982.7269392     
   2627886672.1492739     
   2618053256.1479149     
   2617364938.0630498     
   2625874618.4606471     
   2643631840.8222599     
   2641400350.4821534     
   2636453984.3529010     
   2640705419.0844460     
   2654167717.1715455     
   2676852935.8845010     
   2672552620.9553471     
   2669926551.7002630     
   2676609402.5018077     
   2692601173.3599606     
   2717901864.2747312     
   1136825328.4268327     
   1335109987.4058979     
   1533668658.6783640     
   1732501342.2442310     
   1931608038.1034997     
   1207055461.0000389     
   1398967159.3738980     
   1590434253.4272282     
   1780680661.3649304     
   1969248356.5969312     
   1393605245.5146627     
   1570963405.9321561     
   1749315412.8054621     
   1926659605.4832299     
   2101747188.8641326     
   1653802833.7902613     
   1820241275.0539203     
   1988376978.1402807     
   2155516923.1621828     
   2319905648.9800110     
   1955336540.3390355     
   2119372798.6424739     
   2284776698.6915941     
   2448592685.8112068     
   2608865945.1241436     
   1931608038.1034997     
   2058222081.5091410     
   2179453573.1873307     
   2295302513.1380687     
   2405768901.3613553     
   1969248356.5969312     
   2086355137.1577966     
   2200623136.1076980     
   2311977150.1712060     
   2420364973.7621546     
   2101747188.8641326     
   2205445202.6522145     
   2309039698.0810862     
   2412293709.2587795     
   2515040126.0766606     
   2319905648.9800110     
   2406912006.9928513     
   2496321375.5626597     
   2587741954.1184039     
   2680897160.8564148     
   2608865945.1241436     
   2676801840.8648911     
   2749184867.7257152     
   2825501617.2621174     
   2905396133.1910391     
   2405768901.3613553     
   2441349888.0050478     
   2482359484.1072097     
   2528797689.6678424     
   2580664504.6869450     
   2420364973.7621546     
   2453976985.6192169     
   2492050153.2604876     
   2534588076.9047942     
   2581595153.9047990     
   2515040126.0766606     
   2543542514.7571921     
   2575525134.1385555     
   2610991133.1992073     
   2649947478.7107611     
   2680897160.8564148     
   2702649084.8914914     
   2726893720.2270875     
   2753617673.8188310     
   2782816479.8005157     
   2905396133.1910391     
   2920188065.6946859     
   2936502052.7817745     
   2954289752.1762271     
   2973517667.7095404     
   2580664504.6869450     
   2588390038.4888029     
   2601059497.9236083     
   2618672882.9913659     
   2641230193.6920705     
   2581595153.9047990     
   2584822666.4697475     
   2593974729.6675911     
   2609059647.3193774     
   2630088732.8314104     
   2649947478.7107611     
   2645157363.5180893     
   2647059066.8535190     
   2655690139.3840895     
   2671101553.2197852     
   2782816479.8005157     
   2766604136.3720937     
   2757587957.6621461     
   2755852492.4276996     
   2761515552.3618841     
   2973517667.7095404     
   2942921975.3791137     
   2919754058.1078396     
   2904148791.6546144     
   2896304063.9360137     
   2641230193.6920705     
   2629862468.4934006     
   2627118345.0228086     
   2632997823.2802968     
   2647500903.2658606     
   2630088732.8314104     
   2617748730.7616029     
   2613575089.8294930     
   2617583579.2257838     
   2629790248.3410168     
   2671101553.2197852     
   2654705281.2445345     
   2645956124.8480787     
   2644910438.9410114     
   2651626166.8705535     
   2761515552.3618841     
   2738567114.9757581     
   2722684739.7365232     
   2713976631.9256482     
   2712555679.7259111     
   2896304063.9360137     
   2865052178.2935023     
   2840232344.8975735     
   2822001886.0768442     
   2810527666.6699419     
   2647500903.2658606     
   2638164114.6041903     
   2636570547.1321449     
   2642720200.8497229     
   2656613075.7569256     
   2629790248.3410168     
   2618303072.7002850     
   2614804665.6719413     
   2619308763.3563313     
   2631829365.3533196     
   2651626166.8705535     
   2634994506.9118161     
   2626539075.6439371     
   2626316111.1604161     
   2634383587.6751962     
   2712555679.7259111     
   2687929186.2410030     
   2671580649.6574950     
   2663635025.7360239     
   2664223403.4697137     
   2810527666.6699419     
   2775400323.8895059     
   2748540894.8941808     
   2730160846.8677526     
   2720487012.2615857     
   2656613075.7569256     
   2647325390.6301508     
   2646886086.4542975     
   2655295163.2293596     
   2672552620.9553471     
   2631829365.3533196     
   2621368879.7953529     
   2619469070.7588458     
   2626142313.1411009     
   2641400350.9697309     
   2634383587.6751962     
   2620263558.0187855     
   2614442815.5333333     
   2616968711.5310707     
   2627886672.9404082     
   2664223403.4697137     
   2644198701.0233951     
   2632215419.6052804     
   2628373644.3220253     
   2632770897.5914173     
   2720487012.2615857     
   2692671496.9608760     
   2672617159.6889305     
   2660487640.3299360     
   2656445444.9139585     
   2672552620.9553471     
   2669926551.7002630     
   2676609402.5018077     
   2692601173.3599606     
   2717901864.2747312     
   2641400350.9697309     
   2636453984.9741683     
   2640705419.8793950     
   2654167718.1802082     
   2676852937.1470776     
   2627886672.9404082     
   2618053257.0993190     
   2617364939.2540245     
   2625874619.9724097     
   2643631842.7385006     
   2632770897.5914173     
   2615582985.7791820     
   2607512363.8690586     
   2608678610.7363243     
   2619195984.6022077     
   2656445444.9139585     
   2629638948.3085489     
   2611902616.8015609     
   2603447148.2595882     
   2604478919.5765514     
   1955336540.3390355     
   2119372798.6424739     
   2284776698.6915941     
   2448592685.8112068     
   2608865945.1241436     
   2298854137.7182512     
   2449527232.9303217     
   2604930666.2303863     
   2763144086.4967432     
   2922739284.6631031     
   2694840094.0311222     
   2830592492.4865375     
   2973662172.2582383     
   3122966926.7404752     
   3277595715.3131022     
   3138080500.8315334     
   3255613105.1645489     
   3382565449.5039167     
   3518466411.9846835     
   3662856404.6964564     
   3625084599.9066744     
   3719797239.8648162     
   3825761755.4237962     
   3942910197.0602002     
   4071145969.7256312     
   2608865945.1241436     
   2676801840.8648911     
   2749184867.7257152     
   2825501617.2621174     
   2905396133.1910391     
   2922739284.6631031     
   2975704796.6619592     
   3030855346.9259200     
   3087505550.6143851     
   3145120125.8133759     
   3277595715.3131022     
   3320922968.6944604     
   3364476886.7095013     
   3407434227.9558983     
   3449116545.4078298     
   3662856404.6964564     
   3702402318.7138777     
   3740572623.0486665     
   3776471331.1360207     
   3809351011.2671905     
   4071145969.7256312     
   4112758073.6130810     
   4151744016.9630699     
   4187211095.0124812     
   4218430938.4716082     
   2905396133.1910391     
   2920188065.6946859     
   2936502052.7817745     
   2954289752.1762271     
   2973517667.7095404     
   3145120125.8133759     
   3141266939.8536067     
   3141082597.0875401     
   3144469117.2682366     
   3151415855.0190525     
   3449116545.4078298     
   3422685023.3288331     
   3401301238.7180338     
   3384732595.7970319     
   3372963464.6769643     
   3809351011.2671905     
   3756122517.1978679     
   3708741964.9523158     
   3666724154.3064218     
   3629967573.4079857     
   4218430938.4716082     
   4133947326.1347399     
   4055749055.0211353     
   3982964318.0413156     
   3915283669.2659717     
   2973517667.7095404     
   2942921975.3791137     
   2919754058.1078396     
   2904148791.6546144     
   2896304063.9360137     
   3151415855.0190525     
   3106979301.5042062     
   3068951003.6637602     
   3037534230.4559116     
   3012986614.0740571     
   3372963464.6769643     
   3314855698.3925495     
   3262251002.0082040     
   3215384897.3286018     
   3174542001.5600390     
   3629967573.4079857     
   3558872461.1382470     
   3492522028.0673862     
   3431155419.9928222     
   3375057257.7106657     
   3915283669.2659717     
   3832139774.2826390     
   3753144028.9354911     
   3678520568.3628287     
   3608536635.4385037     
   2896304063.9360137     
   2865052178.2935023     
   2840232344.8975735     
   2822001886.0768442     
   2810527666.6699419     
   3012986614.0740571     
   2970268906.7563581     
   2933907857.8995910     
   2904136081.5844116     
   2881210800.7479296     
   3174542001.5600390     
   3118537793.2931685     
   3068600886.8673763     
   3025029656.1187725     
   2988168659.7912073     
   3375057257.7106657     
   3304399523.8623071     
   3239344873.7744274     
   3180235918.4591656     
   3127486480.9654922     
   3608536635.4385037     
   3522220716.0626764     
   3440918869.9042616     
   3364990348.4298935     
   3294890461.6292090     
   2810527666.6699419     
   2775400323.8895059     
   2748540894.8941808     
   2730160846.8677526     
   2720487012.2615857     
   2881210800.7479296     
   2834811637.3945832     
   2796000819.7080188     
   2765061723.1331835     
   2742300731.2148528     
   2988168659.7912073     
   2929647805.0138254     
   2877997781.0057955     
   2833554671.8597498     
   2796688027.0328197     
   3127486480.9654922     
   3056585388.0287099     
   2991826458.6690421     
   2933572736.8414288     
   2882231272.3741064     
   3294890461.6292090     
   3211803261.2178669     
   3134153331.5675426     
   3062305252.7964907     
   2996675807.3996930     
   2720487012.2615857     
   2692671496.9608760     
   2672617159.6889305     
   2660487640.3299360     
   2656445444.9139585     
   2742300731.2148528     
   2703840979.9601064     
   2673027256.5437446     
   2650123478.0380483     
   2635401226.2004881     
   2796688027.0328197     
   2745554556.1749225     
   2701770670.1331801     
   2665704430.8123970     
   2637749602.7199898     
   2882231272.3741064     
   2816907896.5583124     
   2758445355.0428929     
   2707301902.8744907     
   2663988008.0689249     
   2996675807.3996930     
   2916167429.5747728     
   2841856842.4872832     
   2774262528.5294194     
   2713986363.0134177     
   2656445444.9139585     
   2629638948.3085489     
   2611902616.8015609     
   2603447148.2595882     
   2604478919.5765514     
   2635401226.2004881     
   2597542956.0503488     
   2569276276.9983578     
   2550928530.0895886     
   2542821723.8390827     
   2637749602.7199898     
   2587008492.0431495     
   2546312710.6764703     
   2516141096.0562625     
   2496975496.4856124     
   2663988008.0689249     
   2598634543.2224545     
   2543664105.4567924     
   2499737195.4480200     
   2467540003.5502458     
   2713986363.0134177     
   2632469691.8613014     
   2561519439.7758074     
   2501996707.5040269     
   2454829445.6568098     
   3625084599.9066744     
   3719797239.8648162     
   3825761755.4237962     
   3942910197.0602002     
   4071145969.7256312     
   4134209170.3760600     
   4224481190.5030718     
   4320674290.7781229     
   4421129207.7933178     
   4524389265.8383198     
   4643503863.5194359     
   4755613733.4618826     
   4868848314.6952791     
   4980572549.2343349     
   5088861056.9815750     
   5151450915.0317163     
   5311372294.6508512     
   5467927010.6711178     
   5618221610.7751846     
   5760791908.1728077     
   5657787232.2001219     
   5890920108.1101360     
   6116416063.1377535     
   6331819812.1704855     
   6536910711.9936666     
   4071145969.7256312     
   4112758073.6130810     
   4151744016.9630699     
   4187211095.0124812     
   4218430938.4716082     
   4524389265.8383198     
   4539401750.7261162     
   4559106784.5980825     
   4581026648.5161686     
   4603437545.2570200     
   5088861056.9815750     
   5054400683.7796335     
   5030469958.0051641     
   5011863853.0436821     
   4995380596.5159998     
   5760791908.1728077     
   5652431000.6786289     
   5560080987.4303341     
   5474681311.3528395     
   5390692578.3149099     
   6536910711.9936666     
   6328901525.2670546     
   6143081814.4868994     
   5965542272.5504761     
   5787277415.3356686     
   4218430938.4716082     
   4133947326.1347399     
   4055749055.0211353     
   3982964318.0413156     
   3915283669.2659717     
   4603437545.2570200     
   4495052051.9990387     
   4390785016.1865158     
   4290307221.8962226     
   4193516092.0495839     
   4995380596.5159998     
   4868391450.4192448     
   4744582727.7814169     
   4623918146.2431688     
   4506432625.6052284     
   5390692578.3149099     
   5249976095.4054327     
   5112550908.2794428     
   4978459742.1733818     
   4847799590.0689249     
   5787277415.3356686     
   5637121922.1434097     
   5491301993.8297539     
   5349735084.3198538     
   5212480913.9605532     
   3915283669.2659717     
   3832139774.2826390     
   3753144028.9354911     
   3678520568.3628287     
   3608536635.4385037     
   4193516092.0495839     
   4097682319.4057584     
   4005103845.4246864     
   3915995462.1154704     
   3830631164.2325535     
   4506432625.6052284     
   4396814731.9450121     
   4289427496.6950049     
   4184442162.7717328     
   4082112311.1879692     
   4847799590.0689249     
   4723600591.2462149     
   4600545827.4428902     
   4478731435.3829250     
   4358362304.2906294     
   5212480913.9605532     
   5073110844.0990648     
   4933794594.3993635     
   4794526787.8180141     
   4655438303.5890751     
   3608536635.4385037     
   3522220716.0626764     
   3440918869.9042616     
   3364990348.4298935     
   3294890461.6292090     
   3830631164.2325535     
   3728015211.1675611     
   3629649932.1390190     
   3535853358.7362795     
   3447026134.7066588     
   4082112311.1879692     
   3964693342.9799671     
   3850956032.4227109     
   3741163592.2281837     
   3635652013.6281176     
   4358362304.2906294     
   4227545452.2917581     
   4100036681.6057811     
   3976041427.0432558     
   3855833020.9638119     
   4655438303.5890751     
   4512459949.8143320     
   4372596766.9463644     
   4235998986.1218429     
   4102885546.2827649     
   3294890461.6292090     
   3211803261.2178669     
   3134153331.5675426     
   3062305252.7964907     
   2996675807.3996930     
   3447026134.7066588     
   3350065987.4209318     
   3257601686.9777899     
   3170008422.1246505     
   3087730570.9840350     
   3635652013.6281176     
   3524653764.5737052     
   3417113916.3950515     
   3313377214.3596706     
   3213871249.0550094     
   3855833020.9638119     
   3730994032.3272486     
   3608554741.5765176     
   3488796720.6689792     
   3372092291.2356954     
   4102885546.2827649     
   3964627087.0320363     
   3827748124.6617193     
   3692446363.7057981     
   3559012654.8747754     
   2996675807.3996930     
   2916167429.5747728     
   2841856842.4872832     
   2774262528.5294194     
   2713986363.0134177     
   3087730570.9840350     
   2990675055.7251344     
   2898710253.3435140     
   2812302071.9823360     
   2732002865.4286399     
   3213871249.0550094     
   3102038909.2786913     
   2994298754.0810366     
   2891025885.5882831     
   2792676742.9227448     
   3372092291.2356954     
   3247488141.7456603     
   3126163053.3483672     
   3008386218.1557703     
   2894497241.8281560     
   3559012654.8747754     
   3423657873.4525900     
   3290993277.0454240     
   3161187119.3716331     
   3034466576.5597773     
   2713986363.0134177     
   2632469691.8613014     
   2561519439.7758074     
   2501996707.5040269     
   2454829445.6568098     
   2732002865.4286399     
   2629824133.2651296     
   2533663676.2191820     
   2444168816.3906689     
   2362075554.3692017     
   2792676742.9227448     
   2675052971.3999262     
   2559184745.4511147     
   2445342541.9243293     
   2333849721.5542674     
   2894497241.8281560     
   2768905726.6467991     
   2641694627.8204350     
   2512846728.1446824     
   2382362126.2086177     
   3034466576.5597773     
   2909763912.5535083     
   2781381406.3664408     
   2649339191.6767888     
   2513742058.9198747     
   5657787232.2001219     
   5890920108.1101360     
   6116416063.1377535     
   6331819812.1704855     
   6536910711.9936666     
   6491624523.1932497     
   6586837218.7240162     
   6757390593.2298708     
   6961205604.2250862     
   7171621987.7953577     
   7982349253.9662085     
   7734923231.5847588     
   7669077843.5275183     
   7669506967.8719149     
   7666278219.8031025     
   10130406766.708879     
   9322018221.3838844     
   8826289438.0411587     
   8443385030.5619125     
   8035493383.8429937     
   12935882891.739212     
   11340834052.278927     
   10210190863.758905     
   9272608643.5456238     
   8303640926.7106857     
   6536910711.9936666     
   6328901525.2670546     
   6143081814.4868994     
   5965542272.5504761     
   5787277415.3356686     
   7171621987.7953577     
   6910982970.0831861     
   6658239341.7993574     
   6409532238.2415237     
   6161717156.1772757     
   7666278219.8031025     
   7381005525.7918844     
   7101117949.9120178     
   6826693814.8262615     
   6557936630.2654953     
   8035493383.8429937     
   7746624565.0963621     
   7473418220.5495024     
   7213916043.5782509     
   6968124183.5603228     
   8303640926.7106857     
   8020408103.2074833     
   7779277815.2616196     
   7569563026.1610012     
   7386288638.9119854     
   5787277415.3356686     
   5637121922.1434097     
   5491301993.8297539     
   5349735084.3198538     
   5212480913.9605532     
   6161717156.1772757     
   6012878141.2914019     
   5865495607.3387289     
   5719612307.6393862     
   5575291355.7787743     
   6557936630.2654953     
   6407105196.3049173     
   6254733321.8053827     
   6100793515.8182878     
   5945319808.7261410     
   6968124183.5603228     
   6813365810.3300924     
   6654037300.5370083     
   6489856930.8292303     
   6320776288.4150743     
   7386288638.9119854     
   7226675838.6622620     
   7059544576.3820868     
   6884194207.6196146     
   6700435290.5038128     
   5212480913.9605532     
   5073110844.0990648     
   4933794594.3993635     
   4794526787.8180141     
   4655438303.5890751     
   5575291355.7787743     
   5419662877.6458120     
   5264706001.3989868     
   5110450321.6729107     
   4956989796.0492201     
   5945319808.7261410     
   5774618140.6747379     
   5605438172.5278206     
   5437814532.8124752     
   5271830609.9891329     
   6320776288.4150743     
   6135547978.2042990     
   5952891770.4310751     
   5772817729.6328287     
   5595414727.2042360     
   6700435290.5038128     
   6500662073.4347820     
   6304700071.6703157     
   6112507366.1659288     
   5924188056.9837923     
   4655438303.5890751     
   4512459949.8143320     
   4372596766.9463644     
   4235998986.1218429     
   4102885546.2827649     
   4956989796.0492201     
   4806247961.1784239     
   4657255973.5586929     
   4510150723.0575848     
   4365112140.7095070     
   5271830609.9891329     
   5114027000.2771931     
   4956750092.8453054     
   4800100888.5988598     
   4644209170.0201235     
   5595414727.2042360     
   5431683108.0630579     
   5267385130.5298300     
   5102574816.9030333     
   4937331995.9406443     
   5924188056.9837923     
   5755978791.9927578     
   5586229333.9875183     
   5414945004.8211031     
   5242165020.1374207     
   4102885546.2827649     
   3964627087.0320363     
   3827748124.6617193     
   3692446363.7057981     
   3559012654.8747754     
   4365112140.7095070     
   4213561811.5125656     
   4063243154.3529649     
   3914305563.6494622     
   3766977645.1227703     
   4644209170.0201235     
   4479316667.6109037     
   4315553708.7136278     
   4153027638.0321388     
   3991917662.1825538     
   4937331995.9406443     
   4758778523.0912848     
   4581284522.5576563     
   4404922377.9582577     
   4229835129.5352340     
   5242165020.1374207     
   5049412902.7663488     
   4857671137.8520813     
   4666984413.4275475     
   4477472407.7918615     
   3559012654.8747754     
   3423657873.4525900     
   3290993277.0454240     
   3161187119.3716331     
   3034466576.5597773     
   3766977645.1227703     
   3623201709.4985185     
   3482012241.8174043     
   3343647711.8876085     
   3208435063.0698318     
   3991917662.1825538     
   3836361884.1616039     
   3683011686.6611257     
   3532169288.4359746     
   3384264113.3274908     
   4229835129.5352340     
   4059242413.6605735     
   3890240776.6562715     
   3723181373.9599428     
   3558587556.8640885     
   4477472407.7918615     
   4288736533.0861173     
   4100784935.1460447     
   3913994296.0218868     
   3728961326.7102089     
   3034466576.5597773     
   2909763912.5535083     
   2781381406.3664408     
   2649339191.6767888     
   2513742058.9198747     
   3208435063.0698318     
   3086174814.3352680     
   2965580253.4711733     
   2847034891.1971755     
   2731124113.7210145     
   3384264113.3274908     
   3238908015.6792417     
   3098447837.2231936     
   2964608632.7597194     
   2840209152.9904308     
   3558587556.8640885     
   3364222660.8527985     
   3176293738.6583776     
   2999019269.3571906     
   2839684859.4105310     
   3728961326.7102089     
   3460023399.9834495     
   3197594165.7411718     
   2949606826.5419097     
   2730907730.3546529     
 </DataArray>
 <DataArray  type="Float64" Name="strain" NumberOfComponents="3" format="ascii">
  0.20348959011463522        0.0000000000000000       0.12540918583296168     
  0.18665761311688667       -2.7324240144598697E-002   7.4353008602191545E-002
  0.16982563611913806       -4.4675009725770085E-002   3.5131802392540934E-002
  0.15299365912138951       -5.2052308743514172E-002   7.7455672040098317E-003
  0.13616168212364094       -4.9456137197830929E-002  -7.8056969634018175E-003
  0.15985641313528132        0.0000000000000000        9.6452951552554844E-002
  0.15317770447293488       -2.1844283093570505E-002   6.2692988418138557E-002
  0.14649899581058848       -3.6174146105279359E-002   3.7404590933407061E-002
  0.13982028714824205       -4.2989589035126570E-002   2.0587759098360373E-002
  0.13314157848589558       -4.2290611883112131E-002   1.2242492912998379E-002
  0.12645720761535417        0.0000000000000000        7.4206199563959019E-002
  0.12656836191697518       -1.6364326042542315E-002   5.5283400044330924E-002
  0.12667951621859616       -2.7673282484788633E-002   4.1468760802952899E-002
  0.12679067052021714       -3.3926869326738968E-002   3.2762281839824964E-002
  0.12690182482183815       -3.5125086568393304E-002   2.9163963154947035E-002
  0.10329197355485376        0.0000000000000000        5.8668929867174223E-002
  0.10682958544900746       -1.0884368991514119E-002   5.2124243480768662E-002
  0.11036719734316117       -1.9172418864297908E-002   4.7324312001178460E-002
  0.11390480923731486       -2.4864149618351369E-002   4.4269135428403585E-002
  0.11744242113146859       -2.7959561253674499E-002   4.2958713762444076E-002
   9.0360710953780066E-002   0.0000000000000000        4.9841142462200450E-002
   9.3961375069031766E-002  -5.4044119404859248E-003   5.3215518727451755E-002
   9.7562039184283453E-002  -1.0671555243807182E-002   5.4971244528083704E-002
  0.10116270329953514       -1.5801429909963763E-002   5.5108319864096277E-002
  0.10476336741478684       -2.0794035938955673E-002   5.3626744735489486E-002
  0.13616168212364094       -4.9456137197830929E-002  -7.8056969634018175E-003
  0.13295626756890705       -4.2921442569261975E-002  -3.3884313846173422E-003
  0.12975085301417313       -3.8483172338348873E-002  -3.8665065597074180E-004
  0.12654543845943925       -3.6141326505091581E-002   1.1996452225378484E-003
  0.12334002390470533       -3.5895905069490142E-002   1.3704562509086471E-003
  0.13314157848589558       -4.2290611883112131E-002   1.2242492912998379E-002
  0.12890897668821097       -3.8425203475974196E-002   1.2189415088022706E-002
  0.12467637489052638       -3.5741352640450988E-002   1.1497447627283369E-002
  0.12044377309284174       -3.4239059376542473E-002   1.0166590530780641E-002
  0.11621117129515715       -3.3918323684248672E-002   8.1968437985142917E-003
  0.12690182482183815       -3.5125086568393304E-002   2.9163963154947035E-002
  0.12241863099557722       -3.3928964382686458E-002   2.5555408752252217E-002
  0.11793543716931623       -3.2999532942553152E-002   2.2084559928168275E-002
  0.11345224334305527       -3.2336792247993421E-002   1.8751416682695119E-002
  0.10896904951679430       -3.1940742299007258E-002   1.5555979015832874E-002
  0.11744242113146859       -2.7959561253674499E-002   4.2958713762444076E-002
  0.11348523049100566       -2.9432725289398672E-002   3.6709549608071317E-002
  0.10952803985054273       -3.0257713244655291E-002   3.1374686246683742E-002
  0.10557084921007981       -3.0434525119444319E-002   2.6954123678281438E-002
  0.10161365856961688       -2.9963160913765816E-002   2.3447861902864377E-002
  0.10476336741478684       -2.0794035938955673E-002   5.3626744735489486E-002
  0.10210877517449635       -2.4936486196110913E-002   4.5651837655479900E-002
   9.9454182934205840E-002  -2.7515893546757438E-002   3.9367826582829890E-002
   9.6799590693915333E-002  -2.8532257990895260E-002   3.4774711517539525E-002
   9.4144998453624854E-002  -2.7985579528524346E-002   3.1872492459608756E-002
  0.12334002390470533       -3.5895905069490142E-002   1.3704562509086471E-003
  0.12038288222905769       -3.6390882570982913E-002   6.4454671445705880E-004
  0.11742574055341004       -3.6270233549007949E-002   1.2463223360521802E-004
  0.11446859887776241       -3.5533958003565569E-002  -1.8928719164691687E-004
  0.11151145720211475       -3.4182055934655842E-002  -2.9721156129963733E-004
  0.11621117129515715       -3.3918323684248672E-002   8.1968437985142917E-003
  0.11344471755212793       -3.3992551355278650E-002   7.8459866544845214E-003
  0.11067826380909872       -3.3675148181341166E-002   7.6705103200919444E-003
  0.10791181006606951       -3.2966114162436444E-002   7.6704147953366754E-003
  0.10514535632304031       -3.1865449298564386E-002   7.8457000802187038E-003
  0.10896904951679430       -3.1940742299007258E-002   1.5555979015832874E-002
  0.10636266946042121       -3.1594220139574344E-002   1.5356178585724443E-002
  0.10375628940404813       -3.1080062813674321E-002   1.5301144719290935E-002
  0.10114990934767501       -3.0398270321307125E-002   1.5390877416532497E-002
   9.8543529291301876E-002  -2.9548842662472874E-002   1.5625376677448760E-002
  0.10161365856961688       -2.9963160913765816E-002   2.3447861902864377E-002
   9.9136737953937529E-002  -2.9195888923870032E-002   2.3175122508177191E-002
   9.6659817338258180E-002  -2.8484977446007424E-002   2.3016535431202571E-002
   9.4182896722578832E-002  -2.7830426480177847E-002   2.2972100671940512E-002
   9.1705976106899498E-002  -2.7232236026381501E-002   2.3041818230391156E-002
   9.4144998453624854E-002  -2.7985579528524346E-002   3.1872492459608756E-002
   9.1766923032676917E-002  -2.6797557708165776E-002   3.1302818421842592E-002
   8.9388847611728994E-002  -2.5889892078340533E-002   3.0816682455826722E-002
   8.7010772190781044E-002  -2.5262582639048584E-002   3.0414084561560986E-002
   8.4632696769833121E-002  -2.4915629390290045E-002   3.0095024739045545E-002
  0.11151145720211475       -3.4182055934655842E-002  -2.9721156129963733E-004
  0.10830719745466127       -3.2660742119806158E-002   1.5078315662803154E-005
  0.10510293770720783       -3.1416231336544698E-002   5.0473381299925846E-004
  0.10189867795975439       -3.0448523584871240E-002   1.1717549307097702E-003
   9.8694418212300905E-002  -2.9757618864786006E-002   2.0161416687942135E-003
  0.10514535632304031       -3.1865449298564386E-002   7.8457000802187038E-003
  0.10212740487749664       -3.0650050046008209E-002   7.7117239364592471E-003
   9.9109453431952946E-002  -2.9596812861051397E-002   7.7729987761449987E-003
   9.6091501986409200E-002  -2.8705737743693650E-002   8.0295245992767633E-003
   9.3073550540865579E-002  -2.7976824693935254E-002   8.4813014058537084E-003
   9.8543529291301876E-002  -2.9548842662472874E-002   1.5625376677448760E-002
   9.5729771510739470E-002  -2.8639357972210219E-002   1.5159775476956336E-002
   9.2916013730177077E-002  -2.7777394385558041E-002   1.4907310622981028E-002
   9.0102255949614671E-002  -2.6962951902516061E-002   1.4867982115522586E-002
   8.7288498169052223E-002  -2.6196030523084446E-002   1.5041789954581053E-002
   9.1705976106899498E-002  -2.7232236026381501E-002   2.3041818230391156E-002
   8.9114297354389860E-002  -2.6628665898412361E-002   2.2359232937154486E-002
   8.6522618601880208E-002  -2.5957975910064657E-002   2.1907669353506434E-002
   8.3930939849370584E-002  -2.5220166061338471E-002   2.1687127479446910E-002
   8.1339261096860932E-002  -2.4415236352233721E-002   2.1697607314975866E-002
   8.4632696769833121E-002  -2.4915629390290045E-002   3.0095024739045545E-002
   8.2280982408447750E-002  -2.4617973824614406E-002   2.9310096317053697E-002
   7.9929268047062366E-002  -2.4138557434571370E-002   2.8774074967721774E-002
   7.7577553685676981E-002  -2.3477380220160809E-002   2.8486960691049994E-002
   7.5225839324291666E-002  -2.2634442181382913E-002   2.8448753487038209E-002
   9.8694418212300905E-002  -2.9757618864786006E-002   2.0161416687942135E-003
   9.5833316784120826E-002  -2.9143355415080646E-002   2.3227396999645489E-003
   9.2972215355940718E-002  -2.8405571474547392E-002   2.6999772131736655E-003
   9.0111113927760653E-002  -2.7544267043185779E-002   3.1478542084210359E-003
   8.7250012499580532E-002  -2.6559442120996257E-002   3.6663706857068545E-003
   9.3073550540865579E-002  -2.7976824693935254E-002   8.4813014058537084E-003
   9.0295493471955229E-002  -2.7294518119821781E-002   8.7323544174462420E-003
   8.7517436403044824E-002  -2.6543262429399472E-002   9.0788566655394670E-003
   8.4739379334134418E-002  -2.5723057622667841E-002   9.5208081501339317E-003
   8.1961322265224068E-002  -2.4833903699627458E-002   1.0058208871229102E-002
   8.7288498169052223E-002  -2.6196030523084446E-002   1.5041789954581053E-002
   8.4618295213874081E-002  -2.5445680824562958E-002   1.5182726572076366E-002
   8.1948092258695981E-002  -2.4680953384251539E-002   1.5443922180534850E-002
   7.9277889303517854E-002  -2.3901848202150123E-002   1.5825376779957150E-002
   7.6607686348339810E-002  -2.3108365278258658E-002   1.6327090370342801E-002
   8.1339261096860932E-002  -2.4415236352233721E-002   2.1697607314975866E-002
   7.8801722009877603E-002  -2.3596843529304225E-002   2.1673856163854602E-002
   7.6264182922894302E-002  -2.2818644339103668E-002   2.1795173758159713E-002
   7.3726643835910932E-002  -2.2080638781632293E-002   2.2061560097890752E-002
   7.1189104748927673E-002  -2.1382826856889858E-002   2.2473015183048034E-002
   7.5225839324291666E-002  -2.2634442181382913E-002   2.8448753487038209E-002
   7.2845773859965657E-002  -2.1748006234045297E-002   2.8205743192781879E-002
   7.0465708395639648E-002  -2.0956335293955845E-002   2.8132611398414123E-002
   6.8085642931313639E-002  -2.0259429361114453E-002   2.8229358103935016E-002
   6.5705577466987658E-002  -1.9657288435521114E-002   2.8495983309344497E-002
   8.7250012499580532E-002  -2.6559442120996257E-002   3.6663706857068545E-003
   8.4053196387837703E-002  -2.5540549067484708E-002   3.4714133848319784E-003
   8.0856380276095041E-002  -2.4577040242157455E-002   3.5152579795044714E-003
   7.7659564164352296E-002  -2.3668915645014499E-002   3.7979044697246389E-003
   7.4462748052609551E-002  -2.2816175276055728E-002   4.3193528554922311E-003
   8.1961322265224068E-002  -2.4833903699627458E-002   1.0058208871229102E-002
   7.8997218567013666E-002  -2.3921649285109314E-002   9.7531502250417512E-003
   7.6033114868803264E-002  -2.3032143003945516E-002   9.6747145103715515E-003
   7.3069011170592876E-002  -2.2165384856135617E-002   9.8229017272188773E-003
   7.0104907472382516E-002  -2.1321374841679952E-002   1.0197711875582882E-002
   7.6607686348339810E-002  -2.3108365278258658E-002   1.6327090370342801E-002
   7.3864116099631227E-002  -2.2302749502734032E-002   1.5944566473673455E-002
   7.1120545850922770E-002  -2.1487245765733576E-002   1.5776486544490750E-002
   6.8376975602214229E-002  -2.0661854067256957E-002   1.5822850582794853E-002
   6.5633405353505730E-002  -1.9826574407304565E-002   1.6083658588585514E-002
   7.1189104748927673E-002  -2.1382826856889858E-002   2.2473015183048034E-002
   6.8653888985690623E-002  -2.0683849720358860E-002   2.2045662130726576E-002
   6.6118673222453531E-002  -1.9942348527521803E-002   2.1820574081861520E-002
   6.3583457459216453E-002  -1.9158323278378353E-002   2.1797751036452623E-002
   6.1048241695979381E-002  -1.8331773972928761E-002   2.1977192994500030E-002
   6.5705577466987658E-002  -1.9657288435521114E-002   2.8495983309344497E-002
   6.3366537225191616E-002  -1.9064949937983466E-002   2.8056437196201378E-002
   6.1027496983395615E-002  -1.8397451289309849E-002   2.7806977122484117E-002
   5.8688456741599566E-002  -1.7654792489499565E-002   2.7747603088192352E-002
   5.6349416499803517E-002  -1.6836973538553179E-002   2.7878315093326722E-002
   7.4462748052609551E-002  -2.2816175276055728E-002   4.3193528554922311E-003
   7.1276534966755567E-002  -2.1991169509480935E-002   4.6234321136333634E-003
   6.8090321880901528E-002  -2.1166248719489966E-002   5.2638911822339152E-003
   6.4904108795047460E-002  -2.0341412906082004E-002   6.2407300612939420E-003
   6.1717895709193504E-002  -1.9516662069258284E-002   7.5539487508134995E-003
   7.0104907472382516E-002  -2.1321374841679952E-002   1.0197711875582882E-002
   6.7228722232430094E-002  -2.0496505256130115E-002   1.0353968779996559E-002
   6.4352536992477727E-002  -1.9687168395037036E-002   1.0793901565753494E-002
   6.1476351752525360E-002  -1.8893364258400880E-002   1.1517510232854897E-002
   5.8600166512573049E-002  -1.8115092846221703E-002   1.2524794781300086E-002
   6.5633405353505730E-002  -1.9826574407304565E-002   1.6083658588585514E-002
   6.3014544030339487E-002  -1.9001841002779102E-002   1.6076645391397748E-002
   6.0395682707173229E-002  -1.8208088070584189E-002   1.6300604146438372E-002
   5.7776821384006936E-002  -1.7445315610719749E-002   1.6755534853707371E-002
   5.5157960060840727E-002  -1.6713523623185400E-002   1.7441437513204733E-002
   6.1048241695979381E-002  -1.8331773972928761E-002   2.1977192994500030E-002
   5.8634000360483669E-002  -1.7507176749428185E-002   2.1791461947837903E-002
   5.6219759024987936E-002  -1.6729007746131411E-002   2.1783998924288353E-002
   5.3805517689492183E-002  -1.5997266963038288E-002   2.1954803923851820E-002
   5.1391276353996471E-002  -1.5311954400149180E-002   2.2303876946527752E-002
   5.6349416499803517E-002  -1.6836973538553179E-002   2.7878315093326722E-002
   5.4087091222862760E-002  -1.6012512496077269E-002   2.7498418449316664E-002
   5.1824765945921947E-002  -1.5249927421678439E-002   2.7244085899303772E-002
   4.9562440668981161E-002  -1.4549218315357111E-002   2.7115317443288045E-002
   4.7300115392040376E-002  -1.3910385177112738E-002   2.7112113081269595E-002
   6.1717895709193504E-002  -1.9516662069258284E-002   7.5539487508134995E-003
   5.7051398509141871E-002  -1.8612054659318922E-002   8.3522433044256328E-003
   5.2384901309090237E-002  -1.7547649126565562E-002   1.0677988282629391E-002
   4.7718404109038604E-002  -1.6323445470998781E-002   1.4531183685424637E-002
   4.3051906908986970E-002  -1.4939443692617793E-002   1.9911829512811785E-002
   5.8600166512573049E-002  -1.8115092846221703E-002   1.2524794781300086E-002
   5.5246431823992692E-002  -1.7274406267462961E-002   1.2934004756895046E-002
   5.1892697135412280E-002  -1.6293356631087580E-002   1.4441289330840767E-002
   4.8538962446831951E-002  -1.5171943937095624E-002   1.7046648503136946E-002
   4.5185227758251512E-002  -1.3910168185486960E-002   2.0750082273784720E-002
   5.5157960060840727E-002  -1.6713523623185400E-002   1.7441437513204733E-002
   5.2687612057490674E-002  -1.5936757875607110E-002   1.7442127845585215E-002
   5.0217264054140565E-002  -1.5039064135609168E-002   1.8111516950075582E-002
   4.7746916050790567E-002  -1.4020442403192526E-002   1.9449604826675966E-002
   4.5276568047440457E-002  -1.2880892678356126E-002   2.1456391475385805E-002
   5.1391276353996471E-002  -1.5311954400149180E-002   2.2303876946527752E-002
   4.9374939209635774E-002  -1.4599109483750983E-002   2.1876612570496494E-002
   4.7358602065275091E-002  -1.3784771640130970E-002   2.1688671140334199E-002
   4.5342264920914394E-002  -1.2868940869289065E-002   2.1740052656040745E-002
   4.3325927776553724E-002  -1.1851617171225404E-002   2.2030757117616179E-002
   4.7300115392040376E-002  -1.3910385177112738E-002   2.7112113081269595E-002
   4.5308413280428061E-002  -1.3261461091894911E-002   2.6237458931629098E-002
   4.3316711168815858E-002  -1.2530479144652523E-002   2.5172751901616552E-002
   4.1325009057203529E-002  -1.1717439335385986E-002   2.3917991991231874E-002
   3.9333306945591340E-002  -1.0822341664094459E-002   2.2473179200475313E-002
   9.0360710953780066E-002   0.0000000000000000        4.9841142462200450E-002
   9.3961375069031766E-002  -5.4044119404859248E-003   5.3215518727451755E-002
   9.7562039184283453E-002  -1.0671555243807182E-002   5.4971244528083704E-002
  0.10116270329953514       -1.5801429909963763E-002   5.5108319864096277E-002
  0.10476336741478684       -2.0794035938955673E-002   5.3626744735489486E-002
   8.2424544774784045E-002   0.0000000000000000        4.4789559155524246E-002
   8.4635561803493312E-002  -4.5747337763467344E-003   4.8273181080100890E-002
   8.6846578832202564E-002  -9.0386943968186230E-003   5.0596159296212029E-002
   8.9057595860911831E-002  -1.3391881861415666E-002   5.1758493803857671E-002
   9.1268612889621084E-002  -1.7634296170137870E-002   5.1760184603037808E-002
   7.4244599980516662E-002   0.0000000000000000        4.0580901753632145E-002
   7.5523976678837368E-002  -3.7450556122075422E-003   4.4147273856244285E-002
   7.6803353377158073E-002  -7.4058335498300674E-003   4.7011009006544785E-002
   7.8082730075478779E-002  -1.0982333812867572E-002   4.9172107204533674E-002
   7.9362106773799457E-002  -1.4474556401320064E-002   5.0630568450210904E-002
   6.5820876570977946E-002   0.0000000000000000        3.7215170256524141E-002
   6.6626619695063921E-002  -2.9153774480683513E-003   4.0837797055881968E-002
   6.7432362819149924E-002  -5.7729727028415102E-003   4.4215793659082014E-002
   6.8238105943235913E-002  -8.5727857643194752E-003   4.7349160066124316E-002
   6.9043849067321916E-002  -1.1314816632502259E-002   5.0237896277008857E-002
   5.7153374546167840E-002   0.0000000000000000        3.4692364664200254E-002
   5.7943490852173013E-002  -2.0856992839291587E-003   3.8344750679013911E-002
   5.8733607158178172E-002  -4.1401118558529529E-003   4.2210513253823696E-002
   5.9523723464183338E-002  -6.1632377157713834E-003   4.6289652388629574E-002
   6.0313839770188504E-002  -8.1550768636844493E-003   5.0582168083431571E-002
  0.10476336741478684       -2.0794035938955673E-002   5.3626744735489486E-002
  0.10210877517449635       -2.4936486196110913E-002   4.5651837655479900E-002
   9.9454182934205840E-002  -2.7515893546757438E-002   3.9367826582829890E-002
   9.6799590693915333E-002  -2.8532257990895260E-002   3.4774711517539525E-002
   9.4144998453624854E-002  -2.7985579528524346E-002   3.1872492459608756E-002
   9.1268612889621084E-002  -1.7634296170137870E-002   5.1760184603037808E-002
   9.0067032852309187E-002  -2.1211098945500051E-002   4.6527388536668247E-002
   8.8865452814997331E-002  -2.3567451810017018E-002   4.2509720868896365E-002
   8.7663872777685448E-002  -2.4703354763688817E-002   3.9707181599722086E-002
   8.6462292740373550E-002  -2.4618807806515382E-002   3.8119770729145408E-002
   7.9362106773799457E-002  -1.4474556401320064E-002   5.0630568450210904E-002
   7.9137771330704182E-002  -1.7485711694889203E-002   4.7797290401817960E-002
   7.8913435887608935E-002  -1.9619010073276637E-002   4.5703373143260576E-002
   7.8689100444513646E-002  -2.0874451536482388E-002   4.4348816674538924E-002
   7.8464765001418399E-002  -2.1252036084506418E-002   4.3733620995652797E-002
   6.9043849067321916E-002  -1.1314816632502259E-002   5.0237896277008857E-002
   6.9320990609681291E-002  -1.3760324444278344E-002   4.9461543250928920E-002
   6.9598132152040665E-002  -1.5670568336536232E-002   4.8948783405922631E-002
   6.9875273694400025E-002  -1.7045548309275939E-002   4.8699616741989991E-002
   7.0152415236759386E-002  -1.7885264362497461E-002   4.8714043259130993E-002
   6.0313839770188504E-002  -8.1550768636844493E-003   5.0582168083431571E-002
   6.0616690689240499E-002  -1.0034937193667494E-002   5.1520147084001204E-002
   6.0919541608292493E-002  -1.1722126599795839E-002   5.2245951656882450E-002
   6.1222392527344509E-002  -1.3216645082069527E-002   5.2759581802075371E-002
   6.1525243446396503E-002  -1.4518492640488476E-002   5.3061037519579926E-002
   9.4144998453624854E-002  -2.7985579528524346E-002   3.1872492459608756E-002
   9.1766923032676917E-002  -2.6797557708165776E-002   3.1302818421842592E-002
   8.9388847611728994E-002  -2.5889892078340533E-002   3.0816682455826722E-002
   8.7010772190781044E-002  -2.5262582639048584E-002   3.0414084561560986E-002
   8.4632696769833121E-002  -2.4915629390290045E-002   3.0095024739045545E-002
   8.6462292740373550E-002  -2.4618807806515382E-002   3.8119770729145408E-002
   8.4212925777465628E-002  -2.3979835232871852E-002   3.7084467617745948E-002
   8.1963558814557663E-002  -2.3452461337133267E-002   3.6223043350676207E-002
   7.9714191851649685E-002  -2.3036686119299588E-002   3.5535497927936158E-002
   7.7464824888741776E-002  -2.2732509579370910E-002   3.5021831349525870E-002
   7.8464765001418399E-002  -2.1252036084506418E-002   4.3733620995652797E-002
   7.6434447269129902E-002  -2.1162112757577900E-002   4.2401446323248451E-002
   7.4404129536841404E-002  -2.1015030595925983E-002   4.1333491267753250E-002
   7.2373811804552907E-002  -2.0810789599550607E-002   4.0529755829167256E-002
   7.0343494072264423E-002  -2.0549389768451817E-002   3.9990240007490491E-002
   7.0152415236759386E-002  -1.7885264362497461E-002   4.8714043259130993E-002
   6.8431487507669808E-002  -1.8344390282283955E-002   4.7253754538350130E-002
   6.6710559778580231E-002  -1.8577599854718706E-002   4.6148026207057838E-002
   6.4989632049490625E-002  -1.8584893079801598E-002   4.5396858265254296E-002
   6.3268704320401076E-002  -1.8366269957532703E-002   4.5000250712939449E-002
   6.1525243446396503E-002  -1.4518492640488476E-002   5.3061037519579926E-002
   6.0204046493085299E-002  -1.5526667806990031E-002   5.1641392263050923E-002
   5.8882849539774115E-002  -1.6140169113511429E-002   5.0666648168590019E-002
   5.7561652586462925E-002  -1.6358996560052616E-002   5.0136805236197249E-002
   5.6240455633151720E-002  -1.6183150146613617E-002   5.0051863465872648E-002
   8.4632696769833121E-002  -2.4915629390290045E-002   3.0095024739045545E-002
   8.2280982408447750E-002  -2.4617973824614406E-002   2.9310096317053697E-002
   7.9929268047062366E-002  -2.4138557434571370E-002   2.8774074967721774E-002
   7.7577553685676981E-002  -2.3477380220160809E-002   2.8486960691049994E-002
   7.5225839324291666E-002  -2.2634442181382913E-002   2.8448753487038209E-002
   7.7464824888741776E-002  -2.2732509579370910E-002   3.5021831349525870E-002
   7.5352325104518711E-002  -2.2418223103871864E-002   3.4430541183356859E-002
   7.3239825320295632E-002  -2.1972118079327255E-002   3.4068773098852402E-002
   7.1127325536072539E-002  -2.1394194505736971E-002   3.3936527096012511E-002
   6.9014825751849501E-002  -2.0684452383101154E-002   3.4033803174837202E-002
   7.0343494072264423E-002  -2.0549389768451817E-002   3.9990240007490491E-002
   6.8450823874208241E-002  -2.0218472383129411E-002   3.9542645821822486E-002
   6.6558153676152032E-002  -1.9805678724083224E-002   3.9305188726823613E-002
   6.4665483478095864E-002  -1.9311008791313221E-002   3.9277868722493808E-002
   6.2772813280039683E-002  -1.8734462584819409E-002   3.9460685808833308E-002
   6.3268704320401076E-002  -1.8366269957532703E-002   4.5000250712939449E-002
   6.1576478717516328E-002  -1.8018721662386942E-002   4.4646410232450501E-002
   5.9884253114631594E-002  -1.7639239368839137E-002   4.4483321851635421E-002
   5.8192027511746867E-002  -1.7227823076889425E-002   4.4510985570493995E-002
   5.6499801908862127E-002  -1.6784472786537628E-002   4.4729401389026383E-002
   5.6240455633151720E-002  -1.6183150146613617E-002   5.0051863465872648E-002
   5.4729289634443026E-002  -1.5818970941644403E-002   4.9741834415241118E-002
   5.3218123635734318E-002  -1.5472800013595092E-002   4.9603172473288007E-002
   5.1706957637025611E-002  -1.5144637362465647E-002   4.9635877640013107E-002
   5.0195791638316889E-002  -1.4834482988255876E-002   4.9839949915416543E-002
   7.5225839324291666E-002  -2.2634442181382913E-002   2.8448753487038209E-002
   7.2845773859965657E-002  -2.1748006234045297E-002   2.8205743192781879E-002
   7.0465708395639648E-002  -2.0956335293955845E-002   2.8132611398414123E-002
   6.8085642931313639E-002  -2.0259429361114453E-002   2.8229358103935016E-002
   6.5705577466987658E-002  -1.9657288435521114E-002   2.8495983309344497E-002
   6.9014825751849501E-002  -2.0684452383101154E-002   3.4033803174837202E-002
   6.6812046928139107E-002  -1.9936685419725333E-002   3.3691935184533242E-002
   6.4609268104428672E-002  -1.9244687323915273E-002   3.3534761975571953E-002
   6.2406489280718236E-002  -1.8608458095670966E-002   3.3562283547953160E-002
   6.0203710457007814E-002  -1.8027997734992363E-002   3.3774499901676774E-002
   6.2772813280039683E-002  -1.8734462584819409E-002   3.9460685808833308E-002
   6.0762137378398792E-002  -1.8125364605405384E-002   3.9058956262164039E-002
   5.8751461476757867E-002  -1.7533039353874704E-002   3.8856737778291350E-002
   5.6740785575116956E-002  -1.6957486830227513E-002   3.8854030357215082E-002
   5.4730109673476031E-002  -1.6398707034463639E-002   3.9050833998935441E-002
   5.6499801908862127E-002  -1.6784472786537628E-002   4.4729401389026383E-002
   5.4696045210744740E-002  -1.6314043791085399E-002   4.4306806425674333E-002
   5.2892288512627283E-002  -1.5821391383834191E-002   4.4098538806572572E-002
   5.1088531814509820E-002  -1.5306515564784098E-002   4.4104598531721224E-002
   4.9284775116392412E-002  -1.4769416333934929E-002   4.4324985601120498E-002
   5.0195791638316889E-002  -1.4834482988255876E-002   4.9839949915416543E-002
   4.8613770425176894E-002  -1.4502722976765414E-002   4.9435485675063867E-002
   4.7031749212036886E-002  -1.4109743413793611E-002   4.9260165060415514E-002
   4.5449727998896849E-002  -1.3655544299340584E-002   4.9313988071471533E-002
   4.3867706785756855E-002  -1.3140125633406219E-002   4.9596954708231944E-002
   6.5705577466987658E-002  -1.9657288435521114E-002   2.8495983309344497E-002
   6.3366537225191616E-002  -1.9064949937983466E-002   2.8056437196201378E-002
   6.1027496983395615E-002  -1.8397451289309849E-002   2.7806977122484117E-002
   5.8688456741599566E-002  -1.7654792489499565E-002   2.7747603088192352E-002
   5.6349416499803517E-002  -1.6836973538553179E-002   2.7878315093326722E-002
   6.0203710457007814E-002  -1.8027997734992363E-002   3.3774499901676774E-002
   5.8052544447993362E-002  -1.7450278789684817E-002   3.3423731302317392E-002
   5.5901378438978841E-002  -1.6822273807553745E-002   3.3258625129095248E-002
   5.3750212429964306E-002  -1.6143982788598965E-002   3.3279181382010331E-002
   5.1599046420949812E-002  -1.5415405732820631E-002   3.3485400061062875E-002
   5.4730109673476031E-002  -1.6398707034463639E-002   3.9050833998935441E-002
   5.2762394283954579E-002  -1.5835607641386029E-002   3.8763968799047172E-002
   5.0794678894433121E-002  -1.5247096325797592E-002   3.8658342412007503E-002
   4.8826963504911683E-002  -1.4633173087698256E-002   3.8733954837816664E-002
   4.6859248115390231E-002  -1.3993837927088193E-002   3.8990806076474788E-002
   4.9284775116392412E-002  -1.4769416333934929E-002   4.4324985601120498E-002
   4.7496086733075461E-002  -1.4220936493087200E-002   4.4077149686390510E-002
   4.5707398349758468E-002  -1.3671918844041491E-002   4.4006128971220713E-002
   4.3918709966441503E-002  -1.3122363386797727E-002   4.4111923455610984E-002
   4.2130021583124469E-002  -1.2572270121355617E-002   4.4394533139561730E-002
   4.3867706785756855E-002  -1.3140125633406219E-002   4.9596954708231944E-002
   4.2253621795355856E-002  -1.2606265344788620E-002   4.9363273964347448E-002
   4.0639536804954884E-002  -1.2096741362285307E-002   4.9301984806734811E-002
   3.9025451814553885E-002  -1.1611553685897023E-002   4.9413087235393754E-002
   3.7411366824152886E-002  -1.1150702315623207E-002   4.9696581250324501E-002
   5.6349416499803517E-002  -1.6836973538553179E-002   2.7878315093326722E-002
   5.4087091222862760E-002  -1.6012512496077269E-002   2.7498418449316664E-002
   5.1824765945921947E-002  -1.5249927421678439E-002   2.7244085899303772E-002
   4.9562440668981161E-002  -1.4549218315357111E-002   2.7115317443288045E-002
   4.7300115392040376E-002  -1.3910385177112738E-002   2.7112113081269595E-002
   5.1599046420949812E-002  -1.5415405732820631E-002   3.3485400061062875E-002
   4.9471761317179980E-002  -1.4679325595065740E-002   3.3076973349047162E-002
   4.7344476213410022E-002  -1.3978525330180708E-002   3.2813062889375383E-002
   4.5217191109640113E-002  -1.3313004938166027E-002   3.2693668682048704E-002
   4.3089906005870177E-002  -1.2682764419021164E-002   3.2718790727066238E-002
   4.6859248115390231E-002  -1.3993837927088193E-002   3.8990806076474788E-002
   4.4885955343138551E-002  -1.3346138694054155E-002   3.8580445391659876E-002
   4.2912662570886967E-002  -1.2707123238682963E-002   3.8333553117537097E-002
   4.0939369798635293E-002  -1.2076791560974773E-002   3.8250129254106223E-002
   3.8966077026383689E-002  -1.1455143660929479E-002   3.8330173801367273E-002
   4.2130021583124469E-002  -1.2572270121355617E-002   4.4394533139561730E-002
   4.0329673300738632E-002  -1.2012951793042626E-002   4.4008834577155445E-002
   3.8529325018352718E-002  -1.1435721147185225E-002   4.3805556583788346E-002
   3.6728976735966826E-002  -1.0840578183783716E-002   4.3784699159460698E-002
   3.4928628453580912E-002  -1.0227522902837960E-002   4.3946262304172666E-002
   3.7411366824152886E-002  -1.1150702315623207E-002   4.9696581250324501E-002
   3.5802915189980133E-002  -1.0679764892031041E-002   4.9362140905533702E-002
   3.4194463555807353E-002  -1.0164319055687529E-002   4.9229073288129560E-002
   3.2586011921634572E-002  -9.6043648065925850E-003   4.9297378398112282E-002
   3.0977560287461819E-002  -8.9999021447461636E-003   4.9567056235481799E-002
   4.7300115392040376E-002  -1.3910385177112738E-002   2.7112113081269595E-002
   4.5308413280428061E-002  -1.3261461091894911E-002   2.6237458931629098E-002
   4.3316711168815858E-002  -1.2530479144652523E-002   2.5172751901616552E-002
   4.1325009057203529E-002  -1.1717439335385986E-002   2.3917991991231874E-002
   3.9333306945591340E-002  -1.0822341664094459E-002   2.2473179200475313E-002
   4.3089906005870177E-002  -1.2682764419021164E-002   3.2718790727066238E-002
   4.0964206506944101E-002  -1.2043641300301944E-002   3.2054123944189827E-002
   3.8838507008018039E-002  -1.1351473109563165E-002   3.1311515267057638E-002
   3.6712807509091928E-002  -1.0606259846805514E-002   3.0490964695669989E-002
   3.4587108010165846E-002  -9.8080015120283193E-003   2.9592472230026701E-002
   3.8966077026383689E-002  -1.1455143660929479E-002   3.8330173801367273E-002
   3.6818491126260330E-002  -1.0825821508708616E-002   3.7846481595249420E-002
   3.4670905226136910E-002  -1.0172467074473932E-002   3.7396958480992268E-002
   3.2523319326013558E-002  -9.4950803582250741E-003   3.6981604458595919E-002
   3.0375733425890089E-002  -8.7936613599621793E-003   3.6600419528061146E-002
   3.4928628453580912E-002  -1.0227522902837960E-002   4.3946262304172666E-002
   3.2871267138376743E-002  -9.6080017171156357E-003   4.3614531884807996E-002
   3.0813905823172560E-002  -8.9934610393845246E-003   4.3429081543420622E-002
   2.8756544507968416E-002  -8.3839008696445626E-003   4.3389911280010712E-002
   2.6699183192764271E-002  -7.7793212078960949E-003   4.3497021094578592E-002
   3.0977560287461819E-002  -8.9999021447461636E-003   4.9567056235481799E-002
   2.9122534543293305E-002  -8.3901819255224330E-003   4.9358274812865421E-002
   2.7267508799124859E-002  -7.8144550042952426E-003   4.9407884454342715E-002
   2.5412483054956379E-002  -7.2727213810643045E-003   4.9715885159913861E-002
   2.3557457310787899E-002  -6.7649810558298995E-003   5.0282276929579206E-002
   5.7153374546167840E-002   0.0000000000000000        3.4692364664200254E-002
   5.7943490852173013E-002  -2.0856992839291587E-003   3.8344750679013911E-002
   5.8733607158178172E-002  -4.1401118558529529E-003   4.2210513253823696E-002
   5.9523723464183338E-002  -6.1632377157713834E-003   4.6289652388629574E-002
   6.0313839770188504E-002  -8.1550768636844493E-003   5.0582168083431571E-002
   4.8653868997253644E-002   0.0000000000000000        3.2789689802879808E-002
   4.9592234162457657E-002  -1.7108251068099576E-003   3.6965545015861148E-002
   5.0530599327661692E-002  -3.4352862618217354E-003   4.1224521387244105E-002
   5.1468964492865713E-002  -5.1733834650353246E-003   4.5566618917028665E-002
   5.2407329658069726E-002  -6.9251167164507341E-003   4.9991837605214862E-002
   4.0734135015402587E-002   0.0000000000000000        3.1284350498782157E-002
   4.1690493638210965E-002  -1.3359509296907569E-003   3.5938752149723988E-002
   4.2646852261019358E-002  -2.7304606677905144E-003   4.0546019557472938E-002
   4.3603210883827744E-002  -4.1835292142992754E-003   4.5106152722029003E-002
   4.4559569506636129E-002  -5.6951565692170318E-003   4.9619151643392201E-002
   3.3394172600614676E-002   0.0000000000000000        3.0176346751907293E-002
   3.4238269279432930E-002  -9.6107675257155558E-004   3.5264372080602437E-002
   3.5082365958251191E-002  -2.0256350737592969E-003   4.0175007764510204E-002
   3.5926462637069445E-002  -3.1936749635632206E-003   4.4908253803630609E-002
   3.6770559315887699E-002  -4.4651964219833279E-003   4.9464110197963602E-002
   2.6633981752889918E-002   0.0000000000000000        2.9465678562255224E-002
   2.7235561086123551E-002  -5.8620257545235512E-004   3.4942404808496488E-002
   2.7837140419357181E-002  -1.3208094797280759E-003   4.0111486008355901E-002
   2.8438719752590814E-002  -2.2038207128271693E-003   4.4972922161833420E-002
   2.9040299085824443E-002  -3.2352362747496179E-003   4.9526713268929073E-002
   6.0313839770188504E-002  -8.1550768636844493E-003   5.0582168083431571E-002
   6.0616690689240499E-002  -1.0034937193667494E-002   5.1520147084001204E-002
   6.0919541608292493E-002  -1.1722126599795839E-002   5.2245951656882450E-002
   6.1222392527344509E-002  -1.3216645082069527E-002   5.2759581802075371E-002
   6.1525243446396503E-002  -1.4518492640488476E-002   5.3061037519579926E-002
   5.2407329658069726E-002  -6.9251167164507341E-003   4.9991837605214862E-002
   5.2536741227978523E-002  -8.5898852149882167E-003   5.1217419883921013E-002
   5.2666152797887313E-002  -1.0067088159567991E-002   5.2308297892029121E-002
   5.2795564367796102E-002  -1.1356725550190067E-002   5.3264471629539192E-002
   5.2924975937704885E-002  -1.2458797386854431E-002   5.4085941096451255E-002
   4.4559569506636129E-002  -5.6951565692170318E-003   4.9619151643392201E-002
   4.4593011884492030E-002  -7.1448332363089418E-003   5.1127231830337891E-002
   4.4626454262347945E-002  -8.4120497193401287E-003   5.2578077903775888E-002
   4.4659896640203853E-002  -9.4968060183106186E-003   5.3971689863706110E-002
   4.4693339018059761E-002  -1.0399102133220393E-002   5.5308067710128653E-002
   3.6770559315887699E-002  -4.4651964219833279E-003   4.9464110197963602E-002
   3.6785502658781048E-002  -5.6997812576296651E-003   5.1249582923251859E-002
   3.6800446001674383E-002  -6.7570112791122830E-003   5.3055291692122718E-002
   3.6815389344567725E-002  -7.6368864864311643E-003   5.4881236504576138E-002
   3.6830332687461061E-002  -8.3394068795863453E-003   5.6727417360612181E-002
   2.9040299085824443E-002  -3.2352362747496179E-003   4.9526713268929073E-002
   2.9114213550845543E-002  -4.2547292789503911E-003   5.1584473162662910E-002
   2.9188128015866639E-002  -5.1019728388844174E-003   5.3739939257069623E-002
   2.9262042480887745E-002  -5.7769669545517238E-003   5.5993111552149234E-002
   2.9335956945908841E-002  -6.2797116259522973E-003   5.8343990047901820E-002
   6.1525243446396503E-002  -1.4518492640488476E-002   5.3061037519579926E-002
   6.0204046493085299E-002  -1.5526667806990031E-002   5.1641392263050923E-002
   5.8882849539774115E-002  -1.6140169113511429E-002   5.0666648168590019E-002
   5.7561652586462925E-002  -1.6358996560052616E-002   5.0136805236197249E-002
   5.6240455633151720E-002  -1.6183150146613617E-002   5.0051863465872648E-002
   5.2924975937704885E-002  -1.2458797386854431E-002   5.4085941096451255E-002
   5.1998060100294223E-002  -1.3311322536388292E-002   5.3337407222942806E-002
   5.1071144262883554E-002  -1.3852319865618783E-002   5.2932534419167329E-002
   5.0144228425472892E-002  -1.4081789374545978E-002   5.2871322685124775E-002
   4.9217312588062223E-002  -1.3999731063169749E-002   5.3153772020815143E-002
   4.4693339018059761E-002  -1.0399102133220393E-002   5.5308067710128653E-002
   4.4059464204214409E-002  -1.1095977265786556E-002   5.5147499179964046E-002
   4.3425589390369064E-002  -1.1564470617726209E-002   5.5229351627197137E-002
   4.2791714576523705E-002  -1.1804582189039327E-002   5.5553625051827982E-002
   4.2157839762678367E-002  -1.1816311979725921E-002   5.6120319453856579E-002
   3.6830332687461061E-002  -8.3394068795863453E-003   5.6727417360612181E-002
   3.6388258804845829E-002  -8.8806319951848043E-003   5.7071668134114559E-002
   3.5946184922230597E-002  -9.2766213698335931E-003   5.7557099792679423E-002
   3.5504111039615385E-002  -9.5273750035326822E-003   5.8183712336306787E-002
   3.5062037157000139E-002  -9.6328928962820873E-003   5.8951505764996734E-002
   2.9335956945908841E-002  -6.2797116259522973E-003   5.8343990047901820E-002
   2.8984443902188517E-002  -6.6652867245830839E-003   5.9109914085394316E-002
   2.8632930858468197E-002  -6.9887721219409997E-003   5.9915778915614108E-002
   2.8281417814747876E-002  -7.2501678180260471E-003   6.0761584538561161E-002
   2.7929904771027553E-002  -7.4494738128382254E-003   6.1647330954235580E-002
   5.6240455633151720E-002  -1.6183150146613617E-002   5.0051863465872648E-002
   5.4729289634443026E-002  -1.5818970941644403E-002   4.9741834415241118E-002
   5.3218123635734318E-002  -1.5472800013595092E-002   4.9603172473288007E-002
   5.1706957637025611E-002  -1.5144637362465647E-002   4.9635877640013107E-002
   5.0195791638316889E-002  -1.4834482988255876E-002   4.9839949915416543E-002
   4.9217312588062223E-002  -1.3999731063169749E-002   5.3153772020815143E-002
   4.7884875698799012E-002  -1.3757010612940983E-002   5.2810669280897511E-002
   4.6552438809535808E-002  -1.3504493705310368E-002   5.2653657651192655E-002
   4.5220001920272632E-002  -1.3242180340277798E-002   5.2682737131700352E-002
   4.3887565031009407E-002  -1.2970070517843435E-002   5.2897907722420784E-002
   4.2157839762678367E-002  -1.1816311979725921E-002   5.6120319453856579E-002
   4.1018855984395058E-002  -1.1695050284237500E-002   5.5771947758974483E-002
   3.9879872206111729E-002  -1.1536187397025562E-002   5.5624391175839415E-002
   3.8740888427828385E-002  -1.1339723318090101E-002   5.5677649704451396E-002
   3.7601904649545076E-002  -1.1105658047431063E-002   5.5931723344810592E-002
   3.5062037157000139E-002  -9.6328928962820873E-003   5.8951505764996734E-002
   3.4131230491231075E-002  -9.6330899555340348E-003   5.8625669849471748E-002
   3.3200423825462032E-002  -9.5678810887407685E-003   5.8515373047228335E-002
   3.2269617159692995E-002  -9.4372662959023405E-003   5.8620615358266320E-002
   3.1338810493923917E-002  -9.2412455770186572E-003   5.8941396782585795E-002
   2.7929904771027553E-002  -7.4494738128382254E-003   6.1647330954235580E-002
   2.7221999219307152E-002  -7.5711296268305694E-003   6.1371835552389578E-002
   2.6514093667586759E-002  -7.5995747804560448E-003   6.1326603265359367E-002
   2.5806188115866373E-002  -7.5348092737146134E-003   6.1511634093145098E-002
   2.5098282564145966E-002  -7.3768331066062509E-003   6.1926928035746620E-002
   5.0195791638316889E-002  -1.4834482988255876E-002   4.9839949915416543E-002
   4.8613770425176894E-002  -1.4502722976765414E-002   4.9435485675063867E-002
   4.7031749212036886E-002  -1.4109743413793611E-002   4.9260165060415514E-002
   4.5449727998896849E-002  -1.3655544299340584E-002   4.9313988071471533E-002
   4.3867706785756855E-002  -1.3140125633406219E-002   4.9596954708231944E-002
   4.3887565031009407E-002  -1.2970070517843435E-002   5.2897907722420784E-002
   4.2527676821663966E-002  -1.2669958094616462E-002   5.2562713233833880E-002
   4.1167788612318582E-002  -1.2323636927205929E-002   5.2442641127131678E-002
   3.9807900402973176E-002  -1.1931107015611989E-002   5.2537691402314207E-002
   3.8448012193627756E-002  -1.1492368359834498E-002   5.2847864059381605E-002
   3.7601904649545076E-002  -1.1105658047431063E-002   5.5931723344810592E-002
   3.6450128200174660E-002  -1.0837193212467483E-002   5.5650787800691569E-002
   3.5298351750804209E-002  -1.0537530440618195E-002   5.5570953394637676E-002
   3.4146575301433772E-002  -1.0206669731883340E-002   5.5692220126649039E-002
   3.2994798852063342E-002  -9.8446110862627501E-003   5.6014587996725512E-002
   3.1338810493923917E-002  -9.2412455770186572E-003   5.8941396782585795E-002
   3.0381124560708864E-002  -9.0044283303184897E-003   5.8699709375636892E-002
   2.9423438627493827E-002  -8.7514239540305138E-003   5.8645101862933528E-002
   2.8465752694278770E-002  -8.4822324481546342E-003   5.8777574244475758E-002
   2.7508066761063710E-002  -8.1968538126910157E-003   5.9097126520263533E-002
   2.5098282564145966E-002  -7.3768331066062509E-003   6.1926928035746620E-002
   2.4320665903266675E-002  -7.1716634481695518E-003   6.1709477958670017E-002
   2.3543049242387384E-002  -6.9653174674427221E-003   6.1665086532019214E-002
   2.2765432581508090E-002  -6.7577951644260947E-003   6.1793753755794462E-002
   2.1987815920628803E-002  -6.5490965391192812E-003   6.2095479629995676E-002
   4.3867706785756855E-002  -1.3140125633406219E-002   4.9596954708231944E-002
   4.2253621795355856E-002  -1.2606265344788620E-002   4.9363273964347448E-002
   4.0639536804954884E-002  -1.2096741362285307E-002   4.9301984806734811E-002
   3.9025451814553885E-002  -1.1611553685897023E-002   4.9413087235393754E-002
   3.7411366824152886E-002  -1.1150702315623207E-002   4.9696581250324501E-002
   3.8448012193627756E-002  -1.1492368359834498E-002   5.2847864059381605E-002
   3.7012327781156179E-002  -1.1036774659818574E-002   5.2568256076808997E-002
   3.5576643368684671E-002  -1.0593679615509340E-002   5.2473057663823722E-002
   3.4140958956213101E-002  -1.0163083226906957E-002   5.2562268820425383E-002
   3.2705274543741586E-002  -9.7449854940109826E-003   5.2835889546614390E-002
   3.2994798852063342E-002  -9.8446110862627501E-003   5.6014587996725512E-002
   3.1749533000836744E-002  -9.4672839748487642E-003   5.5700890425872708E-002
   3.0504267149610145E-002  -9.0906178687333167E-003   5.5583620407922599E-002
   2.9259001298383568E-002  -8.7146127679167233E-003   5.5662777942875157E-002
   2.8013735447156948E-002  -8.3392686723987031E-003   5.5938363030730340E-002
   2.7508066761063710E-002  -8.1968538126910157E-003   5.9097126520263533E-002
   2.6465237454397529E-002  -7.8977932898788641E-003   5.8761177011538546E-002
   2.5422408147731352E-002  -7.5875561219573492E-003   5.8633673039031678E-002
   2.4379578841065161E-002  -7.2661423089266288E-003   5.8714614602743027E-002
   2.3336749534398998E-002  -6.9335518507864513E-003   5.9004001702672532E-002
   2.1987815920628803E-002  -6.5490965391192812E-003   6.2095479629995676E-002
   2.1159441141838528E-002  -6.3283026049089364E-003   6.1749115833806489E-002
   2.0331066363048267E-002  -6.0844943751812847E-003   6.1623215557150918E-002
   1.9502691584257992E-002  -5.8176718499364129E-003   6.1717778800028975E-002
   1.8674316805467731E-002  -5.5278350291741996E-003   6.2032805562440729E-002
   3.7411366824152886E-002  -1.1150702315623207E-002   4.9696581250324501E-002
   3.5802915189980133E-002  -1.0679764892031041E-002   4.9362140905533702E-002
   3.4194463555807353E-002  -1.0164319055687529E-002   4.9229073288129560E-002
   3.2586011921634572E-002  -9.6043648065925850E-003   4.9297378398112282E-002
   3.0977560287461819E-002  -8.9999021447461636E-003   4.9567056235481799E-002
   3.2705274543741586E-002  -9.7449854940109826E-003   5.2835889546614390E-002
   3.1296866531418915E-002  -9.3173310418545874E-003   5.2552733533602680E-002
   2.9888458519096245E-002  -8.8580644954708854E-003   5.2468292036904673E-002
   2.8480050506773560E-002  -8.3671858548597100E-003   5.2582565056519745E-002
   2.7071642494450904E-002  -7.8446951200212278E-003   5.2895552592448047E-002
   2.8013735447156948E-002  -8.3392686723987031E-003   5.5938363030730340E-002
   2.6802712845610879E-002  -7.9548971916783007E-003   5.5693595030974125E-002
   2.5591690244064817E-002  -7.5518099352544152E-003   5.5644883336457819E-002
   2.4380667642518745E-002  -7.1300069031271143E-003   5.5792227947181389E-002
   2.3169645040972679E-002  -6.6894880952962088E-003   5.6135628863144646E-002
   2.3336749534398998E-002  -6.9335518507864513E-003   5.9004001702672532E-002
   2.2320454132556025E-002  -6.5924633415019307E-003   5.8784725397647786E-002
   2.1304158730713063E-002  -6.2455553750378583E-003   5.8758847186789205E-002
   2.0287863328870087E-002  -5.8928279513943234E-003   5.8926367070097234E-002
   1.9271567927027125E-002  -5.5342810705712869E-003   5.9287285047571470E-002
   1.8674316805467731E-002  -5.5278350291741996E-003   6.2032805562440729E-002
   1.7850090392254353E-002  -5.2300294913256995E-003   6.1826124633623358E-002
   1.7025863979040969E-002  -4.9393008148212597E-003   6.1810183587898998E-002
   1.6201637565827594E-002  -4.6556489996617441E-003   6.1984982425267274E-002
   1.5377411152614220E-002  -4.3790740458461985E-003   6.2350521145728643E-002
   3.0977560287461819E-002  -8.9999021447461636E-003   4.9567056235481799E-002
   2.9122534543293305E-002  -8.3901819255224330E-003   4.9358274812865421E-002
   2.7267508799124859E-002  -7.8144550042952426E-003   4.9407884454342715E-002
   2.5412483054956379E-002  -7.2727213810643045E-003   4.9715885159913861E-002
   2.3557457310787899E-002  -6.7649810558298995E-003   5.0282276929579206E-002
   2.7071642494450904E-002  -7.8446951200212278E-003   5.2895552592448047E-002
   2.5469973086453837E-002  -7.3156318699122147E-003   5.2659426600600107E-002
   2.3868303678456729E-002  -6.8050356834900433E-003   5.2671622217001002E-002
   2.2266634270459641E-002  -6.3129065607542383E-003   5.2932139441650511E-002
   2.0664964862462554E-002  -5.8392445017052541E-003   5.3440978274549189E-002
   2.3169645040972679E-002  -6.6894880952962088E-003   5.6135628863144646E-002
   2.1811262513301850E-002  -6.2410818143021074E-003   5.5887684536375062E-002
   2.0452879985631067E-002  -5.7956163626848370E-003   5.5877992362009000E-002
   1.9094497457960290E-002  -5.3530917404442536E-003   5.6106552340047050E-002
   1.7736114930289468E-002  -4.9135079475806087E-003   5.6573364470488108E-002
   1.9271567927027125E-002  -5.5342810705712869E-003   5.9287285047571470E-002
   1.8146402823837501E-002  -5.1665317586919446E-003   5.9043048620189983E-002
   1.7021237720647849E-002  -4.7861970418796342E-003   5.9026994889367232E-002
   1.5896072617458224E-002  -4.3932769201341726E-003   5.9239123855102931E-002
   1.4770907514268596E-002  -3.9877713934560188E-003   5.9679435517397364E-002
   1.5377411152614220E-002  -4.3790740458461985E-003   6.2350521145728643E-002
   1.4475394018060653E-002  -4.0919817030817818E-003   6.2125518852045092E-002
   1.3573376883507078E-002  -3.7767777210745285E-003   6.2118629799075314E-002
   1.2671359748953521E-002  -3.4334620998242825E-003   6.2329853986818631E-002
   1.1769342614399936E-002  -3.0620348393313179E-003   6.2759191415275861E-002
   2.6633981752889918E-002   0.0000000000000000        2.9465678562255224E-002
   2.7235561086123551E-002  -5.8620257545235512E-004   3.4942404808496488E-002
   2.7837140419357181E-002  -1.3208094797280759E-003   4.0111486008355901E-002
   2.8438719752590814E-002  -2.2038207128271693E-003   4.4972922161833420E-002
   2.9040299085824443E-002  -3.2352362747496179E-003   4.9526713268929073E-002
   2.0116629095192774E-002   0.0000000000000000        2.9017678202595147E-002
   2.0449875935312115E-002  -4.3965193158811665E-004   3.4309768027375766E-002
   2.0783122775431460E-002  -9.9060710979350340E-004   3.9372837912309680E-002
   2.1116369615550801E-002  -1.6528655346161603E-003   4.4206887857396876E-002
   2.1449616455670142E-002  -2.4264272060560794E-003   4.8811917862637375E-002
   1.3505181250487719E-002   0.0000000000000000        2.8697677945696262E-002
   1.3648720704027929E-002  -2.9310128772387818E-004   3.3842232431222322E-002
   1.3792260157568141E-002  -6.6040473985892918E-004   3.8836392083436838E-002
   1.3935799611108354E-002  -1.1019103564051539E-003   4.3680156902339812E-002
   1.4079339064648566E-002  -1.6176181373625479E-003   4.8373526887931236E-002
   6.7996382187747459E-003   0.0000000000000000        2.8505677791558562E-002
   6.8320953922709916E-003  -1.4655064385963928E-004   3.3539798020036170E-002
   6.8645525657672363E-003  -3.3020236992435670E-004   3.8502148521737396E-002
   6.8970097392634820E-003  -5.5095517819414791E-004   4.3392729296662221E-002
   6.9294669127597268E-003  -8.0880906866901119E-004   4.8211540344810663E-002
   5.3858827120389918E-014   0.0000000000000000        2.8441677740182053E-002
   4.1298561792579846E-014   4.5987519348145156E-015   3.3402464793817296E-002
   2.8738079624335278E-014   1.0219255996979371E-014   3.8370107227211320E-002
   1.6177705876307957E-014   1.6861512186494565E-014   4.3344605040364109E-002
   3.6173321282806370E-015   2.4525520503360099E-014   4.8325958233275693E-002
   2.9040299085824443E-002  -3.2352362747496179E-003   4.9526713268929073E-002
   2.9114213550845543E-002  -4.2547292789503911E-003   5.1584473162662910E-002
   2.9188128015866639E-002  -5.1019728388844174E-003   5.3739939257069623E-002
   2.9262042480887745E-002  -5.7769669545517238E-003   5.5993111552149234E-002
   2.9335956945908841E-002  -6.2797116259522973E-003   5.8343990047901820E-002
   2.1449616455670142E-002  -2.4264272060560794E-003   4.8811917862637375E-002
   2.1592190917132527E-002  -3.1910469592039636E-003   5.1211755055006331E-002
   2.1734765378594919E-002  -3.8264796291505110E-003   5.3651206039584946E-002
   2.1877339840057311E-002  -4.3327252158956650E-003   5.6130270816373264E-002
   2.2019914301519707E-002  -4.7097837194394754E-003   5.8648949385371227E-002
   1.4079339064648566E-002  -1.6176181373625479E-003   4.8373526887931236E-002
   1.4232481114089000E-002  -2.1273646394575360E-003   5.1072379017869943E-002
   1.4385623163529431E-002  -2.5509864194165626E-003   5.3752752531555127E-002
   1.4538765212969864E-002  -2.8884834772395993E-003   5.6414647428986685E-002
   1.4691907262410294E-002  -3.1398558129266743E-003   5.9058063710164657E-002
   6.9294669127597268E-003  -8.0880906866901119E-004   4.8211540344810663E-002
   7.0350841417149458E-003  -1.0636823197111224E-003   5.1166345051253802E-002
   7.1407013706701666E-003  -1.2754932096826317E-003   5.4044578732980061E-002
   7.2463185996253891E-003  -1.4442417385835474E-003   5.6846241389989546E-002
   7.3519358285806091E-003  -1.5699279064138559E-003   5.9571333022282145E-002
   3.6173321282806370E-015   2.4525520503360099E-014   4.8325958233275693E-002
   1.0376248471555272E-014   3.5314633162197850E-014   5.1493653155157824E-002
   1.7135815336133398E-014   5.1294905822896197E-014   5.4526684643859881E-002
   2.3895490620928772E-014   7.2522500157989889E-014   5.7425052699381834E-002
   3.0654298543986158E-014   9.8941688175813169E-014   6.0188757321723720E-002
   2.9335956945908841E-002  -6.2797116259522973E-003   5.8343990047901820E-002
   2.8984443902188517E-002  -6.6652867245830839E-003   5.9109914085394316E-002
   2.8632930858468197E-002  -6.9887721219409997E-003   5.9915778915614108E-002
   2.8281417814747876E-002  -7.2501678180260471E-003   6.0761584538561161E-002
   2.7929904771027553E-002  -7.4494738128382254E-003   6.1647330954235580E-002
   2.2019914301519707E-002  -4.7097837194394754E-003   5.8648949385371227E-002
   2.1720326417568381E-002  -4.9989650434009610E-003   5.9469221883803214E-002
   2.1420738533617058E-002  -5.2415790913991345E-003   6.0353403909045839E-002
   2.1121150649665736E-002  -5.4376258634339786E-003   6.1301495461099254E-002
   2.0821562765714421E-002  -5.5871053595055037E-003   6.2313496539963278E-002
   1.4691907262410294E-002  -3.1398558129266743E-003   5.9058063710164657E-002
   1.4468213272311355E-002  -3.3326433622188640E-003   5.9917162244226621E-002
   1.4244519282212421E-002  -3.4943860608572849E-003   6.0864139039182634E-002
   1.4020825292113482E-002  -3.6250839088418966E-003   6.1898994095032737E-002
   1.3797131302014546E-002  -3.7247369061727542E-003   6.3021727411776904E-002
   7.3519358285806091E-003  -1.5699279064138559E-003   5.9571333022282145E-002
   7.2281044664174402E-003  -1.6663216810367748E-003   6.0453735166664538E-002
   7.1042731042542740E-003  -1.7471930303154136E-003   6.1447984306024390E-002
   6.9804417420911069E-003  -1.8125419542498421E-003   6.2554080440361703E-002
   6.8566103799279389E-003  -1.8623684528400047E-003   6.3772023569676442E-002
   3.0654298543986158E-014   9.8941688175813169E-014   6.0188757321723720E-002
  -1.1336244443160837E-013   1.4535941894600057E-013   6.1078940651117006E-002
  -2.5737832004546490E-013   2.2639702612625712E-013   6.2104939709571108E-002
  -4.0139419565932144E-013   3.4226657966152096E-013   6.3266754497086075E-002
  -5.4541093863491596E-013   4.9273085611645229E-013   6.4564385013661865E-002
   2.7929904771027553E-002  -7.4494738128382254E-003   6.1647330954235580E-002
   2.7221999219307152E-002  -7.5711296268305694E-003   6.1371835552389578E-002
   2.6514093667586759E-002  -7.5995747804560448E-003   6.1326603265359367E-002
   2.5806188115866373E-002  -7.5348092737146134E-003   6.1511634093145098E-002
   2.5098282564145966E-002  -7.3768331066062509E-003   6.1926928035746620E-002
   2.0821562765714421E-002  -5.5871053595055037E-003   6.2313496539963278E-002
   2.0330598647097669E-002  -5.6783472200173449E-003   6.2190149325779827E-002
   1.9839634528480921E-002  -5.6996810853731476E-003   6.2270421862987785E-002
   1.9348670409864183E-002  -5.6511069555727654E-003   6.2554314151587215E-002
   1.8857706291247431E-002  -5.5326248306164505E-003   6.3041826191578054E-002
   1.3797131302014546E-002  -3.7247369061727542E-003   6.3021727411776904E-002
   1.3496465253077058E-002  -3.7855648132040925E-003   6.3027225720045141E-002
   1.3195799204139571E-002  -3.7997873902901672E-003   6.3209700416280490E-002
   1.2895133155202087E-002  -3.7674046374310422E-003   6.3569151500482854E-002
   1.2594467106264603E-002  -3.6884165546266778E-003   6.4105578972652288E-002
   6.8566103799279389E-003  -1.8623684528400047E-003   6.3772023569676442E-002
   6.7195990372453133E-003  -1.8927824063908680E-003   6.3883064735185582E-002
   6.5825876945626947E-003  -1.8998936952072838E-003   6.4144438925237385E-002
   6.4455763518800795E-003  -1.8837023192892982E-003   6.4556146139831877E-002
   6.3085650091974513E-003  -1.8442082786368635E-003   6.5118186378969004E-002
  -5.4541093863491596E-013   4.9273085611645229E-013   6.4564385013661865E-002
  -3.9755698733046074E-013   4.2237741082473690E-013   6.4757666371201103E-002
  -2.4970303602600552E-013  -1.2428599815983432E-013   6.5074637389858553E-002
  -1.0184908472155030E-013  -1.1474840175274004E-012   6.5515298069634340E-002
   4.6004866582904924E-014  -2.6471047576137607E-012   6.6079648410528324E-002
   2.5098282564145966E-002  -7.3768331066062509E-003   6.1926928035746620E-002
   2.4320665903266675E-002  -7.1716634481695518E-003   6.1709477958670017E-002
   2.3543049242387384E-002  -6.9653174674427221E-003   6.1665086532019214E-002
   2.2765432581508090E-002  -6.7577951644260947E-003   6.1793753755794462E-002
   2.1987815920628803E-002  -6.5490965391192812E-003   6.2095479629995676E-002
   1.8857706291247431E-002  -5.5326248306164505E-003   6.3041826191578054E-002
   1.8258484659544272E-002  -5.3787475872016655E-003   6.2808078863192673E-002
   1.7659263027841099E-002  -5.2239881020259005E-003   6.2758062942733631E-002
   1.7060041396137933E-002  -5.0683463750893776E-003   6.2891778430200801E-002
   1.6460819764434753E-002  -4.9118224063919858E-003   6.3209225325594365E-002
   1.2594467106264603E-002  -3.6884165546266778E-003   6.4105578972652288E-002
   1.2184313261237877E-002  -3.5858317262337791E-003   6.3855240312429062E-002
   1.1774159416211153E-002  -3.4826587366091066E-003   6.3799305817632504E-002
   1.1364005571184426E-002  -3.3788975857526604E-003   6.3937775488262488E-002
   1.0953851726157697E-002  -3.2745482736645237E-003   6.4270649324319126E-002
   6.3085650091974513E-003  -1.8442082786368635E-003   6.5118186378969004E-002
   6.0981517083475009E-003  -1.7929158652659483E-003   6.4850962306378879E-002
   5.8877384074975479E-003  -1.7413293711923822E-003   6.4788815156715654E-002
   5.6773251066475948E-003  -1.6894487964160543E-003   6.4931744929979454E-002
   5.4669118057976435E-003  -1.6372741409371172E-003   6.5279751626170099E-002
   4.6004866582904924E-014  -2.6471047576137607E-012   6.6079648410528324E-002
   8.7314183661035827E-013  -4.2980202730191763E-012   6.5795244845042206E-002
   1.7002788066378116E-012  -5.7754773186147190E-012   6.5726590959983316E-002
   2.5274157766652650E-012  -7.0793197692875509E-012   6.5873686755351726E-002
   3.3545527466927183E-012  -8.2097662001956451E-012   6.6236532231147283E-002
   2.1987815920628803E-002  -6.5490965391192812E-003   6.2095479629995676E-002
   2.1159441141838528E-002  -6.3283026049089364E-003   6.1749115833806489E-002
   2.0331066363048267E-002  -6.0844943751812847E-003   6.1623215557150918E-002
   1.9502691584257992E-002  -5.8176718499364129E-003   6.1717778800028975E-002
   1.8674316805467731E-002  -5.5278350291741996E-003   6.2032805562440729E-002
   1.6460819764434753E-002  -4.9118224063919858E-003   6.3209225325594365E-002
   1.5849566048943477E-002  -4.7462269558462139E-003   6.2899684699813815E-002
   1.5238312333452200E-002  -4.5633707833649673E-003   6.2803922681097621E-002
   1.4627058617960927E-002  -4.3632538889481695E-003   6.2921939269445892E-002
   1.4015804902469654E-002  -4.1458762725958276E-003   6.3253734464858463E-002
   1.0953851726157697E-002  -3.2745482736645237E-003   6.4270649324319126E-002
   1.0553034161496090E-002  -3.1641513067834498E-003   6.3992178295365673E-002
   1.0152216596834487E-002  -3.0422471915486429E-003   6.3920800961007274E-002
   9.7513990321728816E-003  -2.9088359279599799E-003   6.4056517321243817E-002
   9.3505814675112799E-003  -2.7639175160174001E-003   6.4399327376075413E-002
   5.4669118057976435E-003  -1.6372741409371172E-003   6.5279751626170099E-002
   5.2698454794963823E-003  -1.5820756577207343E-003   6.5026596620461841E-002
   5.0727791531951375E-003  -1.5211235997322943E-003   6.4973850396879473E-002
   4.8757128268938910E-003  -1.4544179669716802E-003   6.5121512955422844E-002
   4.6786465005926392E-003  -1.3819587594388894E-003   6.5469584296091690E-002
   3.3545527466927183E-012  -8.2097662001956451E-012   6.6236532231147283E-002
   2.9443426863284827E-012  -8.6579632352368208E-012   6.6002939675102734E-002
   2.5341360954111991E-012  -7.9160150656676365E-012   6.5963070988714595E-002
   2.1239260350469635E-012  -5.9835227050886175E-012   6.6116926171982796E-002
   1.7137194441296799E-012  -2.8606006452491783E-012   6.6464505224907433E-002
   1.8674316805467731E-002  -5.5278350291741996E-003   6.2032805562440729E-002
   1.7850090392254353E-002  -5.2300294913256995E-003   6.1826124633623358E-002
   1.7025863979040969E-002  -4.9393008148212597E-003   6.1810183587898998E-002
   1.6201637565827594E-002  -4.6556489996617441E-003   6.1984982425267274E-002
   1.5377411152614220E-002  -4.3790740458461985E-003   6.2350521145728643E-002
   1.4015804902469654E-002  -4.1458762725958276E-003   6.3253734464858463E-002
   1.3386147552216995E-002  -3.9225221182054015E-003   6.3037978930346794E-002
   1.2756490201964354E-002  -3.7044756096742126E-003   6.3020621638663940E-002
   1.2126832851711714E-002  -3.4917367470025870E-003   6.3201662589809471E-002
   1.1497175501459053E-002  -3.2843055301900459E-003   6.3581101783783844E-002
   9.3505814675112799E-003  -2.7639175160174001E-003   6.4399327376075413E-002
   8.9231515399551403E-003  -2.6150147450850897E-003   6.4176266451354519E-002
   8.4957216123989956E-003  -2.4696504045269921E-003   6.4159262129198202E-002
   8.0682916848428543E-003  -2.3278244943433727E-003   6.4348314409606172E-002
   7.6408617572867078E-003  -2.1895370145336990E-003   6.4743423292578497E-002
   4.6786465005926392E-003  -1.3819587594388894E-003   6.5469584296091690E-002
   4.4611023554687601E-003  -1.3075073719646738E-003   6.5240987196646755E-002
   4.2435582103448957E-003  -1.2348251993798860E-003   6.5226105059502062E-002
   4.0260140652210218E-003  -1.1639122416841315E-003   6.5424937884657516E-002
   3.8084699200971539E-003  -1.0947684988775602E-003   6.5837485672113075E-002
   1.7137194441296799E-012  -2.8606006452491783E-012   6.6464505224907433E-002
  -1.2421140505036732E-012   1.1554646128786317E-012   6.6232141166223446E-002
  -4.1979440756900743E-012   5.7673171793837241E-012   6.6221150429575437E-002
  -7.1537775703234274E-012   1.0974981340394763E-011   6.6431533014963226E-002
  -1.0109607595509829E-011   1.6778856082311222E-011   6.6863288922387076E-002
   1.5377411152614220E-002  -4.3790740458461985E-003   6.2350521145728643E-002
   1.4475394018060653E-002  -4.0919817030817818E-003   6.2125518852045092E-002
   1.3573376883507078E-002  -3.7767777210745285E-003   6.2118629799075314E-002
   1.2671359748953521E-002  -3.4334620998242825E-003   6.2329853986818631E-002
   1.1769342614399936E-002  -3.0620348393313179E-003   6.2759191415275861E-002
   1.1497175501459053E-002  -3.2843055301900459E-003   6.3581101783783844E-002
   1.0815119368157801E-002  -3.0689862715399530E-003   6.3406466842010678E-002
   1.0133063234856556E-002  -2.8325832833551862E-003   6.3453640662028687E-002
   9.4510071015552720E-003  -2.5750965656357767E-003   6.3722623243837734E-002
   8.7689509682540301E-003  -2.2965261183817143E-003   6.4213414587437900E-002
   7.6408617572867078E-003  -2.1895370145336990E-003   6.4743423292578497E-002
   7.1824621463153736E-003  -2.0459908399981241E-003   6.4612127793007526E-002
   6.7240625353440376E-003  -1.8883888456360728E-003   6.4706336576305368E-002
   6.2656629243727060E-003  -1.7167310314473560E-003   6.5026049642471773E-002
   5.8072633134013396E-003  -1.5310173974322216E-003   6.5571266991507171E-002
   3.8084699200971539E-003  -1.0947684988775602E-003   6.5837485672113075E-002
   3.5774223525333482E-003  -1.0229954084564064E-003   6.5742501705036080E-002
   3.3463747849695508E-003  -9.4419440791678952E-004   6.5876717541905508E-002
   3.1153272174057603E-003  -8.5836549725883723E-004   6.6240133182721164E-002
   2.8842796498419476E-003  -7.6550867648267351E-004   6.6832748627483451E-002
  -1.0109607595509829E-011   1.6778856082311222E-011   6.6863288922387076E-002
  -1.3188249103901484E-011   2.3085533484845655E-011   6.6797588578095979E-002
  -1.6266897551187043E-011   2.9802202372586351E-011   6.6964783558829094E-002
  -1.9345544263749126E-011   3.6929553165476747E-011   6.7364873864585936E-002
  -2.2424187506864257E-011   4.4466874626891695E-011   6.7997859495366741E-002
   5.3858827120389918E-014   0.0000000000000000        2.8441677740182053E-002
   4.1298561792579846E-014   4.5987519348145156E-015   3.3402464793817296E-002
   2.8738079624335278E-014   1.0219255996979371E-014   3.8370107227211320E-002
   1.6177705876307957E-014   1.6861512186494565E-014   4.3344605040364109E-002
   3.6173321282806370E-015   2.4525520503360099E-014   4.8325958233275693E-002
  -6.7996382186684811E-003   0.0000000000000000        2.8505677791562108E-002
  -6.8320953921880492E-003   1.4655064386097112E-004   3.3539798020042040E-002
  -6.8645525657076208E-003   3.3020236993184810E-004   3.8502148521749185E-002
  -6.8970097392271898E-003   5.5095517821263009E-004   4.3392729296683530E-002
  -6.9294669127467606E-003   8.0880906870332229E-004   4.8211540344845080E-002
  -1.3505181250385811E-002   0.0000000000000000        2.8697677945694090E-002
  -1.3648720703943958E-002   2.9310128771734435E-004   3.3842232431227595E-002
  -1.3792260157502106E-002   6.6040473985347781E-004   3.8836392083456732E-002
  -1.3935799611060255E-002   1.1019103564084004E-003   4.3680156902381528E-002
  -1.4079339064618402E-002   1.6176181373821121E-003   4.8373526888001929E-002
  -2.0116629095098128E-002   0.0000000000000000        2.9017678202578008E-002
  -2.0449875935226430E-002   4.3965193157371671E-004   3.4309768027373969E-002
  -2.0783122775354726E-002   9.9060710977510709E-004   3.9372837912333994E-002
  -2.1116369615483022E-002   1.6528655346041716E-003   4.4206887857458105E-002
  -2.1449616455611317E-002   2.4264272060609124E-003   4.8811917862746267E-002
  -2.6633981752805441E-002   0.0000000000000000        2.9465678562213854E-002
  -2.7235561086035455E-002   5.8620257543008994E-004   3.4942404808481153E-002
  -2.7837140419265466E-002   1.3208094796967364E-003   4.0111486008380964E-002
  -2.8438719752495480E-002   2.2038207127999410E-003   4.4972922161913259E-002
  -2.9040299085725495E-002   3.2352362747397013E-003   4.9526713269078051E-002
   3.6173321282806370E-015   2.4525520503360099E-014   4.8325958233275693E-002
   1.0376248471555272E-014   3.5314633162197850E-014   5.1493653155157824E-002
   1.7135815336133398E-014   5.1294905822896197E-014   5.4526684643859881E-002
   2.3895490620928772E-014   7.2522500157989889E-014   5.7425052699381834E-002
   3.0654298543986158E-014   9.8941688175813169E-014   6.0188757321723720E-002
  -6.9294669127467606E-003   8.0880906870332229E-004   4.8211540344845080E-002
  -7.0350841416893638E-003   1.0636823197654674E-003   5.1166345051305795E-002
  -7.1407013706319706E-003   1.2754932097606057E-003   5.4044578733047861E-002
  -7.2463185995745730E-003   1.4442417386887649E-003   5.6846241390071266E-002
  -7.3519358285171806E-003   1.5699279065499311E-003   5.9571333022376077E-002
  -1.4079339064618402E-002   1.6176181373821121E-003   4.8373526888001929E-002
  -1.4232481114048927E-002   2.1273646394956206E-003   5.1072379017968995E-002
  -1.4385623163479452E-002   2.5509864194699166E-003   5.3752752531678855E-002
  -1.4538765212909973E-002   2.8884834773050144E-003   5.6414647429131527E-002
  -1.4691907262340497E-002   3.1398558130008962E-003   5.9058063710327006E-002
  -2.1449616455611317E-002   2.4264272060609124E-003   4.8811917862746267E-002
  -2.1592190917068314E-002   3.1910469592257703E-003   5.1211755055147468E-002
  -2.1734765378525304E-002   3.8264796291792172E-003   5.3651206039752916E-002
  -2.1877339839982302E-002   4.3327252159212496E-003   5.6130270816562619E-002
  -2.2019914301439299E-002   4.7097837194518665E-003   5.8648949385576583E-002
  -2.9040299085725495E-002   3.2352362747397013E-003   4.9526713269078051E-002
  -2.9114213550747513E-002   4.2547292789559266E-003   5.1584473162841198E-002
  -2.9188128015769539E-002   5.1019728388885322E-003   5.3739939257270025E-002
  -2.9262042480791565E-002   5.7769669545375112E-003   5.5993111552364555E-002
  -2.9335956945813584E-002   6.2797116259028507E-003   5.8343990048124780E-002
   3.0654298543986158E-014   9.8941688175813169E-014   6.0188757321723720E-002
  -1.1336244443160837E-013   1.4535941894600057E-013   6.1078940651117006E-002
  -2.5737832004546490E-013   2.2639702612625712E-013   6.2104939709571108E-002
  -4.0139419565932144E-013   3.4226657966152096E-013   6.3266754497086075E-002
  -5.4541093863491596E-013   4.9273085611645229E-013   6.4564385013661865E-002
  -7.3519358285171806E-003   1.5699279065499311E-003   5.9571333022376077E-002
  -7.2281044666218514E-003   1.6663216812408468E-003   6.0453735166852950E-002
  -7.1042731047265212E-003   1.7471930306582860E-003   6.1447984306347708E-002
  -6.9804417428311980E-003   1.8125419548022962E-003   6.2554080440860332E-002
  -6.8566103809358653E-003   1.8623684536728108E-003   6.3772023570390773E-002
  -1.4691907262340497E-002   3.1398558130008962E-003   5.9058063710327006E-002
  -1.4468213272448823E-002   3.3326433623363672E-003   5.9917162244579394E-002
  -1.4244519282557150E-002   3.4943860610901602E-003   6.0864139039806600E-002
  -1.4020825292665474E-002   3.6250839092623532E-003   6.1898994096008644E-002
  -1.3797131302773793E-002   3.7247369068528560E-003   6.3021727413185569E-002
  -2.2019914301439299E-002   4.7097837194518665E-003   5.8648949385576583E-002
  -2.1720326417594280E-002   4.9989650434318642E-003   5.9469221884296222E-002
  -2.1420738533749251E-002   5.2415790915220414E-003   6.0353403909947749E-002
  -2.1121150649904219E-002   5.4376258637223833E-003   6.1301495462531053E-002
  -2.0821562766059204E-002   5.5871053600329464E-003   6.2313496542046251E-002
  -2.9335956945813584E-002   6.2797116259028507E-003   5.8343990048124780E-002
  -2.8984443902058211E-002   6.6652867245273750E-003   5.9109914086003530E-002
  -2.8632930858302832E-002   6.9887721219539164E-003   5.9915778916771148E-002
  -2.8281417814547457E-002   7.2501678181824524E-003   6.0761584540427648E-002
  -2.7929904770792081E-002   7.4494738132129812E-003   6.1647330956972946E-002
  -5.4541093863491596E-013   4.9273085611645229E-013   6.4564385013661865E-002
  -3.9755698733046074E-013   4.2237741082473690E-013   6.4757666371201103E-002
  -2.4970303602600552E-013  -1.2428599815983432E-013   6.5074637389858553E-002
  -1.0184908472155030E-013  -1.1474840175274004E-012   6.5515298069634340E-002
   4.6004866582904924E-014  -2.6471047576137607E-012   6.6079648410528324E-002
  -6.8566103809358653E-003   1.8623684536728108E-003   6.3772023570390773E-002
  -6.7195990380002069E-003   1.8927824072014557E-003   6.3883064735208689E-002
  -6.5825876950645502E-003   1.8998936953197772E-003   6.4144438924483876E-002
  -6.4455763521288909E-003   1.8837023180279010E-003   6.4556146138216419E-002
  -6.3085650091932351E-003   1.8442082753256650E-003   6.5118186376406387E-002
  -1.3797131302773793E-002   3.7247369068528560E-003   6.3021727413185569E-002
  -1.3496465253711289E-002   3.7855648139804819E-003   6.3027225720348329E-002
  -1.3195799204648776E-002   3.7997873907640051E-003   6.3209700415307435E-002
  -1.2895133155586271E-002   3.7674046372032856E-003   6.3569151498062929E-002
  -1.2594467106523760E-002   3.6884165532984625E-003   6.4105578968614810E-002
  -2.0821562766059204E-002   5.5871053600329464E-003   6.2313496542046251E-002
  -2.0330598647530784E-002   5.6783472207595203E-003   6.2190149326620002E-002
  -1.9839634529002378E-002   5.6996810862081368E-003   6.2270421862329083E-002
  -1.9348670410473973E-002   5.6511069563786841E-003   6.2554314149173632E-002
  -1.8857706291945556E-002   5.5326248312712600E-003   6.3041826187153677E-002
  -2.7929904770792081E-002   7.4494738132129812E-003   6.1647330956972946E-002
  -2.7221999219458719E-002   7.5711296275385795E-003   6.1371835554023729E-002
  -2.6514093668125363E-002   7.5995747816523240E-003   6.1326603265548979E-002
  -2.5806188116792007E-002   7.5348092755541038E-003   6.1511634091548764E-002
  -2.5098282565458638E-002   7.3768331092440298E-003   6.1926928032022960E-002
   4.6004866582904924E-014  -2.6471047576137607E-012   6.6079648410528324E-002
   8.7314183661035827E-013  -4.2980202730191763E-012   6.5795244845042206E-002
   1.7002788066378116E-012  -5.7754773186147190E-012   6.5726590959983316E-002
   2.5274157766652650E-012  -7.0793197692875509E-012   6.5873686755351726E-002
   3.3545527466927183E-012  -8.2097662001956451E-012   6.6236532231147283E-002
  -6.3085650091932351E-003   1.8442082753256650E-003   6.5118186376406387E-002
  -6.0981517068075773E-003   1.7929158595982736E-003   6.4850962303726875E-002
  -5.8877384044219230E-003   1.7413293632307369E-003   6.4788815153737217E-002
  -5.6773251020362740E-003   1.6894487862230134E-003   6.4931744926437371E-002
  -5.4669117996506179E-003   1.6372741285751169E-003   6.5279751621827253E-002
  -1.2594467106523760E-002   3.6884165532984625E-003   6.4105578968614810E-002
  -1.2184313260317051E-002   3.5858317234946577E-003   6.3855240307928315E-002
  -1.1774159414110343E-002   3.4826587322369165E-003   6.3799305812194146E-002
  -1.1364005567903637E-002   3.3788975795253726E-003   6.3937775481412301E-002
  -1.0953851721696925E-002   3.2745482653599445E-003   6.4270649315582754E-002
  -1.8857706291945556E-002   5.5326248312712600E-003   6.3041826187153677E-002
  -1.8258484659655263E-002   5.3787475873909550E-003   6.2808078857646471E-002
  -1.7659263027364980E-002   5.2239881012431134E-003   6.2758062935354061E-002
  -1.7060041395074679E-002   5.0683463728276911E-003   6.2891778420276587E-002
  -1.6460819762784396E-002   4.9118224021447721E-003   6.3209225312413880E-002
  -2.5098282565458638E-002   7.3768331092440298E-003   6.1926928032022960E-002
  -2.4320665904822229E-002   7.1716634512873634E-003   6.1709477952881259E-002
  -2.3543049244185821E-002   6.9653174702493520E-003   6.1665086523217033E-002
  -2.2765432583549412E-002   6.7577951661301171E-003   6.1793753743030172E-002
  -2.1987815922913004E-002   6.5490965389295996E-003   6.2095479612320703E-002
   3.3545527466927183E-012  -8.2097662001956451E-012   6.6236532231147283E-002
   2.9443426863284827E-012  -8.6579632352368208E-012   6.6002939675102734E-002
   2.5341360954111991E-012  -7.9160150656676365E-012   6.5963070988714595E-002
   2.1239260350469635E-012  -5.9835227050886175E-012   6.6116926171982796E-002
   1.7137194441296799E-012  -2.8606006452491783E-012   6.6464505224907433E-002
  -5.4669117996506179E-003   1.6372741285751169E-003   6.5279751621827253E-002
  -5.2698454740797195E-003   1.5820756442152528E-003   6.5026596617269672E-002
  -5.0727791485088193E-003   1.5211235870719736E-003   6.4973850395017796E-002
  -4.8757128229379174E-003   1.4544179571447553E-003   6.5121512955071931E-002
  -4.6786464973670207E-003   1.3819587544339207E-003   6.5469584297431827E-002
  -1.0953851721696925E-002   3.2745482653599445E-003   6.4270649315582754E-002
  -1.0553034157495467E-002   3.1641512970886909E-003   6.3992178288538037E-002
  -1.0152216593294017E-002   3.0422471820597471E-003   6.3920800956448670E-002
  -9.7513990290925626E-003   2.9088359202730906E-003   6.4056517319314388E-002
  -9.3505814648911206E-003   2.7639175117286086E-003   6.4399327377135593E-002
  -1.6460819762784396E-002   4.9118224021447721E-003   6.3209225312413880E-002
  -1.5849566047302938E-002   4.7462269499620457E-003   6.2899684688908011E-002
  -1.5238312331821479E-002   4.5633707770476283E-003   6.2803922673006815E-002
  -1.4627058616340017E-002   4.3632538834012862E-003   6.2921939264710361E-002
  -1.4015804900858561E-002   4.1458762690233242E-003   6.3253734464018496E-002
  -2.1987815922913004E-002   6.5490965389295996E-003   6.2095479612320703E-002
  -2.1159441143502090E-002   6.3283026028353728E-003   6.1749115818379496E-002
  -2.0331066364091190E-002   6.0844943720355510E-003   6.1623215544692411E-002
  -1.9502691584680282E-002   5.8176718465296588E-003   6.1717778791259573E-002
  -1.8674316805269375E-002   5.5278350263178178E-003   6.2032805558080883E-002
   1.7137194441296799E-012  -2.8606006452491783E-012   6.6464505224907433E-002
  -1.2421140505036732E-012   1.1554646128786317E-012   6.6232141166223446E-002
  -4.1979440756900743E-012   5.7673171793837241E-012   6.6221150429575437E-002
  -7.1537775703234274E-012   1.0974981340394763E-011   6.6431533014963226E-002
  -1.0109607595509829E-011   1.6778856082311222E-011   6.6863288922387076E-002
  -4.6786464973670207E-003   1.3819587544339207E-003   6.5469584297431827E-002
  -4.4611023578097556E-003   1.3075073731819153E-003   6.5240987198930039E-002
  -4.2435582182524974E-003   1.2348252076306854E-003   6.5226105063418555E-002
  -4.0260140786952340E-003   1.1639122577801614E-003   6.5424937890897358E-002
  -3.8084699391379810E-003   1.0947685236307736E-003   6.5837485681366326E-002
  -9.3505814648911206E-003   2.7639175117286086E-003   6.4399327377135593E-002
  -8.9231515418664257E-003   2.6150147452083383E-003   6.4176266453920938E-002
  -8.4957216188417464E-003   2.4696504094938385E-003   6.4159262134651007E-002
  -8.0682916958170585E-003   2.3278245045854542E-003   6.4348314419325564E-002
  -7.6408617727923706E-003   2.1895370304828854E-003   6.4743423307944900E-002
  -1.4015804900858561E-002   4.1458762690233242E-003   6.3253734464018496E-002
  -1.3386147553412117E-002   3.9225221172347752E-003   6.3037978931196240E-002
  -1.2756490205965669E-002   3.7044756113571824E-003   6.3020621643272975E-002
  -1.2126832858519222E-002   3.4917367513905796E-003   6.3201662600248482E-002
  -1.1497175511072776E-002   3.2843055373349556E-003   6.3581101802123133E-002
  -1.8674316805269375E-002   5.5278350263178178E-003   6.2032805558080883E-002
  -1.7850090392446824E-002   5.2300294892612120E-003   6.1826124630755874E-002
  -1.7025863979624294E-002   4.9393008132204153E-003   6.1810183589284168E-002
  -1.6201637566801749E-002   4.6556489981958299E-003   6.1984982433665681E-002
  -1.5377411153979212E-002   4.3790740441870257E-003   6.2350521163900385E-002
  -1.0109607595509829E-011   1.6778856082311222E-011   6.6863288922387076E-002
  -1.3188249103901484E-011   2.3085533484845655E-011   6.6797588578095979E-002
  -1.6266897551187043E-011   2.9802202372586351E-011   6.6964783558829094E-002
  -1.9345544263749126E-011   3.6929553165476747E-011   6.7364873864585936E-002
  -2.2424187506864257E-011   4.4466874626891695E-011   6.7997859495366741E-002
  -3.8084699391379810E-003   1.0947685236307736E-003   6.5837485681366326E-002
  -3.5774223771481081E-003   1.0229954416029197E-003   6.5742501716969909E-002
  -3.3463748151582404E-003   9.4419444811677522E-004   6.5876717557686509E-002
  -3.1153272531683632E-003   8.5836554317261782E-004   6.6240133203516516E-002
  -2.8842796911784860E-003   7.6550872677061399E-004   6.6832748654459095E-002
  -7.6408617727923706E-003   2.1895370304828854E-003   6.4743423307944900E-002
  -7.1824621656448873E-003   2.0459908601201393E-003   6.4612127811574882E-002
  -6.7240625584973970E-003   1.8883888664310775E-003   6.4706336600407061E-002
  -6.2656629513499259E-003   1.7167310494157120E-003   6.5026049674441269E-002
  -5.8072633442024374E-003   1.5310174090741313E-003   6.5571267033677882E-002
  -1.1497175511072776E-002   3.2843055373349556E-003   6.3581101802123133E-002
  -1.0815119378678580E-002   3.0689862786375532E-003   6.3406466861911065E-002
  -1.0133063246284360E-002   2.8325832847453485E-003   6.3453640686990539E-002
  -9.4510071138901447E-003   2.5750965556588469E-003   6.3722623277361182E-002
  -8.7689509814959619E-003   2.2965260913777041E-003   6.4213414633022894E-002
  -1.5377411153979212E-002   4.3790740441870257E-003   6.2350521163900385E-002
  -1.4475394016249178E-002   4.0919816971548562E-003   6.2125518867978291E-002
  -1.3573376878519144E-002   3.7767777030599248E-003   6.2118629817436710E-002
  -1.2671359740789138E-002   3.4334620619019748E-003   6.2329854012275338E-002
  -1.1769342603059077E-002   3.0620347736813880E-003   6.2759191452494534E-002
  -2.6633981752805441E-002   0.0000000000000000        2.9465678562213854E-002
  -2.7235561086035455E-002   5.8620257543008994E-004   3.4942404808481153E-002
  -2.7837140419265466E-002   1.3208094796967364E-003   4.0111486008380964E-002
  -2.8438719752495480E-002   2.2038207127999410E-003   4.4972922161913259E-002
  -2.9040299085725495E-002   3.2352362747397013E-003   4.9526713269078051E-002
  -3.3394172600543670E-002   0.0000000000000000        3.0176346751836659E-002
  -3.4238269279345881E-002   9.6107675254742363E-004   3.5264372080564321E-002
  -3.5082365958148079E-002   2.0256350737220810E-003   4.0175007764515096E-002
  -3.5926462636950290E-002   3.1936749635239686E-003   4.4908253803688986E-002
  -3.6770559315752502E-002   4.4651964219530830E-003   4.9464110198085991E-002
  -4.0734135015348748E-002   0.0000000000000000        3.1284350498681474E-002
  -4.1690493638132535E-002   1.3359509296647590E-003   3.5938752149660157E-002
  -4.2646852260916308E-002   2.7304606677474221E-003   4.0546019557452573E-002
  -4.3603210883700103E-002   4.1835292142479901E-003   4.5106152722058729E-002
  -4.4559569506483869E-002   5.6951565691664655E-003   4.9619151643478604E-002
  -4.8653868997220677E-002   0.0000000000000000        3.2789689802748267E-002
  -4.9592234162395415E-002   1.7108251067820936E-003   3.6965545015768660E-002
  -5.0530599327570161E-002   3.4352862617727667E-003   4.1224521387193402E-002
  -5.1468964492744899E-002   5.1733834649720176E-003   4.5566618917022489E-002
  -5.2407329657919652E-002   6.9251167163798437E-003   4.9991837605255926E-002
  -5.7153374546159458E-002   0.0000000000000000        3.4692364664037079E-002
  -5.7943490852134544E-002   2.0856992838994290E-003   3.8344750678889837E-002
  -5.8733607158109616E-002   4.1401118557981079E-003   4.2210513253737564E-002
  -5.9523723464084702E-002   6.1632377156960374E-003   4.6289652388580266E-002
  -6.0313839770059788E-002   8.1550768635932271E-003   5.0582168083417936E-002
  -2.9040299085725495E-002   3.2352362747397013E-003   4.9526713269078051E-002
  -2.9114213550747513E-002   4.2547292789559266E-003   5.1584473162841198E-002
  -2.9188128015769539E-002   5.1019728388885322E-003   5.3739939257270025E-002
  -2.9262042480791565E-002   5.7769669545375112E-003   5.5993111552364555E-002
  -2.9335956945813584E-002   6.2797116259028507E-003   5.8343990048124780E-002
  -3.6770559315752502E-002   4.4651964219530830E-003   4.9464110198085991E-002
  -3.6785502658652623E-002   5.6997812576079394E-003   5.1249582923371242E-002
  -3.6800446001552765E-002   6.7570112790870541E-003   5.3055291692234587E-002
  -3.6815389344452901E-002   7.6368864863903879E-003   5.4881236504676009E-002
  -3.6830332687353043E-002   8.3394068795179729E-003   5.6727417360695531E-002
  -4.4559569506483869E-002   5.6951565691664655E-003   4.9619151643478604E-002
  -4.4593011884349734E-002   7.1448332362599454E-003   5.1127231830393867E-002
  -4.4626454262215599E-002   8.4120497192855560E-003   5.2578077903799592E-002
  -4.4659896640081444E-002   9.4968060182432715E-003   5.3971689863695778E-002
  -4.4693339017947302E-002   1.0399102133133109E-002   5.5308067710082447E-002
  -5.2407329657919652E-002   6.9251167163798437E-003   4.9991837605255926E-002
  -5.2536741227838836E-002   8.5898852149119617E-003   5.1217419883909050E-002
  -5.2666152797758020E-002   1.0067088159484055E-002   5.2308297891965026E-002
  -5.2795564367677225E-002   1.1356725550096172E-002   5.3264471629423868E-002
  -5.2924975937596416E-002   1.2458797386748259E-002   5.4085941096285561E-002
  -6.0313839770059788E-002   8.1550768635932271E-003   5.0582168083417936E-002
  -6.0616690689119922E-002   1.0034937193563950E-002   5.1520147083916792E-002
  -6.0919541608180056E-002   1.1722126599682584E-002   5.2245951656730912E-002
  -6.1222392527240203E-002   1.3216645081949037E-002   5.2759581801860259E-002
  -6.1525243446300337E-002   1.4518492640363374E-002   5.3061037519304875E-002
  -2.9335956945813584E-002   6.2797116259028507E-003   5.8343990048124780E-002
  -2.8984443902058211E-002   6.6652867245273750E-003   5.9109914086003530E-002
  -2.8632930858302832E-002   6.9887721219539164E-003   5.9915778916771148E-002
  -2.8281417814547457E-002   7.2501678181824524E-003   6.0761584540427648E-002
  -2.7929904770792081E-002   7.4494738132129812E-003   6.1647330956972946E-002
  -3.6830332687353043E-002   8.3394068795179729E-003   5.6727417360695531E-002
  -3.6388258804569945E-002   8.8806319951019660E-003   5.7071668134603605E-002
  -3.5946184921786868E-002   9.2766213697745795E-003   5.7557099793678249E-002
  -3.5504111039003791E-002   9.5273750035358030E-003   5.8183712337919420E-002
  -3.5062037156220707E-002   9.6328928963855809E-003   5.8951505767327210E-002
  -4.4693339017947302E-002   1.0399102133133109E-002   5.5308067710082447E-002
  -4.4059464203858818E-002   1.1095977265676599E-002   5.5147499180306460E-002
  -4.3425589389770335E-002   1.1564470617595298E-002   5.5229351627974738E-002
  -4.2791714575681830E-002   1.1804582188889141E-002   5.5553625053087231E-002
  -4.2157839761593353E-002   1.1816311979558236E-002   5.6120319455644052E-002
  -5.2924975937596416E-002   1.2458797386748259E-002   5.4085941096285561E-002
  -5.1998060099924803E-002   1.3311322536251231E-002   5.3337407223112081E-002
  -5.1071144262253197E-002   1.3852319865415989E-002   5.2932534419660553E-002
  -5.0144228424581605E-002   1.4081789374242541E-002   5.2871322685930991E-002
  -4.9217312586909978E-002   1.3999731062730850E-002   5.3153772021923409E-002
  -6.1525243446300337E-002   1.4518492640363374E-002   5.3061037519304875E-002
  -6.0204046492767914E-002   1.5526667806825819E-002   5.1641392263020482E-002
  -5.8882849539235491E-002   1.6140169113236680E-002   5.0666648168735756E-002
  -5.7561652585703095E-002   1.6358996559595829E-002   5.0136805236450720E-002
  -5.6240455632170665E-002   1.6183150145903477E-002   5.0051863466165372E-002
  -2.7929904770792081E-002   7.4494738132129812E-003   6.1647330956972946E-002
  -2.7221999219458719E-002   7.5711296275385795E-003   6.1371835554023729E-002
  -2.6514093668125363E-002   7.5995747816523240E-003   6.1326603265548979E-002
  -2.5806188116792007E-002   7.5348092755541038E-003   6.1511634091548764E-002
  -2.5098282565458638E-002   7.3768331092440298E-003   6.1926928032022960E-002
  -3.5062037156220707E-002   9.6328928963855809E-003   5.8951505767327210E-002
  -3.4131230491079002E-002   9.6330899559014527E-003   5.8625669850783643E-002
  -3.3200423825937304E-002   9.5678810896608138E-003   5.8515373047382274E-002
  -3.2269617160795599E-002   9.4372662976635480E-003   5.8620615357123131E-002
  -3.1338810495653902E-002   9.2412455799097404E-003   5.8941396780006178E-002
  -4.2157839761593353E-002   1.1816311979558236E-002   5.6120319455644052E-002
  -4.1018855983975568E-002   1.1695050284264315E-002   5.5771947759961464E-002
  -3.9879872206357789E-002   1.1536187397669248E-002   5.5624391176088847E-002
  -3.8740888428740003E-002   1.1339723319772978E-002   5.5677649704026159E-002
  -3.7601904651122231E-002   1.1105658050575618E-002   5.5931723343773429E-002
  -4.9217312586909978E-002   1.3999731062730850E-002   5.3153772021923409E-002
  -4.7884875698148407E-002   1.3757010612627170E-002   5.2810669281557282E-002
  -4.6552438809386823E-002   1.3504493705677696E-002   5.2653657651668753E-002
  -4.5220001920625225E-002   1.3242180341882416E-002   5.2682737132257934E-002
  -4.3887565031863640E-002   1.2970070521241439E-002   5.2897907723324741E-002
  -5.6240455632170665E-002   1.6183150145903477E-002   5.0051863466165372E-002
  -5.4729289633597515E-002   1.5818970940990044E-002   4.9741834415570896E-002
  -5.3218123635024400E-002   1.5472800013686182E-002   4.9603172474121902E-002
  -5.1706957636451278E-002   1.5144637363991884E-002   4.9635877641818260E-002
  -5.0195791637878115E-002   1.4834482991907205E-002   4.9839949918660087E-002
  -2.5098282565458638E-002   7.3768331092440298E-003   6.1926928032022960E-002
  -2.4320665904822229E-002   7.1716634512873634E-003   6.1709477952881259E-002
  -2.3543049244185821E-002   6.9653174702493520E-003   6.1665086523217033E-002
  -2.2765432583549412E-002   6.7577951661301171E-003   6.1793753743030172E-002
  -2.1987815922913004E-002   6.5490965389295996E-003   6.2095479612320703E-002
  -3.1338810495653902E-002   9.2412455799097404E-003   5.8941396780006178E-002
  -3.0381124563499742E-002   9.0044283341370462E-003   5.8699709370950356E-002
  -2.9423438631345576E-002   8.7514239580825243E-003   5.8645101855452644E-002
  -2.8465752699191414E-002   8.4822324517464069E-003   5.8777574233513062E-002
  -2.7508066767037247E-002   8.1968538151286352E-003   5.9097126505131575E-002
  -3.7601904651122231E-002   1.1105658050575618E-002   5.5931723343773429E-002
  -3.6450128203369597E-002   1.0837193216986632E-002   5.5650787797603116E-002
  -3.5298351755616943E-002   1.0537530445915620E-002   5.5570953389071580E-002
  -3.4146575307864288E-002   1.0206669737362698E-002   5.5692220118178967E-002
  -3.2994798860111627E-002   9.8446110913277540E-003   5.6014587984925160E-002
  -4.3887565031863640E-002   1.2970070521241439E-002   5.2897907723324741E-002
  -4.2527676824431766E-002   1.2669958099836350E-002   5.2562713232839522E-002
  -4.1167788616999899E-002   1.2323636933748921E-002   5.2442641124073888E-002
  -3.9807900409568039E-002   1.1931107022979018E-002   5.2537691397027769E-002
  -3.8448012202136152E-002   1.1492368367526803E-002   5.2847864051701263E-002
  -5.0195791637878115E-002   1.4834482991907205E-002   4.9839949918660087E-002
  -4.8613770426686284E-002   1.4502722982685914E-002   4.9435485676659618E-002
  -4.7031749215494460E-002   1.4109743421581875E-002   4.9260165060459465E-002
  -4.5449728004302664E-002   1.3655544308595263E-002   4.9313988070059642E-002
  -4.3867706793110792E-002   1.3140125643725908E-002   4.9596954705460106E-002
  -2.1987815922913004E-002   6.5490965389295996E-003   6.2095479612320703E-002
  -2.1159441143502090E-002   6.3283026028353728E-003   6.1749115818379496E-002
  -2.0331066364091190E-002   6.0844943720355510E-003   6.1623215544692411E-002
  -1.9502691584680282E-002   5.8176718465296588E-003   6.1717778791259573E-002
  -1.8674316805269375E-002   5.5278350263178178E-003   6.2032805558080883E-002
  -2.7508066767037247E-002   8.1968538151286352E-003   5.9097126505131575E-002
  -2.6465237459167970E-002   7.8977932909626569E-003   5.8761177000684089E-002
  -2.5422408151298655E-002   7.5875561219816701E-003   5.8633673032899195E-002
  -2.4379578843429360E-002   7.2661423081859175E-003   5.8714614601776884E-002
  -2.3336749535560072E-002   6.9335518495751702E-003   5.9004001707317233E-002
  -3.2994798860111627E-002   9.8446110913277540E-003   5.6014587984925160E-002
  -3.1749533007375513E-002   9.4672839790898161E-003   5.5700890419862370E-002
  -3.0504267154639393E-002   9.0906178719279626E-003   5.5583620407870564E-002
  -2.9259001301903290E-002   8.7146127698422334E-003   5.5662777948949776E-002
  -2.8013735449167139E-002   8.3392686728325227E-003   5.5938363043100181E-002
  -3.8448012202136152E-002   1.1492368367526803E-002   5.2847864051701263E-002
  -3.7012327788124813E-002   1.1036774667217066E-002   5.2568256075914165E-002
  -3.5576643374113419E-002   1.0593679621874224E-002   5.2473057669606506E-002
  -3.4140958960102018E-002   1.0163083231498466E-002   5.2562268832778300E-002
  -3.2705274546090679E-002   9.7449854960898474E-003   5.2835889565429534E-002
  -4.3867706793110792E-002   1.3140125643725908E-002   4.9596954705460106E-002
  -4.2253621801415744E-002   1.2606265355344259E-002   4.9363273968839605E-002
  -4.0639536809720704E-002   1.2096741371820374E-002   4.9301984818106936E-002
  -3.9025451818025636E-002   1.1611553693154808E-002   4.9413087253262239E-002
  -3.7411366826330603E-002   1.1150702319347172E-002   4.9696581274305374E-002
  -1.8674316805269375E-002   5.5278350263178178E-003   6.2032805558080883E-002
  -1.7850090392446824E-002   5.2300294892612120E-003   6.1826124630755874E-002
  -1.7025863979624294E-002   4.9393008132204153E-003   6.1810183589284168E-002
  -1.6201637566801749E-002   4.6556489981958299E-003   6.1984982433665681E-002
  -1.5377411153979212E-002   4.3790740441870257E-003   6.2350521163900385E-002
  -2.3336749535560072E-002   6.9335518495751702E-003   5.9004001707317233E-002
  -2.2320454131614202E-002   6.5924633396946819E-003   5.8784725403591559E-002
  -2.1304158727668322E-002   6.2455553720898588E-003   5.8758847196259373E-002
  -2.0287863323722476E-002   5.8928279467601145E-003   5.8926367085320452E-002
  -1.9271567919776605E-002   5.5342810637058482E-003   5.9287285070775020E-002
  -2.8013735449167139E-002   8.3392686728325227E-003   5.5938363043100181E-002
  -2.6802712843557820E-002   7.9548971901283183E-003   5.5693595044233227E-002
  -2.5591690237948508E-002   7.5518099309588582E-003   5.5644883352299931E-002
  -2.4380667632339186E-002   7.1300068953244547E-003   5.5792227967300101E-002
  -2.3169645026729850E-002   6.6894880832247261E-003   5.6135628889233763E-002
  -3.2705274546090679E-002   9.7449854960898474E-003   5.2835889565429534E-002
  -3.1296866528277754E-002   9.3173310405618714E-003   5.2552733552680878E-002
  -2.9888458510464851E-002   8.8580644898281352E-003   5.2468292057405864E-002
  -2.8480050492651926E-002   8.3671858438887671E-003   5.2582565079604474E-002
  -2.7071642474839022E-002   7.8446951027435763E-003   5.2895552619276774E-002
  -3.7411366826330603E-002   1.1150702319347172E-002   4.9696581274305374E-002
  -3.5802915185773915E-002   1.0679764890995369E-002   4.9362140928934428E-002
  -3.4194463545217303E-002   1.0164319048697357E-002   4.9229073311577193E-002
  -3.2586011904660664E-002   9.6043647924530379E-003   4.9297378422233806E-002
  -3.0977560264104018E-002   8.9999021222624820E-003   4.9567056260904241E-002
  -1.5377411153979212E-002   4.3790740441870257E-003   6.2350521163900385E-002
  -1.4475394016249178E-002   4.0919816971548562E-003   6.2125518867978291E-002
  -1.3573376878519144E-002   3.7767777030599248E-003   6.2118629817436710E-002
  -1.2671359740789138E-002   3.4334620619019748E-003   6.2329854012275338E-002
  -1.1769342603059077E-002   3.0620347736813880E-003   6.2759191452494534E-002
  -1.9271567919776605E-002   5.5342810637058482E-003   5.9287285070775020E-002
  -1.8146402809491480E-002   5.1665317463104321E-003   5.9043048631861328E-002
  -1.7021237699206375E-002   4.7861970179567115E-003   5.9026994892677459E-002
  -1.5896072588921277E-002   4.3932768786451928E-003   5.9239123853223247E-002
  -1.4770907478636144E-002   3.9877713283755778E-003   5.9679435513499079E-002
  -2.3169645026729850E-002   6.6894880832247261E-003   5.6135628889233763E-002
  -2.1811262489540247E-002   6.2410817954659525E-003   5.5887684543433264E-002
  -2.0452879952350640E-002   5.7956163328537341E-003   5.5877992351711869E-002
  -1.9094497415161032E-002   5.3530916953883866E-003   5.6106552314069934E-002
  -1.7736114877971429E-002   4.9135078830696566E-003   5.6573364430506867E-002
  -2.7071642474839022E-002   7.8446951027435763E-003   5.2895552619276774E-002
  -2.5469973056395468E-002   7.3156318446215007E-003   5.2659426602694355E-002
  -2.3868303637951928E-002   6.8050356477507498E-003   5.2671622194540441E-002
  -2.2266634219508398E-002   6.3129065121316479E-003   5.2932139394815197E-002
  -2.0664964801064858E-002   5.8392444377638464E-003   5.3440978203518535E-002
  -3.0977560264104018E-002   8.9999021222624820E-003   4.9567056260904241E-002
  -2.9122534510057183E-002   8.3901818937772155E-003   4.9358274809644387E-002
  -2.7267508756010340E-002   7.8144549626475851E-003   4.9407884421162479E-002
  -2.5412483001963502E-002   7.2727213288746977E-003   4.9715885095458864E-002
  -2.3557457247916636E-002   6.7649809924579252E-003   5.0282276832533057E-002
  -5.7153374546159458E-002   0.0000000000000000        3.4692364664037079E-002
  -5.7943490852134544E-002   2.0856992838994290E-003   3.8344750678889837E-002
  -5.8733607158109616E-002   4.1401118557981079E-003   4.2210513253737564E-002
  -5.9523723464084702E-002   6.1632377156960374E-003   4.6289652388580266E-002
  -6.0313839770059788E-002   8.1550768635932271E-003   5.0582168083417936E-002
  -6.5820876570995057E-002   0.0000000000000000        3.7215170256338435E-002
  -6.6626619695054123E-002   2.9153774480539683E-003   4.0837797055736126E-002
  -6.7432362819113231E-002   5.7729727028100536E-003   4.4215793658970839E-002
  -6.8238105943172311E-002   8.5727857642682627E-003   4.7349160066042589E-002
  -6.9043849067231391E-002   1.1314816632428589E-002   5.0237896276951334E-002
  -7.4244599980557421E-002   0.0000000000000000        4.0580901753442887E-002
  -7.5523976678858448E-002   3.7450556122085045E-003   4.4147273856088388E-002
  -7.6803353377159489E-002   7.4058335498220019E-003   4.7011009006412960E-002
  -7.8082730075460530E-002   1.0982333812840483E-002   4.9172107204416615E-002
  -7.9362106773761570E-002   1.4474556401263956E-002   5.0630568450099334E-002
  -8.2424544774846578E-002   0.0000000000000000        4.4789559155350461E-002
  -8.4635561803547490E-002   4.5747337763630425E-003   4.8273181079946617E-002
  -8.6846578832248431E-002   9.0386943968339441E-003   5.0596159296063918E-002
  -8.9057595860949343E-002   1.3391881861412705E-002   5.1758493803702350E-002
  -9.1268612889650297E-002   1.7634296170099328E-002   5.1760184602861907E-002
  -9.0360710953862500E-002   0.0000000000000000        4.9841142462061117E-002
  -9.3961375069121278E-002   5.4044119405175801E-003   5.3215518727310833E-002
  -9.7562039184380042E-002   1.0671555243845892E-002   5.4971244527923728E-002
 -0.10116270329963882        1.5801429909984923E-002   5.5108319863899802E-002
 -0.10476336741489760        2.0794035938934682E-002   5.3626744735239068E-002
  -6.0313839770059788E-002   8.1550768635932271E-003   5.0582168083417936E-002
  -6.0616690689119922E-002   1.0034937193563950E-002   5.1520147083916792E-002
  -6.0919541608180056E-002   1.1722126599682584E-002   5.2245951656730912E-002
  -6.1222392527240203E-002   1.3216645081949037E-002   5.2759581801860259E-002
  -6.1525243446300337E-002   1.4518492640363374E-002   5.3061037519304875E-002
  -6.9043849067231391E-002   1.1314816632428589E-002   5.0237896276951334E-002
  -6.9320990609593652E-002   1.3760324444186733E-002   4.9461543250794965E-002
  -6.9598132151955927E-002   1.5670568336438376E-002   4.8948783405719072E-002
  -6.9875273694318202E-002   1.7045548309183558E-002   4.8699616741723677E-002
  -7.0152415236680463E-002   1.7885264362422236E-002   4.8714043258808765E-002
  -7.9362106773761570E-002   1.4474556401263956E-002   5.0630568450099334E-002
  -7.9137771330660731E-002   1.7485711694809503E-002   4.7797290401633337E-002
  -7.8913435887559877E-002   1.9619010073194193E-002   4.5703373143013093E-002
  -7.8689100444459037E-002   2.0874451536418068E-002   4.4348816674238581E-002
  -7.8464765001358211E-002   2.1252036084481080E-002   4.3733620995309787E-002
  -9.1268612889650297E-002   1.7634296170099328E-002   5.1760184602861907E-002
  -9.0067032852321080E-002   2.1211098945432268E-002   4.6527388536431950E-002
  -8.8865452814991891E-002   2.3567451809950016E-002   4.2509720868613016E-002
  -8.7663872777662674E-002   2.4703354763652579E-002   3.9707181599405034E-002
  -8.6462292740333485E-002   2.4618807806539911E-002   3.8119770728808060E-002
 -0.10476336741489760        2.0794035938934682E-002   5.3626744735239068E-002
 -0.10210877517457477        2.4936486196055048E-002   4.5651837655190819E-002
  -9.9454182934251970E-002   2.7515893546705809E-002   3.9367826582518750E-002
  -9.6799590693929141E-002   2.8532257990887100E-002   3.4774711517222993E-002
  -9.4144998453606327E-002   2.7985579528598786E-002   3.1872492459303403E-002
  -6.1525243446300337E-002   1.4518492640363374E-002   5.3061037519304875E-002
  -6.0204046492767914E-002   1.5526667806825819E-002   5.1641392263020482E-002
  -5.8882849539235491E-002   1.6140169113236680E-002   5.0666648168735756E-002
  -5.7561652585703095E-002   1.6358996559595829E-002   5.0136805236450720E-002
  -5.6240455632170665E-002   1.6183150145903477E-002   5.0051863466165372E-002
  -7.0152415236680463E-002   1.7885264362422236E-002   4.8714043258808765E-002
  -6.8431487507447000E-002   1.8344390282199082E-002   4.7253754538193804E-002
  -6.6710559778213552E-002   1.8577599854558743E-002   4.6148026206981239E-002
  -6.4989632048980089E-002   1.8584893079501258E-002   4.5396858265171126E-002
  -6.3268704319746613E-002   1.8366269957026643E-002   4.5000250712763444E-002
  -7.8464765001358211E-002   2.1252036084481080E-002   4.3733620995309787E-002
  -7.6434447269020919E-002   2.1162112757572307E-002   4.2401446322998700E-002
  -7.4404129536683641E-002   2.1015030595880863E-002   4.1333491267492820E-002
  -7.2373811804346364E-002   2.0810789599406659E-002   4.0529755828792091E-002
  -7.0343494072009100E-002   2.0549389768149844E-002   3.9990240006896535E-002
  -8.6462292740333485E-002   2.4618807806539911E-002   3.8119770728808060E-002
  -8.4212925777489636E-002   2.3979835232945557E-002   3.7084467617435293E-002
  -8.1963558814645815E-002   2.3452461337202940E-002   3.6223043350270420E-002
  -7.9714191851801994E-002   2.3036686119312089E-002   3.5535497927313565E-002
  -7.7464824888958131E-002   2.2732509579272985E-002   3.5021831348564618E-002
  -9.4144998453606327E-002   2.7985579528598786E-002   3.1872492459303403E-002
  -9.1766923032853193E-002   2.6797557708318796E-002   3.1302818421503426E-002
  -8.9388847612100031E-002   2.5889892078525059E-002   3.0816682455314187E-002
  -8.7010772191346911E-002   2.5262582639217438E-002   3.0414084560735549E-002
  -8.4632696770593721E-002   2.4915629390396210E-002   3.0095024737767734E-002
  -5.6240455632170665E-002   1.6183150145903477E-002   5.0051863466165372E-002
  -5.4729289633597515E-002   1.5818970940990044E-002   4.9741834415570896E-002
  -5.3218123635024400E-002   1.5472800013686182E-002   4.9603172474121902E-002
  -5.1706957636451278E-002   1.5144637363991884E-002   4.9635877641818260E-002
  -5.0195791637878115E-002   1.4834482991907205E-002   4.9839949918660087E-002
  -6.3268704319746613E-002   1.8366269957026643E-002   4.5000250712763444E-002
  -6.1576478716600352E-002   1.8018721661821252E-002   4.4646410232692751E-002
  -5.9884253113454029E-002   1.7639239368571265E-002   4.4483321852622965E-002
  -5.8192027510307755E-002   1.7227823077276889E-002   4.4510985572554070E-002
  -5.6499801907161445E-002   1.6784472787938043E-002   4.4729401392486060E-002
  -7.0343494072009100E-002   2.0549389768149844E-002   3.9990240006896535E-002
  -6.8450823873434180E-002   2.0218472382652366E-002   3.9542645821695539E-002
  -6.6558153674859274E-002   1.9805678723456351E-002   3.9305188727350900E-002
  -6.4665483476284355E-002   1.9311008790561870E-002   3.9277868723862713E-002
  -6.2772813277709422E-002   1.8734462583968797E-002   3.9460685811230772E-002
  -7.7464824888958131E-002   2.2732509579272985E-002   3.5021831348564618E-002
  -7.5352325104099130E-002   2.2418223103483473E-002   3.4430541182579329E-002
  -7.3239825319240073E-002   2.1972118078341377E-002   3.4068773098305805E-002
  -7.1127325534381058E-002   2.1394194503846768E-002   3.3936527095744164E-002
  -6.9014825749522002E-002   2.0684452379999593E-002   3.4033803174894364E-002
  -8.4632696770593721E-002   2.4915629390396210E-002   3.0095024737767734E-002
  -8.2280982408595105E-002   2.4617973824314673E-002   2.9310096315344036E-002
  -7.9929268046596474E-002   2.4138557433226522E-002   2.8774074965487534E-002
  -7.7577553684597858E-002   2.3477380217131777E-002   2.8486960688198538E-002
  -7.5225839322599242E-002   2.2634442176030362E-002   2.8448753483476724E-002
  -5.0195791637878115E-002   1.4834482991907205E-002   4.9839949918660087E-002
  -4.8613770426686284E-002   1.4502722982685914E-002   4.9435485676659618E-002
  -4.7031749215494460E-002   1.4109743421581875E-002   4.9260165060459465E-002
  -4.5449728004302664E-002   1.3655544308595263E-002   4.9313988070059642E-002
  -4.3867706793110792E-002   1.3140125643725908E-002   4.9596954705460106E-002
  -5.6499801907161445E-002   1.6784472787938043E-002   4.4729401392486060E-002
  -5.4696045210773335E-002   1.6314043793728125E-002   4.4306806426826786E-002
  -5.2892288514385224E-002   1.5821391387820738E-002   4.4098538805759792E-002
  -5.1088531817997086E-002   1.5306515570215812E-002   4.4104598529285041E-002
  -4.9284775121608941E-002   1.4769416340913388E-002   4.4324985597402555E-002
  -6.2772813277709422E-002   1.8734462583968797E-002   3.9460685811230772E-002
  -6.0762137377333089E-002   1.8125364604770329E-002   3.9058956262097932E-002
  -5.8751461476956743E-002   1.7533039354059525E-002   3.8856737776349286E-002
  -5.6740785576580362E-002   1.6957486831836337E-002   3.8854030353984756E-002
  -5.4730109676204050E-002   1.6398707038100757E-002   3.9050833995004516E-002
  -6.9014825749522002E-002   2.0684452379999593E-002   3.4033803174894364E-002
  -6.6812046926365512E-002   1.9936685415812536E-002   3.3691935182473091E-002
  -6.4609268103208994E-002   1.9244687320298309E-002   3.3534761972227961E-002
  -6.2406489280052498E-002   1.8608458093456817E-002   3.3562283544158869E-002
  -6.0203710456895959E-002   1.8027997735288154E-002   3.3774499898265954E-002
  -7.5225839322599242E-002   2.2634442176030362E-002   2.8448753483476724E-002
  -7.2845773857870638E-002   2.1748006226854633E-002   2.8205743187952242E-002
  -7.0465708393142035E-002   2.0956335286537071E-002   2.8132611393395693E-002
  -6.8085642928413431E-002   2.0259429355077338E-002   2.8229358099807263E-002
  -6.5705577463684828E-002   1.9657288432475606E-002   2.8495983307186945E-002
  -4.3867706793110792E-002   1.3140125643725908E-002   4.9596954705460106E-002
  -4.2253621801415744E-002   1.2606265355344259E-002   4.9363273968839605E-002
  -4.0639536809720704E-002   1.2096741371820374E-002   4.9301984818106936E-002
  -3.9025451818025636E-002   1.1611553693154808E-002   4.9413087253262239E-002
  -3.7411366826330603E-002   1.1150702319347172E-002   4.9696581274305374E-002
  -4.9284775121608941E-002   1.4769416340913388E-002   4.4324985597402555E-002
  -4.7496086737434870E-002   1.4220936501118803E-002   4.4077149689061956E-002
  -4.5707398353260806E-002   1.3671918852037668E-002   4.4006128979791490E-002
  -4.3918709969086707E-002   1.3122363393669817E-002   4.4111923469591238E-002
  -4.2130021584912671E-002   1.2572270126015417E-002   4.4394533158461036E-002
  -5.4730109676204050E-002   1.6398707038100757E-002   3.9050833995004516E-002
  -5.2762394286368655E-002   1.5835607646893513E-002   3.8763968800799187E-002
  -5.0794678896533288E-002   1.5247096332254739E-002   3.8658342418846359E-002
  -4.8826963506697886E-002   1.4633173094184937E-002   3.8733954849145893E-002
  -4.6859248116862526E-002   1.3993837932683745E-002   3.8990806091697777E-002
  -6.0203710456895959E-002   1.8027997735288154E-002   3.3774499898265954E-002
  -5.8052544448217079E-002   1.7450278792668056E-002   3.3423731304051331E-002
  -5.5901378439538150E-002   1.6822273812471950E-002   3.3258625135271364E-002
  -5.3750212430859194E-002   1.6143982794699946E-002   3.3279181391926024E-002
  -5.1599046422180349E-002   1.5415405739351976E-002   3.3485400074015306E-002
  -6.5705577463684828E-002   1.9657288432475606E-002   2.8495983307186945E-002
  -6.3366537222980079E-002   1.9064949938442793E-002   2.8056437198818285E-002
  -6.1027496982275359E-002   1.8397451292689118E-002   2.7806977129066546E-002
  -5.8688456741570638E-002   1.7654792495215069E-002   2.7747603097931645E-002
  -5.6349416500865890E-002   1.6836973546020317E-002   2.7878315105413831E-002
  -3.7411366826330603E-002   1.1150702319347172E-002   4.9696581274305374E-002
  -3.5802915185773915E-002   1.0679764890995369E-002   4.9362140928934428E-002
  -3.4194463545217303E-002   1.0164319048697357E-002   4.9229073311577193E-002
  -3.2586011904660664E-002   9.6043647924530379E-003   4.9297378422233806E-002
  -3.0977560264104018E-002   8.9999021222624820E-003   4.9567056260904241E-002
  -4.2130021584912671E-002   1.2572270126015417E-002   4.4394533158461036E-002
  -4.0329673296016985E-002   1.2012951794529630E-002   4.4008834593886242E-002
  -3.8529325007121307E-002   1.1435721144667718E-002   4.3805556597975692E-002
  -3.6728976718225621E-002   1.0840578176429246E-002   4.3784699170729399E-002
  -3.4928628429329991E-002   1.0227522889814766E-002   4.3946262312147322E-002
  -4.6859248116862526E-002   1.3993837932683745E-002   3.8990806091697777E-002
  -4.4885955338977400E-002   1.3346138698063809E-002   3.8580445403489108E-002
  -4.2912662561092232E-002   1.2707123240637802E-002   3.8333553124595077E-002
  -4.0939369783207141E-002   1.2076791560405399E-002   3.8250129255015884E-002
  -3.8966077005321995E-002   1.1455143657367023E-002   3.8330173794751274E-002
  -5.1599046422180349E-002   1.5415405739351976E-002   3.3485400074015306E-002
  -4.9471761314655215E-002   1.4679325601598001E-002   3.3076973357742914E-002
  -4.7344476207130143E-002   1.3978525336608080E-002   3.2813062891435547E-002
  -4.5217191099605043E-002   1.3313004944381635E-002   3.2693668675093546E-002
  -4.3089905992079937E-002   1.2682764424919238E-002   3.2718790708716444E-002
  -5.6349416500865890E-002   1.6836973546020317E-002   2.7878315105413831E-002
  -5.4087091223050388E-002   1.6012512505132276E-002   2.7498418456647689E-002
  -5.1824765945234913E-002   1.5249927432578206E-002   2.7244085898496945E-002
  -4.9562440667419452E-002   1.4549218328357861E-002   2.7115317430962044E-002
  -4.7300115389603992E-002   1.3910385192471508E-002   2.7112113054042764E-002
  -3.0977560264104018E-002   8.9999021222624820E-003   4.9567056260904241E-002
  -2.9122534510057183E-002   8.3901818937772155E-003   4.9358274809644387E-002
  -2.7267508756010340E-002   7.8144549626475851E-003   4.9407884421162479E-002
  -2.5412483001963502E-002   7.2727213288746977E-003   4.9715885095458864E-002
  -2.3557457247916636E-002   6.7649809924579252E-003   5.0282276832533057E-002
  -3.4928628429329991E-002   1.0227522889814766E-002   4.3946262312147322E-002
  -3.2871267106120733E-002   9.6080016991938744E-003   4.3614531860365818E-002
  -3.0813905782911453E-002   8.9934610189369157E-003   4.3429081484131132E-002
  -2.8756544459702205E-002   8.3839008490435782E-003   4.3389911183443153E-002
  -2.6699183136492916E-002   7.7793211895140768E-003   4.3497020958302102E-002
  -3.8966077005321995E-002   1.1455143657367023E-002   3.8330173794751274E-002
  -3.6818491100181552E-002   1.0825821504611061E-002   3.7846481555455613E-002
  -3.4670905195041075E-002   1.0172467075226253E-002   3.7396958404475621E-002
  -3.2523319289900675E-002   9.4950803692124882E-003   3.6981604341810984E-002
  -3.0375733384760226E-002   8.7936613865700064E-003   3.6600419367462333E-002
  -4.3089905992079937E-002   1.2682764424919238E-002   3.2718790708716444E-002
  -4.0964206492239585E-002   1.2043641310028094E-002   3.2054123894914140E-002
  -3.8838506992399144E-002   1.1351473131515476E-002   3.1311515182195951E-002
  -3.6712807492558786E-002   1.0606259889381495E-002   3.0490964570562013E-002
  -3.4587107992718392E-002   9.8080015836261025E-003   2.9592472060012795E-002
  -4.7300115389603992E-002   1.3910385192471508E-002   2.7112113054042764E-002
  -4.5308413282294846E-002   1.3261461115444906E-002   2.6237458878741016E-002
  -4.3316711174985811E-002   1.2530479187804880E-002   2.5172751817292310E-002
  -4.1325009067676721E-002   1.1717439409550324E-002   2.3917991869696800E-002
  -3.9333306960367576E-002   1.0822341780682088E-002   2.2473179035954249E-002
  -9.0360710953862500E-002   0.0000000000000000        4.9841142462061117E-002
  -9.3961375069121278E-002   5.4044119405175801E-003   5.3215518727310833E-002
  -9.7562039184380042E-002   1.0671555243845892E-002   5.4971244527923728E-002
 -0.10116270329963882        1.5801429909984923E-002   5.5108319863899802E-002
 -0.10476336741489760        2.0794035938934682E-002   5.3626744735239068E-002
 -0.10329197355495383        0.0000000000000000        5.8668929867077502E-002
 -0.10682958544912843        1.0884368991545792E-002   5.2124243480654787E-002
 -0.11036719734330307        1.9172418864342070E-002   4.7324312001037191E-002
 -0.11390480923747769        2.4864149618388835E-002   4.4269135428224742E-002
 -0.11744242113165226        2.7959561253686108E-002   4.2958713762217389E-002
 -0.12645720761546914        0.0000000000000000        7.4206199563902203E-002
 -0.12656836191711765        1.6364326042573998E-002   5.5283400044246846E-002
 -0.12667951621876619        2.7673282484838250E-002   4.1468760802838539E-002
 -0.12679067052041473        3.3926869326792758E-002   3.2762281839677290E-002
 -0.12690182482206325        3.5125086568437498E-002   2.9163963154763068E-002
 -0.15985641313540844        0.0000000000000000        9.6452951552535249E-002
 -0.15317770447308895        2.1844283093602205E-002   6.2692988418086987E-002
 -0.14649899581076947        3.6174146105334433E-002   3.7404590933327694E-002
 -0.13982028714844999        4.2989589035196660E-002   2.0587759098257431E-002
 -0.13314157848613048        4.2290611883188924E-002   1.2242492912876114E-002
 -0.20348959011477175        0.0000000000000000       0.12540918583297661     
 -0.18665761311704229        2.7324240144630415E-002   7.4353008602175225E-002
 -0.16982563611931284        4.4675009725830606E-002   3.5131802392504748E-002
 -0.15299365912158341        5.2052308743600582E-002   7.7455672039652146E-003
 -0.13616168212385396        4.9456137197940335E-002  -7.8056969634434231E-003
 -0.10476336741489760        2.0794035938934682E-002   5.3626744735239068E-002
 -0.10210877517457477        2.4936486196055048E-002   4.5651837655190819E-002
  -9.9454182934251970E-002   2.7515893546705809E-002   3.9367826582518750E-002
  -9.6799590693929141E-002   2.8532257990887100E-002   3.4774711517222993E-002
  -9.4144998453606327E-002   2.7985579528598786E-002   3.1872492459303403E-002
 -0.11744242113165226        2.7959561253686108E-002   4.2958713762217389E-002
 -0.11348523049115303        2.9432725289388100E-002   3.6709549607857814E-002
 -0.10952803985065374        3.0257713244649095E-002   3.1374686246474950E-002
 -0.10557084921015447        3.0434525119469109E-002   2.6954123678068771E-002
 -0.10161365856965521        2.9963160913848083E-002   2.3447861902639280E-002
 -0.12690182482206325        3.5125086568437498E-002   2.9163963154763068E-002
 -0.12241863099578706        3.3928964382721152E-002   2.5555408752120715E-002
 -0.11793543716951085        3.2999532942592363E-002   2.2084559928055598E-002
 -0.11345224334323467        3.2336792248051117E-002   1.8751416682567544E-002
 -0.10896904951695845        3.1940742299097366E-002   1.5555979015656706E-002
 -0.13314157848613048        4.2290611883188924E-002   1.2242492912876114E-002
 -0.12890897668847690        3.8425203476054243E-002   1.2189415087979563E-002
 -0.12467637489082330        3.5741352640535594E-002   1.1497447627260670E-002
 -0.12044377309316970        3.4239059376633109E-002   1.0166590530719428E-002
 -0.11621117129551613        3.3918323684346670E-002   8.1968437983557206E-003
 -0.13616168212385396        4.9456137197940335E-002  -7.8056969634434231E-003
 -0.13295626756922252        4.2921442569387264E-002  -3.3884313845656336E-003
 -0.12975085301459108        3.8483172338478901E-002  -3.8665065590970729E-004
 -0.12654543845995966        3.6141326505215142E-002   1.1996452225242473E-003
 -0.12334002390532819        3.5895905069595974E-002   1.3704562507362572E-003
  -9.4144998453606327E-002   2.7985579528598786E-002   3.1872492459303403E-002
  -9.1766923032853193E-002   2.6797557708318796E-002   3.1302818421503426E-002
  -8.9388847612100031E-002   2.5889892078525059E-002   3.0816682455314187E-002
  -8.7010772191346911E-002   2.5262582639217438E-002   3.0414084560735549E-002
  -8.4632696770593721E-002   2.4915629390396210E-002   3.0095024737767734E-002
 -0.10161365856965521        2.9963160913848083E-002   2.3447861902639280E-002
  -9.9136737954246823E-002   2.9195888924011527E-002   2.3175122507877430E-002
  -9.6659817338838439E-002   2.8484977446184872E-002   2.3016535430815409E-002
  -9.4182896723430054E-002   2.7830426480368094E-002   2.2972100671453052E-002
  -9.1705976108021670E-002   2.7232236026561218E-002   2.3041818229790498E-002
 -0.10896904951695845        3.1940742299097366E-002   1.5555979015656706E-002
 -0.10636266946080582        3.1594220139704240E-002   1.5356178585456799E-002
 -0.10375628940465319        3.1080062813844657E-002   1.5301144719045562E-002
 -0.10114990934850057        3.0398270321518706E-002   1.5390877416423240E-002
  -9.8543529292347901E-002   2.9548842662726255E-002   1.5625376677589640E-002
 -0.11621117129551613        3.3918323684346670E-002   8.1968437983557206E-003
 -0.11344471755253016        3.3992551355396951E-002   7.8459866542412819E-003
 -0.11067826380954425        3.3675148181504480E-002   7.6705103200047000E-003
 -0.10791181006655834        3.2966114162669286E-002   7.6704147956461214E-003
 -0.10514535632357237        3.1865449298891416E-002   7.8457000811649365E-003
 -0.12334002390532819        3.5895905069595974E-002   1.3704562507362572E-003
 -0.12038288222941992        3.6390882571089661E-002   6.4454671423107290E-004
 -0.11742574055351164        3.6270233549164262E-002   1.2463223369264115E-004
 -0.11446859887760338        3.5533958003819879E-002  -1.8928719087859917E-004
 -0.11151145720169509        3.4182055935056355E-002  -2.9721155948320144E-004
  -8.4632696770593721E-002   2.4915629390396210E-002   3.0095024737767734E-002
  -8.2280982408595105E-002   2.4617973824314673E-002   2.9310096315344036E-002
  -7.9929268046596474E-002   2.4138557433226522E-002   2.8774074965487534E-002
  -7.7577553684597858E-002   2.3477380217131777E-002   2.8486960688198538E-002
  -7.5225839322599242E-002   2.2634442176030362E-002   2.8448753483476724E-002
  -9.1705976108021670E-002   2.7232236026561218E-002   2.3041818229790498E-002
  -8.9114297355025351E-002   2.6628665898317437E-002   2.2359232935953703E-002
  -8.6522618602029061E-002   2.5957975909189725E-002   2.1907669351544881E-002
  -8.3930939849032715E-002   2.5220166059178158E-002   2.1687127476564181E-002
  -8.1339261096036453E-002   2.4415236348282771E-002   2.1697607311011669E-002
  -9.8543529292347901E-002   2.9548842662726255E-002   1.5625376677589640E-002
  -9.5729771511493117E-002   2.8639357972320111E-002   1.5159775476462412E-002
  -9.2916013730638333E-002   2.7777394385152924E-002   1.4907310621624034E-002
  -9.0102255949783591E-002   2.6962951901224455E-002   1.4867982113074522E-002
  -8.7288498168928780E-002   2.6196030520535082E-002   1.5041789950813865E-002
 -0.10514535632357237        3.1865449298891416E-002   7.8457000811649365E-003
 -0.10212740487799840        3.0650050046322843E-002   7.7117239368702361E-003
  -9.9109453432424416E-002   2.9596812861116123E-002   7.7729987757250959E-003
  -9.6091501986850375E-002   2.8705737743270850E-002   8.0295245977293761E-003
  -9.3073550541276390E-002   2.7976824692787415E-002   8.4813014028833466E-003
 -0.11151145720169509        3.4182055935056355E-002  -2.9721155948320144E-004
 -0.10830719745454109        3.2660742120325575E-002   1.5078317177091849E-005
 -0.10510293770738718        3.1416231337079270E-002   5.0473381384773253E-004
 -0.10189867796023323        3.0448523585317161E-002   1.1717549305289530E-003
  -9.8694418213079282E-002   2.9757618865039859E-002   2.0161416672203059E-003
  -7.5225839322599242E-002   2.2634442176030362E-002   2.8448753483476724E-002
  -7.2845773857870638E-002   2.1748006226854633E-002   2.8205743187952242E-002
  -7.0465708393142035E-002   2.0956335286537071E-002   2.8132611393395693E-002
  -6.8085642928413431E-002   2.0259429355077338E-002   2.8229358099807263E-002
  -6.5705577463684828E-002   1.9657288432475606E-002   2.8495983307186945E-002
  -8.1339261096036453E-002   2.4415236348282771E-002   2.1697607311011669E-002
  -7.8801722007813518E-002   2.3596843523904121E-002   2.1673856159945881E-002
  -7.6264182919590612E-002   2.2818644333443071E-002   2.1795173754900532E-002
  -7.3726643831367678E-002   2.2080638776899496E-002   2.2061560095875822E-002
  -7.1189104743144785E-002   2.1382826854273451E-002   2.2473015182871647E-002
  -8.7288498168928780E-002   2.6196030520535082E-002   1.5041789950813865E-002
  -8.4618295212159134E-002   2.5445680820953637E-002   1.5182726569266308E-002
  -8.1948092255389474E-002   2.4680953380349233E-002   1.5443922178791803E-002
  -7.9277889298619814E-002   2.3901848198721674E-002   1.5825376779390235E-002
  -7.6607686341850181E-002   2.3108365276071241E-002   1.6327090371061698E-002
  -9.3073550541276390E-002   2.7976824692787415E-002   8.4813014028833466E-003
  -9.0295493470907526E-002   2.7294518118003083E-002   8.7323544159134802E-003
  -8.7517436400538662E-002   2.6543262427255201E-002   9.0788566650692390E-003
  -8.4739379330169798E-002   2.5723057620543898E-002   9.5208081503504460E-003
  -8.1961322259800878E-002   2.4833903697869170E-002   1.0058208871757068E-002
  -9.8694418213079282E-002   2.9757618865039859E-002   2.0161416672203059E-003
  -9.5833316784058709E-002   2.9143355415052641E-002   2.3227396998878880E-003
  -9.2972215355038162E-002   2.8405571474161409E-002   2.6999772137334122E-003
  -9.0111113926017603E-002   2.7544267042366084E-002   3.1478542087566355E-003
  -8.7250012496997043E-002   2.6559442119666765E-002   3.6663706849577871E-003
  -6.5705577463684828E-002   1.9657288432475606E-002   2.8495983307186945E-002
  -6.3366537222980079E-002   1.9064949938442793E-002   2.8056437198818285E-002
  -6.1027496982275359E-002   1.8397451292689118E-002   2.7806977129066546E-002
  -5.8688456741570638E-002   1.7654792495215069E-002   2.7747603097931645E-002
  -5.6349416500865890E-002   1.6836973546020317E-002   2.7878315105413831E-002
  -7.1189104743144785E-002   2.1382826854273451E-002   2.2473015182871647E-002
  -6.8653888981584948E-002   2.0683849720296577E-002   2.2045662133325927E-002
  -6.6118673220025098E-002   1.9942348529700851E-002   2.1820574086873545E-002
  -6.3583457458465206E-002   1.9158323282486098E-002   2.1797751043514578E-002
  -6.1048241696905411E-002   1.8331773978652155E-002   2.1977193003248824E-002
  -7.6607686341850181E-002   2.3108365276071241E-002   1.6327090371061698E-002
  -7.3864116094958840E-002   2.2302749502150679E-002   1.5944566475440569E-002
  -7.1120545848067485E-002   2.1487245766712577E-002   1.5776486547389147E-002
  -6.8376975601176213E-002   2.0661854069756791E-002   1.5822850586907248E-002
  -6.5633405354284843E-002   1.9826574411283882E-002   1.6083658593995159E-002
  -8.1961322259800878E-002   2.4833903697869170E-002   1.0058208871757068E-002
  -7.8997218563101754E-002   2.3921649284004538E-002   9.7531502251621306E-003
  -7.6033114866402518E-002   2.3032143003724141E-002   9.6747145106130961E-003
  -7.3069011169703310E-002   2.2165384857027848E-002   9.8229017281100950E-003
  -7.0104907473004158E-002   2.1321374843915747E-002   1.0197711877653132E-002
  -8.7250012496997043E-002   2.6559442119666765E-002   3.6663706849577871E-003
  -8.4053196386013607E-002   2.5540549065858509E-002   3.4714133824905735E-003
  -8.0856380275030226E-002   2.4577040240735842E-002   3.5152579765456715E-003
  -7.7659564164046846E-002   2.3668915644298606E-002   3.7979044671229284E-003
  -7.4462748053063410E-002   2.2816175276547446E-002   4.3193528542228021E-003
  -5.6349416500865890E-002   1.6836973546020317E-002   2.7878315105413831E-002
  -5.4087091223050388E-002   1.6012512505132276E-002   2.7498418456647689E-002
  -5.1824765945234913E-002   1.5249927432578206E-002   2.7244085898496945E-002
  -4.9562440667419452E-002   1.4549218328357861E-002   2.7115317430962044E-002
  -4.7300115389603992E-002   1.3910385192471508E-002   2.7112113054042764E-002
  -6.1048241696905411E-002   1.8331773978652155E-002   2.1977193003248824E-002
  -5.8634000363468955E-002   1.7507176756808907E-002   2.1791461952614999E-002
  -5.6219759030032547E-002   1.6729007755566044E-002   2.1783998922607559E-002
  -5.3805517696596139E-002   1.5997266974923839E-002   2.1954803913226496E-002
  -5.1391276363159669E-002   1.5311954414881868E-002   2.2303876924471444E-002
  -6.5633405354284843E-002   1.9826574411283882E-002   1.6083658593995159E-002
  -6.3014544035216835E-002   1.9001841008485634E-002   1.6076645393760608E-002
  -6.0395682716148834E-002   1.8208088078554154E-002   1.6300604144162852E-002
  -5.7776821397080833E-002   1.7445315621489814E-002   1.6755534845201942E-002
  -5.5157960078012824E-002   1.6713523637292255E-002   1.7441437496878057E-002
  -7.0104907473004158E-002   2.1321374843915747E-002   1.0197711877653132E-002
  -6.7228722238293903E-002   2.0496505260162036E-002   1.0353968780084238E-002
  -6.4352537003583760E-002   1.9687168401542183E-002   1.0793901563162787E-002
  -6.1476351768873561E-002   1.8893364268055848E-002   1.1517510226888714E-002
  -5.8600166534163375E-002   1.8115092859702683E-002   1.2524794771262133E-002
  -7.4462748053063410E-002   2.2816175276547446E-002   4.3193528542228021E-003
  -7.1276534972700423E-002   2.1991169511838882E-002   4.6234321115859456E-003
  -6.8090321892337380E-002   2.1166248724530379E-002   5.2638911796072940E-003
  -6.4904108811974393E-002   2.0341412914621673E-002   6.2407300582864728E-003
  -6.1717895731611350E-002   1.9516662082113001E-002   7.5539487476240508E-003
  -4.7300115389603992E-002   1.3910385192471508E-002   2.7112113054042764E-002
  -4.5308413282294846E-002   1.3261461115444906E-002   2.6237458878741016E-002
  -4.3316711174985811E-002   1.2530479187804880E-002   2.5172751817292310E-002
  -4.1325009067676721E-002   1.1717439409550324E-002   2.3917991869696800E-002
  -3.9333306960367576E-002   1.0822341780682088E-002   2.2473179035954249E-002
  -5.1391276363159669E-002   1.5311954414881868E-002   2.2303876924471444E-002
  -4.9374939227322945E-002   1.4599109504757374E-002   2.1876612536857215E-002
  -4.7358602091486103E-002   1.3784771673867685E-002   2.1688671092445322E-002
  -4.5342264955649400E-002   1.2868940922212295E-002   2.1740052591235570E-002
  -4.3325927819812537E-002   1.1851617249791335E-002   2.2030757033228099E-002
  -5.5157960078012824E-002   1.6713523637292255E-002   1.7441437496878057E-002
  -5.2687612084299174E-002   1.5936757894069675E-002   1.7442127826799769E-002
  -5.0217264090585578E-002   1.5039064159930261E-002   1.8111516929272785E-002
  -4.7746916096872011E-002   1.4020442434874015E-002   1.9449604804297273E-002
  -4.5276568103158318E-002   1.2880892718900805E-002   2.1456391451873336E-002
  -5.8600166534163375E-002   1.8115092859702683E-002   1.2524794771262133E-002
  -5.5246431853223782E-002   1.7274406283382060E-002   1.2934004748568484E-002
  -5.1892697172284140E-002   1.6293356645993174E-002   1.4441289327775391E-002
  -4.8538962491344498E-002   1.5171943947535859E-002   1.7046648508882864E-002
  -4.5185227810404890E-002   1.3910168188010219E-002   2.0750082291890945E-002
  -6.1717895731611350E-002   1.9516662082113001E-002   7.5539487476240508E-003
  -5.7051398534096465E-002   1.8612054672694223E-002   8.3522433021631093E-003
  -5.2384901336581691E-002   1.7547649132055865E-002   1.0677988287952550E-002
  -4.7718404139066889E-002   1.6323445460197650E-002   1.4531183704991103E-002
  -4.3051906941552032E-002   1.4939443657119522E-002   1.9911829553279858E-002
 </DataArray>
 </PointData>
 </Piece>
 <Piece  NumberOfPoints="          1600 "  NumberOfCells="         1024 ">
 <Points>
 <DataArray  type="Float64" NumberOfComponents="3"  format="ascii" >
  0.50000000000000000        0.0000000000000000        0.0000000000000000     
  0.53125000000000000        0.0000000000000000        0.0000000000000000     
  0.56250000000000000        0.0000000000000000        0.0000000000000000     
  0.59375000000000000        0.0000000000000000        0.0000000000000000     
  0.62500000000000000        0.0000000000000000        0.0000000000000000     
  0.50000000000000000        3.1250000000000000E-002   0.0000000000000000     
  0.53125000000000000        3.1250000000000000E-002   0.0000000000000000     
  0.56250000000000000        3.1250000000000000E-002   0.0000000000000000     
  0.59375000000000000        3.1250000000000000E-002   0.0000000000000000     
  0.62500000000000000        3.1250000000000000E-002   0.0000000000000000     
  0.50000000000000000        6.2500000000000000E-002   0.0000000000000000     
  0.53125000000000000        6.2500000000000000E-002   0.0000000000000000     
  0.56250000000000000        6.2500000000000000E-002   0.0000000000000000     
  0.59375000000000000        6.2500000000000000E-002   0.0000000000000000     
  0.62500000000000000        6.2500000000000000E-002   0.0000000000000000     
  0.50000000000000000        9.3750000000000000E-002   0.0000000000000000     
  0.53125000000000000        9.3750000000000000E-002   0.0000000000000000     
  0.56250000000000000        9.3750000000000000E-002   0.0000000000000000     
  0.59375000000000000        9.3750000000000000E-002   0.0000000000000000     
  0.62500000000000000        9.3750000000000000E-002   0.0000000000000000     
  0.50000000000000000       0.12500000000000000        0.0000000000000000     
  0.53125000000000000       0.12500000000000000        0.0000000000000000     
  0.56250000000000000       0.12500000000000000        0.0000000000000000     
  0.59375000000000000       0.12500000000000000        0.0000000000000000     
  0.62500000000000000       0.12500000000000000        0.0000000000000000     
  0.62500000000000000        0.0000000000000000        0.0000000000000000     
  0.65625000000000000        0.0000000000000000        0.0000000000000000     
  0.68750000000000000        0.0000000000000000        0.0000000000000000     
  0.71875000000000000        0.0000000000000000        0.0000000000000000     
  0.75000000000000000        0.0000000000000000        0.0000000000000000     
  0.62500000000000000        3.1250000000000000E-002   0.0000000000000000     
  0.65625000000000000        3.1250000000000000E-002   0.0000000000000000     
  0.68750000000000000        3.1250000000000000E-002   0.0000000000000000     
  0.71875000000000000        3.1250000000000000E-002   0.0000000000000000     
  0.75000000000000000        3.1250000000000000E-002   0.0000000000000000     
  0.62500000000000000        6.2500000000000000E-002   0.0000000000000000     
  0.65625000000000000        6.2500000000000000E-002   0.0000000000000000     
  0.68750000000000000        6.2500000000000000E-002   0.0000000000000000     
  0.71875000000000000        6.2500000000000000E-002   0.0000000000000000     
  0.75000000000000000        6.2500000000000000E-002   0.0000000000000000     
  0.62500000000000000        9.3750000000000000E-002   0.0000000000000000     
  0.65625000000000000        9.3750000000000000E-002   0.0000000000000000     
  0.68750000000000000        9.3750000000000000E-002   0.0000000000000000     
  0.71875000000000000        9.3750000000000000E-002   0.0000000000000000     
  0.75000000000000000        9.3750000000000000E-002   0.0000000000000000     
  0.62500000000000000       0.12500000000000000        0.0000000000000000     
  0.65625000000000000       0.12500000000000000        0.0000000000000000     
  0.68750000000000000       0.12500000000000000        0.0000000000000000     
  0.71875000000000000       0.12500000000000000        0.0000000000000000     
  0.75000000000000000       0.12500000000000000        0.0000000000000000     
  0.75000000000000000        0.0000000000000000        0.0000000000000000     
  0.78125000000000000        0.0000000000000000        0.0000000000000000     
  0.81250000000000000        0.0000000000000000        0.0000000000000000     
  0.84375000000000000        0.0000000000000000        0.0000000000000000     
  0.87500000000000000        0.0000000000000000        0.0000000000000000     
  0.75000000000000000        3.1250000000000000E-002   0.0000000000000000     
  0.78125000000000000        3.1250000000000000E-002   0.0000000000000000     
  0.81250000000000000        3.1250000000000000E-002   0.0000000000000000     
  0.84375000000000000        3.1250000000000000E-002   0.0000000000000000     
  0.87500000000000000        3.1250000000000000E-002   0.0000000000000000     
  0.75000000000000000        6.2500000000000000E-002   0.0000000000000000     
  0.78125000000000000        6.2500000000000000E-002   0.0000000000000000     
  0.81250000000000000        6.2500000000000000E-002   0.0000000000000000     
  0.84375000000000000        6.2500000000000000E-002   0.0000000000000000     
  0.87500000000000000        6.2500000000000000E-002   0.0000000000000000     
  0.75000000000000000        9.3750000000000000E-002   0.0000000000000000     
  0.78125000000000000        9.3750000000000000E-002   0.0000000000000000     
  0.81250000000000000        9.3750000000000000E-002   0.0000000000000000     
  0.84375000000000000        9.3750000000000000E-002   0.0000000000000000     
  0.87500000000000000        9.3750000000000000E-002   0.0000000000000000     
  0.75000000000000000       0.12500000000000000        0.0000000000000000     
  0.78125000000000000       0.12500000000000000        0.0000000000000000     
  0.81250000000000000       0.12500000000000000        0.0000000000000000     
  0.84375000000000000       0.12500000000000000        0.0000000000000000     
  0.87500000000000000       0.12500000000000000        0.0000000000000000     
  0.87500000000000000        0.0000000000000000        0.0000000000000000     
  0.90625000000000000        0.0000000000000000        0.0000000000000000     
  0.93750000000000000        0.0000000000000000        0.0000000000000000     
  0.96875000000000000        0.0000000000000000        0.0000000000000000     
   1.0000000000000000        0.0000000000000000        0.0000000000000000     
  0.87500000000000000        3.1250000000000000E-002   0.0000000000000000     
  0.90625000000000000        3.1250000000000000E-002   0.0000000000000000     
  0.93750000000000000        3.1250000000000000E-002   0.0000000000000000     
  0.96875000000000000        3.1250000000000000E-002   0.0000000000000000     
   1.0000000000000000        3.1250000000000000E-002   0.0000000000000000     
  0.87500000000000000        6.2500000000000000E-002   0.0000000000000000     
  0.90625000000000000        6.2500000000000000E-002   0.0000000000000000     
  0.93750000000000000        6.2500000000000000E-002   0.0000000000000000     
  0.96875000000000000        6.2500000000000000E-002   0.0000000000000000     
   1.0000000000000000        6.2500000000000000E-002   0.0000000000000000     
  0.87500000000000000        9.3750000000000000E-002   0.0000000000000000     
  0.90625000000000000        9.3750000000000000E-002   0.0000000000000000     
  0.93750000000000000        9.3750000000000000E-002   0.0000000000000000     
  0.96875000000000000        9.3750000000000000E-002   0.0000000000000000     
   1.0000000000000000        9.3750000000000000E-002   0.0000000000000000     
  0.87500000000000000       0.12500000000000000        0.0000000000000000     
  0.90625000000000000       0.12500000000000000        0.0000000000000000     
  0.93750000000000000       0.12500000000000000        0.0000000000000000     
  0.96875000000000000       0.12500000000000000        0.0000000000000000     
   1.0000000000000000       0.12500000000000000        0.0000000000000000     
   1.0000000000000000        0.0000000000000000        0.0000000000000000     
   1.0312500000000000        0.0000000000000000        0.0000000000000000     
   1.0625000000000000        0.0000000000000000        0.0000000000000000     
   1.0937500000000000        0.0000000000000000        0.0000000000000000     
   1.1250000000000000        0.0000000000000000        0.0000000000000000     
   1.0000000000000000        3.1250000000000000E-002   0.0000000000000000     
   1.0312500000000000        3.1250000000000000E-002   0.0000000000000000     
   1.0625000000000000        3.1250000000000000E-002   0.0000000000000000     
   1.0937500000000000        3.1250000000000000E-002   0.0000000000000000     
   1.1250000000000000        3.1250000000000000E-002   0.0000000000000000     
   1.0000000000000000        6.2500000000000000E-002   0.0000000000000000     
   1.0312500000000000        6.2500000000000000E-002   0.0000000000000000     
   1.0625000000000000        6.2500000000000000E-002   0.0000000000000000     
   1.0937500000000000        6.2500000000000000E-002   0.0000000000000000     
   1.1250000000000000        6.2500000000000000E-002   0.0000000000000000     
   1.0000000000000000        9.3750000000000000E-002   0.0000000000000000     
   1.0312500000000000        9.3750000000000000E-002   0.0000000000000000     
   1.0625000000000000        9.3750000000000000E-002   0.0000000000000000     
   1.0937500000000000        9.3750000000000000E-002   0.0000000000000000     
   1.1250000000000000        9.3750000000000000E-002   0.0000000000000000     
   1.0000000000000000       0.12500000000000000        0.0000000000000000     
   1.0312500000000000       0.12500000000000000        0.0000000000000000     
   1.0625000000000000       0.12500000000000000        0.0000000000000000     
   1.0937500000000000       0.12500000000000000        0.0000000000000000     
   1.1250000000000000       0.12500000000000000        0.0000000000000000     
   1.1250000000000000        0.0000000000000000        0.0000000000000000     
   1.1562500000000000        0.0000000000000000        0.0000000000000000     
   1.1875000000000000        0.0000000000000000        0.0000000000000000     
   1.2187500000000000        0.0000000000000000        0.0000000000000000     
   1.2500000000000000        0.0000000000000000        0.0000000000000000     
   1.1250000000000000        3.1250000000000000E-002   0.0000000000000000     
   1.1562500000000000        3.1250000000000000E-002   0.0000000000000000     
   1.1875000000000000        3.1250000000000000E-002   0.0000000000000000     
   1.2187500000000000        3.1250000000000000E-002   0.0000000000000000     
   1.2500000000000000        3.1250000000000000E-002   0.0000000000000000     
   1.1250000000000000        6.2500000000000000E-002   0.0000000000000000     
   1.1562500000000000        6.2500000000000000E-002   0.0000000000000000     
   1.1875000000000000        6.2500000000000000E-002   0.0000000000000000     
   1.2187500000000000        6.2500000000000000E-002   0.0000000000000000     
   1.2500000000000000        6.2500000000000000E-002   0.0000000000000000     
   1.1250000000000000        9.3750000000000000E-002   0.0000000000000000     
   1.1562500000000000        9.3750000000000000E-002   0.0000000000000000     
   1.1875000000000000        9.3750000000000000E-002   0.0000000000000000     
   1.2187500000000000        9.3750000000000000E-002   0.0000000000000000     
   1.2500000000000000        9.3750000000000000E-002   0.0000000000000000     
   1.1250000000000000       0.12500000000000000        0.0000000000000000     
   1.1562500000000000       0.12500000000000000        0.0000000000000000     
   1.1875000000000000       0.12500000000000000        0.0000000000000000     
   1.2187500000000000       0.12500000000000000        0.0000000000000000     
   1.2500000000000000       0.12500000000000000        0.0000000000000000     
   1.2500000000000000        0.0000000000000000        0.0000000000000000     
   1.2812500000000000        0.0000000000000000        0.0000000000000000     
   1.3125000000000000        0.0000000000000000        0.0000000000000000     
   1.3437500000000000        0.0000000000000000        0.0000000000000000     
   1.3750000000000000        0.0000000000000000        0.0000000000000000     
   1.2500000000000000        3.1250000000000000E-002   0.0000000000000000     
   1.2812500000000000        3.1250000000000000E-002   0.0000000000000000     
   1.3125000000000000        3.1250000000000000E-002   0.0000000000000000     
   1.3437500000000000        3.1250000000000000E-002   0.0000000000000000     
   1.3750000000000000        3.1250000000000000E-002   0.0000000000000000     
   1.2500000000000000        6.2500000000000000E-002   0.0000000000000000     
   1.2812500000000000        6.2500000000000000E-002   0.0000000000000000     
   1.3125000000000000        6.2500000000000000E-002   0.0000000000000000     
   1.3437500000000000        6.2500000000000000E-002   0.0000000000000000     
   1.3750000000000000        6.2500000000000000E-002   0.0000000000000000     
   1.2500000000000000        9.3750000000000000E-002   0.0000000000000000     
   1.2812500000000000        9.3750000000000000E-002   0.0000000000000000     
   1.3125000000000000        9.3750000000000000E-002   0.0000000000000000     
   1.3437500000000000        9.3750000000000000E-002   0.0000000000000000     
   1.3750000000000000        9.3750000000000000E-002   0.0000000000000000     
   1.2500000000000000       0.12500000000000000        0.0000000000000000     
   1.2812500000000000       0.12500000000000000        0.0000000000000000     
   1.3125000000000000       0.12500000000000000        0.0000000000000000     
   1.3437500000000000       0.12500000000000000        0.0000000000000000     
   1.3750000000000000       0.12500000000000000        0.0000000000000000     
   1.3750000000000000        0.0000000000000000        0.0000000000000000     
   1.4062500000000000        0.0000000000000000        0.0000000000000000     
   1.4375000000000000        0.0000000000000000        0.0000000000000000     
   1.4687500000000000        0.0000000000000000        0.0000000000000000     
   1.5000000000000000        0.0000000000000000        0.0000000000000000     
   1.3750000000000000        3.1250000000000000E-002   0.0000000000000000     
   1.4062500000000000        3.1250000000000000E-002   0.0000000000000000     
   1.4375000000000000        3.1250000000000000E-002   0.0000000000000000     
   1.4687500000000000        3.1250000000000000E-002   0.0000000000000000     
   1.5000000000000000        3.1250000000000000E-002   0.0000000000000000     
   1.3750000000000000        6.2500000000000000E-002   0.0000000000000000     
   1.4062500000000000        6.2500000000000000E-002   0.0000000000000000     
   1.4375000000000000        6.2500000000000000E-002   0.0000000000000000     
   1.4687500000000000        6.2500000000000000E-002   0.0000000000000000     
   1.5000000000000000        6.2500000000000000E-002   0.0000000000000000     
   1.3750000000000000        9.3750000000000000E-002   0.0000000000000000     
   1.4062500000000000        9.3750000000000000E-002   0.0000000000000000     
   1.4375000000000000        9.3750000000000000E-002   0.0000000000000000     
   1.4687500000000000        9.3750000000000000E-002   0.0000000000000000     
   1.5000000000000000        9.3750000000000000E-002   0.0000000000000000     
   1.3750000000000000       0.12500000000000000        0.0000000000000000     
   1.4062500000000000       0.12500000000000000        0.0000000000000000     
   1.4375000000000000       0.12500000000000000        0.0000000000000000     
   1.4687500000000000       0.12500000000000000        0.0000000000000000     
   1.5000000000000000       0.12500000000000000        0.0000000000000000     
  0.50000000000000000       0.12500000000000000        0.0000000000000000     
  0.53125000000000000       0.12500000000000000        0.0000000000000000     
  0.56250000000000000       0.12500000000000000        0.0000000000000000     
  0.59375000000000000       0.12500000000000000        0.0000000000000000     
  0.62500000000000000       0.12500000000000000        0.0000000000000000     
  0.50000000000000000       0.15625000000000000        0.0000000000000000     
  0.53125000000000000       0.15625000000000000        0.0000000000000000     
  0.56250000000000000       0.15625000000000000        0.0000000000000000     
  0.59375000000000000       0.15625000000000000        0.0000000000000000     
  0.62500000000000000       0.15625000000000000        0.0000000000000000     
  0.50000000000000000       0.18750000000000000        0.0000000000000000     
  0.53125000000000000       0.18750000000000000        0.0000000000000000     
  0.56250000000000000       0.18750000000000000        0.0000000000000000     
  0.59375000000000000       0.18750000000000000        0.0000000000000000     
  0.62500000000000000       0.18750000000000000        0.0000000000000000     
  0.50000000000000000       0.21875000000000000        0.0000000000000000     
  0.53125000000000000       0.21875000000000000        0.0000000000000000     
  0.56250000000000000       0.21875000000000000        0.0000000000000000     
  0.59375000000000000       0.21875000000000000        0.0000000000000000     
  0.62500000000000000       0.21875000000000000        0.0000000000000000     
  0.50000000000000000       0.25000000000000000        0.0000000000000000     
  0.53125000000000000       0.25000000000000000        0.0000000000000000     
  0.56250000000000000       0.25000000000000000        0.0000000000000000     
  0.59375000000000000       0.25000000000000000        0.0000000000000000     
  0.62500000000000000       0.25000000000000000        0.0000000000000000     
  0.62500000000000000       0.12500000000000000        0.0000000000000000     
  0.65625000000000000       0.12500000000000000        0.0000000000000000     
  0.68750000000000000       0.12500000000000000        0.0000000000000000     
  0.71875000000000000       0.12500000000000000        0.0000000000000000     
  0.75000000000000000       0.12500000000000000        0.0000000000000000     
  0.62500000000000000       0.15625000000000000        0.0000000000000000     
  0.65625000000000000       0.15625000000000000        0.0000000000000000     
  0.68750000000000000       0.15625000000000000        0.0000000000000000     
  0.71875000000000000       0.15625000000000000        0.0000000000000000     
  0.75000000000000000       0.15625000000000000        0.0000000000000000     
  0.62500000000000000       0.18750000000000000        0.0000000000000000     
  0.65625000000000000       0.18750000000000000        0.0000000000000000     
  0.68750000000000000       0.18750000000000000        0.0000000000000000     
  0.71875000000000000       0.18750000000000000        0.0000000000000000     
  0.75000000000000000       0.18750000000000000        0.0000000000000000     
  0.62500000000000000       0.21875000000000000        0.0000000000000000     
  0.65625000000000000       0.21875000000000000        0.0000000000000000     
  0.68750000000000000       0.21875000000000000        0.0000000000000000     
  0.71875000000000000       0.21875000000000000        0.0000000000000000     
  0.75000000000000000       0.21875000000000000        0.0000000000000000     
  0.62500000000000000       0.25000000000000000        0.0000000000000000     
  0.65625000000000000       0.25000000000000000        0.0000000000000000     
  0.68750000000000000       0.25000000000000000        0.0000000000000000     
  0.71875000000000000       0.25000000000000000        0.0000000000000000     
  0.75000000000000000       0.25000000000000000        0.0000000000000000     
  0.75000000000000000       0.12500000000000000        0.0000000000000000     
  0.78125000000000000       0.12500000000000000        0.0000000000000000     
  0.81250000000000000       0.12500000000000000        0.0000000000000000     
  0.84375000000000000       0.12500000000000000        0.0000000000000000     
  0.87500000000000000       0.12500000000000000        0.0000000000000000     
  0.75000000000000000       0.15625000000000000        0.0000000000000000     
  0.78125000000000000       0.15625000000000000        0.0000000000000000     
  0.81250000000000000       0.15625000000000000        0.0000000000000000     
  0.84375000000000000       0.15625000000000000        0.0000000000000000     
  0.87500000000000000       0.15625000000000000        0.0000000000000000     
  0.75000000000000000       0.18750000000000000        0.0000000000000000     
  0.78125000000000000       0.18750000000000000        0.0000000000000000     
  0.81250000000000000       0.18750000000000000        0.0000000000000000     
  0.84375000000000000       0.18750000000000000        0.0000000000000000     
  0.87500000000000000       0.18750000000000000        0.0000000000000000     
  0.75000000000000000       0.21875000000000000        0.0000000000000000     
  0.78125000000000000       0.21875000000000000        0.0000000000000000     
  0.81250000000000000       0.21875000000000000        0.0000000000000000     
  0.84375000000000000       0.21875000000000000        0.0000000000000000     
  0.87500000000000000       0.21875000000000000        0.0000000000000000     
  0.75000000000000000       0.25000000000000000        0.0000000000000000     
  0.78125000000000000       0.25000000000000000        0.0000000000000000     
  0.81250000000000000       0.25000000000000000        0.0000000000000000     
  0.84375000000000000       0.25000000000000000        0.0000000000000000     
  0.87500000000000000       0.25000000000000000        0.0000000000000000     
  0.87500000000000000       0.12500000000000000        0.0000000000000000     
  0.90625000000000000       0.12500000000000000        0.0000000000000000     
  0.93750000000000000       0.12500000000000000        0.0000000000000000     
  0.96875000000000000       0.12500000000000000        0.0000000000000000     
   1.0000000000000000       0.12500000000000000        0.0000000000000000     
  0.87500000000000000       0.15625000000000000        0.0000000000000000     
  0.90625000000000000       0.15625000000000000        0.0000000000000000     
  0.93750000000000000       0.15625000000000000        0.0000000000000000     
  0.96875000000000000       0.15625000000000000        0.0000000000000000     
   1.0000000000000000       0.15625000000000000        0.0000000000000000     
  0.87500000000000000       0.18750000000000000        0.0000000000000000     
  0.90625000000000000       0.18750000000000000        0.0000000000000000     
  0.93750000000000000       0.18750000000000000        0.0000000000000000     
  0.96875000000000000       0.18750000000000000        0.0000000000000000     
   1.0000000000000000       0.18750000000000000        0.0000000000000000     
  0.87500000000000000       0.21875000000000000        0.0000000000000000     
  0.90625000000000000       0.21875000000000000        0.0000000000000000     
  0.93750000000000000       0.21875000000000000        0.0000000000000000     
  0.96875000000000000       0.21875000000000000        0.0000000000000000     
   1.0000000000000000       0.21875000000000000        0.0000000000000000     
  0.87500000000000000       0.25000000000000000        0.0000000000000000     
  0.90625000000000000       0.25000000000000000        0.0000000000000000     
  0.93750000000000000       0.25000000000000000        0.0000000000000000     
  0.96875000000000000       0.25000000000000000        0.0000000000000000     
   1.0000000000000000       0.25000000000000000        0.0000000000000000     
   1.0000000000000000       0.12500000000000000        0.0000000000000000     
   1.0312500000000000       0.12500000000000000        0.0000000000000000     
   1.0625000000000000       0.12500000000000000        0.0000000000000000     
   1.0937500000000000       0.12500000000000000        0.0000000000000000     
   1.1250000000000000       0.12500000000000000        0.0000000000000000     
   1.0000000000000000       0.15625000000000000        0.0000000000000000     
   1.0312500000000000       0.15625000000000000        0.0000000000000000     
   1.0625000000000000       0.15625000000000000        0.0000000000000000     
   1.0937500000000000       0.15625000000000000        0.0000000000000000     
   1.1250000000000000       0.15625000000000000        0.0000000000000000     
   1.0000000000000000       0.18750000000000000        0.0000000000000000     
   1.0312500000000000       0.18750000000000000        0.0000000000000000     
   1.0625000000000000       0.18750000000000000        0.0000000000000000     
   1.0937500000000000       0.18750000000000000        0.0000000000000000     
   1.1250000000000000       0.18750000000000000        0.0000000000000000     
   1.0000000000000000       0.21875000000000000        0.0000000000000000     
   1.0312500000000000       0.21875000000000000        0.0000000000000000     
   1.0625000000000000       0.21875000000000000        0.0000000000000000     
   1.0937500000000000       0.21875000000000000        0.0000000000000000     
   1.1250000000000000       0.21875000000000000        0.0000000000000000     
   1.0000000000000000       0.25000000000000000        0.0000000000000000     
   1.0312500000000000       0.25000000000000000        0.0000000000000000     
   1.0625000000000000       0.25000000000000000        0.0000000000000000     
   1.0937500000000000       0.25000000000000000        0.0000000000000000     
   1.1250000000000000       0.25000000000000000        0.0000000000000000     
   1.1250000000000000       0.12500000000000000        0.0000000000000000     
   1.1562500000000000       0.12500000000000000        0.0000000000000000     
   1.1875000000000000       0.12500000000000000        0.0000000000000000     
   1.2187500000000000       0.12500000000000000        0.0000000000000000     
   1.2500000000000000       0.12500000000000000        0.0000000000000000     
   1.1250000000000000       0.15625000000000000        0.0000000000000000     
   1.1562500000000000       0.15625000000000000        0.0000000000000000     
   1.1875000000000000       0.15625000000000000        0.0000000000000000     
   1.2187500000000000       0.15625000000000000        0.0000000000000000     
   1.2500000000000000       0.15625000000000000        0.0000000000000000     
   1.1250000000000000       0.18750000000000000        0.0000000000000000     
   1.1562500000000000       0.18750000000000000        0.0000000000000000     
   1.1875000000000000       0.18750000000000000        0.0000000000000000     
   1.2187500000000000       0.18750000000000000        0.0000000000000000     
   1.2500000000000000       0.18750000000000000        0.0000000000000000     
   1.1250000000000000       0.21875000000000000        0.0000000000000000     
   1.1562500000000000       0.21875000000000000        0.0000000000000000     
   1.1875000000000000       0.21875000000000000        0.0000000000000000     
   1.2187500000000000       0.21875000000000000        0.0000000000000000     
   1.2500000000000000       0.21875000000000000        0.0000000000000000     
   1.1250000000000000       0.25000000000000000        0.0000000000000000     
   1.1562500000000000       0.25000000000000000        0.0000000000000000     
   1.1875000000000000       0.25000000000000000        0.0000000000000000     
   1.2187500000000000       0.25000000000000000        0.0000000000000000     
   1.2500000000000000       0.25000000000000000        0.0000000000000000     
   1.2500000000000000       0.12500000000000000        0.0000000000000000     
   1.2812500000000000       0.12500000000000000        0.0000000000000000     
   1.3125000000000000       0.12500000000000000        0.0000000000000000     
   1.3437500000000000       0.12500000000000000        0.0000000000000000     
   1.3750000000000000       0.12500000000000000        0.0000000000000000     
   1.2500000000000000       0.15625000000000000        0.0000000000000000     
   1.2812500000000000       0.15625000000000000        0.0000000000000000     
   1.3125000000000000       0.15625000000000000        0.0000000000000000     
   1.3437500000000000       0.15625000000000000        0.0000000000000000     
   1.3750000000000000       0.15625000000000000        0.0000000000000000     
   1.2500000000000000       0.18750000000000000        0.0000000000000000     
   1.2812500000000000       0.18750000000000000        0.0000000000000000     
   1.3125000000000000       0.18750000000000000        0.0000000000000000     
   1.3437500000000000       0.18750000000000000        0.0000000000000000     
   1.3750000000000000       0.18750000000000000        0.0000000000000000     
   1.2500000000000000       0.21875000000000000        0.0000000000000000     
   1.2812500000000000       0.21875000000000000        0.0000000000000000     
   1.3125000000000000       0.21875000000000000        0.0000000000000000     
   1.3437500000000000       0.21875000000000000        0.0000000000000000     
   1.3750000000000000       0.21875000000000000        0.0000000000000000     
   1.2500000000000000       0.25000000000000000        0.0000000000000000     
   1.2812500000000000       0.25000000000000000        0.0000000000000000     
   1.3125000000000000       0.25000000000000000        0.0000000000000000     
   1.3437500000000000       0.25000000000000000        0.0000000000000000     
   1.3750000000000000       0.25000000000000000        0.0000000000000000     
   1.3750000000000000       0.12500000000000000        0.0000000000000000     
   1.4062500000000000       0.12500000000000000        0.0000000000000000     
   1.4375000000000000       0.12500000000000000        0.0000000000000000     
   1.4687500000000000       0.12500000000000000        0.0000000000000000     
   1.5000000000000000       0.12500000000000000        0.0000000000000000     
   1.3750000000000000       0.15625000000000000        0.0000000000000000     
   1.4062500000000000       0.15625000000000000        0.0000000000000000     
   1.4375000000000000       0.15625000000000000        0.0000000000000000     
   1.4687500000000000       0.15625000000000000        0.0000000000000000     
   1.5000000000000000       0.15625000000000000        0.0000000000000000     
   1.3750000000000000       0.18750000000000000        0.0000000000000000     
   1.4062500000000000       0.18750000000000000        0.0000000000000000     
   1.4375000000000000       0.18750000000000000        0.0000000000000000     
   1.4687500000000000       0.18750000000000000        0.0000000000000000     
   1.5000000000000000       0.18750000000000000        0.0000000000000000     
   1.3750000000000000       0.21875000000000000        0.0000000000000000     
   1.4062500000000000       0.21875000000000000        0.0000000000000000     
   1.4375000000000000       0.21875000000000000        0.0000000000000000     
   1.4687500000000000       0.21875000000000000        0.0000000000000000     
   1.5000000000000000       0.21875000000000000        0.0000000000000000     
   1.3750000000000000       0.25000000000000000        0.0000000000000000     
   1.4062500000000000       0.25000000000000000        0.0000000000000000     
   1.4375000000000000       0.25000000000000000        0.0000000000000000     
   1.4687500000000000       0.25000000000000000        0.0000000000000000     
   1.5000000000000000       0.25000000000000000        0.0000000000000000     
  0.50000000000000000       0.25000000000000000        0.0000000000000000     
  0.53125000000000000       0.25000000000000000        0.0000000000000000     
  0.56250000000000000       0.25000000000000000        0.0000000000000000     
  0.59375000000000000       0.25000000000000000        0.0000000000000000     
  0.62500000000000000       0.25000000000000000        0.0000000000000000     
  0.50000000000000000       0.28125000000000000        0.0000000000000000     
  0.53125000000000000       0.28125000000000000        0.0000000000000000     
  0.56250000000000000       0.28125000000000000        0.0000000000000000     
  0.59375000000000000       0.28125000000000000        0.0000000000000000     
  0.62500000000000000       0.28125000000000000        0.0000000000000000     
  0.50000000000000000       0.31250000000000000        0.0000000000000000     
  0.53125000000000000       0.31250000000000000        0.0000000000000000     
  0.56250000000000000       0.31250000000000000        0.0000000000000000     
  0.59375000000000000       0.31250000000000000        0.0000000000000000     
  0.62500000000000000       0.31250000000000000        0.0000000000000000     
  0.50000000000000000       0.34375000000000000        0.0000000000000000     
  0.53125000000000000       0.34375000000000000        0.0000000000000000     
  0.56250000000000000       0.34375000000000000        0.0000000000000000     
  0.59375000000000000       0.34375000000000000        0.0000000000000000     
  0.62500000000000000       0.34375000000000000        0.0000000000000000     
  0.50000000000000000       0.37500000000000000        0.0000000000000000     
  0.53125000000000000       0.37500000000000000        0.0000000000000000     
  0.56250000000000000       0.37500000000000000        0.0000000000000000     
  0.59375000000000000       0.37500000000000000        0.0000000000000000     
  0.62500000000000000       0.37500000000000000        0.0000000000000000     
  0.62500000000000000       0.25000000000000000        0.0000000000000000     
  0.65625000000000000       0.25000000000000000        0.0000000000000000     
  0.68750000000000000       0.25000000000000000        0.0000000000000000     
  0.71875000000000000       0.25000000000000000        0.0000000000000000     
  0.75000000000000000       0.25000000000000000        0.0000000000000000     
  0.62500000000000000       0.28125000000000000        0.0000000000000000     
  0.65625000000000000       0.28125000000000000        0.0000000000000000     
  0.68750000000000000       0.28125000000000000        0.0000000000000000     
  0.71875000000000000       0.28125000000000000        0.0000000000000000     
  0.75000000000000000       0.28125000000000000        0.0000000000000000     
  0.62500000000000000       0.31250000000000000        0.0000000000000000     
  0.65625000000000000       0.31250000000000000        0.0000000000000000     
  0.68750000000000000       0.31250000000000000        0.0000000000000000     
  0.71875000000000000       0.31250000000000000        0.0000000000000000     
  0.75000000000000000       0.31250000000000000        0.0000000000000000     
  0.62500000000000000       0.34375000000000000        0.0000000000000000     
  0.65625000000000000       0.34375000000000000        0.0000000000000000     
  0.68750000000000000       0.34375000000000000        0.0000000000000000     
  0.71875000000000000       0.34375000000000000        0.0000000000000000     
  0.75000000000000000       0.34375000000000000        0.0000000000000000     
  0.62500000000000000       0.37500000000000000        0.0000000000000000     
  0.65625000000000000       0.37500000000000000        0.0000000000000000     
  0.68750000000000000       0.37500000000000000        0.0000000000000000     
  0.71875000000000000       0.37500000000000000        0.0000000000000000     
  0.75000000000000000       0.37500000000000000        0.0000000000000000     
  0.75000000000000000       0.25000000000000000        0.0000000000000000     
  0.78125000000000000       0.25000000000000000        0.0000000000000000     
  0.81250000000000000       0.25000000000000000        0.0000000000000000     
  0.84375000000000000       0.25000000000000000        0.0000000000000000     
  0.87500000000000000       0.25000000000000000        0.0000000000000000     
  0.75000000000000000       0.28125000000000000        0.0000000000000000     
  0.78125000000000000       0.28125000000000000        0.0000000000000000     
  0.81250000000000000       0.28125000000000000        0.0000000000000000     
  0.84375000000000000       0.28125000000000000        0.0000000000000000     
  0.87500000000000000       0.28125000000000000        0.0000000000000000     
  0.75000000000000000       0.31250000000000000        0.0000000000000000     
  0.78125000000000000       0.31250000000000000        0.0000000000000000     
  0.81250000000000000       0.31250000000000000        0.0000000000000000     
  0.84375000000000000       0.31250000000000000        0.0000000000000000     
  0.87500000000000000       0.31250000000000000        0.0000000000000000     
  0.75000000000000000       0.34375000000000000        0.0000000000000000     
  0.78125000000000000       0.34375000000000000        0.0000000000000000     
  0.81250000000000000       0.34375000000000000        0.0000000000000000     
  0.84375000000000000       0.34375000000000000        0.0000000000000000     
  0.87500000000000000       0.34375000000000000        0.0000000000000000     
  0.75000000000000000       0.37500000000000000        0.0000000000000000     
  0.78125000000000000       0.37500000000000000        0.0000000000000000     
  0.81250000000000000       0.37500000000000000        0.0000000000000000     
  0.84375000000000000       0.37500000000000000        0.0000000000000000     
  0.87500000000000000       0.37500000000000000        0.0000000000000000     
  0.87500000000000000       0.25000000000000000        0.0000000000000000     
  0.90625000000000000       0.25000000000000000        0.0000000000000000     
  0.93750000000000000       0.25000000000000000        0.0000000000000000     
  0.96875000000000000       0.25000000000000000        0.0000000000000000     
   1.0000000000000000       0.25000000000000000        0.0000000000000000     
  0.87500000000000000       0.28125000000000000        0.0000000000000000     
  0.90625000000000000       0.28125000000000000        0.0000000000000000     
  0.93750000000000000       0.28125000000000000        0.0000000000000000     
  0.96875000000000000       0.28125000000000000        0.0000000000000000     
   1.0000000000000000       0.28125000000000000        0.0000000000000000     
  0.87500000000000000       0.31250000000000000        0.0000000000000000     
  0.90625000000000000       0.31250000000000000        0.0000000000000000     
  0.93750000000000000       0.31250000000000000        0.0000000000000000     
  0.96875000000000000       0.31250000000000000        0.0000000000000000     
   1.0000000000000000       0.31250000000000000        0.0000000000000000     
  0.87500000000000000       0.34375000000000000        0.0000000000000000     
  0.90625000000000000       0.34375000000000000        0.0000000000000000     
  0.93750000000000000       0.34375000000000000        0.0000000000000000     
  0.96875000000000000       0.34375000000000000        0.0000000000000000     
   1.0000000000000000       0.34375000000000000        0.0000000000000000     
  0.87500000000000000       0.37500000000000000        0.0000000000000000     
  0.90625000000000000       0.37500000000000000        0.0000000000000000     
  0.93750000000000000       0.37500000000000000        0.0000000000000000     
  0.96875000000000000       0.37500000000000000        0.0000000000000000     
   1.0000000000000000       0.37500000000000000        0.0000000000000000     
   1.0000000000000000       0.25000000000000000        0.0000000000000000     
   1.0312500000000000       0.25000000000000000        0.0000000000000000     
   1.0625000000000000       0.25000000000000000        0.0000000000000000     
   1.0937500000000000       0.25000000000000000        0.0000000000000000     
   1.1250000000000000       0.25000000000000000        0.0000000000000000     
   1.0000000000000000       0.28125000000000000        0.0000000000000000     
   1.0312500000000000       0.28125000000000000        0.0000000000000000     
   1.0625000000000000       0.28125000000000000        0.0000000000000000     
   1.0937500000000000       0.28125000000000000        0.0000000000000000     
   1.1250000000000000       0.28125000000000000        0.0000000000000000     
   1.0000000000000000       0.31250000000000000        0.0000000000000000     
   1.0312500000000000       0.31250000000000000        0.0000000000000000     
   1.0625000000000000       0.31250000000000000        0.0000000000000000     
   1.0937500000000000       0.31250000000000000        0.0000000000000000     
   1.1250000000000000       0.31250000000000000        0.0000000000000000     
   1.0000000000000000       0.34375000000000000        0.0000000000000000     
   1.0312500000000000       0.34375000000000000        0.0000000000000000     
   1.0625000000000000       0.34375000000000000        0.0000000000000000     
   1.0937500000000000       0.34375000000000000        0.0000000000000000     
   1.1250000000000000       0.34375000000000000        0.0000000000000000     
   1.0000000000000000       0.37500000000000000        0.0000000000000000     
   1.0312500000000000       0.37500000000000000        0.0000000000000000     
   1.0625000000000000       0.37500000000000000        0.0000000000000000     
   1.0937500000000000       0.37500000000000000        0.0000000000000000     
   1.1250000000000000       0.37500000000000000        0.0000000000000000     
   1.1250000000000000       0.25000000000000000        0.0000000000000000     
   1.1562500000000000       0.25000000000000000        0.0000000000000000     
   1.1875000000000000       0.25000000000000000        0.0000000000000000     
   1.2187500000000000       0.25000000000000000        0.0000000000000000     
   1.2500000000000000       0.25000000000000000        0.0000000000000000     
   1.1250000000000000       0.28125000000000000        0.0000000000000000     
   1.1562500000000000       0.28125000000000000        0.0000000000000000     
   1.1875000000000000       0.28125000000000000        0.0000000000000000     
   1.2187500000000000       0.28125000000000000        0.0000000000000000     
   1.2500000000000000       0.28125000000000000        0.0000000000000000     
   1.1250000000000000       0.31250000000000000        0.0000000000000000     
   1.1562500000000000       0.31250000000000000        0.0000000000000000     
   1.1875000000000000       0.31250000000000000        0.0000000000000000     
   1.2187500000000000       0.31250000000000000        0.0000000000000000     
   1.2500000000000000       0.31250000000000000        0.0000000000000000     
   1.1250000000000000       0.34375000000000000        0.0000000000000000     
   1.1562500000000000       0.34375000000000000        0.0000000000000000     
   1.1875000000000000       0.34375000000000000        0.0000000000000000     
   1.2187500000000000       0.34375000000000000        0.0000000000000000     
   1.2500000000000000       0.34375000000000000        0.0000000000000000     
   1.1250000000000000       0.37500000000000000        0.0000000000000000     
   1.1562500000000000       0.37500000000000000        0.0000000000000000     
   1.1875000000000000       0.37500000000000000        0.0000000000000000     
   1.2187500000000000       0.37500000000000000        0.0000000000000000     
   1.2500000000000000       0.37500000000000000        0.0000000000000000     
   1.2500000000000000       0.25000000000000000        0.0000000000000000     
   1.2812500000000000       0.25000000000000000        0.0000000000000000     
   1.3125000000000000       0.25000000000000000        0.0000000000000000     
   1.3437500000000000       0.25000000000000000        0.0000000000000000     
   1.3750000000000000       0.25000000000000000        0.0000000000000000     
   1.2500000000000000       0.28125000000000000        0.0000000000000000     
   1.2812500000000000       0.28125000000000000        0.0000000000000000     
   1.3125000000000000       0.28125000000000000        0.0000000000000000     
   1.3437500000000000       0.28125000000000000        0.0000000000000000     
   1.3750000000000000       0.28125000000000000        0.0000000000000000     
   1.2500000000000000       0.31250000000000000        0.0000000000000000     
   1.2812500000000000       0.31250000000000000        0.0000000000000000     
   1.3125000000000000       0.31250000000000000        0.0000000000000000     
   1.3437500000000000       0.31250000000000000        0.0000000000000000     
   1.3750000000000000       0.31250000000000000        0.0000000000000000     
   1.2500000000000000       0.34375000000000000        0.0000000000000000     
   1.2812500000000000       0.34375000000000000        0.0000000000000000     
   1.3125000000000000       0.34375000000000000        0.0000000000000000     
   1.3437500000000000       0.34375000000000000        0.0000000000000000     
   1.3750000000000000       0.34375000000000000        0.0000000000000000     
   1.2500000000000000       0.37500000000000000        0.0000000000000000     
   1.2812500000000000       0.37500000000000000        0.0000000000000000     
   1.3125000000000000       0.37500000000000000        0.0000000000000000     
   1.3437500000000000       0.37500000000000000        0.0000000000000000     
   1.3750000000000000       0.37500000000000000        0.0000000000000000     
   1.3750000000000000       0.25000000000000000        0.0000000000000000     
   1.4062500000000000       0.25000000000000000        0.0000000000000000     
   1.4375000000000000       0.25000000000000000        0.0000000000000000     
   1.4687500000000000       0.25000000000000000        0.0000000000000000     
   1.5000000000000000       0.25000000000000000        0.0000000000000000     
   1.3750000000000000       0.28125000000000000        0.0000000000000000     
   1.4062500000000000       0.28125000000000000        0.0000000000000000     
   1.4375000000000000       0.28125000000000000        0.0000000000000000     
   1.4687500000000000       0.28125000000000000        0.0000000000000000     
   1.5000000000000000       0.28125000000000000        0.0000000000000000     
   1.3750000000000000       0.31250000000000000        0.0000000000000000     
   1.4062500000000000       0.31250000000000000        0.0000000000000000     
   1.4375000000000000       0.31250000000000000        0.0000000000000000     
   1.4687500000000000       0.31250000000000000        0.0000000000000000     
   1.5000000000000000       0.31250000000000000        0.0000000000000000     
   1.3750000000000000       0.34375000000000000        0.0000000000000000     
   1.4062500000000000       0.34375000000000000        0.0000000000000000     
   1.4375000000000000       0.34375000000000000        0.0000000000000000     
   1.4687500000000000       0.34375000000000000        0.0000000000000000     
   1.5000000000000000       0.34375000000000000        0.0000000000000000     
   1.3750000000000000       0.37500000000000000        0.0000000000000000     
   1.4062500000000000       0.37500000000000000        0.0000000000000000     
   1.4375000000000000       0.37500000000000000        0.0000000000000000     
   1.4687500000000000       0.37500000000000000        0.0000000000000000     
   1.5000000000000000       0.37500000000000000        0.0000000000000000     
  0.50000000000000000       0.37500000000000000        0.0000000000000000     
  0.53125000000000000       0.37500000000000000        0.0000000000000000     
  0.56250000000000000       0.37500000000000000        0.0000000000000000     
  0.59375000000000000       0.37500000000000000        0.0000000000000000     
  0.62500000000000000       0.37500000000000000        0.0000000000000000     
  0.50000000000000000       0.40625000000000000        0.0000000000000000     
  0.53125000000000000       0.40625000000000000        0.0000000000000000     
  0.56250000000000000       0.40625000000000000        0.0000000000000000     
  0.59375000000000000       0.40625000000000000        0.0000000000000000     
  0.62500000000000000       0.40625000000000000        0.0000000000000000     
  0.50000000000000000       0.43750000000000000        0.0000000000000000     
  0.53125000000000000       0.43750000000000000        0.0000000000000000     
  0.56250000000000000       0.43750000000000000        0.0000000000000000     
  0.59375000000000000       0.43750000000000000        0.0000000000000000     
  0.62500000000000000       0.43750000000000000        0.0000000000000000     
  0.50000000000000000       0.46875000000000000        0.0000000000000000     
  0.53125000000000000       0.46875000000000000        0.0000000000000000     
  0.56250000000000000       0.46875000000000000        0.0000000000000000     
  0.59375000000000000       0.46875000000000000        0.0000000000000000     
  0.62500000000000000       0.46875000000000000        0.0000000000000000     
  0.50000000000000000       0.50000000000000000        0.0000000000000000     
  0.53125000000000000       0.50000000000000000        0.0000000000000000     
  0.56250000000000000       0.50000000000000000        0.0000000000000000     
  0.59375000000000000       0.50000000000000000        0.0000000000000000     
  0.62500000000000000       0.50000000000000000        0.0000000000000000     
  0.62500000000000000       0.37500000000000000        0.0000000000000000     
  0.65625000000000000       0.37500000000000000        0.0000000000000000     
  0.68750000000000000       0.37500000000000000        0.0000000000000000     
  0.71875000000000000       0.37500000000000000        0.0000000000000000     
  0.75000000000000000       0.37500000000000000        0.0000000000000000     
  0.62500000000000000       0.40625000000000000        0.0000000000000000     
  0.65625000000000000       0.40625000000000000        0.0000000000000000     
  0.68750000000000000       0.40625000000000000        0.0000000000000000     
  0.71875000000000000       0.40625000000000000        0.0000000000000000     
  0.75000000000000000       0.40625000000000000        0.0000000000000000     
  0.62500000000000000       0.43750000000000000        0.0000000000000000     
  0.65625000000000000       0.43750000000000000        0.0000000000000000     
  0.68750000000000000       0.43750000000000000        0.0000000000000000     
  0.71875000000000000       0.43750000000000000        0.0000000000000000     
  0.75000000000000000       0.43750000000000000        0.0000000000000000     
  0.62500000000000000       0.46875000000000000        0.0000000000000000     
  0.65625000000000000       0.46875000000000000        0.0000000000000000     
  0.68750000000000000       0.46875000000000000        0.0000000000000000     
  0.71875000000000000       0.46875000000000000        0.0000000000000000     
  0.75000000000000000       0.46875000000000000        0.0000000000000000     
  0.62500000000000000       0.50000000000000000        0.0000000000000000     
  0.65625000000000000       0.50000000000000000        0.0000000000000000     
  0.68750000000000000       0.50000000000000000        0.0000000000000000     
  0.71875000000000000       0.50000000000000000        0.0000000000000000     
  0.75000000000000000       0.50000000000000000        0.0000000000000000     
  0.75000000000000000       0.37500000000000000        0.0000000000000000     
  0.78125000000000000       0.37500000000000000        0.0000000000000000     
  0.81250000000000000       0.37500000000000000        0.0000000000000000     
  0.84375000000000000       0.37500000000000000        0.0000000000000000     
  0.87500000000000000       0.37500000000000000        0.0000000000000000     
  0.75000000000000000       0.40625000000000000        0.0000000000000000     
  0.78125000000000000       0.40625000000000000        0.0000000000000000     
  0.81250000000000000       0.40625000000000000        0.0000000000000000     
  0.84375000000000000       0.40625000000000000        0.0000000000000000     
  0.87500000000000000       0.40625000000000000        0.0000000000000000     
  0.75000000000000000       0.43750000000000000        0.0000000000000000     
  0.78125000000000000       0.43750000000000000        0.0000000000000000     
  0.81250000000000000       0.43750000000000000        0.0000000000000000     
  0.84375000000000000       0.43750000000000000        0.0000000000000000     
  0.87500000000000000       0.43750000000000000        0.0000000000000000     
  0.75000000000000000       0.46875000000000000        0.0000000000000000     
  0.78125000000000000       0.46875000000000000        0.0000000000000000     
  0.81250000000000000       0.46875000000000000        0.0000000000000000     
  0.84375000000000000       0.46875000000000000        0.0000000000000000     
  0.87500000000000000       0.46875000000000000        0.0000000000000000     
  0.75000000000000000       0.50000000000000000        0.0000000000000000     
  0.78125000000000000       0.50000000000000000        0.0000000000000000     
  0.81250000000000000       0.50000000000000000        0.0000000000000000     
  0.84375000000000000       0.50000000000000000        0.0000000000000000     
  0.87500000000000000       0.50000000000000000        0.0000000000000000     
  0.87500000000000000       0.37500000000000000        0.0000000000000000     
  0.90625000000000000       0.37500000000000000        0.0000000000000000     
  0.93750000000000000       0.37500000000000000        0.0000000000000000     
  0.96875000000000000       0.37500000000000000        0.0000000000000000     
   1.0000000000000000       0.37500000000000000        0.0000000000000000     
  0.87500000000000000       0.40625000000000000        0.0000000000000000     
  0.90625000000000000       0.40625000000000000        0.0000000000000000     
  0.93750000000000000       0.40625000000000000        0.0000000000000000     
  0.96875000000000000       0.40625000000000000        0.0000000000000000     
   1.0000000000000000       0.40625000000000000        0.0000000000000000     
  0.87500000000000000       0.43750000000000000        0.0000000000000000     
  0.90625000000000000       0.43750000000000000        0.0000000000000000     
  0.93750000000000000       0.43750000000000000        0.0000000000000000     
  0.96875000000000000       0.43750000000000000        0.0000000000000000     
   1.0000000000000000       0.43750000000000000        0.0000000000000000     
  0.87500000000000000       0.46875000000000000        0.0000000000000000     
  0.90625000000000000       0.46875000000000000        0.0000000000000000     
  0.93750000000000000       0.46875000000000000        0.0000000000000000     
  0.96875000000000000       0.46875000000000000        0.0000000000000000     
   1.0000000000000000       0.46875000000000000        0.0000000000000000     
  0.87500000000000000       0.50000000000000000        0.0000000000000000     
  0.90625000000000000       0.50000000000000000        0.0000000000000000     
  0.93750000000000000       0.50000000000000000        0.0000000000000000     
  0.96875000000000000       0.50000000000000000        0.0000000000000000     
   1.0000000000000000       0.50000000000000000        0.0000000000000000     
   1.0000000000000000       0.37500000000000000        0.0000000000000000     
   1.0312500000000000       0.37500000000000000        0.0000000000000000     
   1.0625000000000000       0.37500000000000000        0.0000000000000000     
   1.0937500000000000       0.37500000000000000        0.0000000000000000     
   1.1250000000000000       0.37500000000000000        0.0000000000000000     
   1.0000000000000000       0.40625000000000000        0.0000000000000000     
   1.0312500000000000       0.40625000000000000        0.0000000000000000     
   1.0625000000000000       0.40625000000000000        0.0000000000000000     
   1.0937500000000000       0.40625000000000000        0.0000000000000000     
   1.1250000000000000       0.40625000000000000        0.0000000000000000     
   1.0000000000000000       0.43750000000000000        0.0000000000000000     
   1.0312500000000000       0.43750000000000000        0.0000000000000000     
   1.0625000000000000       0.43750000000000000        0.0000000000000000     
   1.0937500000000000       0.43750000000000000        0.0000000000000000     
   1.1250000000000000       0.43750000000000000        0.0000000000000000     
   1.0000000000000000       0.46875000000000000        0.0000000000000000     
   1.0312500000000000       0.46875000000000000        0.0000000000000000     
   1.0625000000000000       0.46875000000000000        0.0000000000000000     
   1.0937500000000000       0.46875000000000000        0.0000000000000000     
   1.1250000000000000       0.46875000000000000        0.0000000000000000     
   1.0000000000000000       0.50000000000000000        0.0000000000000000     
   1.0312500000000000       0.50000000000000000        0.0000000000000000     
   1.0625000000000000       0.50000000000000000        0.0000000000000000     
   1.0937500000000000       0.50000000000000000        0.0000000000000000     
   1.1250000000000000       0.50000000000000000        0.0000000000000000     
   1.1250000000000000       0.37500000000000000        0.0000000000000000     
   1.1562500000000000       0.37500000000000000        0.0000000000000000     
   1.1875000000000000       0.37500000000000000        0.0000000000000000     
   1.2187500000000000       0.37500000000000000        0.0000000000000000     
   1.2500000000000000       0.37500000000000000        0.0000000000000000     
   1.1250000000000000       0.40625000000000000        0.0000000000000000     
   1.1562500000000000       0.40625000000000000        0.0000000000000000     
   1.1875000000000000       0.40625000000000000        0.0000000000000000     
   1.2187500000000000       0.40625000000000000        0.0000000000000000     
   1.2500000000000000       0.40625000000000000        0.0000000000000000     
   1.1250000000000000       0.43750000000000000        0.0000000000000000     
   1.1562500000000000       0.43750000000000000        0.0000000000000000     
   1.1875000000000000       0.43750000000000000        0.0000000000000000     
   1.2187500000000000       0.43750000000000000        0.0000000000000000     
   1.2500000000000000       0.43750000000000000        0.0000000000000000     
   1.1250000000000000       0.46875000000000000        0.0000000000000000     
   1.1562500000000000       0.46875000000000000        0.0000000000000000     
   1.1875000000000000       0.46875000000000000        0.0000000000000000     
   1.2187500000000000       0.46875000000000000        0.0000000000000000     
   1.2500000000000000       0.46875000000000000        0.0000000000000000     
   1.1250000000000000       0.50000000000000000        0.0000000000000000     
   1.1562500000000000       0.50000000000000000        0.0000000000000000     
   1.1875000000000000       0.50000000000000000        0.0000000000000000     
   1.2187500000000000       0.50000000000000000        0.0000000000000000     
   1.2500000000000000       0.50000000000000000        0.0000000000000000     
   1.2500000000000000       0.37500000000000000        0.0000000000000000     
   1.2812500000000000       0.37500000000000000        0.0000000000000000     
   1.3125000000000000       0.37500000000000000        0.0000000000000000     
   1.3437500000000000       0.37500000000000000        0.0000000000000000     
   1.3750000000000000       0.37500000000000000        0.0000000000000000     
   1.2500000000000000       0.40625000000000000        0.0000000000000000     
   1.2812500000000000       0.40625000000000000        0.0000000000000000     
   1.3125000000000000       0.40625000000000000        0.0000000000000000     
   1.3437500000000000       0.40625000000000000        0.0000000000000000     
   1.3750000000000000       0.40625000000000000        0.0000000000000000     
   1.2500000000000000       0.43750000000000000        0.0000000000000000     
   1.2812500000000000       0.43750000000000000        0.0000000000000000     
   1.3125000000000000       0.43750000000000000        0.0000000000000000     
   1.3437500000000000       0.43750000000000000        0.0000000000000000     
   1.3750000000000000       0.43750000000000000        0.0000000000000000     
   1.2500000000000000       0.46875000000000000        0.0000000000000000     
   1.2812500000000000       0.46875000000000000        0.0000000000000000     
   1.3125000000000000       0.46875000000000000        0.0000000000000000     
   1.3437500000000000       0.46875000000000000        0.0000000000000000     
   1.3750000000000000       0.46875000000000000        0.0000000000000000     
   1.2500000000000000       0.50000000000000000        0.0000000000000000     
   1.2812500000000000       0.50000000000000000        0.0000000000000000     
   1.3125000000000000       0.50000000000000000        0.0000000000000000     
   1.3437500000000000       0.50000000000000000        0.0000000000000000     
   1.3750000000000000       0.50000000000000000        0.0000000000000000     
   1.3750000000000000       0.37500000000000000        0.0000000000000000     
   1.4062500000000000       0.37500000000000000        0.0000000000000000     
   1.4375000000000000       0.37500000000000000        0.0000000000000000     
   1.4687500000000000       0.37500000000000000        0.0000000000000000     
   1.5000000000000000       0.37500000000000000        0.0000000000000000     
   1.3750000000000000       0.40625000000000000        0.0000000000000000     
   1.4062500000000000       0.40625000000000000        0.0000000000000000     
   1.4375000000000000       0.40625000000000000        0.0000000000000000     
   1.4687500000000000       0.40625000000000000        0.0000000000000000     
   1.5000000000000000       0.40625000000000000        0.0000000000000000     
   1.3750000000000000       0.43750000000000000        0.0000000000000000     
   1.4062500000000000       0.43750000000000000        0.0000000000000000     
   1.4375000000000000       0.43750000000000000        0.0000000000000000     
   1.4687500000000000       0.43750000000000000        0.0000000000000000     
   1.5000000000000000       0.43750000000000000        0.0000000000000000     
   1.3750000000000000       0.46875000000000000        0.0000000000000000     
   1.4062500000000000       0.46875000000000000        0.0000000000000000     
   1.4375000000000000       0.46875000000000000        0.0000000000000000     
   1.4687500000000000       0.46875000000000000        0.0000000000000000     
   1.5000000000000000       0.46875000000000000        0.0000000000000000     
   1.3750000000000000       0.50000000000000000        0.0000000000000000     
   1.4062500000000000       0.50000000000000000        0.0000000000000000     
   1.4375000000000000       0.50000000000000000        0.0000000000000000     
   1.4687500000000000       0.50000000000000000        0.0000000000000000     
   1.5000000000000000       0.50000000000000000        0.0000000000000000     
  0.50000000000000000       0.50000000000000000        0.0000000000000000     
  0.53125000000000000       0.50000000000000000        0.0000000000000000     
  0.56250000000000000       0.50000000000000000        0.0000000000000000     
  0.59375000000000000       0.50000000000000000        0.0000000000000000     
  0.62500000000000000       0.50000000000000000        0.0000000000000000     
  0.50000000000000000       0.53125000000000000        0.0000000000000000     
  0.53125000000000000       0.53125000000000000        0.0000000000000000     
  0.56250000000000000       0.53125000000000000        0.0000000000000000     
  0.59375000000000000       0.53125000000000000        0.0000000000000000     
  0.62500000000000000       0.53125000000000000        0.0000000000000000     
  0.50000000000000000       0.56250000000000000        0.0000000000000000     
  0.53125000000000000       0.56250000000000000        0.0000000000000000     
  0.56250000000000000       0.56250000000000000        0.0000000000000000     
  0.59375000000000000       0.56250000000000000        0.0000000000000000     
  0.62500000000000000       0.56250000000000000        0.0000000000000000     
  0.50000000000000000       0.59375000000000000        0.0000000000000000     
  0.53125000000000000       0.59375000000000000        0.0000000000000000     
  0.56250000000000000       0.59375000000000000        0.0000000000000000     
  0.59375000000000000       0.59375000000000000        0.0000000000000000     
  0.62500000000000000       0.59375000000000000        0.0000000000000000     
  0.50000000000000000       0.62500000000000000        0.0000000000000000     
  0.53125000000000000       0.62500000000000000        0.0000000000000000     
  0.56250000000000000       0.62500000000000000        0.0000000000000000     
  0.59375000000000000       0.62500000000000000        0.0000000000000000     
  0.62500000000000000       0.62500000000000000        0.0000000000000000     
  0.62500000000000000       0.50000000000000000        0.0000000000000000     
  0.65625000000000000       0.50000000000000000        0.0000000000000000     
  0.68750000000000000       0.50000000000000000        0.0000000000000000     
  0.71875000000000000       0.50000000000000000        0.0000000000000000     
  0.75000000000000000       0.50000000000000000        0.0000000000000000     
  0.62500000000000000       0.53125000000000000        0.0000000000000000     
  0.65625000000000000       0.53125000000000000        0.0000000000000000     
  0.68750000000000000       0.53125000000000000        0.0000000000000000     
  0.71875000000000000       0.53125000000000000        0.0000000000000000     
  0.75000000000000000       0.53125000000000000        0.0000000000000000     
  0.62500000000000000       0.56250000000000000        0.0000000000000000     
  0.65625000000000000       0.56250000000000000        0.0000000000000000     
  0.68750000000000000       0.56250000000000000        0.0000000000000000     
  0.71875000000000000       0.56250000000000000        0.0000000000000000     
  0.75000000000000000       0.56250000000000000        0.0000000000000000     
  0.62500000000000000       0.59375000000000000        0.0000000000000000     
  0.65625000000000000       0.59375000000000000        0.0000000000000000     
  0.68750000000000000       0.59375000000000000        0.0000000000000000     
  0.71875000000000000       0.59375000000000000        0.0000000000000000     
  0.75000000000000000       0.59375000000000000        0.0000000000000000     
  0.62500000000000000       0.62500000000000000        0.0000000000000000     
  0.65625000000000000       0.62500000000000000        0.0000000000000000     
  0.68750000000000000       0.62500000000000000        0.0000000000000000     
  0.71875000000000000       0.62500000000000000        0.0000000000000000     
  0.75000000000000000       0.62500000000000000        0.0000000000000000     
  0.75000000000000000       0.50000000000000000        0.0000000000000000     
  0.78125000000000000       0.50000000000000000        0.0000000000000000     
  0.81250000000000000       0.50000000000000000        0.0000000000000000     
  0.84375000000000000       0.50000000000000000        0.0000000000000000     
  0.87500000000000000       0.50000000000000000        0.0000000000000000     
  0.75000000000000000       0.53125000000000000        0.0000000000000000     
  0.78125000000000000       0.53125000000000000        0.0000000000000000     
  0.81250000000000000       0.53125000000000000        0.0000000000000000     
  0.84375000000000000       0.53125000000000000        0.0000000000000000     
  0.87500000000000000       0.53125000000000000        0.0000000000000000     
  0.75000000000000000       0.56250000000000000        0.0000000000000000     
  0.78125000000000000       0.56250000000000000        0.0000000000000000     
  0.81250000000000000       0.56250000000000000        0.0000000000000000     
  0.84375000000000000       0.56250000000000000        0.0000000000000000     
  0.87500000000000000       0.56250000000000000        0.0000000000000000     
  0.75000000000000000       0.59375000000000000        0.0000000000000000     
  0.78125000000000000       0.59375000000000000        0.0000000000000000     
  0.81250000000000000       0.59375000000000000        0.0000000000000000     
  0.84375000000000000       0.59375000000000000        0.0000000000000000     
  0.87500000000000000       0.59375000000000000        0.0000000000000000     
  0.75000000000000000       0.62500000000000000        0.0000000000000000     
  0.78125000000000000       0.62500000000000000        0.0000000000000000     
  0.81250000000000000       0.62500000000000000        0.0000000000000000     
  0.84375000000000000       0.62500000000000000        0.0000000000000000     
  0.87500000000000000       0.62500000000000000        0.0000000000000000     
  0.87500000000000000       0.50000000000000000        0.0000000000000000     
  0.90625000000000000       0.50000000000000000        0.0000000000000000     
  0.93750000000000000       0.50000000000000000        0.0000000000000000     
  0.96875000000000000       0.50000000000000000        0.0000000000000000     
   1.0000000000000000       0.50000000000000000        0.0000000000000000     
  0.87500000000000000       0.53125000000000000        0.0000000000000000     
  0.90625000000000000       0.53125000000000000        0.0000000000000000     
  0.93750000000000000       0.53125000000000000        0.0000000000000000     
  0.96875000000000000       0.53125000000000000        0.0000000000000000     
   1.0000000000000000       0.53125000000000000        0.0000000000000000     
  0.87500000000000000       0.56250000000000000        0.0000000000000000     
  0.90625000000000000       0.56250000000000000        0.0000000000000000     
  0.93750000000000000       0.56250000000000000        0.0000000000000000     
  0.96875000000000000       0.56250000000000000        0.0000000000000000     
   1.0000000000000000       0.56250000000000000        0.0000000000000000     
  0.87500000000000000       0.59375000000000000        0.0000000000000000     
  0.90625000000000000       0.59375000000000000        0.0000000000000000     
  0.93750000000000000       0.59375000000000000        0.0000000000000000     
  0.96875000000000000       0.59375000000000000        0.0000000000000000     
   1.0000000000000000       0.59375000000000000        0.0000000000000000     
  0.87500000000000000       0.62500000000000000        0.0000000000000000     
  0.90625000000000000       0.62500000000000000        0.0000000000000000     
  0.93750000000000000       0.62500000000000000        0.0000000000000000     
  0.96875000000000000       0.62500000000000000        0.0000000000000000     
   1.0000000000000000       0.62500000000000000        0.0000000000000000     
   1.0000000000000000       0.50000000000000000        0.0000000000000000     
   1.0312500000000000       0.50000000000000000        0.0000000000000000     
   1.0625000000000000       0.50000000000000000        0.0000000000000000     
   1.0937500000000000       0.50000000000000000        0.0000000000000000     
   1.1250000000000000       0.50000000000000000        0.0000000000000000     
   1.0000000000000000       0.53125000000000000        0.0000000000000000     
   1.0312500000000000       0.53125000000000000        0.0000000000000000     
   1.0625000000000000       0.53125000000000000        0.0000000000000000     
   1.0937500000000000       0.53125000000000000        0.0000000000000000     
   1.1250000000000000       0.53125000000000000        0.0000000000000000     
   1.0000000000000000       0.56250000000000000        0.0000000000000000     
   1.0312500000000000       0.56250000000000000        0.0000000000000000     
   1.0625000000000000       0.56250000000000000        0.0000000000000000     
   1.0937500000000000       0.56250000000000000        0.0000000000000000     
   1.1250000000000000       0.56250000000000000        0.0000000000000000     
   1.0000000000000000       0.59375000000000000        0.0000000000000000     
   1.0312500000000000       0.59375000000000000        0.0000000000000000     
   1.0625000000000000       0.59375000000000000        0.0000000000000000     
   1.0937500000000000       0.59375000000000000        0.0000000000000000     
   1.1250000000000000       0.59375000000000000        0.0000000000000000     
   1.0000000000000000       0.62500000000000000        0.0000000000000000     
   1.0312500000000000       0.62500000000000000        0.0000000000000000     
   1.0625000000000000       0.62500000000000000        0.0000000000000000     
   1.0937500000000000       0.62500000000000000        0.0000000000000000     
   1.1250000000000000       0.62500000000000000        0.0000000000000000     
   1.1250000000000000       0.50000000000000000        0.0000000000000000     
   1.1562500000000000       0.50000000000000000        0.0000000000000000     
   1.1875000000000000       0.50000000000000000        0.0000000000000000     
   1.2187500000000000       0.50000000000000000        0.0000000000000000     
   1.2500000000000000       0.50000000000000000        0.0000000000000000     
   1.1250000000000000       0.53125000000000000        0.0000000000000000     
   1.1562500000000000       0.53125000000000000        0.0000000000000000     
   1.1875000000000000       0.53125000000000000        0.0000000000000000     
   1.2187500000000000       0.53125000000000000        0.0000000000000000     
   1.2500000000000000       0.53125000000000000        0.0000000000000000     
   1.1250000000000000       0.56250000000000000        0.0000000000000000     
   1.1562500000000000       0.56250000000000000        0.0000000000000000     
   1.1875000000000000       0.56250000000000000        0.0000000000000000     
   1.2187500000000000       0.56250000000000000        0.0000000000000000     
   1.2500000000000000       0.56250000000000000        0.0000000000000000     
   1.1250000000000000       0.59375000000000000        0.0000000000000000     
   1.1562500000000000       0.59375000000000000        0.0000000000000000     
   1.1875000000000000       0.59375000000000000        0.0000000000000000     
   1.2187500000000000       0.59375000000000000        0.0000000000000000     
   1.2500000000000000       0.59375000000000000        0.0000000000000000     
   1.1250000000000000       0.62500000000000000        0.0000000000000000     
   1.1562500000000000       0.62500000000000000        0.0000000000000000     
   1.1875000000000000       0.62500000000000000        0.0000000000000000     
   1.2187500000000000       0.62500000000000000        0.0000000000000000     
   1.2500000000000000       0.62500000000000000        0.0000000000000000     
   1.2500000000000000       0.50000000000000000        0.0000000000000000     
   1.2812500000000000       0.50000000000000000        0.0000000000000000     
   1.3125000000000000       0.50000000000000000        0.0000000000000000     
   1.3437500000000000       0.50000000000000000        0.0000000000000000     
   1.3750000000000000       0.50000000000000000        0.0000000000000000     
   1.2500000000000000       0.53125000000000000        0.0000000000000000     
   1.2812500000000000       0.53125000000000000        0.0000000000000000     
   1.3125000000000000       0.53125000000000000        0.0000000000000000     
   1.3437500000000000       0.53125000000000000        0.0000000000000000     
   1.3750000000000000       0.53125000000000000        0.0000000000000000     
   1.2500000000000000       0.56250000000000000        0.0000000000000000     
   1.2812500000000000       0.56250000000000000        0.0000000000000000     
   1.3125000000000000       0.56250000000000000        0.0000000000000000     
   1.3437500000000000       0.56250000000000000        0.0000000000000000     
   1.3750000000000000       0.56250000000000000        0.0000000000000000     
   1.2500000000000000       0.59375000000000000        0.0000000000000000     
   1.2812500000000000       0.59375000000000000        0.0000000000000000     
   1.3125000000000000       0.59375000000000000        0.0000000000000000     
   1.3437500000000000       0.59375000000000000        0.0000000000000000     
   1.3750000000000000       0.59375000000000000        0.0000000000000000     
   1.2500000000000000       0.62500000000000000        0.0000000000000000     
   1.2812500000000000       0.62500000000000000        0.0000000000000000     
   1.3125000000000000       0.62500000000000000        0.0000000000000000     
   1.3437500000000000       0.62500000000000000        0.0000000000000000     
   1.3750000000000000       0.62500000000000000        0.0000000000000000     
   1.3750000000000000       0.50000000000000000        0.0000000000000000     
   1.4062500000000000       0.50000000000000000        0.0000000000000000     
   1.4375000000000000       0.50000000000000000        0.0000000000000000     
   1.4687500000000000       0.50000000000000000        0.0000000000000000     
   1.5000000000000000       0.50000000000000000        0.0000000000000000     
   1.3750000000000000       0.53125000000000000        0.0000000000000000     
   1.4062500000000000       0.53125000000000000        0.0000000000000000     
   1.4375000000000000       0.53125000000000000        0.0000000000000000     
   1.4687500000000000       0.53125000000000000        0.0000000000000000     
   1.5000000000000000       0.53125000000000000        0.0000000000000000     
   1.3750000000000000       0.56250000000000000        0.0000000000000000     
   1.4062500000000000       0.56250000000000000        0.0000000000000000     
   1.4375000000000000       0.56250000000000000        0.0000000000000000     
   1.4687500000000000       0.56250000000000000        0.0000000000000000     
   1.5000000000000000       0.56250000000000000        0.0000000000000000     
   1.3750000000000000       0.59375000000000000        0.0000000000000000     
   1.4062500000000000       0.59375000000000000        0.0000000000000000     
   1.4375000000000000       0.59375000000000000        0.0000000000000000     
   1.4687500000000000       0.59375000000000000        0.0000000000000000     
   1.5000000000000000       0.59375000000000000        0.0000000000000000     
   1.3750000000000000       0.62500000000000000        0.0000000000000000     
   1.4062500000000000       0.62500000000000000        0.0000000000000000     
   1.4375000000000000       0.62500000000000000        0.0000000000000000     
   1.4687500000000000       0.62500000000000000        0.0000000000000000     
   1.5000000000000000       0.62500000000000000        0.0000000000000000     
  0.50000000000000000       0.62500000000000000        0.0000000000000000     
  0.53125000000000000       0.62500000000000000        0.0000000000000000     
  0.56250000000000000       0.62500000000000000        0.0000000000000000     
  0.59375000000000000       0.62500000000000000        0.0000000000000000     
  0.62500000000000000       0.62500000000000000        0.0000000000000000     
  0.50000000000000000       0.65625000000000000        0.0000000000000000     
  0.53125000000000000       0.65625000000000000        0.0000000000000000     
  0.56250000000000000       0.65625000000000000        0.0000000000000000     
  0.59375000000000000       0.65625000000000000        0.0000000000000000     
  0.62500000000000000       0.65625000000000000        0.0000000000000000     
  0.50000000000000000       0.68750000000000000        0.0000000000000000     
  0.53125000000000000       0.68750000000000000        0.0000000000000000     
  0.56250000000000000       0.68750000000000000        0.0000000000000000     
  0.59375000000000000       0.68750000000000000        0.0000000000000000     
  0.62500000000000000       0.68750000000000000        0.0000000000000000     
  0.50000000000000000       0.71875000000000000        0.0000000000000000     
  0.53125000000000000       0.71875000000000000        0.0000000000000000     
  0.56250000000000000       0.71875000000000000        0.0000000000000000     
  0.59375000000000000       0.71875000000000000        0.0000000000000000     
  0.62500000000000000       0.71875000000000000        0.0000000000000000     
  0.50000000000000000       0.75000000000000000        0.0000000000000000     
  0.53125000000000000       0.75000000000000000        0.0000000000000000     
  0.56250000000000000       0.75000000000000000        0.0000000000000000     
  0.59375000000000000       0.75000000000000000        0.0000000000000000     
  0.62500000000000000       0.75000000000000000        0.0000000000000000     
  0.62500000000000000       0.62500000000000000        0.0000000000000000     
  0.65625000000000000       0.62500000000000000        0.0000000000000000     
  0.68750000000000000       0.62500000000000000        0.0000000000000000     
  0.71875000000000000       0.62500000000000000        0.0000000000000000     
  0.75000000000000000       0.62500000000000000        0.0000000000000000     
  0.62500000000000000       0.65625000000000000        0.0000000000000000     
  0.65625000000000000       0.65625000000000000        0.0000000000000000     
  0.68750000000000000       0.65625000000000000        0.0000000000000000     
  0.71875000000000000       0.65625000000000000        0.0000000000000000     
  0.75000000000000000       0.65625000000000000        0.0000000000000000     
  0.62500000000000000       0.68750000000000000        0.0000000000000000     
  0.65625000000000000       0.68750000000000000        0.0000000000000000     
  0.68750000000000000       0.68750000000000000        0.0000000000000000     
  0.71875000000000000       0.68750000000000000        0.0000000000000000     
  0.75000000000000000       0.68750000000000000        0.0000000000000000     
  0.62500000000000000       0.71875000000000000        0.0000000000000000     
  0.65625000000000000       0.71875000000000000        0.0000000000000000     
  0.68750000000000000       0.71875000000000000        0.0000000000000000     
  0.71875000000000000       0.71875000000000000        0.0000000000000000     
  0.75000000000000000       0.71875000000000000        0.0000000000000000     
  0.62500000000000000       0.75000000000000000        0.0000000000000000     
  0.65625000000000000       0.75000000000000000        0.0000000000000000     
  0.68750000000000000       0.75000000000000000        0.0000000000000000     
  0.71875000000000000       0.75000000000000000        0.0000000000000000     
  0.75000000000000000       0.75000000000000000        0.0000000000000000     
  0.75000000000000000       0.62500000000000000        0.0000000000000000     
  0.78125000000000000       0.62500000000000000        0.0000000000000000     
  0.81250000000000000       0.62500000000000000        0.0000000000000000     
  0.84375000000000000       0.62500000000000000        0.0000000000000000     
  0.87500000000000000       0.62500000000000000        0.0000000000000000     
  0.75000000000000000       0.65625000000000000        0.0000000000000000     
  0.78125000000000000       0.65625000000000000        0.0000000000000000     
  0.81250000000000000       0.65625000000000000        0.0000000000000000     
  0.84375000000000000       0.65625000000000000        0.0000000000000000     
  0.87500000000000000       0.65625000000000000        0.0000000000000000     
  0.75000000000000000       0.68750000000000000        0.0000000000000000     
  0.78125000000000000       0.68750000000000000        0.0000000000000000     
  0.81250000000000000       0.68750000000000000        0.0000000000000000     
  0.84375000000000000       0.68750000000000000        0.0000000000000000     
  0.87500000000000000       0.68750000000000000        0.0000000000000000     
  0.75000000000000000       0.71875000000000000        0.0000000000000000     
  0.78125000000000000       0.71875000000000000        0.0000000000000000     
  0.81250000000000000       0.71875000000000000        0.0000000000000000     
  0.84375000000000000       0.71875000000000000        0.0000000000000000     
  0.87500000000000000       0.71875000000000000        0.0000000000000000     
  0.75000000000000000       0.75000000000000000        0.0000000000000000     
  0.78125000000000000       0.75000000000000000        0.0000000000000000     
  0.81250000000000000       0.75000000000000000        0.0000000000000000     
  0.84375000000000000       0.75000000000000000        0.0000000000000000     
  0.87500000000000000       0.75000000000000000        0.0000000000000000     
  0.87500000000000000       0.62500000000000000        0.0000000000000000     
  0.90625000000000000       0.62500000000000000        0.0000000000000000     
  0.93750000000000000       0.62500000000000000        0.0000000000000000     
  0.96875000000000000       0.62500000000000000        0.0000000000000000     
   1.0000000000000000       0.62500000000000000        0.0000000000000000     
  0.87500000000000000       0.65625000000000000        0.0000000000000000     
  0.90625000000000000       0.65625000000000000        0.0000000000000000     
  0.93750000000000000       0.65625000000000000        0.0000000000000000     
  0.96875000000000000       0.65625000000000000        0.0000000000000000     
   1.0000000000000000       0.65625000000000000        0.0000000000000000     
  0.87500000000000000       0.68750000000000000        0.0000000000000000     
  0.90625000000000000       0.68750000000000000        0.0000000000000000     
  0.93750000000000000       0.68750000000000000        0.0000000000000000     
  0.96875000000000000       0.68750000000000000        0.0000000000000000     
   1.0000000000000000       0.68750000000000000        0.0000000000000000     
  0.87500000000000000       0.71875000000000000        0.0000000000000000     
  0.90625000000000000       0.71875000000000000        0.0000000000000000     
  0.93750000000000000       0.71875000000000000        0.0000000000000000     
  0.96875000000000000       0.71875000000000000        0.0000000000000000     
   1.0000000000000000       0.71875000000000000        0.0000000000000000     
  0.87500000000000000       0.75000000000000000        0.0000000000000000     
  0.90625000000000000       0.75000000000000000        0.0000000000000000     
  0.93750000000000000       0.75000000000000000        0.0000000000000000     
  0.96875000000000000       0.75000000000000000        0.0000000000000000     
   1.0000000000000000       0.75000000000000000        0.0000000000000000     
   1.0000000000000000       0.62500000000000000        0.0000000000000000     
   1.0312500000000000       0.62500000000000000        0.0000000000000000     
   1.0625000000000000       0.62500000000000000        0.0000000000000000     
   1.0937500000000000       0.62500000000000000        0.0000000000000000     
   1.1250000000000000       0.62500000000000000        0.0000000000000000     
   1.0000000000000000       0.65625000000000000        0.0000000000000000     
   1.0312500000000000       0.65625000000000000        0.0000000000000000     
   1.0625000000000000       0.65625000000000000        0.0000000000000000     
   1.0937500000000000       0.65625000000000000        0.0000000000000000     
   1.1250000000000000       0.65625000000000000        0.0000000000000000     
   1.0000000000000000       0.68750000000000000        0.0000000000000000     
   1.0312500000000000       0.68750000000000000        0.0000000000000000     
   1.0625000000000000       0.68750000000000000        0.0000000000000000     
   1.0937500000000000       0.68750000000000000        0.0000000000000000     
   1.1250000000000000       0.68750000000000000        0.0000000000000000     
   1.0000000000000000       0.71875000000000000        0.0000000000000000     
   1.0312500000000000       0.71875000000000000        0.0000000000000000     
   1.0625000000000000       0.71875000000000000        0.0000000000000000     
   1.0937500000000000       0.71875000000000000        0.0000000000000000     
   1.1250000000000000       0.71875000000000000        0.0000000000000000     
   1.0000000000000000       0.75000000000000000        0.0000000000000000     
   1.0312500000000000       0.75000000000000000        0.0000000000000000     
   1.0625000000000000       0.75000000000000000        0.0000000000000000     
   1.0937500000000000       0.75000000000000000        0.0000000000000000     
   1.1250000000000000       0.75000000000000000        0.0000000000000000     
   1.1250000000000000       0.62500000000000000        0.0000000000000000     
   1.1562500000000000       0.62500000000000000        0.0000000000000000     
   1.1875000000000000       0.62500000000000000        0.0000000000000000     
   1.2187500000000000       0.62500000000000000        0.0000000000000000     
   1.2500000000000000       0.62500000000000000        0.0000000000000000     
   1.1250000000000000       0.65625000000000000        0.0000000000000000     
   1.1562500000000000       0.65625000000000000        0.0000000000000000     
   1.1875000000000000       0.65625000000000000        0.0000000000000000     
   1.2187500000000000       0.65625000000000000        0.0000000000000000     
   1.2500000000000000       0.65625000000000000        0.0000000000000000     
   1.1250000000000000       0.68750000000000000        0.0000000000000000     
   1.1562500000000000       0.68750000000000000        0.0000000000000000     
   1.1875000000000000       0.68750000000000000        0.0000000000000000     
   1.2187500000000000       0.68750000000000000        0.0000000000000000     
   1.2500000000000000       0.68750000000000000        0.0000000000000000     
   1.1250000000000000       0.71875000000000000        0.0000000000000000     
   1.1562500000000000       0.71875000000000000        0.0000000000000000     
   1.1875000000000000       0.71875000000000000        0.0000000000000000     
   1.2187500000000000       0.71875000000000000        0.0000000000000000     
   1.2500000000000000       0.71875000000000000        0.0000000000000000     
   1.1250000000000000       0.75000000000000000        0.0000000000000000     
   1.1562500000000000       0.75000000000000000        0.0000000000000000     
   1.1875000000000000       0.75000000000000000        0.0000000000000000     
   1.2187500000000000       0.75000000000000000        0.0000000000000000     
   1.2500000000000000       0.75000000000000000        0.0000000000000000     
   1.2500000000000000       0.62500000000000000        0.0000000000000000     
   1.2812500000000000       0.62500000000000000        0.0000000000000000     
   1.3125000000000000       0.62500000000000000        0.0000000000000000     
   1.3437500000000000       0.62500000000000000        0.0000000000000000     
   1.3750000000000000       0.62500000000000000        0.0000000000000000     
   1.2500000000000000       0.65625000000000000        0.0000000000000000     
   1.2812500000000000       0.65625000000000000        0.0000000000000000     
   1.3125000000000000       0.65625000000000000        0.0000000000000000     
   1.3437500000000000       0.65625000000000000        0.0000000000000000     
   1.3750000000000000       0.65625000000000000        0.0000000000000000     
   1.2500000000000000       0.68750000000000000        0.0000000000000000     
   1.2812500000000000       0.68750000000000000        0.0000000000000000     
   1.3125000000000000       0.68750000000000000        0.0000000000000000     
   1.3437500000000000       0.68750000000000000        0.0000000000000000     
   1.3750000000000000       0.68750000000000000        0.0000000000000000     
   1.2500000000000000       0.71875000000000000        0.0000000000000000     
   1.2812500000000000       0.71875000000000000        0.0000000000000000     
   1.3125000000000000       0.71875000000000000        0.0000000000000000     
   1.3437500000000000       0.71875000000000000        0.0000000000000000     
   1.3750000000000000       0.71875000000000000        0.0000000000000000     
   1.2500000000000000       0.75000000000000000        0.0000000000000000     
   1.2812500000000000       0.75000000000000000        0.0000000000000000     
   1.3125000000000000       0.75000000000000000        0.0000000000000000     
   1.3437500000000000       0.75000000000000000        0.0000000000000000     
   1.3750000000000000       0.75000000000000000        0.0000000000000000     
   1.3750000000000000       0.62500000000000000        0.0000000000000000     
   1.4062500000000000       0.62500000000000000        0.0000000000000000     
   1.4375000000000000       0.62500000000000000        0.0000000000000000     
   1.4687500000000000       0.62500000000000000        0.0000000000000000     
   1.5000000000000000       0.62500000000000000        0.0000000000000000     
   1.3750000000000000       0.65625000000000000        0.0000000000000000     
   1.4062500000000000       0.65625000000000000        0.0000000000000000     
   1.4375000000000000       0.65625000000000000        0.0000000000000000     
   1.4687500000000000       0.65625000000000000        0.0000000000000000     
   1.5000000000000000       0.65625000000000000        0.0000000000000000     
   1.3750000000000000       0.68750000000000000        0.0000000000000000     
   1.4062500000000000       0.68750000000000000        0.0000000000000000     
   1.4375000000000000       0.68750000000000000        0.0000000000000000     
   1.4687500000000000       0.68750000000000000        0.0000000000000000     
   1.5000000000000000       0.68750000000000000        0.0000000000000000     
   1.3750000000000000       0.71875000000000000        0.0000000000000000     
   1.4062500000000000       0.71875000000000000        0.0000000000000000     
   1.4375000000000000       0.71875000000000000        0.0000000000000000     
   1.4687500000000000       0.71875000000000000        0.0000000000000000     
   1.5000000000000000       0.71875000000000000        0.0000000000000000     
   1.3750000000000000       0.75000000000000000        0.0000000000000000     
   1.4062500000000000       0.75000000000000000        0.0000000000000000     
   1.4375000000000000       0.75000000000000000        0.0000000000000000     
   1.4687500000000000       0.75000000000000000        0.0000000000000000     
   1.5000000000000000       0.75000000000000000        0.0000000000000000     
  0.50000000000000000       0.75000000000000000        0.0000000000000000     
  0.53125000000000000       0.75000000000000000        0.0000000000000000     
  0.56250000000000000       0.75000000000000000        0.0000000000000000     
  0.59375000000000000       0.75000000000000000        0.0000000000000000     
  0.62500000000000000       0.75000000000000000        0.0000000000000000     
  0.50000000000000000       0.78125000000000000        0.0000000000000000     
  0.53125000000000000       0.78125000000000000        0.0000000000000000     
  0.56250000000000000       0.78125000000000000        0.0000000000000000     
  0.59375000000000000       0.78125000000000000        0.0000000000000000     
  0.62500000000000000       0.78125000000000000        0.0000000000000000     
  0.50000000000000000       0.81250000000000000        0.0000000000000000     
  0.53125000000000000       0.81250000000000000        0.0000000000000000     
  0.56250000000000000       0.81250000000000000        0.0000000000000000     
  0.59375000000000000       0.81250000000000000        0.0000000000000000     
  0.62500000000000000       0.81250000000000000        0.0000000000000000     
  0.50000000000000000       0.84375000000000000        0.0000000000000000     
  0.53125000000000000       0.84375000000000000        0.0000000000000000     
  0.56250000000000000       0.84375000000000000        0.0000000000000000     
  0.59375000000000000       0.84375000000000000        0.0000000000000000     
  0.62500000000000000       0.84375000000000000        0.0000000000000000     
  0.50000000000000000       0.87500000000000000        0.0000000000000000     
  0.53125000000000000       0.87500000000000000        0.0000000000000000     
  0.56250000000000000       0.87500000000000000        0.0000000000000000     
  0.59375000000000000       0.87500000000000000        0.0000000000000000     
  0.62500000000000000       0.87500000000000000        0.0000000000000000     
  0.62500000000000000       0.75000000000000000        0.0000000000000000     
  0.65625000000000000       0.75000000000000000        0.0000000000000000     
  0.68750000000000000       0.75000000000000000        0.0000000000000000     
  0.71875000000000000       0.75000000000000000        0.0000000000000000     
  0.75000000000000000       0.75000000000000000        0.0000000000000000     
  0.62500000000000000       0.78125000000000000        0.0000000000000000     
  0.65625000000000000       0.78125000000000000        0.0000000000000000     
  0.68750000000000000       0.78125000000000000        0.0000000000000000     
  0.71875000000000000       0.78125000000000000        0.0000000000000000     
  0.75000000000000000       0.78125000000000000        0.0000000000000000     
  0.62500000000000000       0.81250000000000000        0.0000000000000000     
  0.65625000000000000       0.81250000000000000        0.0000000000000000     
  0.68750000000000000       0.81250000000000000        0.0000000000000000     
  0.71875000000000000       0.81250000000000000        0.0000000000000000     
  0.75000000000000000       0.81250000000000000        0.0000000000000000     
  0.62500000000000000       0.84375000000000000        0.0000000000000000     
  0.65625000000000000       0.84375000000000000        0.0000000000000000     
  0.68750000000000000       0.84375000000000000        0.0000000000000000     
  0.71875000000000000       0.84375000000000000        0.0000000000000000     
  0.75000000000000000       0.84375000000000000        0.0000000000000000     
  0.62500000000000000       0.87500000000000000        0.0000000000000000     
  0.65625000000000000       0.87500000000000000        0.0000000000000000     
  0.68750000000000000       0.87500000000000000        0.0000000000000000     
  0.71875000000000000       0.87500000000000000        0.0000000000000000     
  0.75000000000000000       0.87500000000000000        0.0000000000000000     
  0.75000000000000000       0.75000000000000000        0.0000000000000000     
  0.78125000000000000       0.75000000000000000        0.0000000000000000     
  0.81250000000000000       0.75000000000000000        0.0000000000000000     
  0.84375000000000000       0.75000000000000000        0.0000000000000000     
  0.87500000000000000       0.75000000000000000        0.0000000000000000     
  0.75000000000000000       0.78125000000000000        0.0000000000000000     
  0.78125000000000000       0.78125000000000000        0.0000000000000000     
  0.81250000000000000       0.78125000000000000        0.0000000000000000     
  0.84375000000000000       0.78125000000000000        0.0000000000000000     
  0.87500000000000000       0.78125000000000000        0.0000000000000000     
  0.75000000000000000       0.81250000000000000        0.0000000000000000     
  0.78125000000000000       0.81250000000000000        0.0000000000000000     
  0.81250000000000000       0.81250000000000000        0.0000000000000000     
  0.84375000000000000       0.81250000000000000        0.0000000000000000     
  0.87500000000000000       0.81250000000000000        0.0000000000000000     
  0.75000000000000000       0.84375000000000000        0.0000000000000000     
  0.78125000000000000       0.84375000000000000        0.0000000000000000     
  0.81250000000000000       0.84375000000000000        0.0000000000000000     
  0.84375000000000000       0.84375000000000000        0.0000000000000000     
  0.87500000000000000       0.84375000000000000        0.0000000000000000     
  0.75000000000000000       0.87500000000000000        0.0000000000000000     
  0.78125000000000000       0.87500000000000000        0.0000000000000000     
  0.81250000000000000       0.87500000000000000        0.0000000000000000     
  0.84375000000000000       0.87500000000000000        0.0000000000000000     
  0.87500000000000000       0.87500000000000000        0.0000000000000000     
  0.87500000000000000       0.75000000000000000        0.0000000000000000     
  0.90625000000000000       0.75000000000000000        0.0000000000000000     
  0.93750000000000000       0.75000000000000000        0.0000000000000000     
  0.96875000000000000       0.75000000000000000        0.0000000000000000     
   1.0000000000000000       0.75000000000000000        0.0000000000000000     
  0.87500000000000000       0.78125000000000000        0.0000000000000000     
  0.90625000000000000       0.78125000000000000        0.0000000000000000     
  0.93750000000000000       0.78125000000000000        0.0000000000000000     
  0.96875000000000000       0.78125000000000000        0.0000000000000000     
   1.0000000000000000       0.78125000000000000        0.0000000000000000     
  0.87500000000000000       0.81250000000000000        0.0000000000000000     
  0.90625000000000000       0.81250000000000000        0.0000000000000000     
  0.93750000000000000       0.81250000000000000        0.0000000000000000     
  0.96875000000000000       0.81250000000000000        0.0000000000000000     
   1.0000000000000000       0.81250000000000000        0.0000000000000000     
  0.87500000000000000       0.84375000000000000        0.0000000000000000     
  0.90625000000000000       0.84375000000000000        0.0000000000000000     
  0.93750000000000000       0.84375000000000000        0.0000000000000000     
  0.96875000000000000       0.84375000000000000        0.0000000000000000     
   1.0000000000000000       0.84375000000000000        0.0000000000000000     
  0.87500000000000000       0.87500000000000000        0.0000000000000000     
  0.90625000000000000       0.87500000000000000        0.0000000000000000     
  0.93750000000000000       0.87500000000000000        0.0000000000000000     
  0.96875000000000000       0.87500000000000000        0.0000000000000000     
   1.0000000000000000       0.87500000000000000        0.0000000000000000     
   1.0000000000000000       0.75000000000000000        0.0000000000000000     
   1.0312500000000000       0.75000000000000000        0.0000000000000000     
   1.0625000000000000       0.75000000000000000        0.0000000000000000     
   1.0937500000000000       0.75000000000000000        0.0000000000000000     
   1.1250000000000000       0.75000000000000000        0.0000000000000000     
   1.0000000000000000       0.78125000000000000        0.0000000000000000     
   1.0312500000000000       0.78125000000000000        0.0000000000000000     
   1.0625000000000000       0.78125000000000000        0.0000000000000000     
   1.0937500000000000       0.78125000000000000        0.0000000000000000     
   1.1250000000000000       0.78125000000000000        0.0000000000000000     
   1.0000000000000000       0.81250000000000000        0.0000000000000000     
   1.0312500000000000       0.81250000000000000        0.0000000000000000     
   1.0625000000000000       0.81250000000000000        0.0000000000000000     
   1.0937500000000000       0.81250000000000000        0.0000000000000000     
   1.1250000000000000       0.81250000000000000        0.0000000000000000     
   1.0000000000000000       0.84375000000000000        0.0000000000000000     
   1.0312500000000000       0.84375000000000000        0.0000000000000000     
   1.0625000000000000       0.84375000000000000        0.0000000000000000     
   1.0937500000000000       0.84375000000000000        0.0000000000000000     
   1.1250000000000000       0.84375000000000000        0.0000000000000000     
   1.0000000000000000       0.87500000000000000        0.0000000000000000     
   1.0312500000000000       0.87500000000000000        0.0000000000000000     
   1.0625000000000000       0.87500000000000000        0.0000000000000000     
   1.0937500000000000       0.87500000000000000        0.0000000000000000     
   1.1250000000000000       0.87500000000000000        0.0000000000000000     
   1.1250000000000000       0.75000000000000000        0.0000000000000000     
   1.1562500000000000       0.75000000000000000        0.0000000000000000     
   1.1875000000000000       0.75000000000000000        0.0000000000000000     
   1.2187500000000000       0.75000000000000000        0.0000000000000000     
   1.2500000000000000       0.75000000000000000        0.0000000000000000     
   1.1250000000000000       0.78125000000000000        0.0000000000000000     
   1.1562500000000000       0.78125000000000000        0.0000000000000000     
   1.1875000000000000       0.78125000000000000        0.0000000000000000     
   1.2187500000000000       0.78125000000000000        0.0000000000000000     
   1.2500000000000000       0.78125000000000000        0.0000000000000000     
   1.1250000000000000       0.81250000000000000        0.0000000000000000     
   1.1562500000000000       0.81250000000000000        0.0000000000000000     
   1.1875000000000000       0.81250000000000000        0.0000000000000000     
   1.2187500000000000       0.81250000000000000        0.0000000000000000     
   1.2500000000000000       0.81250000000000000        0.0000000000000000     
   1.1250000000000000       0.84375000000000000        0.0000000000000000     
   1.1562500000000000       0.84375000000000000        0.0000000000000000     
   1.1875000000000000       0.84375000000000000        0.0000000000000000     
   1.2187500000000000       0.84375000000000000        0.0000000000000000     
   1.2500000000000000       0.84375000000000000        0.0000000000000000     
   1.1250000000000000       0.87500000000000000        0.0000000000000000     
   1.1562500000000000       0.87500000000000000        0.0000000000000000     
   1.1875000000000000       0.87500000000000000        0.0000000000000000     
   1.2187500000000000       0.87500000000000000        0.0000000000000000     
   1.2500000000000000       0.87500000000000000        0.0000000000000000     
   1.2500000000000000       0.75000000000000000        0.0000000000000000     
   1.2812500000000000       0.75000000000000000        0.0000000000000000     
   1.3125000000000000       0.75000000000000000        0.0000000000000000     
   1.3437500000000000       0.75000000000000000        0.0000000000000000     
   1.3750000000000000       0.75000000000000000        0.0000000000000000     
   1.2500000000000000       0.78125000000000000        0.0000000000000000     
   1.2812500000000000       0.78125000000000000        0.0000000000000000     
   1.3125000000000000       0.78125000000000000        0.0000000000000000     
   1.3437500000000000       0.78125000000000000        0.0000000000000000     
   1.3750000000000000       0.78125000000000000        0.0000000000000000     
   1.2500000000000000       0.81250000000000000        0.0000000000000000     
   1.2812500000000000       0.81250000000000000        0.0000000000000000     
   1.3125000000000000       0.81250000000000000        0.0000000000000000     
   1.3437500000000000       0.81250000000000000        0.0000000000000000     
   1.3750000000000000       0.81250000000000000        0.0000000000000000     
   1.2500000000000000       0.84375000000000000        0.0000000000000000     
   1.2812500000000000       0.84375000000000000        0.0000000000000000     
   1.3125000000000000       0.84375000000000000        0.0000000000000000     
   1.3437500000000000       0.84375000000000000        0.0000000000000000     
   1.3750000000000000       0.84375000000000000        0.0000000000000000     
   1.2500000000000000       0.87500000000000000        0.0000000000000000     
   1.2812500000000000       0.87500000000000000        0.0000000000000000     
   1.3125000000000000       0.87500000000000000        0.0000000000000000     
   1.3437500000000000       0.87500000000000000        0.0000000000000000     
   1.3750000000000000       0.87500000000000000        0.0000000000000000     
   1.3750000000000000       0.75000000000000000        0.0000000000000000     
   1.4062500000000000       0.75000000000000000        0.0000000000000000     
   1.4375000000000000       0.75000000000000000        0.0000000000000000     
   1.4687500000000000       0.75000000000000000        0.0000000000000000     
   1.5000000000000000       0.75000000000000000        0.0000000000000000     
   1.3750000000000000       0.78125000000000000        0.0000000000000000     
   1.4062500000000000       0.78125000000000000        0.0000000000000000     
   1.4375000000000000       0.78125000000000000        0.0000000000000000     
   1.4687500000000000       0.78125000000000000        0.0000000000000000     
   1.5000000000000000       0.78125000000000000        0.0000000000000000     
   1.3750000000000000       0.81250000000000000        0.0000000000000000     
   1.4062500000000000       0.81250000000000000        0.0000000000000000     
   1.4375000000000000       0.81250000000000000        0.0000000000000000     
   1.4687500000000000       0.81250000000000000        0.0000000000000000     
   1.5000000000000000       0.81250000000000000        0.0000000000000000     
   1.3750000000000000       0.84375000000000000        0.0000000000000000     
   1.4062500000000000       0.84375000000000000        0.0000000000000000     
   1.4375000000000000       0.84375000000000000        0.0000000000000000     
   1.4687500000000000       0.84375000000000000        0.0000000000000000     
   1.5000000000000000       0.84375000000000000        0.0000000000000000     
   1.3750000000000000       0.87500000000000000        0.0000000000000000     
   1.4062500000000000       0.87500000000000000        0.0000000000000000     
   1.4375000000000000       0.87500000000000000        0.0000000000000000     
   1.4687500000000000       0.87500000000000000        0.0000000000000000     
   1.5000000000000000       0.87500000000000000        0.0000000000000000     
  0.50000000000000000       0.87500000000000000        0.0000000000000000     
  0.53125000000000000       0.87500000000000000        0.0000000000000000     
  0.56250000000000000       0.87500000000000000        0.0000000000000000     
  0.59375000000000000       0.87500000000000000        0.0000000000000000     
  0.62500000000000000       0.87500000000000000        0.0000000000000000     
  0.50000000000000000       0.90625000000000000        0.0000000000000000     
  0.53125000000000000       0.90625000000000000        0.0000000000000000     
  0.56250000000000000       0.90625000000000000        0.0000000000000000     
  0.59375000000000000       0.90625000000000000        0.0000000000000000     
  0.62500000000000000       0.90625000000000000        0.0000000000000000     
  0.50000000000000000       0.93750000000000000        0.0000000000000000     
  0.53125000000000000       0.93750000000000000        0.0000000000000000     
  0.56250000000000000       0.93750000000000000        0.0000000000000000     
  0.59375000000000000       0.93750000000000000        0.0000000000000000     
  0.62500000000000000       0.93750000000000000        0.0000000000000000     
  0.50000000000000000       0.96875000000000000        0.0000000000000000     
  0.53125000000000000       0.96875000000000000        0.0000000000000000     
  0.56250000000000000       0.96875000000000000        0.0000000000000000     
  0.59375000000000000       0.96875000000000000        0.0000000000000000     
  0.62500000000000000       0.96875000000000000        0.0000000000000000     
  0.50000000000000000        1.0000000000000000        0.0000000000000000     
  0.53125000000000000        1.0000000000000000        0.0000000000000000     
  0.56250000000000000        1.0000000000000000        0.0000000000000000     
  0.59375000000000000        1.0000000000000000        0.0000000000000000     
  0.62500000000000000        1.0000000000000000        0.0000000000000000     
  0.62500000000000000       0.87500000000000000        0.0000000000000000     
  0.65625000000000000       0.87500000000000000        0.0000000000000000     
  0.68750000000000000       0.87500000000000000        0.0000000000000000     
  0.71875000000000000       0.87500000000000000        0.0000000000000000     
  0.75000000000000000       0.87500000000000000        0.0000000000000000     
  0.62500000000000000       0.90625000000000000        0.0000000000000000     
  0.65625000000000000       0.90625000000000000        0.0000000000000000     
  0.68750000000000000       0.90625000000000000        0.0000000000000000     
  0.71875000000000000       0.90625000000000000        0.0000000000000000     
  0.75000000000000000       0.90625000000000000        0.0000000000000000     
  0.62500000000000000       0.93750000000000000        0.0000000000000000     
  0.65625000000000000       0.93750000000000000        0.0000000000000000     
  0.68750000000000000       0.93750000000000000        0.0000000000000000     
  0.71875000000000000       0.93750000000000000        0.0000000000000000     
  0.75000000000000000       0.93750000000000000        0.0000000000000000     
  0.62500000000000000       0.96875000000000000        0.0000000000000000     
  0.65625000000000000       0.96875000000000000        0.0000000000000000     
  0.68750000000000000       0.96875000000000000        0.0000000000000000     
  0.71875000000000000       0.96875000000000000        0.0000000000000000     
  0.75000000000000000       0.96875000000000000        0.0000000000000000     
  0.62500000000000000        1.0000000000000000        0.0000000000000000     
  0.65625000000000000        1.0000000000000000        0.0000000000000000     
  0.68750000000000000        1.0000000000000000        0.0000000000000000     
  0.71875000000000000        1.0000000000000000        0.0000000000000000     
  0.75000000000000000        1.0000000000000000        0.0000000000000000     
  0.75000000000000000       0.87500000000000000        0.0000000000000000     
  0.78125000000000000       0.87500000000000000        0.0000000000000000     
  0.81250000000000000       0.87500000000000000        0.0000000000000000     
  0.84375000000000000       0.87500000000000000        0.0000000000000000     
  0.87500000000000000       0.87500000000000000        0.0000000000000000     
  0.75000000000000000       0.90625000000000000        0.0000000000000000     
  0.78125000000000000       0.90625000000000000        0.0000000000000000     
  0.81250000000000000       0.90625000000000000        0.0000000000000000     
  0.84375000000000000       0.90625000000000000        0.0000000000000000     
  0.87500000000000000       0.90625000000000000        0.0000000000000000     
  0.75000000000000000       0.93750000000000000        0.0000000000000000     
  0.78125000000000000       0.93750000000000000        0.0000000000000000     
  0.81250000000000000       0.93750000000000000        0.0000000000000000     
  0.84375000000000000       0.93750000000000000        0.0000000000000000     
  0.87500000000000000       0.93750000000000000        0.0000000000000000     
  0.75000000000000000       0.96875000000000000        0.0000000000000000     
  0.78125000000000000       0.96875000000000000        0.0000000000000000     
  0.81250000000000000       0.96875000000000000        0.0000000000000000     
  0.84375000000000000       0.96875000000000000        0.0000000000000000     
  0.87500000000000000       0.96875000000000000        0.0000000000000000     
  0.75000000000000000        1.0000000000000000        0.0000000000000000     
  0.78125000000000000        1.0000000000000000        0.0000000000000000     
  0.81250000000000000        1.0000000000000000        0.0000000000000000     
  0.84375000000000000        1.0000000000000000        0.0000000000000000     
  0.87500000000000000        1.0000000000000000        0.0000000000000000     
  0.87500000000000000       0.87500000000000000        0.0000000000000000     
  0.90625000000000000       0.87500000000000000        0.0000000000000000     
  0.93750000000000000       0.87500000000000000        0.0000000000000000     
  0.96875000000000000       0.87500000000000000        0.0000000000000000     
   1.0000000000000000       0.87500000000000000        0.0000000000000000     
  0.87500000000000000       0.90625000000000000        0.0000000000000000     
  0.90625000000000000       0.90625000000000000        0.0000000000000000     
  0.93750000000000000       0.90625000000000000        0.0000000000000000     
  0.96875000000000000       0.90625000000000000        0.0000000000000000     
   1.0000000000000000       0.90625000000000000        0.0000000000000000     
  0.87500000000000000       0.93750000000000000        0.0000000000000000     
  0.90625000000000000       0.93750000000000000        0.0000000000000000     
  0.93750000000000000       0.93750000000000000        0.0000000000000000     
  0.96875000000000000       0.93750000000000000        0.0000000000000000     
   1.0000000000000000       0.93750000000000000        0.0000000000000000     
  0.87500000000000000       0.96875000000000000        0.0000000000000000     
  0.90625000000000000       0.96875000000000000        0.0000000000000000     
  0.93750000000000000       0.96875000000000000        0.0000000000000000     
  0.96875000000000000       0.96875000000000000        0.0000000000000000     
   1.0000000000000000       0.96875000000000000        0.0000000000000000     
  0.87500000000000000        1.0000000000000000        0.0000000000000000     
  0.90625000000000000        1.0000000000000000        0.0000000000000000     
  0.93750000000000000        1.0000000000000000        0.0000000000000000     
  0.96875000000000000        1.0000000000000000        0.0000000000000000     
   1.0000000000000000        1.0000000000000000        0.0000000000000000     
   1.0000000000000000       0.87500000000000000        0.0000000000000000     
   1.0312500000000000       0.87500000000000000        0.0000000000000000     
   1.0625000000000000       0.87500000000000000        0.0000000000000000     
   1.0937500000000000       0.87500000000000000        0.0000000000000000     
   1.1250000000000000       0.87500000000000000        0.0000000000000000     
   1.0000000000000000       0.90625000000000000        0.0000000000000000     
   1.0312500000000000       0.90625000000000000        0.0000000000000000     
   1.0625000000000000       0.90625000000000000        0.0000000000000000     
   1.0937500000000000       0.90625000000000000        0.0000000000000000     
   1.1250000000000000       0.90625000000000000        0.0000000000000000     
   1.0000000000000000       0.93750000000000000        0.0000000000000000     
   1.0312500000000000       0.93750000000000000        0.0000000000000000     
   1.0625000000000000       0.93750000000000000        0.0000000000000000     
   1.0937500000000000       0.93750000000000000        0.0000000000000000     
   1.1250000000000000       0.93750000000000000        0.0000000000000000     
   1.0000000000000000       0.96875000000000000        0.0000000000000000     
   1.0312500000000000       0.96875000000000000        0.0000000000000000     
   1.0625000000000000       0.96875000000000000        0.0000000000000000     
   1.0937500000000000       0.96875000000000000        0.0000000000000000     
   1.1250000000000000       0.96875000000000000        0.0000000000000000     
   1.0000000000000000        1.0000000000000000        0.0000000000000000     
   1.0312500000000000        1.0000000000000000        0.0000000000000000     
   1.0625000000000000        1.0000000000000000        0.0000000000000000     
   1.0937500000000000        1.0000000000000000        0.0000000000000000     
   1.1250000000000000        1.0000000000000000        0.0000000000000000     
   1.1250000000000000       0.87500000000000000        0.0000000000000000     
   1.1562500000000000       0.87500000000000000        0.0000000000000000     
   1.1875000000000000       0.87500000000000000        0.0000000000000000     
   1.2187500000000000       0.87500000000000000        0.0000000000000000     
   1.2500000000000000       0.87500000000000000        0.0000000000000000     
   1.1250000000000000       0.90625000000000000        0.0000000000000000     
   1.1562500000000000       0.90625000000000000        0.0000000000000000     
   1.1875000000000000       0.90625000000000000        0.0000000000000000     
   1.2187500000000000       0.90625000000000000        0.0000000000000000     
   1.2500000000000000       0.90625000000000000        0.0000000000000000     
   1.1250000000000000       0.93750000000000000        0.0000000000000000     
   1.1562500000000000       0.93750000000000000        0.0000000000000000     
   1.1875000000000000       0.93750000000000000        0.0000000000000000     
   1.2187500000000000       0.93750000000000000        0.0000000000000000     
   1.2500000000000000       0.93750000000000000        0.0000000000000000     
   1.1250000000000000       0.96875000000000000        0.0000000000000000     
   1.1562500000000000       0.96875000000000000        0.0000000000000000     
   1.1875000000000000       0.96875000000000000        0.0000000000000000     
   1.2187500000000000       0.96875000000000000        0.0000000000000000     
   1.2500000000000000       0.96875000000000000        0.0000000000000000     
   1.1250000000000000        1.0000000000000000        0.0000000000000000     
   1.1562500000000000        1.0000000000000000        0.0000000000000000     
   1.1875000000000000        1.0000000000000000        0.0000000000000000     
   1.2187500000000000        1.0000000000000000        0.0000000000000000     
   1.2500000000000000        1.0000000000000000        0.0000000000000000     
   1.2500000000000000       0.87500000000000000        0.0000000000000000     
   1.2812500000000000       0.87500000000000000        0.0000000000000000     
   1.3125000000000000       0.87500000000000000        0.0000000000000000     
   1.3437500000000000       0.87500000000000000        0.0000000000000000     
   1.3750000000000000       0.87500000000000000        0.0000000000000000     
   1.2500000000000000       0.90625000000000000        0.0000000000000000     
   1.2812500000000000       0.90625000000000000        0.0000000000000000     
   1.3125000000000000       0.90625000000000000        0.0000000000000000     
   1.3437500000000000       0.90625000000000000        0.0000000000000000     
   1.3750000000000000       0.90625000000000000        0.0000000000000000     
   1.2500000000000000       0.93750000000000000        0.0000000000000000     
   1.2812500000000000       0.93750000000000000        0.0000000000000000     
   1.3125000000000000       0.93750000000000000        0.0000000000000000     
   1.3437500000000000       0.93750000000000000        0.0000000000000000     
   1.3750000000000000       0.93750000000000000        0.0000000000000000     
   1.2500000000000000       0.96875000000000000        0.0000000000000000     
   1.2812500000000000       0.96875000000000000        0.0000000000000000     
   1.3125000000000000       0.96875000000000000        0.0000000000000000     
   1.3437500000000000       0.96875000000000000        0.0000000000000000     
   1.3750000000000000       0.96875000000000000        0.0000000000000000     
   1.2500000000000000        1.0000000000000000        0.0000000000000000     
   1.2812500000000000        1.0000000000000000        0.0000000000000000     
   1.3125000000000000        1.0000000000000000        0.0000000000000000     
   1.3437500000000000        1.0000000000000000        0.0000000000000000     
   1.3750000000000000        1.0000000000000000        0.0000000000000000     
   1.3750000000000000       0.87500000000000000        0.0000000000000000     
   1.4062500000000000       0.87500000000000000        0.0000000000000000     
   1.4375000000000000       0.87500000000000000        0.0000000000000000     
   1.4687500000000000       0.87500000000000000        0.0000000000000000     
   1.5000000000000000       0.87500000000000000        0.0000000000000000     
   1.3750000000000000       0.90625000000000000        0.0000000000000000     
   1.4062500000000000       0.90625000000000000        0.0000000000000000     
   1.4375000000000000       0.90625000000000000        0.0000000000000000     
   1.4687500000000000       0.90625000000000000        0.0000000000000000     
   1.5000000000000000       0.90625000000000000        0.0000000000000000     
   1.3750000000000000       0.93750000000000000        0.0000000000000000     
   1.4062500000000000       0.93750000000000000        0.0000000000000000     
   1.4375000000000000       0.93750000000000000        0.0000000000000000     
   1.4687500000000000       0.93750000000000000        0.0000000000000000     
   1.5000000000000000       0.93750000000000000        0.0000000000000000     
   1.3750000000000000       0.96875000000000000        0.0000000000000000     
   1.4062500000000000       0.96875000000000000        0.0000000000000000     
   1.4375000000000000       0.96875000000000000        0.0000000000000000     
   1.4687500000000000       0.96875000000000000        0.0000000000000000     
   1.5000000000000000       0.96875000000000000        0.0000000000000000     
   1.3750000000000000        1.0000000000000000        0.0000000000000000     
   1.4062500000000000        1.0000000000000000        0.0000000000000000     
   1.4375000000000000        1.0000000000000000        0.0000000000000000     
   1.4687500000000000        1.0000000000000000        0.0000000000000000     
   1.5000000000000000        1.0000000000000000        0.0000000000000000     
 </DataArray>
 </Points>
 <Cells>
 <DataArray  type="Int32"  Name="connectivity"  format="ascii">
           0           1           6           5
           1           2           7           6
           2           3           8           7
           3           4           9           8
           5           6          11          10
           6           7          12          11
           7           8          13          12
           8           9          14          13
          10          11          16          15
          11          12          17          16
          12          13          18          17
          13          14          19          18
          15          16          21          20
          16          17          22          21
          17          18          23          22
          18          19          24          23
          25          26          31          30
          26          27          32          31
          27          28          33          32
          28          29          34          33
          30          31          36          35
          31          32          37          36
          32          33          38          37
          33          34          39          38
          35          36          41          40
          36          37          42          41
          37          38          43          42
          38          39          44          43
          40          41          46          45
          41          42          47          46
          42          43          48          47
          43          44          49          48
          50          51          56          55
          51          52          57          56
          52          53          58          57
          53          54          59          58
          55          56          61          60
          56          57          62          61
          57          58          63          62
          58          59          64          63
          60          61          66          65
          61          62          67          66
          62          63          68          67
          63          64          69          68
          65          66          71          70
          66          67          72          71
          67          68          73          72
          68          69          74          73
          75          76          81          80
          76          77          82          81
          77          78          83          82
          78          79          84          83
          80          81          86          85
          81          82          87          86
          82          83          88          87
          83          84          89          88
          85          86          91          90
          86          87          92          91
          87          88          93          92
          88          89          94          93
          90          91          96          95
          91          92          97          96
          92          93          98          97
          93          94          99          98
         100         101         106         105
         101         102         107         106
         102         103         108         107
         103         104         109         108
         105         106         111         110
         106         107         112         111
         107         108         113         112
         108         109         114         113
         110         111         116         115
         111         112         117         116
         112         113         118         117
         113         114         119         118
         115         116         121         120
         116         117         122         121
         117         118         123         122
         118         119         124         123
         125         126         131         130
         126         127         132         131
         127         128         133         132
         128         129         134         133
         130         131         136         135
         131         132         137         136
         132         133         138         137
         133         134         139         138
         135         136         141         140
         136         137         142         141
         137         138         143         142
         138         139         144         143
         140         141         146         145
         141         142         147         146
         142         143         148         147
         143         144         149         148
         150         151         156         155
         151         152         157         156
         152         153         158         157
         153         154         159         158
         155         156         161         160
         156         157         162         161
         157         158         163         162
         158         159         164         163
         160         161         166         165
         161         162         167         166
         162         163         168         167
         163         164         169         168
         165         166         171         170
         166         167         172         171
         167         168         173         172
         168         169         174         173
         175         176         181         180
         176         177         182         181
         177         178         183         182
         178         179         184         183
         180         181         186         185
         181         182         187         186
         182         183         188         187
         183         184         189         188
         185         186         191         190
         186         187         192         191
         187         188         193         192
         188         189         194         193
         190         191         196         195
         191         192         197         196
         192         193         198         197
         193         194         199         198
         200         201         206         205
         201         202         207         206
         202         203         208         207
         203         204         209         208
         205         206         211         210
         206         207         212         211
         207         208         213         212
         208         209         214         213
         210         211         216         215
         211         212         217         216
         212         213         218         217
         213         214         219         218
         215         216         221         220
         216         217         222         221
         217         218         223         222
         218         219         224         223
         225         226         231         230
         226         227         232         231
         227         228         233         232
         228         229         234         233
         230         231         236         235
         231         232         237         236
         232         233         238         237
         233         234         239         238
         235         236         241         240
         236         237         242         241
         237         238         243         242
         238         239         244         243
         240         241         246         245
         241         242         247         246
         242         243         248         247
         243         244         249         248
         250         251         256         255
         251         252         257         256
         252         253         258         257
         253         254         259         258
         255         256         261         260
         256         257         262         261
         257         258         263         262
         258         259         264         263
         260         261         266         265
         261         262         267         266
         262         263         268         267
         263         264         269         268
         265         266         271         270
         266         267         272         271
         267         268         273         272
         268         269         274         273
         275         276         281         280
         276         277         282         281
         277         278         283         282
         278         279         284         283
         280         281         286         285
         281         282         287         286
         282         283         288         287
         283         284         289         288
         285         286         291         290
         286         287         292         291
         287         288         293         292
         288         289         294         293
         290         291         296         295
         291         292         297         296
         292         293         298         297
         293         294         299         298
         300         301         306         305
         301         302         307         306
         302         303         308         307
         303         304         309         308
         305         306         311         310
         306         307         312         311
         307         308         313         312
         308         309         314         313
         310         311         316         315
         311         312         317         316
         312         313         318         317
         313         314         319         318
         315         316         321         320
         316         317         322         321
         317         318         323         322
         318         319         324         323
         325         326         331         330
         326         327         332         331
         327         328         333         332
         328         329         334         333
         330         331         336         335
         331         332         337         336
         332         333         338         337
         333         334         339         338
         335         336         341         340
         336         337         342         341
         337         338         343         342
         338         339         344         343
         340         341         346         345
         341         342         347         346
         342         343         348         347
         343         344         349         348
         350         351         356         355
         351         352         357         356
         352         353         358         357
         353         354         359         358
         355         356         361         360
         356         357         362         361
         357         358         363         362
         358         359         364         363
         360         361         366         365
         361         362         367         366
         362         363         368         367
         363         364         369         368
         365         366         371         370
         366         367         372         371
         367         368         373         372
         368         369         374         373
         375         376         381         380
         376         377         382         381
         377         378         383         382
         378         379         384         383
         380         381         386         385
         381         382         387         386
         382         383         388         387
         383         384         389         388
         385         386         391         390
         386         387         392         391
         387         388         393         392
         388         389         394         393
         390         391         396         395
         391         392         397         396
         392         393         398         397
         393         394         399         398
         400         401         406         405
         401         402         407         406
         402         403         408         407
         403         404         409         408
         405         406         411         410
         406         407         412         411
         407         408         413         412
         408         409         414         413
         410         411         416         415
         411         412         417         416
         412         413         418         417
         413         414         419         418
         415         416         421         420
         416         417         422         421
         417         418         423         422
         418         419         424         423
         425         426         431         430
         426         427         432         431
         427         428         433         432
         428         429         434         433
         430         431         436         435
         431         432         437         436
         432         433         438         437
         433         434         439         438
         435         436         441         440
         436         437         442         441
         437         438         443         442
         438         439         444         443
         440         441         446         445
         441         442         447         446
         442         443         448         447
         443         444         449         448
         450         451         456         455
         451         452         457         456
         452         453         458         457
         453         454         459         458
         455         456         461         460
         456         457         462         461
         457         458         463         462
         458         459         464         463
         460         461         466         465
         461         462         467         466
         462         463         468         467
         463         464         469         468
         465         466         471         470
         466         467         472         471
         467         468         473         472
         468         469         474         473
         475         476         481         480
         476         477         482         481
         477         478         483         482
         478         479         484         483
         480         481         486         485
         481         482         487         486
         482         483         488         487
         483         484         489         488
         485         486         491         490
         486         487         492         491
         487         488         493         492
         488         489         494         493
         490         491         496         495
         491         492         497         496
         492         493         498         497
         493         494         499         498
         500         501         506         505
         501         502         507         506
         502         503         508         507
         503         504         509         508
         505         506         511         510
         506         507         512         511
         507         508         513         512
         508         509         514         513
         510         511         516         515
         511         512         517         516
         512         513         518         517
         513         514         519         518
         515         516         521         520
         516         517         522         521
         517         518         523         522
         518         519         524         523
         525         526         531         530
         526         527         532         531
         527         528         533         532
         528         529         534         533
         530         531         536         535
         531         532         537         536
         532         533         538         537
         533         534         539         538
         535         536         541         540
         536         537         542         541
         537         538         543         542
         538         539         544         543
         540         541         546         545
         541         542         547         546
         542         543         548         547
         543         544         549         548
         550         551         556         555
         551         552         557         556
         552         553         558         557
         553         554         559         558
         555         556         561         560
         556         557         562         561
         557         558         563         562
         558         559         564         563
         560         561         566         565
         561         562         567         566
         562         563         568         567
         563         564         569         568
         565         566         571         570
         566         567         572         571
         567         568         573         572
         568         569         574         573
         575         576         581         580
         576         577         582         581
         577         578         583         582
         578         579         584         583
         580         581         586         585
         581         582         587         586
         582         583         588         587
         583         584         589         588
         585         586         591         590
         586         587         592         591
         587         588         593         592
         588         589         594         593
         590         591         596         595
         591         592         597         596
         592         593         598         597
         593         594         599         598
         600         601         606         605
         601         602         607         606
         602         603         608         607
         603         604         609         608
         605         606         611         610
         606         607         612         611
         607         608         613         612
         608         609         614         613
         610         611         616         615
         611         612         617         616
         612         613         618         617
         613         614         619         618
         615         616         621         620
         616         617         622         621
         617         618         623         622
         618         619         624         623
         625         626         631         630
         626         627         632         631
         627         628         633         632
         628         629         634         633
         630         631         636         635
         631         632         637         636
         632         633         638         637
         633         634         639         638
         635         636         641         640
         636         637         642         641
         637         638         643         642
         638         639         644         643
         640         641         646         645
         641         642         647         646
         642         643         648         647
         643         644         649         648
         650         651         656         655
         651         652         657         656
         652         653         658         657
         653         654         659         658
         655         656         661         660
         656         657         662         661
         657         658         663         662
         658         659         664         663
         660         661         666         665
         661         662         667         666
         662         663         668         667
         663         664         669         668
         665         666         671         670
         666         667         672         671
         667         668         673         672
         668         669         674         673
         675         676         681         680
         676         677         682         681
         677         678         683         682
         678         679         684         683
         680         681         686         685
         681         682         687         686
         682         683         688         687
         683         684         689         688
         685         686         691         690
         686         687         692         691
         687         688         693         692
         688         689         694         693
         690         691         696         695
         691         692         697         696
         692         693         698         697
         693         694         699         698
         700         701         706         705
         701         702         707         706
         702         703         708         707
         703         704         709         708
         705         706         711         710
         706         707         712         711
         707         708         713         712
         708         709         714         713
         710         711         716         715
         711         712         717         716
         712         713         718         717
         713         714         719         718
         715         716         721         720
         716         717         722         721
         717         718         723         722
         718         719         724         723
         725         726         731         730
         726         727         732         731
         727         728         733         732
         728         729         734         733
         730         731         736         735
         731         732         737         736
         732         733         738         737
         733         734         739         738
         735         736         741         740
         736         737         742         741
         737         738         743         742
         738         739         744         743
         740         741         746         745
         741         742         747         746
         742         743         748         747
         743         744         749         748
         750         751         756         755
         751         752         757         756
         752         753         758         757
         753         754         759         758
         755         756         761         760
         756         757         762         761
         757         758         763         762
         758         759         764         763
         760         761         766         765
         761         762         767         766
         762         763         768         767
         763         764         769         768
         765         766         771         770
         766         767         772         771
         767         768         773         772
         768         769         774         773
         775         776         781         780
         776         777         782         781
         777         778         783         782
         778         779         784         783
         780         781         786         785
         781         782         787         786
         782         783         788         787
         783         784         789         788
         785         786         791         790
         786         787         792         791
         787         788         793         792
         788         789         794         793
         790         791         796         795
         791         792         797         796
         792         793         798         797
         793         794         799         798
         800         801         806         805
         801         802         807         806
         802         803         808         807
         803         804         809         808
         805         806         811         810
         806         807         812         811
         807         808         813         812
         808         809         814         813
         810         811         816         815
         811         812         817         816
         812         813         818         817
         813         814         819         818
         815         816         821         820
         816         817         822         821
         817         818         823         822
         818         819         824         823
         825         826         831         830
         826         827         832         831
         827         828         833         832
         828         829         834         833
         830         831         836         835
         831         832         837         836
         832         833         838         837
         833         834         839         838
         835         836         841         840
         836         837         842         841
         837         838         843         842
         838         839         844         843
         840         841         846         845
         841         842         847         846
         842         843         848         847
         843         844         849         848
         850         851         856         855
         851         852         857         856
         852         853         858         857
         853         854         859         858
         855         856         861         860
         856         857         862         861
         857         858         863         862
         858         859         864         863
         860         861         866         865
         861         862         867         866
         862         863         868         867
         863         864         869         868
         865         866         871         870
         866         867         872         871
         867         868         873         872
         868         869         874         873
         875         876         881         880
         876         877         882         881
         877         878         883         882
         878         879         884         883
         880         881         886         885
         881         882         887         886
         882         883         888         887
         883         884         889         888
         885         886         891         890
         886         887         892         891
         887         888         893         892
         888         889         894         893
         890         891         896         895
         891         892         897         896
         892         893         898         897
         893         894         899         898
         900         901         906         905
         901         902         907         906
         902         903         908         907
         903         904         909         908
         905         906         911         910
         906         907         912         911
         907         908         913         912
         908         909         914         913
         910         911         916         915
         911         912         917         916
         912         913         918         917
         913         914         919         918
         915         916         921         920
         916         917         922         921
         917         918         923         922
         918         919         924         923
         925         926         931         930
         926         927         932         931
         927         928         933         932
         928         929         934         933
         930         931         936         935
         931         932         937         936
         932         933         938         937
         933         934         939         938
         935         936         941         940
         936         937         942         941
         937         938         943         942
         938         939         944         943
         940         941         946         945
         941         942         947         946
         942         943         948         947
         943         944         949         948
         950         951         956         955
         951         952         957         956
         952         953         958         957
         953         954         959         958
         955         956         961         960
         956         957         962         961
         957         958         963         962
         958         959         964         963
         960         961         966         965
         961         962         967         966
         962         963         968         967
         963         964         969         968
         965         966         971         970
         966         967         972         971
         967         968         973         972
         968         969         974         973
         975         976         981         980
         976         977         982         981
         977         978         983         982
         978         979         984         983
         980         981         986         985
         981         982         987         986
         982         983         988         987
         983         984         989         988
         985         986         991         990
         986         987         992         991
         987         988         993         992
         988         989         994         993
         990         991         996         995
         991         992         997         996
         992         993         998         997
         993         994         999         998
        1000        1001        1006        1005
        1001        1002        1007        1006
        1002        1003        1008        1007
        1003        1004        1009        1008
        1005        1006        1011        1010
        1006        1007        1012        1011
        1007        1008        1013        1012
        1008        1009        1014        1013
        1010        1011        1016        1015
        1011        1012        1017        1016
        1012        1013        1018        1017
        1013        1014        1019        1018
        1015        1016        1021        1020
        1016        1017        1022        1021
        1017        1018        1023        1022
        1018        1019        1024        1023
        1025        1026        1031        1030
        1026        1027        1032        1031
        1027        1028        1033        1032
        1028        1029        1034        1033
        1030        1031        1036        1035
        1031        1032        1037        1036
        1032        1033        1038        1037
        1033        1034        1039        1038
        1035        1036        1041        1040
        1036        1037        1042        1041
        1037        1038        1043        1042
        1038        1039        1044        1043
        1040        1041        1046        1045
        1041        1042        1047        1046
        1042        1043        1048        1047
        1043        1044        1049        1048
        1050        1051        1056        1055
        1051        1052        1057        1056
        1052        1053        1058        1057
        1053        1054        1059        1058
        1055        1056        1061        1060
        1056        1057        1062        1061
        1057        1058        1063        1062
        1058        1059        1064        1063
        1060        1061        1066        1065
        1061        1062        1067        1066
        1062        1063        1068        1067
        1063        1064        1069        1068
        1065        1066        1071        1070
        1066        1067        1072        1071
        1067        1068        1073        1072
        1068        1069        1074        1073
        1075        1076        1081        1080
        1076        1077        1082        1081
        1077        1078        1083        1082
        1078        1079        1084        1083
        1080        1081        1086        1085
        1081        1082        1087        1086
        1082        1083        1088        1087
        1083        1084        1089        1088
        1085        1086        1091        1090
        1086        1087        1092        1091
        1087        1088        1093        1092
        1088        1089        1094        1093
        1090        1091        1096        1095
        1091        1092        1097        1096
        1092        1093        1098        1097
        1093        1094        1099        1098
        1100        1101        1106        1105
        1101        1102        1107        1106
        1102        1103        1108        1107
        1103        1104        1109        1108
        1105        1106        1111        1110
        1106        1107        1112        1111
        1107        1108        1113        1112
        1108        1109        1114        1113
        1110        1111        1116        1115
        1111        1112        1117        1116
        1112        1113        1118        1117
        1113        1114        1119        1118
        1115        1116        1121        1120
        1116        1117        1122        1121
        1117        1118        1123        1122
        1118        1119        1124        1123
        1125        1126        1131        1130
        1126        1127        1132        1131
        1127        1128        1133        1132
        1128        1129        1134        1133
        1130        1131        1136        1135
        1131        1132        1137        1136
        1132        1133        1138        1137
        1133        1134        1139        1138
        1135        1136        1141        1140
        1136        1137        1142        1141
        1137        1138        1143        1142
        1138        1139        1144        1143
        1140        1141        1146        1145
        1141        1142        1147        1146
        1142        1143        1148        1147
        1143        1144        1149        1148
        1150        1151        1156        1155
        1151        1152        1157        1156
        1152        1153        1158        1157
        1153        1154        1159        1158
        1155        1156        1161        1160
        1156        1157        1162        1161
        1157        1158        1163        1162
        1158        1159        1164        1163
        1160        1161        1166        1165
        1161        1162        1167        1166
        1162        1163        1168        1167
        1163        1164        1169        1168
        1165        1166        1171        1170
        1166        1167        1172        1171
        1167        1168        1173        1172
        1168        1169        1174        1173
        1175        1176        1181        1180
        1176        1177        1182        1181
        1177        1178        1183        1182
        1178        1179        1184        1183
        1180        1181        1186        1185
        1181        1182        1187        1186
        1182        1183        1188        1187
        1183        1184        1189        1188
        1185        1186        1191        1190
        1186        1187        1192        1191
        1187        1188        1193        1192
        1188        1189        1194        1193
        1190        1191        1196        1195
        1191        1192        1197        1196
        1192        1193        1198        1197
        1193        1194        1199        1198
        1200        1201        1206        1205
        1201        1202        1207        1206
        1202        1203        1208        1207
        1203        1204        1209        1208
        1205        1206        1211        1210
        1206        1207        1212        1211
        1207        1208        1213        1212
        1208        1209        1214        1213
        1210        1211        1216        1215
        1211        1212        1217        1216
        1212        1213        1218        1217
        1213        1214        1219        1218
        1215        1216        1221        1220
        1216        1217        1222        1221
        1217        1218        1223        1222
        1218        1219        1224        1223
        1225        1226        1231        1230
        1226        1227        1232        1231
        1227        1228        1233        1232
        1228        1229        1234        1233
        1230        1231        1236        1235
        1231        1232        1237        1236
        1232        1233        1238        1237
        1233        1234        1239        1238
        1235        1236        1241        1240
        1236        1237        1242        1241
        1237        1238        1243        1242
        1238        1239        1244        1243
        1240        1241        1246        1245
        1241        1242        1247        1246
        1242        1243        1248        1247
        1243        1244        1249        1248
        1250        1251        1256        1255
        1251        1252        1257        1256
        1252        1253        1258        1257
        1253        1254        1259        1258
        1255        1256        1261        1260
        1256        1257        1262        1261
        1257        1258        1263        1262
        1258        1259        1264        1263
        1260        1261        1266        1265
        1261        1262        1267        1266
        1262        1263        1268        1267
        1263        1264        1269        1268
        1265        1266        1271        1270
        1266        1267        1272        1271
        1267        1268        1273        1272
        1268        1269        1274        1273
        1275        1276        1281        1280
        1276        1277        1282        1281
        1277        1278        1283        1282
        1278        1279        1284        1283
        1280        1281        1286        1285
        1281        1282        1287        1286
        1282        1283        1288        1287
        1283        1284        1289        1288
        1285        1286        1291        1290
        1286        1287        1292        1291
        1287        1288        1293        1292
        1288        1289        1294        1293
        1290        1291        1296        1295
        1291        1292        1297        1296
        1292        1293        1298        1297
        1293        1294        1299        1298
        1300        1301        1306        1305
        1301        1302        1307        1306
        1302        1303        1308        1307
        1303        1304        1309        1308
        1305        1306        1311        1310
        1306        1307        1312        1311
        1307        1308        1313        1312
        1308        1309        1314        1313
        1310        1311        1316        1315
        1311        1312        1317        1316
        1312        1313        1318        1317
        1313        1314        1319        1318
        1315        1316        1321        1320
        1316        1317        1322        1321
        1317        1318        1323        1322
        1318        1319        1324        1323
        1325        1326        1331        1330
        1326        1327        1332        1331
        1327        1328        1333        1332
        1328        1329        1334        1333
        1330        1331        1336        1335
        1331        1332        1337        1336
        1332        1333        1338        1337
        1333        1334        1339        1338
        1335        1336        1341        1340
        1336        1337        1342        1341
        1337        1338        1343        1342
        1338        1339        1344        1343
        1340        1341        1346        1345
        1341        1342        1347        1346
        1342        1343        1348        1347
        1343        1344        1349        1348
        1350        1351        1356        1355
        1351        1352        1357        1356
        1352        1353        1358        1357
        1353        1354        1359        1358
        1355        1356        1361        1360
        1356        1357        1362        1361
        1357        1358        1363        1362
        1358        1359        1364        1363
        1360        1361        1366        1365
        1361        1362        1367        1366
        1362        1363        1368        1367
        1363        1364        1369        1368
        1365        1366        1371        1370
        1366        1367        1372        1371
        1367        1368        1373        1372
        1368        1369        1374        1373
        1375        1376        1381        1380
        1376        1377        1382        1381
        1377        1378        1383        1382
        1378        1379        1384        1383
        1380        1381        1386        1385
        1381        1382        1387        1386
        1382        1383        1388        1387
        1383        1384        1389        1388
        1385        1386        1391        1390
        1386        1387        1392        1391
        1387        1388        1393        1392
        1388        1389        1394        1393
        1390        1391        1396        1395
        1391        1392        1397        1396
        1392        1393        1398        1397
        1393        1394        1399        1398
        1400        1401        1406        1405
        1401        1402        1407        1406
        1402        1403        1408        1407
        1403        1404        1409        1408
        1405        1406        1411        1410
        1406        1407        1412        1411
        1407        1408        1413        1412
        1408        1409        1414        1413
        1410        1411        1416        1415
        1411        1412        1417        1416
        1412        1413        1418        1417
        1413        1414        1419        1418
        1415        1416        1421        1420
        1416        1417        1422        1421
        1417        1418        1423        1422
        1418        1419        1424        1423
        1425        1426        1431        1430
        1426        1427        1432        1431
        1427        1428        1433        1432
        1428        1429        1434        1433
        1430        1431        1436        1435
        1431        1432        1437        1436
        1432        1433        1438        1437
        1433        1434        1439        1438
        1435        1436        1441        1440
        1436        1437        1442        1441
        1437        1438        1443        1442
        1438        1439        1444        1443
        1440        1441        1446        1445
        1441        1442        1447        1446
        1442        1443        1448        1447
        1443        1444        1449        1448
        1450        1451        1456        1455
        1451        1452        1457        1456
        1452        1453        1458        1457
        1453        1454        1459        1458
        1455        1456        1461        1460
        1456        1457        1462        1461
        1457        1458        1463        1462
        1458        1459        1464        1463
        1460        1461        1466        1465
        1461        1462        1467        1466
        1462        1463        1468        1467
        1463        1464        1469        1468
        1465        1466        1471        1470
        1466        1467        1472        1471
        1467        1468        1473        1472
        1468        1469        1474        1473
        1475        1476        1481        1480
        1476        1477        1482        1481
        1477        1478        1483        1482
        1478        1479        1484        1483
        1480        1481        1486        1485
        1481        1482        1487        1486
        1482        1483        1488        1487
        1483        1484        1489        1488
        1485        1486        1491        1490
        1486        1487        1492        1491
        1487        1488        1493        1492
        1488        1489        1494        1493
        1490        1491        1496        1495
        1491        1492        1497        1496
        1492        1493        1498        1497
        1493        1494        1499        1498
        1500        1501        1506        1505
        1501        1502        1507        1506
        1502        1503        1508        1507
        1503        1504        1509        1508
        1505        1506        1511        1510
        1506        1507        1512        1511
        1507        1508        1513        1512
        1508        1509        1514        1513
        1510        1511        1516        1515
        1511        1512        1517        1516
        1512        1513        1518        1517
        1513        1514        1519        1518
        1515        1516        1521        1520
        1516        1517        1522        1521
        1517        1518        1523        1522
        1518        1519        1524        1523
        1525        1526        1531        1530
        1526        1527        1532        1531
        1527        1528        1533        1532
        1528        1529        1534        1533
        1530        1531        1536        1535
        1531        1532        1537        1536
        1532        1533        1538        1537
        1533        1534        1539        1538
        1535        1536        1541        1540
        1536        1537        1542        1541
        1537        1538        1543        1542
        1538        1539        1544        1543
        1540        1541        1546        1545
        1541        1542        1547        1546
        1542        1543        1548        1547
        1543        1544        1549        1548
        1550        1551        1556        1555
        1551        1552        1557        1556
        1552        1553        1558        1557
        1553        1554        1559        1558
        1555        1556        1561        1560
        1556        1557        1562        1561
        1557        1558        1563        1562
        1558        1559        1564        1563
        1560        1561        1566        1565
        1561        1562        1567        1566
        1562        1563        1568        1567
        1563        1564        1569        1568
        1565        1566        1571        1570
        1566        1567        1572        1571
        1567        1568        1573        1572
        1568        1569        1574        1573
        1575        1576        1581        1580
        1576        1577        1582        1581
        1577        1578        1583        1582
        1578        1579        1584        1583
        1580        1581        1586        1585
        1581        1582        1587        1586
        1582        1583        1588        1587
        1583        1584        1589        1588
        1585        1586        1591        1590
        1586        1587        1592        1591
        1587        1588        1593        1592
        1588        1589        1594        1593
        1590        1591        1596        1595
        1591        1592        1597        1596
        1592        1593        1598        1597
        1593        1594        1599        1598
 </DataArray>
 <DataArray  type="Int32"  Name="offsets"  format="ascii"> 
           4
           8
          12
          16
          20
          24
          28
          32
          36
          40
          44
          48
          52
          56
          60
          64
          68
          72
          76
          80
          84
          88
          92
          96
         100
         104
         108
         112
         116
         120
         124
         128
         132
         136
         140
         144
         148
         152
         156
         160
         164
         168
         172
         176
         180
         184
         188
         192
         196
         200
         204
         208
         212
         216
         220
         224
         228
         232
         236
         240
         244
         248
         252
         256
         260
         264
         268
         272
         276
         280
         284
         288
         292
         296
         300
         304
         308
         312
         316
         320
         324
         328
         332
         336
         340
         344
         348
         352
         356
         360
         364
         368
         372
         376
         380
         384
         388
         392
         396
         400
         404
         408
         412
         416
         420
         424
         428
         432
         436
         440
         444
         448
         452
         456
         460
         464
         468
         472
         476
         480
         484
         488
         492
         496
         500
         504
         508
         512
         516
         520
         524
         528
         532
         536
         540
         544
         548
         552
         556
         560
         564
         568
         572
         576
         580
         584
         588
         592
         596
         600
         604
         608
         612
         616
         620
         624
         628
         632
         636
         640
         644
         648
         652
         656
         660
         664
         668
         672
         676
         680
         684
         688
         692
         696
         700
         704
         708
         712
         716
         720
         724
         728
         732
         736
         740
         744
         748
         752
         756
         760
         764
         768
         772
         776
         780
         784
         788
         792
         796
         800
         804
         808
         812
         816
         820
         824
         828
         832
         836
         840
         844
         848
         852
         856
         860
         864
         868
         872
         876
         880
         884
         888
         892
         896
         900
         904
         908
         912
         916
         920
         924
         928
         932
         936
         940
         944
         948
         952
         956
         960
         964
         968
         972
         976
         980
         984
         988
         992
         996
        1000
        1004
        1008
        1012
        1016
        1020
        1024
        1028
        1032
        1036
        1040
        1044
        1048
        1052
        1056
        1060
        1064
        1068
        1072
        1076
        1080
        1084
        1088
        1092
        1096
        1100
        1104
        1108
        1112
        1116
        1120
        1124
        1128
        1132
        1136
        1140
        1144
        1148
        1152
        1156
        1160
        1164
        1168
        1172
        1176
        1180
        1184
        1188
        1192
        1196
        1200
        1204
        1208
        1212
        1216
        1220
        1224
        1228
        1232
        1236
        1240
        1244
        1248
        1252
        1256
        1260
        1264
        1268
        1272
        1276
        1280
        1284
        1288
        1292
        1296
        1300
        1304
        1308
        1312
        1316
        1320
        1324
        1328
        1332
        1336
        1340
        1344
        1348
        1352
        1356
        1360
        1364
        1368
        1372
        1376
        1380
        1384
        1388
        1392
        1396
        1400
        1404
        1408
        1412
        1416
        1420
        1424
        1428
        1432
        1436
        1440
        1444
        1448
        1452
        1456
        1460
        1464
        1468
        1472
        1476
        1480
        1484
        1488
        1492
        1496
        1500
        1504
        1508
        1512
        1516
        1520
        1524
        1528
        1532
        1536
        1540
        1544
        1548
        1552
        1556
        1560
        1564
        1568
        1572
        1576
        1580
        1584
        1588
        1592
        1596
        1600
        1604
        1608
        1612
        1616
        1620
        1624
        1628
        1632
        1636
        1640
        1644
        1648
        1652
        1656
        1660
        1664
        1668
        1672
        1676
        1680
        1684
        1688
        1692
        1696
        1700
        1704
        1708
        1712
        1716
        1720
        1724
        1728
        1732
        1736
        1740
        1744
        1748
        1752
        1756
        1760
        1764
        1768
        1772
        1776
        1780
        1784
        1788
        1792
        1796
        1800
        1804
        1808
        1812
        1816
        1820
        1824
        1828
        1832
        1836
        1840
        1844
        1848
        1852
        1856
        1860
        1864
        1868
        1872
        1876
        1880
        1884
        1888
        1892
        1896
        1900
        1904
        1908
        1912
        1916
        1920
        1924
        1928
        1932
        1936
        1940
        1944
        1948
        1952
        1956
        1960
        1964
        1968
        1972
        1976
        1980
        1984
        1988
        1992
        1996
        2000
        2004
        2008
        2012
        2016
        2020
        2024
        2028
        2032
        2036
        2040
        2044
        2048
        2052
        2056
        2060
        2064
        2068
        2072
        2076
        2080
        2084
        2088
        2092
        2096
        2100
        2104
        2108
        2112
        2116
        2120
        2124
        2128
        2132
        2136
        2140
        2144
        2148
        2152
        2156
        2160
        2164
        2168
        2172
        2176
        2180
        2184
        2188
        2192
        2196
        2200
        2204
        2208
        2212
        2216
        2220
        2224
        2228
        2232
        2236
        2240
        2244
        2248
        2252
        2256
        2260
        2264
        2268
        2272
        2276
        2280
        2284
        2288
        2292
        2296
        2300
        2304
        2308
        2312
        2316
        2320
        2324
        2328
        2332
        2336
        2340
        2344
        2348
        2352
        2356
        2360
        2364
        2368
        2372
        2376
        2380
        2384
        2388
        2392
        2396
        2400
        2404
        2408
        2412
        2416
        2420
        2424
        2428
        2432
        2436
        2440
        2444
        2448
        2452
        2456
        2460
        2464
        2468
        2472
        2476
        2480
        2484
        2488
        2492
        2496
        2500
        2504
        2508
        2512
        2516
        2520
        2524
        2528
        2532
        2536
        2540
        2544
        2548
        2552
        2556
        2560
        2564
        2568
        2572
        2576
        2580
        2584
        2588
        2592
        2596
        2600
        2604
        2608
        2612
        2616
        2620
        2624
        2628
        2632
        2636
        2640
        2644
        2648
        2652
        2656
        2660
        2664
        2668
        2672
        2676
        2680
        2684
        2688
        2692
        2696
        2700
        2704
        2708
        2712
        2716
        2720
        2724
        2728
        2732
        2736
        2740
        2744
        2748
        2752
        2756
        2760
        2764
        2768
        2772
        2776
        2780
        2784
        2788
        2792
        2796
        2800
        2804
        2808
        2812
        2816
        2820
        2824
        2828
        2832
        2836
        2840
        2844
        2848
        2852
        2856
        2860
        2864
        2868
        2872
        2876
        2880
        2884
        2888
        2892
        2896
        2900
        2904
        2908
        2912
        2916
        2920
        2924
        2928
        2932
        2936
        2940
        2944
        2948
        2952
        2956
        2960
        2964
        2968
        2972
        2976
        2980
        2984
        2988
        2992
        2996
        3000
        3004
        3008
        3012
        3016
        3020
        3024
        3028
        3032
        3036
        3040
        3044
        3048
        3052
        3056
        3060
        3064
        3068
        3072
        3076
        3080
        3084
        3088
        3092
        3096
        3100
        3104
        3108
        3112
        3116
        3120
        3124
        3128
        3132
        3136
        3140
        3144
        3148
        3152
        3156
        3160
        3164
        3168
        3172
        3176
        3180
        3184
        3188
        3192
        3196
        3200
        3204
        3208
        3212
        3216
        3220
        3224
        3228
        3232
        3236
        3240
        3244
        3248
        3252
        3256
        3260
        3264
        3268
        3272
        3276
        3280
        3284
        3288
        3292
        3296
        3300
        3304
        3308
        3312
        3316
        3320
        3324
        3328
        3332
        3336
        3340
        3344
        3348
        3352
        3356
        3360
        3364
        3368
        3372
        3376
        3380
        3384
        3388
        3392
        3396
        3400
        3404
        3408
        3412
        3416
        3420
        3424
        3428
        3432
        3436
        3440
        3444
        3448
        3452
        3456
        3460
        3464
        3468
        3472
        3476
        3480
        3484
        3488
        3492
        3496
        3500
        3504
        3508
        3512
        3516
        3520
        3524
        3528
        3532
        3536
        3540
        3544
        3548
        3552
        3556
        3560
        3564
        3568
        3572
        3576
        3580
        3584
        3588
        3592
        3596
        3600
        3604
        3608
        3612
        3616
        3620
        3624
        3628
        3632
        3636
        3640
        3644
        3648
        3652
        3656
        3660
        3664
        3668
        3672
        3676
        3680
        3684
        3688
        3692
        3696
        3700
        3704
        3708
        3712
        3716
        3720
        3724
        3728
        3732
        3736
        3740
        3744
        3748
        3752
        3756
        3760
        3764
        3768
        3772
        3776
        3780
        3784
        3788
        3792
        3796
        3800
        3804
        3808
        3812
        3816
        3820
        3824
        3828
        3832
        3836
        3840
        3844
        3848
        3852
        3856
        3860
        3864
        3868
        3872
        3876
        3880
        3884
        3888
        3892
        3896
        3900
        3904
        3908
        3912
        3916
        3920
        3924
        3928
        3932
        3936
        3940
        3944
        3948
        3952
        3956
        3960
        3964
        3968
        3972
        3976
        3980
        3984
        3988
        3992
        3996
        4000
        4004
        4008
        4012
        4016
        4020
        4024
        4028
        4032
        4036
        4040
        4044
        4048
        4052
        4056
        4060
        4064
        4068
        4072
        4076
        4080
        4084
        4088
        4092
        4096
 </DataArray>
 <DataArray  type="UInt8"  Name="types"  format="ascii">
 9
 9
 9
 9
 9
 9
 9
 9
 9
 9
 9
 9
 9
 9
 9
 9
 9
 9
 9
 9
 9
 9
 9
 9
 9
 9
 9
 9
 9
 9
 9
 9
 9
 9
 9
 9
 9
 9
 9
 9
 9
 9
 9
 9
 9
 9
 9
 9
 9
 9
 9
 9
 9
 9
 9
 9
 9
 9
 9
 9
 9
 9
 9
 9
 9
 9
 9
 9
 9
 9
 9
 9
 9
 9
 9
 9
 9
 9
 9
 9
 9
 9
 9
 9
 9
 9
 9
 9
 9
 9
 9
 9
 9
 9
 9
 9
 9
 9
 9
 9
 9
 9
 9
 9
 9
 9
 9
 9
 9
 9
 9
 9
 9
 9
 9
 9
 9
 9
 9
 9
 9
 9
 9
 9
 9
 9
 9
 9
 9
 9
 9
 9
 9
 9
 9
 9
 9
 9
 9
 9
 9
 9
 9
 9
 9
 9
 9
 9
 9
 9
 9
 9
 9
 9
 9
 9
 9
 9
 9
 9
 9
 9
 9
 9
 9
 9
 9
 9
 9
 9
 9
 9
 9
 9
 9
 9
 9
 9
 9
 9
 9
 9
 9
 9
 9
 9
 9
 9
 9
 9
 9
 9
 9
 9
 9
 9
 9
 9
 9
 9
 9
 9
 9
 9
 9
 9
 9
 9
 9
 9
 9
 9
 9
 9
 9
 9
 9
 9
 9
 9
 9
 9
 9
 9
 9
 9
 9
 9
 9
 9
 9
 9
 9
 9
 9
 9
 9
 9
 9
 9
 9
 9
 9
 9
 9
 9
 9
 9
 9
 9
 9
 9
 9
 9
 9
 9
 9
 9
 9
 9
 9
 9
 9
 9
 9
 9
 9
 9
 9
 9
 9
 9
 9
 9
 9
 9
 9
 9
 9
 9
 9
 9
 9
 9
 9
 9
 9
 9
 9
 9
 9
 9
 9
 9
 9
 9
 9
 9
 9
 9
 9
 9
 9
 9
 9
 9
 9
 9
 9
 9
 9
 9
 9
 9
 9
 9
 9
 9
 9
 9
 9
 9
 9
 9
 9
 9
 9
 9
 9
 9
 9
 9
 9
 9
 9
 9
 9
 9
 9
 9
 9
 9
 9
 9
 9
 9
 9
 9
 9
 9
 9
 9
 9
 9
 9
 9
 9
 9
 9
 9
 9
 9
 9
 9
 9
 9
 9
 9
 9
 9
 9
 9
 9
 9
 9
 9
 9
 9
 9
 9
 9
 9
 9
 9
 9
 9
 9
 9
 9
 9
 9
 9
 9
 9
 9
 9
 9
 9
 9
 9
 9
 9
 9
 9
 9
 9
 9
 9
 9
 9
 9
 9
 9
 9
 9
 9
 9
 9
 9
 9
 9
 9
 9
 9
 9
 9
 9
 9
 9
 9
 9
 9
 9
 9
 9
 9
 9
 9
 9
 9
 9
 9
 9
 9
 9
 9
 9
 9
 9
 9
 9
 9
 9
 9
 9
 9
 9
 9
 9
 9
 9
 9
 9
 9
 9
 9
 9
 9
 9
 9
 9
 9
 9
 9
 9
 9
 9
 9
 9
 9
 9
 9
 9
 9
 9
 9
 9
 9
 9
 9
 9
 9
 9
 9
 9
 9
 9
 9
 9
 9
 9
 9
 9
 9
 9
 9
 9
 9
 9
 9
 9
 9
 9
 9
 9
 9
 9
 9
 9
 9
 9
 9
 9
 9
 9
 9
 9
 9
 9
 9
 9
 9
 9
 9
 9
 9
 9
 9
 9
 9
 9
 9
 9
 9
 9
 9
 9
 9
 9
 9
 9
 9
 9
 9
 9
 9
 9
 9
 9
 9
 9
 9
 9
 9
 9
 9
 9
 9
 9
 9
 9
 9
 9
 9
 9
 9
 9
 9
 9
 9
 9
 9
 9
 9
 9
 9
 9
 9
 9
 9
 9
 9
 9
 9
 9
 9
 9
 9
 9
 9
 9
 9
 9
 9
 9
 9
 9
 9
 9
 9
 9
 9
 9
 9
 9
 9
 9
 9
 9
 9
 9
 9
 9
 9
 9
 9
 9
 9
 9
 9
 9
 9
 9
 9
 9
 9
 9
 9
 9
 9
 9
 9
 9
 9
 9
 9
 9
 9
 9
 9
 9
 9
 9
 9
 9
 9
 9
 9
 9
 9
 9
 9
 9
 9
 9
 9
 9
 9
 9
 9
 9
 9
 9
 9
 9
 9
 9
 9
 9
 9
 9
 9
 9
 9
 9
 9
 9
 9
 9
 9
 9
 9
 9
 9
 9
 9
 9
 9
 9
 9
 9
 9
 9
 9
 9
 9
 9
 9
 9
 9
 9
 9
 9
 9
 9
 9
 9
 9
 9
 9
 9
 9
 9
 9
 9
 9
 9
 9
 9
 9
 9
 9
 9
 9
 9
 9
 9
 9
 9
 9
 9
 9
 9
 9
 9
 9
 9
 9
 9
 9
 9
 9
 9
 9
 9
 9
 9
 9
 9
 9
 9
 9
 9
 9
 9
 9
 9
 9
 9
 9
 9
 9
 9
 9
 9
 9
 9
 9
 9
 9
 9
 9
 9
 9
 9
 9
 9
 9
 9
 9
 9
 9
 9
 9
 9
 9
 9
 9
 9
 9
 9
 9
 9
 9
 9
 9
 9
 9
 9
 9
 9
 9
 9
 9
 9
 9
 9
 9
 9
 9
 9
 9
 9
 9
 9
 9
 9
 9
 9
 9
 9
 9
 9
 9
 9
 9
 9
 9
 9
 9
 9
 9
 9
 9
 9
 9
 9
 9
 9
 9
 9
 9
 9
 9
 9
 9
 9
 9
 9
 9
 9
 9
 9
 9
 9
 9
 9
 9
 9
 9
 9
 9
 9
 9
 9
 9
 9
 9
 9
 9
 9
 9
 9
 9
 9
 9
 9
 9
 9
 9
 9
 9
 9
 9
 9
 9
 9
 9
 9
 9
 9
 9
 9
 9
 9
 9
 9
 9
 9
 9
 9
 9
 9
 9
 9
 9
 9
 9
 9
 9
 9
 9
 9
 9
 9
 9
 9
 9
 9
 9
 9
 9
 9
 9
 9
 9
 9
 9
 9
 9
 9
 9
 9
 9
 9
 9
 9
 9
 9
 9
 9
 9
 9
 9
 9
 9
 9
 9
 9
 9
 9
 9
 9
 9
 9
 9
 9
 9
 9
 9
 9
 9
 9
 9
 9
 9
 9
 9
 9
 9
 9
 9
 9
 9
 9
 9
 9
 9
 9
 9
 9
 9
 9
 9
 9
 9
 9
 9
 9
 9
 9
 9
 9
 9
 9
 9
 9
 9
 9
 9
 9
 9
 9
 9
 9
 9
 9
 9
 9
 9
 9
 9
 9
 9
 </DataArray>
 </Cells> 
 <PointData>
 <DataArray  type="Float64" Name="disp" NumberOfComponents="3" format="ascii">
   6.6905993723623880E-002   6.1985273366847685E-002   0.0000000000000000     
   6.9487562055004698E-002   6.7719895748849693E-002   0.0000000000000000     
   7.2087735722073332E-002   7.3531505935315558E-002   0.0000000000000000     
   7.4706514724829740E-002   7.9420103926245322E-002   0.0000000000000000     
   7.7343899063273963E-002   8.5385689721638916E-002   0.0000000000000000     
   6.0605566596235651E-002   6.1627672289937693E-002   0.0000000000000000     
   6.3337971849790564E-002   6.7155757311990083E-002   0.0000000000000000     
   6.6013993689511080E-002   7.2829129490942418E-002   0.0000000000000000     
   6.8633632115397178E-002   7.8647788826794754E-002   0.0000000000000000     
   7.1196887127448871E-002   8.4611735319547049E-002   0.0000000000000000     
   5.4914920517010316E-002   6.1127584419987127E-002   0.0000000000000000     
   5.7673611700835140E-002   6.6532261433784073E-002   0.0000000000000000     
   6.0330290723259752E-002   7.2126021471780377E-002   0.0000000000000000     
   6.2884957584284140E-002   7.7908864533975983E-002   0.0000000000000000     
   6.5337612283908317E-002   8.3880790620370918E-002   0.0000000000000000     
   4.9834055485947881E-002   6.0485009756995986E-002   0.0000000000000000     
   5.2494481608138445E-002   6.5849408114231719E-002   0.0000000000000000     
   5.5036626823319362E-002   7.1422181877829380E-002   0.0000000000000000     
   5.7460491131490640E-002   7.7203331047788967E-002   0.0000000000000000     
   5.9766074532652265E-002   8.3192855624110537E-002   0.0000000000000000     
   4.5362971503048341E-002   5.9699948300964270E-002   0.0000000000000000     
   4.7800581571700460E-002   6.5107197353332952E-002   0.0000000000000000     
   5.0133001989689903E-002   7.0717610709089440E-002   0.0000000000000000     
   5.2360232757016671E-002   7.6531188368233763E-002   0.0000000000000000     
   5.4482273873680750E-002   8.2547930330765906E-002   0.0000000000000000     
   7.7343899063273963E-002   8.5385689721638916E-002   0.0000000000000000     
   7.9949673751976369E-002   9.1472077586737005E-002   0.0000000000000000     
   8.2473623805507296E-002   9.7723081786780172E-002   0.0000000000000000     
   8.4915749223866771E-002  0.10413870232176842        0.0000000000000000     
   8.7276050007054795E-002  0.11071893919170175        0.0000000000000000     
   7.1196887127448871E-002   8.4611735319547049E-002   0.0000000000000000     
   7.3688925876012612E-002   9.0729370306395302E-002   0.0000000000000000     
   7.6094915511434796E-002   9.7009095124535538E-002   0.0000000000000000     
   7.8414856033715494E-002  0.10345090977396776        0.0000000000000000     
   8.0648747442854621E-002  0.11005481425469196        0.0000000000000000     
   6.5337612283908317E-002   8.3880790620370918E-002   0.0000000000000000     
   6.7696050844671465E-002   9.0027341813237752E-002   0.0000000000000000     
   6.9968069289112811E-002   9.6334060194849080E-002   0.0000000000000000     
   7.2153667617232367E-002  0.10280094576520488        0.0000000000000000     
   7.4252845829030120E-002  0.10942799852430515        0.0000000000000000     
   5.9766074532652265E-002   8.3192855624110537E-002   0.0000000000000000     
   6.1971048657952936E-002   8.9365992107264369E-002   0.0000000000000000     
   6.4093085138541325E-002   9.5697976997720785E-002   0.0000000000000000     
   6.6132183974417447E-002  0.10218881029547977        0.0000000000000000     
   6.8088345165581265E-002  0.10883849200054138        0.0000000000000000     
   5.4482273873680750E-002   8.2547930330765906E-002   0.0000000000000000     
   5.6513919315857031E-002   8.8745321188475113E-002   0.0000000000000000     
   5.8469963059720340E-002   9.5100845533150638E-002   0.0000000000000000     
   6.0350405105270698E-002  0.10161450336479247        0.0000000000000000     
   6.2155245452508112E-002  0.10828629468340059        0.0000000000000000     
   8.7276050007054795E-002  0.11071893919170175        0.0000000000000000     
   8.9549258566173434E-002  0.11744541776389705        0.0000000000000000     
   9.1730107312324768E-002  0.12429976340567123        0.0000000000000000     
   9.3818596245508756E-002  0.13128197611702425        0.0000000000000000     
   9.5814725365725439E-002  0.13839205589795614        0.0000000000000000     
   8.0648747442854621E-002  0.11005481425469196        0.0000000000000000     
   8.2795143490550047E-002  0.11680443979741499        0.0000000000000000     
   8.4852597928499515E-002  0.12368341763284368        0.0000000000000000     
   8.6821110756703082E-002  0.13069174776097811        0.0000000000000000     
   8.8700681975160706E-002  0.13782943018181820        0.0000000000000000     
   7.4252845829030120E-002  0.10942799852430515        0.0000000000000000     
   7.6266384499167228E-002  0.11620044225043012        0.0000000000000000     
   7.8195064202304848E-002  0.12310350072185999        0.0000000000000000     
   8.0038884938443050E-002  0.13013717393859472        0.0000000000000000     
   8.1797846707581751E-002  0.13730146190063430        0.0000000000000000     
   6.8088345165581265E-002  0.10883849200054138        0.0000000000000000     
   6.9962981592025006E-002  0.11563342512294249        0.0000000000000000     
   7.1757506133740795E-002  0.12256001267272004        0.0000000000000000     
   7.3471918790728660E-002  0.12961825464987406        0.0000000000000000     
   7.5106219562988560E-002  0.13680815105440453        0.0000000000000000     
   6.2155245452508112E-002  0.10828629468340059        0.0000000000000000     
   6.3884934769123367E-002  0.11510338841495206        0.0000000000000000     
   6.5539923722807300E-002  0.12205295348542392        0.0000000000000000     
   6.7120212313559899E-002  0.12913498989481614        0.0000000000000000     
   6.8625800541381163E-002  0.13634949764312879        0.0000000000000000     
   9.5814725365725439E-002  0.13839205589795614        0.0000000000000000     
   9.7717924735462397E-002  0.14562296252841361        0.0000000000000000     
   9.9527624417207194E-002  0.15296765578834340        0.0000000000000000     
  0.10124382441095987       0.16042613567774550        0.0000000000000000     
  0.10286652471672042       0.16799840219661993        0.0000000000000000     
   8.8700681975160706E-002  0.13782943018181820        0.0000000000000000     
   9.0492003047078620E-002  0.14508797323115372        0.0000000000000000     
   9.2195765435663060E-002  0.15245888524477449        0.0000000000000000     
   9.3811969140913984E-002  0.15994216622268054        0.0000000000000000     
   9.5340614162831461E-002  0.16753781616487173        0.0000000000000000     
   8.1797846707581751E-002  0.13730146190063430        0.0000000000000000     
   8.3473322575217376E-002  0.14458672634119321        0.0000000000000000     
   8.5066685606846298E-002  0.15198332899348588        0.0000000000000000     
   8.6577935802468545E-002  0.15949126985751227        0.0000000000000000     
   8.8007073162084073E-002  0.16711054893327237        0.0000000000000000     
   7.5106219562988560E-002  0.13680815105440453        0.0000000000000000     
   7.6661883319878624E-002  0.14411922185853213        0.0000000000000000     
   7.8140384930756937E-002  0.15154098703447755        0.0000000000000000     
   7.9541724395623459E-002  0.15907344658224082        0.0000000000000000     
   8.0865901714478258E-002  0.16671660050182185        0.0000000000000000     
   6.8625800541381163E-002  0.13634949764312879        0.0000000000000000     
   7.0057685281062418E-002  0.14368545978317038        0.0000000000000000     
   7.1416863407394990E-002  0.15113185936774945        0.0000000000000000     
   7.2703334920378851E-002  0.15868869639686606        0.0000000000000000     
   7.3917099820014015E-002  0.16635597087052018        0.0000000000000000     
  0.10286652471672042       0.16799840219661993        0.0000000000000000     
  0.10440109766056287       0.17567116235562075        0.0000000000000000     
  0.10585291556856127       0.18343112316540211        0.0000000000000000     
  0.10722197844071563       0.19127828462596397        0.0000000000000000     
  0.10850828627702594       0.19921264673730632        0.0000000000000000     
   9.5340614162831461E-002  0.16753781616487173        0.0000000000000000     
   9.6784085055875060E-002  0.17523393227728484        0.0000000000000000     
   9.8144766374504464E-002  0.18301861176585638        0.0000000000000000     
   9.9422658118719642E-002  0.19089185463058642        0.0000000000000000     
  0.10061776028852062       0.19885366087147485        0.0000000000000000     
   8.8007073162084073E-002  0.16711054893327237        0.0000000000000000     
   8.9354407107489667E-002  0.17483017785323576        0.0000000000000000     
   9.0620247060482093E-002  0.18263916824987200        0.0000000000000000     
   9.1804593021061351E-002  0.19053752012318095        0.0000000000000000     
   9.2907444989227400E-002  0.19852523347316278        0.0000000000000000     
   8.0865901714478258E-002  0.16671660050182185        0.0000000000000000     
   8.2112063815406672E-002  0.17445989908347362        0.0000000000000000     
   8.3279357626494147E-002  0.18229279261744891        0.0000000000000000     
   8.4367783147740669E-002  0.19021528110374775        0.0000000000000000     
   8.5377340379146252E-002  0.19822736454237008        0.0000000000000000     
   7.3917099820014015E-002  0.16635597087052018        0.0000000000000000     
   7.5057055179626089E-002  0.17412309596799838        0.0000000000000000     
   7.6122098072540639E-002  0.18197948486858720        0.0000000000000000     
   7.7112228498757651E-002  0.18992513757228668        0.0000000000000000     
   7.8027446458277167E-002  0.19796005407909684        0.0000000000000000     
  0.10850828627702594       0.19921264673730632        0.0000000000000000     
  0.10971560987820535       0.20723162639574744        0.0000000000000000     
  0.11084772004496699       0.21533264049760545        0.0000000000000000     
  0.11190461677731085       0.22351568904288047        0.0000000000000000     
  0.11288630007523695       0.23178077203157244        0.0000000000000000     
  0.10061776028852062       0.19885366087147485        0.0000000000000000     
  0.10173484229849368       0.20689859452988557        0.0000000000000000     
  0.10277867356322502       0.21502121964718218        0.0000000000000000     
  0.10374925408271470       0.22322153622336485        0.0000000000000000     
  0.10464658385696270       0.23149954425843342        0.0000000000000000     
   9.2907444989227400E-002  0.19852523347316278        0.0000000000000000     
   9.3933388835409276E-002  0.20659517924476631        0.0000000000000000     
   9.4887010430035890E-002  0.21474022838294055        0.0000000000000000     
   9.5768309773107269E-002  0.22296038088768536        0.0000000000000000     
   9.6577286864623441E-002  0.23125563675900093        0.0000000000000000     
   8.5377340379146252E-002  0.19822736454237008        0.0000000000000000     
   8.6311249488952121E-002  0.20632138054038979        0.0000000000000000     
   8.7172730645399585E-002  0.21448966670488043        0.0000000000000000     
   8.7961783848488601E-002  0.22273222303584220        0.0000000000000000     
   8.8678409098219182E-002  0.23104904953327499        0.0000000000000000     
   7.8027446458277167E-002  0.19796005407909684        0.0000000000000000     
   7.8868424259122272E-002  0.20607719841675587        0.0000000000000000     
   7.9635834209316109E-002  0.21426953461300199        0.0000000000000000     
   8.0329676308858650E-002  0.22253706266783524        0.0000000000000000     
   8.0949950557749908E-002  0.23087978258125558        0.0000000000000000     
  0.11288630007523695       0.23178077203157244        0.0000000000000000     
  0.11382088908258005       0.24014432311703660        0.0000000000000000     
  0.11473650294317497       0.24862277595262819        0.0000000000000000     
  0.11563314165702168       0.25721613053834719        0.0000000000000000     
  0.11651080522412022       0.26592438687419373        0.0000000000000000     
  0.10464658385696270       0.23149954425843342        0.0000000000000000     
  0.10547576032407205       0.23987868554536326        0.0000000000000000     
  0.10624188092214581       0.24838240187712965        0.0000000000000000     
  0.10694494565118395       0.25701069325373260        0.0000000000000000     
  0.10758495451118651       0.26576355967517207        0.0000000000000000     
   9.6577286864623441E-002  0.23125563675900093        0.0000000000000000     
   9.7304941175289983E-002  0.23965248540302977        0.0000000000000000     
   9.7942272175812542E-002  0.24817741622591466        0.0000000000000000     
   9.8489279866191090E-002  0.25683042922765553        0.0000000000000000     
   9.8945964246425669E-002  0.26561152440825242        0.0000000000000000     
   8.8678409098219182E-002  0.23104904953327499        0.0000000000000000     
   8.9308431636233865E-002  0.23946572269003616        0.0000000000000000     
   8.9837676704175154E-002  0.24800781899898322        0.0000000000000000     
   9.0266144302043119E-002  0.25667533846011609        0.0000000000000000     
   9.0593834429837691E-002  0.26546828107343473        0.0000000000000000     
   8.0949950557749908E-002  0.23087978258125558        0.0000000000000000     
   8.1486231706903681E-002  0.23931839740638250        0.0000000000000000     
   8.1928094507233706E-002  0.24787361019633533        0.0000000000000000     
   8.2275538958740013E-002  0.25654542095111416        0.0000000000000000     
   8.2528565061422587E-002  0.26533382967071895        0.0000000000000000     
  0.11651080522412022       0.26592438687419373        0.0000000000000000     
  0.11730980902450865       0.27491212399026776        0.0000000000000000     
  0.11797046843822501       0.28434392091666960        0.0000000000000000     
  0.11849278346526936       0.29421977765339929        0.0000000000000000     
  0.11887675410564164       0.30453969420045662        0.0000000000000000     
  0.10758495451118651       0.26576355967517207        0.0000000000000000     
  0.10814288157370607       0.27477310049822140        0.0000000000000000     
  0.10859970091029528       0.28417141507965388        0.0000000000000000     
  0.10895541252095414       0.29395850341946950        0.0000000000000000     
  0.10921001640568262       0.30413436551766815        0.0000000000000000     
   9.8945964246425669E-002  0.26561152440825242        0.0000000000000000     
   9.9323291107760933E-002  0.27461893985249813        0.0000000000000000     
   9.9632226241441676E-002  0.28395091364518543        0.0000000000000000     
   9.9872769647467816E-002  0.29360744578631426        0.0000000000000000     
  0.10004492132583936       0.30358853627588483        0.0000000000000000     
   9.0593834429837691E-002  0.26546828107343473        0.0000000000000000     
   9.0851037626673237E-002  0.27444964205309791        0.0000000000000000     
   9.1068044431664136E-002  0.28368241661326421        0.0000000000000000     
   9.1244854844810347E-002  0.29316660475393380        0.0000000000000000     
   9.1381468866111912E-002  0.30290220647510652        0.0000000000000000     
   8.2528565061422587E-002  0.26533382967071895        0.0000000000000000     
   8.2726121130442976E-002  0.27426520710002072        0.0000000000000000     
   8.2907155480962696E-002  0.28336592398389038        0.0000000000000000     
   8.3071668112981778E-002  0.29263598032232790        0.0000000000000000     
   8.3219659026500220E-002  0.30207537611533336        0.0000000000000000     
   4.5362971503048341E-002   5.9699948300964270E-002   0.0000000000000000     
   4.7800581571700460E-002   6.5107197353332952E-002   0.0000000000000000     
   5.0133001989689903E-002   7.0717610709089440E-002   0.0000000000000000     
   5.2360232757016671E-002   7.6531188368233763E-002   0.0000000000000000     
   5.4482273873680750E-002   8.2547930330765906E-002   0.0000000000000000     
   4.1219563267276813E-002   5.8896652665724747E-002   0.0000000000000000     
   4.3386071092759125E-002   6.4377691906825699E-002   0.0000000000000000     
   4.5471967746119557E-002   7.0047158871059154E-002   0.0000000000000000     
   4.7477253227358122E-002   7.5905053558425098E-002   0.0000000000000000     
   4.9401927536474793E-002   8.1951375968923545E-002   0.0000000000000000     
   3.7121725477598393E-002   5.8199375465110205E-002   0.0000000000000000     
   3.9045109672552369E-002   6.3732954530447875E-002   0.0000000000000000     
   4.0906075616356515E-002   6.9445677269237047E-002   0.0000000000000000     
   4.2704623309010856E-002   7.5337543681477756E-002   0.0000000000000000     
   4.4440752750515372E-002   8.1408553767169961E-002   0.0000000000000000     
   3.3069458134013088E-002   5.7608116699120651E-002   0.0000000000000000     
   3.4777697311080172E-002   6.3172985224199452E-002   0.0000000000000000     
   3.6435325600400775E-002   6.8913165903623133E-002   0.0000000000000000     
   3.8042343001974885E-002   7.4828658737391723E-002   0.0000000000000000     
   3.9598749515802514E-002   8.0919463725505167E-002   0.0000000000000000     
   2.9062761236520906E-002   5.7122876367756079E-002   0.0000000000000000     
   3.0583834008342553E-002   6.2697783988080458E-002   0.0000000000000000     
   3.2059717698252319E-002   6.8449624774217427E-002   0.0000000000000000     
   3.3490412306250210E-002   7.4378398726167000E-002   0.0000000000000000     
   3.4875917832336213E-002   8.0484105843929149E-002   0.0000000000000000     
   5.4482273873680750E-002   8.2547930330765906E-002   0.0000000000000000     
   5.6513919315857031E-002   8.8745321188475113E-002   0.0000000000000000     
   5.8469963059720340E-002   9.5100845533150638E-002   0.0000000000000000     
   6.0350405105270698E-002  0.10161450336479247        0.0000000000000000     
   6.2155245452508112E-002  0.10828629468340059        0.0000000000000000     
   4.9401927536474793E-002   8.1951375968923545E-002   0.0000000000000000     
   5.1252837463900990E-002   8.8170822858253450E-002   0.0000000000000000     
   5.3036829800068151E-002   9.4548090982113767E-002   0.0000000000000000     
   5.4753904544976272E-002  0.10108318034050449        0.0000000000000000     
   5.6404061698625337E-002  0.10777609093342563        0.0000000000000000     
   4.4440752750515372E-002   8.1408553767169961E-002   0.0000000000000000     
   4.6115977747602094E-002   8.7647990917982796E-002   0.0000000000000000     
   4.7731812107003051E-002   9.4045138525585298E-002   0.0000000000000000     
   4.9288255828718264E-002  0.10059999658997749        0.0000000000000000     
   5.0785308912747691E-002  0.10731256511115936        0.0000000000000000     
   3.9598749515802514E-002   8.0919463725505167E-002   0.0000000000000000     
   4.1103340166960343E-002   8.7176825367663122E-002   0.0000000000000000     
   4.2554909980525066E-002   9.3591988163565218E-002   0.0000000000000000     
   4.3953458956496681E-002  0.10016495211321143        0.0000000000000000     
   4.5298987094875176E-002  0.10689571721660178        0.0000000000000000     
   3.4875917832336213E-002   8.0484105843929149E-002   0.0000000000000000     
   3.6214924721975739E-002   8.6757326207294469E-002   0.0000000000000000     
   3.7506123420634176E-002   9.3188639896053527E-002   0.0000000000000000     
   3.8749513928311531E-002   9.9778046910206322E-002   0.0000000000000000     
   3.9945096245007798E-002  0.10652554724975288        0.0000000000000000     
   6.2155245452508112E-002  0.10828629468340059        0.0000000000000000     
   6.3884934769123367E-002  0.11510338841495206        0.0000000000000000     
   6.5539923722807300E-002  0.12205295348542392        0.0000000000000000     
   6.7120212313559899E-002  0.12913498989481614        0.0000000000000000     
   6.8625800541381163E-002  0.13634949764312879        0.0000000000000000     
   5.6404061698625337E-002  0.10777609093342563        0.0000000000000000     
   5.7986292184112907E-002  0.11461447301158414        0.0000000000000000     
   5.9499586924536510E-002  0.12158597682568702        0.0000000000000000     
   6.0943945919896159E-002  0.12869060237573426        0.0000000000000000     
   6.2319369170191832E-002  0.13592834966172584        0.0000000000000000     
   5.0785308912747691E-002  0.10731256511115936        0.0000000000000000     
   5.2221101990644191E-002  0.11417081979796410        0.0000000000000000     
   5.3593765693960550E-002  0.12116273635922484        0.0000000000000000     
   5.4903300022696784E-002  0.12828831479494160        0.0000000000000000     
   5.6149704976852892E-002  0.13554755510511432        0.0000000000000000     
   4.5298987094875176E-002  0.10689571721660178        0.0000000000000000     
   4.6589364188717217E-002  0.11377242877409188        0.0000000000000000     
   4.7822460031079414E-002  0.12078323208603732        0.0000000000000000     
   4.8998274621961782E-002  0.12792812715243815        0.0000000000000000     
   5.0116807961364314E-002  0.13520711397329432        0.0000000000000000     
   3.9945096245007798E-002  0.10652554724975288        0.0000000000000000     
   4.1091078778331992E-002  0.11341929993996749        0.0000000000000000     
   4.2185669935893115E-002  0.12044746400612451        0.0000000000000000     
   4.3228869717691153E-002  0.12761003944822391        0.0000000000000000     
   4.4220678123726119E-002  0.13490702626626572        0.0000000000000000     
   6.8625800541381163E-002  0.13634949764312879        0.0000000000000000     
   7.0057685281062418E-002  0.14368545978317038        0.0000000000000000     
   7.1416863407394990E-002  0.15113185936774945        0.0000000000000000     
   7.2703334920378851E-002  0.15868869639686606        0.0000000000000000     
   7.3917099820014015E-002  0.16635597087052018        0.0000000000000000     
   6.2319369170191832E-002  0.13592834966172584        0.0000000000000000     
   6.3626175157984743E-002  0.14328786623502945        0.0000000000000000     
   6.4864682365836035E-002  0.15075779964701283        0.0000000000000000     
   6.6034890793745735E-002  0.15833814989767592        0.0000000000000000     
   6.7136800441713829E-002  0.16602891698701880        0.0000000000000000     
   5.6149704976852892E-002  0.13554755510511432        0.0000000000000000     
   5.7332799649861627E-002  0.14292886733403085        0.0000000000000000     
   5.8452403135155734E-002  0.15042066152597883        0.0000000000000000     
   5.9508515432735241E-002  0.15802293768095826        0.0000000000000000     
   6.0501136542600122E-002  0.16573569579896918        0.0000000000000000     
   5.0116807961364314E-002  0.13520711397329432        0.0000000000000000     
   5.1177558756693081E-002  0.14260846308017450        0.0000000000000000     
   5.2180025715354093E-002  0.15012044500464738        0.0000000000000000     
   5.3124208837347378E-002  0.15774305974671304        0.0000000000000000     
   5.4010108122672928E-002  0.16547630730637142        0.0000000000000000     
   4.4220678123726119E-002  0.13490702626626572        0.0000000000000000     
   4.5160452478479073E-002  0.14232665347346043        0.0000000000000000     
   4.6047550106431079E-002  0.14985715008301864        0.0000000000000000     
   4.6881971007582138E-002  0.15749851609494031        0.0000000000000000     
   4.7663715181932235E-002  0.16525075150922541        0.0000000000000000     
   7.3917099820014015E-002  0.16635597087052018        0.0000000000000000     
   7.5057055179626089E-002  0.17412309596799838        0.0000000000000000     
   7.6122098072540639E-002  0.18197948486858720        0.0000000000000000     
   7.7112228498757651E-002  0.18992513757228668        0.0000000000000000     
   7.8027446458277167E-002  0.19796005407909684        0.0000000000000000     
   6.7136800441713829E-002  0.16602891698701880        0.0000000000000000     
   6.8169444771281631E-002  0.17381927037916434        0.0000000000000000     
   6.9131857243990458E-002  0.18169837953823556        0.0000000000000000     
   7.0024037859840280E-002  0.18966624446423247        0.0000000000000000     
   7.0845986618831153E-002  0.19772286515715504        0.0000000000000000     
   6.0501136542600122E-002  0.16573569579896918        0.0000000000000000     
   6.1429296161506990E-002  0.17354792418932591        0.0000000000000000     
   6.2292023986212461E-002  0.18144861116134273        0.0000000000000000     
   6.3089320016716521E-002  0.18943775671501967        0.0000000000000000     
   6.3821184253019178E-002  0.19751536085035676        0.0000000000000000     
   5.4010108122672928E-002  0.16547630730637142        0.0000000000000000     
   5.4836609350302219E-002  0.17330905739848307        0.0000000000000000     
   5.5602598299206697E-002  0.18123017973790873        0.0000000000000000     
   5.6308074969386369E-002  0.18923967432464836        0.0000000000000000     
   5.6953039360841243E-002  0.19733754115870195        0.0000000000000000     
   4.7663715181932235E-002  0.16525075150922541        0.0000000000000000     
   4.8391384337667279E-002  0.17310267000663590        0.0000000000000000     
   4.9063580182973139E-002  0.18104308526793361        0.0000000000000000     
   4.9680302717849838E-002  0.18907199729311852        0.0000000000000000     
   5.0241551942297347E-002  0.19718940608219065        0.0000000000000000     
   7.8027446458277167E-002  0.19796005407909684        0.0000000000000000     
   7.8868424259122272E-002  0.20607719841675587        0.0000000000000000     
   7.9635834209316109E-002  0.21426953461300199        0.0000000000000000     
   8.0329676308858650E-002  0.22253706266783524        0.0000000000000000     
   8.0949950557749908E-002  0.23087978258125558        0.0000000000000000     
   7.0845986618831153E-002  0.19772286515715504        0.0000000000000000     
   7.1595814442872371E-002  0.20586202163303235        0.0000000000000000     
   7.2271632253873258E-002  0.21407749390789346        0.0000000000000000     
   7.2873440051833840E-002  0.22236928198173839        0.0000000000000000     
   7.3401237836754105E-002  0.23073738585456716        0.0000000000000000     
   6.3821184253019178E-002  0.19751536085035676        0.0000000000000000     
   6.4484321337155065E-002  0.20567523894838691        0.0000000000000000     
   6.5075435911158885E-002  0.21391120639014316        0.0000000000000000     
   6.5594527975030598E-002  0.22222326317562557        0.0000000000000000     
   6.6041597528770229E-002  0.23061140930483406        0.0000000000000000     
   5.6953039360841243E-002  0.19733754115870195        0.0000000000000000     
   5.7533944941970401E-002  0.20551685036281953        0.0000000000000000     
   5.8047245181172956E-002  0.21377067205975112        0.0000000000000000     
   5.8492940078448914E-002  0.22209900624949672        0.0000000000000000     
   5.8871029633798255E-002  0.23050185293205638        0.0000000000000000     
   5.0241551942297347E-002  0.19718940608219065        0.0000000000000000     
   5.0744685257318352E-002  0.20538685587633024        0.0000000000000000     
   5.1187060063915490E-002  0.21365589091671736        0.0000000000000000     
   5.1568676362088783E-002  0.22199651120335193        0.0000000000000000     
   5.1889534151838224E-002  0.23040871673623409        0.0000000000000000     
   8.0949950557749908E-002  0.23087978258125558        0.0000000000000000     
   8.1486231706903681E-002  0.23931839740638250        0.0000000000000000     
   8.1928094507233706E-002  0.24787361019633533        0.0000000000000000     
   8.2275538958740013E-002  0.25654542095111416        0.0000000000000000     
   8.2528565061422587E-002  0.26533382967071895        0.0000000000000000     
   7.3401237836754105E-002  0.23073738585456716        0.0000000000000000     
   7.3851919962489715E-002  0.23919555133029935        0.0000000000000000     
   7.4222380782896266E-002  0.24775752421285466        0.0000000000000000     
   7.4512620297973842E-002  0.25642330450223316        0.0000000000000000     
   7.4722638507722372E-002  0.26519289219843462        0.0000000000000000     
   6.6041597528770229E-002  0.23061140930483406        0.0000000000000000     
   6.6419074978182210E-002  0.23908222624001760        0.0000000000000000     
   6.6729390729071025E-002  0.24764229544342495        0.0000000000000000     
   6.6972544781436633E-002  0.25629161691505614        0.0000000000000000     
   6.7148537135279074E-002  0.26503019065491118        0.0000000000000000     
   5.8871029633798255E-002  0.23050185293205638        0.0000000000000000     
   5.9187696753981195E-002  0.23897842213553716        0.0000000000000000     
   5.9449124345757914E-002  0.24752792388804612        0.0000000000000000     
   5.9655312409128407E-002  0.25615035818958332        0.0000000000000000     
   5.9806260944092693E-002  0.26484572504014864        0.0000000000000000     
   5.1889534151838224E-002  0.23040871673623409        0.0000000000000000     
   5.2157785289886668E-002  0.23888413901685812        0.0000000000000000     
   5.2381581632956975E-002  0.24741440954671823        0.0000000000000000     
   5.2560923181049171E-002  0.25599952832581452        0.0000000000000000     
   5.2695809934163215E-002  0.26463949535414699        0.0000000000000000     
   8.2528565061422587E-002  0.26533382967071895        0.0000000000000000     
   8.2726121130442976E-002  0.27426520710002072        0.0000000000000000     
   8.2907155480962696E-002  0.28336592398389038        0.0000000000000000     
   8.3071668112981778E-002  0.29263598032232790        0.0000000000000000     
   8.3219659026500220E-002  0.30207537611533336        0.0000000000000000     
   7.4722638507722372E-002  0.26519289219843462        0.0000000000000000     
   7.4893370052071834E-002  0.27405994930978589        0.0000000000000000     
   7.5065749570952175E-002  0.28301813784461322        0.0000000000000000     
   7.5239777064363411E-002  0.29206745780291676        0.0000000000000000     
   7.5415452532305541E-002  0.30120790918469642        0.0000000000000000     
   6.7148537135279074E-002  0.26503019065491118        0.0000000000000000     
   6.7297612824561578E-002  0.27382818299891248        0.0000000000000000     
   6.7460016883247417E-002  0.28265576028298217        0.0000000000000000     
   6.7635749311336590E-002  0.29151292250712035        0.0000000000000000     
   6.7824810108829084E-002  0.30039966967132692        0.0000000000000000     
   5.9806260944092693E-002  0.26484572504014864        0.0000000000000000     
   5.9938849447912203E-002  0.27356990816740057        0.0000000000000000     
   6.0089957417848401E-002  0.28227879129899719        0.0000000000000000     
   6.0259584853901281E-002  0.29097237443493867        0.0000000000000000     
   6.0447731756070849E-002  0.29965065757522485        0.0000000000000000     
   5.2695809934163215E-002  0.26463949535414699        0.0000000000000000     
   5.2817079922123693E-002  0.27328512481525008        0.0000000000000000     
   5.2955571174755120E-002  0.28188723089265838        0.0000000000000000     
   5.3111283692057504E-002  0.29044581358637173        0.0000000000000000     
   5.3284217474030837E-002  0.29896087289639023        0.0000000000000000     
   2.9062761236520906E-002   5.7122876367756079E-002   0.0000000000000000     
   3.0583834008342553E-002   6.2697783988080458E-002   0.0000000000000000     
   3.2059717698252319E-002   6.8449624774217427E-002   0.0000000000000000     
   3.3490412306250210E-002   7.4378398726167000E-002   0.0000000000000000     
   3.4875917832336213E-002   8.0484105843929149E-002   0.0000000000000000     
   2.5133388864078794E-002   5.6715195707604041E-002   0.0000000000000000     
   2.6478252477835213E-002   6.2290559107480305E-002   0.0000000000000000     
   2.7780755865960502E-002   6.8046653243967414E-002   0.0000000000000000     
   2.9040899028454643E-002   7.3983478117065418E-002   0.0000000000000000     
   3.0258681965317648E-002   8.0101033726774296E-002   0.0000000000000000     
   2.1313095095643716E-002   5.6356615955252098E-002   0.0000000000000000     
   2.2475685433053866E-002   6.1934518867788425E-002   0.0000000000000000     
   2.3599944059574635E-002   6.7695850675820679E-002   0.0000000000000000     
   2.4685870975206005E-002   7.3640611379348839E-002   0.0000000000000000     
   2.5733466179947991E-002   7.9768800978372953E-002   0.0000000000000000     
   1.7601879931215664E-002   5.6047137110700272E-002   0.0000000000000000     
   1.8576132873998504E-002   6.1629663269004833E-002   0.0000000000000000     
   1.9517282279094716E-002   6.7397217069777166E-002   0.0000000000000000     
   2.0425328146504298E-002   7.3349798513017289E-002   0.0000000000000000     
   2.1300270476227248E-002   7.9487407598725149E-002   0.0000000000000000     
   1.3999743370794642E-002   5.5786759173948534E-002   0.0000000000000000     
   1.4779594800669132E-002   6.1375992311129515E-002   0.0000000000000000     
   1.5532770524520758E-002   6.7150752425836915E-002   0.0000000000000000     
   1.6259270542349519E-002   7.3111039518070700E-002   0.0000000000000000     
   1.6959094854155421E-002   7.9256853587830897E-002   0.0000000000000000     
   3.4875917832336213E-002   8.0484105843929149E-002   0.0000000000000000     
   3.6214924721975739E-002   8.6757326207294469E-002   0.0000000000000000     
   3.7506123420634176E-002   9.3188639896053527E-002   0.0000000000000000     
   3.8749513928311531E-002   9.9778046910206322E-002   0.0000000000000000     
   3.9945096245007798E-002  0.10652554724975288        0.0000000000000000     
   3.0258681965317648E-002   8.0101033726774296E-002   0.0000000000000000     
   3.1433820895446128E-002   8.6388187209754760E-002   0.0000000000000000     
   3.2566032037736711E-002   9.2833805702667554E-002   0.0000000000000000     
   3.3655315392189390E-002   9.9437889205512719E-002   0.0000000000000000     
   3.4701670958804165E-002  0.10620043771829020        0.0000000000000000     
   2.5733466179947991E-002   7.9768800978372953E-002   0.0000000000000000     
   2.6743118170169389E-002   8.6068102147921877E-002   0.0000000000000000     
   2.7715215442239011E-002   9.2526197563024604E-002   0.0000000000000000     
   2.8649757996156846E-002   9.9143087223681078E-002   0.0000000000000000     
   2.9546745831922905E-002  0.10591877112989134        0.0000000000000000     
   2.1300270476227248E-002   7.9487407598725149E-002   0.0000000000000000     
   2.2142816546145524E-002   8.5797071021795915E-002   0.0000000000000000     
   2.2953673634141077E-002   9.2265815477124688E-002   0.0000000000000000     
   2.3732841740213902E-002   9.8893640964711482E-002   0.0000000000000000     
   2.4480320864364004E-002  0.10568054748455627        0.0000000000000000     
   1.6959094854155421E-002   7.9256853587830897E-002   0.0000000000000000     
   1.7632916023374526E-002   8.5575093831376819E-002   0.0000000000000000     
   1.8281406613442904E-002   9.2052659444967821E-002   0.0000000000000000     
   1.8904566624360554E-002   9.8689550428603889E-002   0.0000000000000000     
   1.9502396056127476E-002  0.10548576678228501        0.0000000000000000     
   3.9945096245007798E-002  0.10652554724975288        0.0000000000000000     
   4.1091078778331992E-002  0.11341929993996749        0.0000000000000000     
   4.2185669935893115E-002  0.12044746400612451        0.0000000000000000     
   4.3228869717691153E-002  0.12761003944822391        0.0000000000000000     
   4.4220678123726119E-002  0.13490702626626572        0.0000000000000000     
   3.4701670958804165E-002  0.10620043771829020        0.0000000000000000     
   3.5703857705562371E-002  0.11310955699690273        0.0000000000000000     
   3.6660634600445344E-002  0.12015335279725289        0.0000000000000000     
   3.7572001643453083E-002  0.12733182511934074        0.0000000000000000     
   3.8437958834585575E-002  0.13464497396316627        0.0000000000000000     
   2.9546745831922905E-002  0.10591877112989134        0.0000000000000000     
   3.0405312916482213E-002  0.11284132364620934        0.0000000000000000     
   3.1224593216779829E-002  0.11989881913718906        0.0000000000000000     
   3.2004586732815747E-002  0.12709125760283044        0.0000000000000000     
   3.2745293464589965E-002  0.13441863904313359        0.0000000000000000     
   2.4480320864364004E-002  0.10568054748455627        0.0000000000000000     
   2.5195444411091512E-002  0.11261459988788733        0.0000000000000000     
   2.5877545784896563E-002  0.11968386302593292        0.0000000000000000     
   2.6526624985779155E-002  0.12688833689869303        0.0000000000000000     
   2.7142682013739282E-002  0.13422802150616767        0.0000000000000000     
   1.9502396056127476E-002  0.10548576678228501        0.0000000000000000     
   2.0074252189390275E-002  0.11242938572193674        0.0000000000000000     
   2.0619492304795550E-002  0.11950848446348455        0.0000000000000000     
   2.1138116402343303E-002  0.12672306300692848        0.0000000000000000     
   2.1630124482033528E-002  0.13407312135226854        0.0000000000000000     
   4.4220678123726119E-002  0.13490702626626572        0.0000000000000000     
   4.5160452478479073E-002  0.14232665347346043        0.0000000000000000     
   4.6047550106431079E-002  0.14985715008301864        0.0000000000000000     
   4.6881971007582138E-002  0.15749851609494031        0.0000000000000000     
   4.7663715181932235E-002  0.16525075150922541        0.0000000000000000     
   3.8437958834585575E-002  0.13464497396316627        0.0000000000000000     
   3.9257829847504720E-002  0.14208103282013179        0.0000000000000000     
   4.0030938355872368E-002  0.14962823518163967        0.0000000000000000     
   4.0757284359688527E-002  0.15728658104768994        0.0000000000000000     
   4.1436867858953196E-002  0.16505607041828255        0.0000000000000000     
   3.2745293464589965E-002  0.13441863904313359        0.0000000000000000     
   3.3446039896055053E-002  0.14186919542643156        0.0000000000000000     
   3.4106152511163584E-002  0.14943115872105767        0.0000000000000000     
   3.4725631309915558E-002  0.15710452892701185        0.0000000000000000     
   3.5304476292310968E-002  0.16488930604429405        0.0000000000000000     
   2.7142682013739282E-002  0.13422802150616767        0.0000000000000000     
   2.7725082624130093E-002  0.14169114129235985        0.0000000000000000     
   2.8273192572304744E-002  0.14926592070127268        0.0000000000000000     
   2.8787011858263229E-002  0.15695235973290597        0.0000000000000000     
   2.9266540482005544E-002  0.16475045838725996        0.0000000000000000     
   2.1630124482033528E-002  0.13407312135226854        0.0000000000000000     
   2.2094958031729839E-002  0.14154687041791658        0.0000000000000000     
   2.2532058539295848E-002  0.14913252112228456        0.0000000000000000     
   2.2941426004731549E-002  0.15683007346537245        0.0000000000000000     
   2.3323060428036939E-002  0.16463952744718025        0.0000000000000000     
   4.7663715181932235E-002  0.16525075150922541        0.0000000000000000     
   4.8391384337667279E-002  0.17310267000663590        0.0000000000000000     
   4.9063580182973139E-002  0.18104308526793361        0.0000000000000000     
   4.9680302717849838E-002  0.18907199729311852        0.0000000000000000     
   5.0241551942297347E-002  0.19718940608219065        0.0000000000000000     
   4.1436867858953196E-002  0.16505607041828255        0.0000000000000000     
   4.2068032333629837E-002  0.17292544739440549        0.0000000000000000     
   4.2649121263681887E-002  0.18088345607704678        0.0000000000000000     
   4.3180134649109359E-002  0.18893009646620634        0.0000000000000000     
   4.3661072489912245E-002  0.19706536856188420        0.0000000000000000     
   3.5304476292310968E-002  0.16488930604429405        0.0000000000000000     
   3.5840964548217544E-002  0.17277407494241312        0.0000000000000000     
   3.6333373167503027E-002  0.18074742049087777        0.0000000000000000     
   3.6781702150167406E-002  0.18880934268968805        0.0000000000000000     
   3.7185951496210679E-002  0.19695984153884388        0.0000000000000000     
   2.9266540482005544E-002  0.16475045838725996        0.0000000000000000     
   2.9710180981430419E-002  0.17264855265065873        0.0000000000000000     
   3.0116335894436561E-002  0.18063497850942661        0.0000000000000000     
   3.0485005221023972E-002  0.18870973596356355        0.0000000000000000     
   3.0816188961192655E-002  0.19687282501306960        0.0000000000000000     
   2.3323060428036939E-002  0.16463952744718025        0.0000000000000000     
   2.3675681633268445E-002  0.17254888051914238        0.0000000000000000     
   2.3998009444482483E-002  0.18054613013269330        0.0000000000000000     
   2.4290043861679055E-002  0.18863127628783299        0.0000000000000000     
   2.4551784884858159E-002  0.19680431898456147        0.0000000000000000     
   5.0241551942297347E-002  0.19718940608219065        0.0000000000000000     
   5.0744685257318352E-002  0.20538685587633024        0.0000000000000000     
   5.1187060063915490E-002  0.21365589091671736        0.0000000000000000     
   5.1568676362088783E-002  0.22199651120335193        0.0000000000000000     
   5.1889534151838224E-002  0.23040871673623409        0.0000000000000000     
   4.3661072489912245E-002  0.19706536856188420        0.0000000000000000     
   4.4090604283212813E-002  0.20527895636992377        0.0000000000000000     
   4.4467399526133336E-002  0.21356054389616821        0.0000000000000000     
   4.4791458218673808E-002  0.22191013114061758        0.0000000000000000     
   4.5062780360834220E-002  0.23032771810327191        0.0000000000000000     
   3.7185951496210679E-002  0.19695984153884388        0.0000000000000000     
   3.7545764019667707E-002  0.20518685272460480        0.0000000000000000     
   3.7860782534573333E-002  0.21347831193323025        0.0000000000000000     
   3.8131007040927561E-002  0.22183421916472024        0.0000000000000000     
   3.8356437538730394E-002  0.23025457441907471        0.0000000000000000     
   3.0816188961192655E-002  0.19687282501306960        0.0000000000000000     
   3.1110164466683018E-002  0.20511054494037337        0.0000000000000000     
   3.1367209089235487E-002  0.21340919502790340        0.0000000000000000     
   3.1587322828850052E-002  0.22176877527565975        0.0000000000000000     
   3.1770505685526730E-002  0.23018928568364236        0.0000000000000000     
   2.4551784884858159E-002  0.19680431898456147        0.0000000000000000     
   2.4783805624258755E-002  0.20505003301722946        0.0000000000000000     
   2.4986679190119800E-002  0.21335319318018769        0.0000000000000000     
   2.5160405582441293E-002  0.22171379947343617        0.0000000000000000     
   2.5304984801223236E-002  0.23013185189697494        0.0000000000000000     
   5.1889534151838224E-002  0.23040871673623409        0.0000000000000000     
   5.2157785289886668E-002  0.23888413901685812        0.0000000000000000     
   5.2381581632956975E-002  0.24741440954671823        0.0000000000000000     
   5.2560923181049171E-002  0.25599952832581452        0.0000000000000000     
   5.2695809934163215E-002  0.26463949535414699        0.0000000000000000     
   4.5062780360834220E-002  0.23032771810327191        0.0000000000000000     
   4.5290208945340610E-002  0.23879797693635690        0.0000000000000000     
   4.5482586964918990E-002  0.24730557979209813        0.0000000000000000     
   4.5639914419569369E-002  0.25585052667049557        0.0000000000000000     
   4.5762191309291732E-002  0.26443281757154935        0.0000000000000000     
   3.8356437538730394E-002  0.23025457441907471        0.0000000000000000     
   3.8545836079785047E-002  0.23871853594641004        0.0000000000000000     
   3.8707964715894751E-002  0.24720526199684253        0.0000000000000000     
   3.8842823447059499E-002  0.25571475257037224        0.0000000000000000     
   3.8950412273279292E-002  0.26424700766699899        0.0000000000000000     
   3.1770505685526730E-002  0.23018928568364236        0.0000000000000000     
   3.1924666693219972E-002  0.23864581604701757        0.0000000000000000     
   3.2057714885884242E-002  0.24711345616095157        0.0000000000000000     
   3.2169650263519561E-002  0.25559220602544430        0.0000000000000000     
   3.2260472826125902E-002  0.26408206564049586        0.0000000000000000     
   2.5304984801223236E-002  0.23013185189697494        0.0000000000000000     
   2.5426700785645386E-002  0.23857981723817942        0.0000000000000000     
   2.5531837474887485E-002  0.24703016228442506        0.0000000000000000     
   2.5620394868949549E-002  0.25548288703571187        0.0000000000000000     
   2.5692372967831563E-002  0.26393799149203995        0.0000000000000000     
   5.2695809934163215E-002  0.26463949535414699        0.0000000000000000     
   5.2817079922123693E-002  0.27328512481525008        0.0000000000000000     
   5.2955571174755120E-002  0.28188723089265838        0.0000000000000000     
   5.3111283692057504E-002  0.29044581358637173        0.0000000000000000     
   5.3284217474030837E-002  0.29896087289639023        0.0000000000000000     
   4.5762191309291732E-002  0.26443281757154935        0.0000000000000000     
   4.5873555520183538E-002  0.27300254864007356        0.0000000000000000     
   4.5998144938342221E-002  0.28150981602088215        0.0000000000000000     
   4.6135959563767780E-002  0.28995461971397524        0.0000000000000000     
   4.6286999396460221E-002  0.29833695971935281        0.0000000000000000     
   3.8950412273279292E-002  0.26424700766699899        0.0000000000000000     
   3.9049527515079209E-002  0.27275089533948327        0.0000000000000000     
   3.9158965492984324E-002  0.28117528364058525        0.0000000000000000     
   3.9278726206994637E-002  0.28952017257030493        0.0000000000000000     
   3.9408809657110161E-002  0.29778556212864232        0.0000000000000000     
   3.2260472826125902E-002  0.26408206564049586        0.0000000000000000     
   3.2344995906810725E-002  0.27253016491347931        0.0000000000000000     
   3.2438032838681449E-002  0.28088363375176756        0.0000000000000000     
   3.2539583621738088E-002  0.28914247215536076        0.0000000000000000     
   3.2649648255980643E-002  0.29730668012425887        0.0000000000000000     
   2.5692372967831563E-002  0.26393799149203995        0.0000000000000000     
   2.5759960695378066E-002  0.27234035736206152        0.0000000000000000     
   2.5835346975433587E-002  0.28063486635442914        0.0000000000000000     
   2.5918531807998121E-002  0.28882151846914278        0.0000000000000000     
   2.6009515193071677E-002  0.29690031370620240        0.0000000000000000     
   1.3999743370794642E-002   5.5786759173948534E-002   0.0000000000000000     
   1.4779594800669132E-002   6.1375992311129515E-002   0.0000000000000000     
   1.5532770524520758E-002   6.7150752425836915E-002   0.0000000000000000     
   1.6259270542349519E-002   7.3111039518070700E-002   0.0000000000000000     
   1.6959094854155421E-002   7.9256853587830897E-002   0.0000000000000000     
   1.0464061466281278E-002   5.5580410126720645E-002   0.0000000000000000     
   1.1047097002746536E-002   6.1176423503585334E-002   0.0000000000000000     
   1.1610394810486258E-002   6.6957919783455375E-002   0.0000000000000000     
   1.2153954889500433E-002   7.2924898966330753E-002   0.0000000000000000     
   1.2677777239789075E-002   7.9077361052211484E-002   0.0000000000000000     
   6.9522102695761950E-003   5.5433017950740356E-002   0.0000000000000000     
   7.3396652699115172E-003   6.1033874355795117E-002   0.0000000000000000     
   7.7141411516247213E-003   6.6820182182088031E-002   0.0000000000000000     
   8.0756379147158084E-003   7.2791941429619061E-002   0.0000000000000000     
   8.4241555591847810E-003   7.8949152098388237E-002   0.0000000000000000     
   3.4641897806793956E-003   5.5344582646007660E-002   0.0000000000000000     
   3.6572996021640679E-003   6.0948344867758880E-002   0.0000000000000000     
   3.8440095479361502E-003   6.6737539621734870E-002   0.0000000000000000     
   4.0243196179956409E-003   7.2712166907935638E-002   0.0000000000000000     
   4.1982298123425417E-003   7.8872226726361183E-002   0.0000000000000000     
  -4.0912282242566711E-013   5.5315104212522559E-002   0.0000000000000000     
  -4.9580825556283514E-013   6.0919835039476615E-002   0.0000000000000000     
  -5.7945759735639202E-013   6.6709992102395921E-002   0.0000000000000000     
  -6.6006935702835057E-013   7.2685575401280483E-002   0.0000000000000000     
  -7.3764497114658933E-013   7.8846584936130296E-002   0.0000000000000000     
   1.6959094854155421E-002   7.9256853587830897E-002   0.0000000000000000     
   1.7632916023374526E-002   8.5575093831376819E-002   0.0000000000000000     
   1.8281406613442904E-002   9.2052659444967821E-002   0.0000000000000000     
   1.8904566624360554E-002   9.8689550428603889E-002   0.0000000000000000     
   1.9502396056127476E-002  0.10548576678228501        0.0000000000000000     
   1.2677777239789075E-002   7.9077361052211484E-002   0.0000000000000000     
   1.3182333792755737E-002   8.5402324886698508E-002   0.0000000000000000     
   1.3668096479803989E-002   9.1886809315392781E-002   0.0000000000000000     
   1.4135065300933830E-002   9.8530814338294262E-002   0.0000000000000000     
   1.4583240256145262E-002  0.10533433995540299        0.0000000000000000     
   8.4241555591847810E-003   7.8949152098388237E-002   0.0000000000000000     
   8.7599870451884991E-003   8.5278918497794898E-002   0.0000000000000000     
   9.0834253328838238E-003   9.1768344937238372E-002   0.0000000000000000     
   9.3944704222707585E-003   9.8417431416718618E-002   0.0000000000000000     
   9.6931223133493016E-003  0.10522617793623566        0.0000000000000000     
   4.1982298123425417E-003   7.8872226726361183E-002   0.0000000000000000     
   4.3658757806728111E-003   8.5204874664666003E-002   0.0000000000000000     
   4.5273931726824094E-003   9.1697266310504566E-002   0.0000000000000000     
   4.6827819883713366E-003   9.8349401663876915E-002   0.0000000000000000     
   4.8320422277395910E-003  0.10516128072478304        0.0000000000000000     
  -7.3764497114658933E-013   7.8846584936130296E-002   0.0000000000000000     
  -7.9132663963199512E-013   8.5180193387311795E-002   0.0000000000000000     
  -8.0025748397730134E-013   9.1673573435191447E-002   0.0000000000000000     
  -7.6443648774297129E-013   9.8326725079769195E-002   0.0000000000000000     
  -6.8386485710392186E-013  0.10513964832104508        0.0000000000000000     
   1.9502396056127476E-002  0.10548576678228501        0.0000000000000000     
   2.0074252189390275E-002  0.11242938572193674        0.0000000000000000     
   2.0619492304795550E-002  0.11950848446348455        0.0000000000000000     
   2.1138116402343303E-002  0.12672306300692848        0.0000000000000000     
   2.1630124482033528E-002  0.13407312135226854        0.0000000000000000     
   1.4583240256145262E-002  0.10533433995540299        0.0000000000000000     
   1.5011970867625134E-002  0.11228548377339187        0.0000000000000000     
   1.5420606657560294E-002  0.11937234339893379        0.0000000000000000     
   1.5809147625950749E-002  0.12659491883202881        0.0000000000000000     
   1.6177593772796487E-002  0.13395321007267688        0.0000000000000000     
   9.6931223133493016E-003  0.10522617793623566        0.0000000000000000     
   9.9788350620427253E-003  0.11218269666728710        0.0000000000000000     
   1.0251062724274307E-002  0.11927509978137055        0.0000000000000000     
   1.0509805300044046E-002  0.12650338727848601        0.0000000000000000     
   1.0755062789351941E-002  0.13386755915863341        0.0000000000000000     
   4.8320422277395910E-003  0.10516128072478304        0.0000000000000000     
   4.9748447726430493E-003  0.11212102440362247        0.0000000000000000     
   5.1108605049375849E-003  0.11921675361079478        0.0000000000000000     
   5.2400894246231967E-003  0.12644846834630002        0.0000000000000000     
   5.3625315316998849E-003  0.13381616861013815        0.0000000000000000     
  -6.8386485710392186E-013  0.10513964832104508        0.0000000000000000     
  -5.7389249602524117E-013  0.11210046698239791        0.0000000000000000     
  -4.4987006741353808E-013  0.11919730488720653        0.0000000000000000     
  -3.1179765258397552E-013  0.12643016203547092        0.0000000000000000     
  -1.5967695915497515E-013  0.13379903842719107        0.0000000000000000     
   2.1630124482033528E-002  0.13407312135226854        0.0000000000000000     
   2.2094958031729839E-002  0.14154687041791658        0.0000000000000000     
   2.2532058539295848E-002  0.14913252112228456        0.0000000000000000     
   2.2941426004731549E-002  0.15683007346537245        0.0000000000000000     
   2.3323060428036939E-002  0.16463952744718025        0.0000000000000000     
   1.6177593772796487E-002  0.13395321007267688        0.0000000000000000     
   1.6525491965266939E-002  0.14143541357884482        0.0000000000000000     
   1.6852389070531524E-002  0.14902972580849944        0.0000000000000000     
   1.7158285088590235E-002  0.15673614676164072        0.0000000000000000     
   1.7443180019443075E-002  0.16455467643826871        0.0000000000000000     
   1.0755062789351941E-002  0.13386755915863341        0.0000000000000000     
   1.0986510271154043E-002  0.14135580155088759        0.0000000000000000     
   1.1203822824406403E-002  0.14895630058432330        0.0000000000000000     
   1.1407000449109020E-002  0.15666905625894051        0.0000000000000000     
   1.1596043145261890E-002  0.16449406857473919        0.0000000000000000     
   5.3625315316998849E-003  0.13381616861013815        0.0000000000000000     
   5.4780129493911508E-003  0.14130803433404490        0.0000000000000000     
   5.5863598009204887E-003  0.14891224544975612        0.0000000000000000     
   5.6875720862878997E-003  0.15662880195727172        0.0000000000000000     
   5.7816498054933853E-003  0.16445770385659164        0.0000000000000000     
  -1.5967695915497515E-013  0.13379903842719107        0.0000000000000000     
  -2.1739771441375844E-014  0.14129211192831678        0.0000000000000000     
   7.3778656795031594E-014  0.14889756040479787        0.0000000000000000     
   1.2687832555424716E-013  0.15661538385663432        0.0000000000000000     
   1.3755880115540187E-013  0.16444558228382614        0.0000000000000000     
   2.3323060428036939E-002  0.16463952744718025        0.0000000000000000     
   2.3675681633268445E-002  0.17254888051914238        0.0000000000000000     
   2.3998009444482483E-002  0.18054613013269330        0.0000000000000000     
   2.4290043861679055E-002  0.18863127628783299        0.0000000000000000     
   2.4551784884858159E-002  0.19680431898456147        0.0000000000000000     
   1.7443180019443075E-002  0.16455467643826871        0.0000000000000000     
   1.7706183602059930E-002  0.17247297684916627        0.0000000000000000     
   1.7946405575410680E-002  0.18047871000511623        0.0000000000000000     
   1.8163845939495323E-002  0.18857187590611854        0.0000000000000000     
   1.8358504694313868E-002  0.19675247455217337        0.0000000000000000     
   1.1596043145261890E-002  0.16449406857473919        0.0000000000000000     
   1.1770403986133174E-002  0.17241875994203257        0.0000000000000000     
   1.1929536044991028E-002  0.18043055277113368        0.0000000000000000     
   1.2073439321835451E-002  0.18852944706204255        0.0000000000000000     
   1.2202113816666443E-002  0.19671544281475919        0.0000000000000000     
   5.7816498054933853E-003  0.16445770385659164        0.0000000000000000     
   5.8683427854881827E-003  0.17238622979774126        0.0000000000000000     
   5.9474008532235329E-003  0.18040165843074571        0.0000000000000000     
   6.0188240086994351E-003  0.18850398975560495        0.0000000000000000     
   6.0826122519158895E-003  0.19669322377231901        0.0000000000000000     
   1.3755880115540187E-013  0.16444558228382614        0.0000000000000000     
   1.2495278249591291E-013  0.17237538641629244        0.0000000000000000     
   1.0819014954754902E-013  0.18039202698395226        0.0000000000000000     
   8.7274968068457026E-014  0.18849550398680576        0.0000000000000000     
   6.2202413358969366E-014  0.19668581742485280        0.0000000000000000     
   2.4551784884858159E-002  0.19680431898456147        0.0000000000000000     
   2.4783805624258755E-002  0.20505003301722946        0.0000000000000000     
   2.4986679190119800E-002  0.21335319318018769        0.0000000000000000     
   2.5160405582441293E-002  0.22171379947343617        0.0000000000000000     
   2.5304984801223236E-002  0.23013185189697494        0.0000000000000000     
   1.8358504694313868E-002  0.19675247455217337        0.0000000000000000     
   1.8531013907386925E-002  0.20500399577370618        0.0000000000000000     
   1.8682005646235116E-002  0.21330992940114255        0.0000000000000000     
   1.8811479910858447E-002  0.22167027543448262        0.0000000000000000     
   1.8919436701256911E-002  0.23008503387372620        0.0000000000000000     
   1.2202113816666443E-002  0.19671544281475919        0.0000000000000000     
   1.2316115731059547E-002  0.20497111202833651        0.0000000000000000     
   1.2416001266590298E-002  0.21327902670182741        0.0000000000000000     
   1.2501770423258700E-002  0.22163918683523184        0.0000000000000000     
   1.2573423201064752E-002  0.23005159242854983        0.0000000000000000     
   6.0826122519158895E-003  0.19669322377231901        0.0000000000000000     
   6.1391110952766156E-003  0.20495138178112055        0.0000000000000000     
   6.1886660511853387E-003  0.21326048508224221        0.0000000000000000     
   6.2312771196420536E-003  0.22162053367568402        0.0000000000000000     
   6.2669443006467653E-003  0.23003152756144588        0.0000000000000000     
   6.2202413358969366E-014  0.19668581742485280        0.0000000000000000     
   3.8137895619350104E-014  0.20494480503205825        0.0000000000000000     
   2.0238910374004160E-014  0.21325430454238703        0.0000000000000000     
   8.5081410233084354E-015  0.22161431595583903        0.0000000000000000     
   2.9464278239466068E-015  0.23002483927241435        0.0000000000000000     
   2.5304984801223236E-002  0.23013185189697494        0.0000000000000000     
   2.5426700785645386E-002  0.23857981723817942        0.0000000000000000     
   2.5531837474887485E-002  0.24703016228442506        0.0000000000000000     
   2.5620394868949549E-002  0.25548288703571187        0.0000000000000000     
   2.5692372967831563E-002  0.26393799149203995        0.0000000000000000     
   1.8919436701256911E-002  0.23008503387372620        0.0000000000000000     
   1.9010258860483072E-002  0.23852500875756402        0.0000000000000000     
   1.9088329231589495E-002  0.24696100412468672        0.0000000000000000     
   1.9153647814576180E-002  0.25539301997509428        0.0000000000000000     
   1.9206214609443127E-002  0.26382105630878672        0.0000000000000000     
   1.2573423201064752E-002  0.23005159242854983        0.0000000000000000     
   1.2633661421154831E-002  0.23848585984283976        0.0000000000000000     
   1.2685186904675308E-002  0.24691160543916005        0.0000000000000000     
   1.2727999651626184E-002  0.25532882921751071        0.0000000000000000     
   1.2762099662007460E-002  0.26373753117789173        0.0000000000000000     
   6.2669443006467653E-003  0.23003152756144588        0.0000000000000000     
   6.2969084676606571E-003  0.23846237049400668        0.0000000000000000     
   6.3224104941449200E-003  0.24688196622784506        0.0000000000000000     
   6.3434503800995521E-003  0.25529031476296116        0.0000000000000000     
   6.3600281255245536E-003  0.26368741609935492        0.0000000000000000     
   2.9464278239466068E-015  0.23002483927241435        0.0000000000000000     
   5.5315994840210436E-016  0.23845454071106470        0.0000000000000000     
  -1.6672861008482087E-015  0.24687208649074183        0.0000000000000000     
  -3.7138803317404712E-015  0.25527747661144562        0.0000000000000000     
  -5.5892790395972725E-015  0.26367071107317624        0.0000000000000000     
   2.5692372967831563E-002  0.26393799149203995        0.0000000000000000     
   2.5759960695378066E-002  0.27234035736206152        0.0000000000000000     
   2.5835346975433587E-002  0.28063486635442914        0.0000000000000000     
   2.5918531807998121E-002  0.28882151846914278        0.0000000000000000     
   2.6009515193071677E-002  0.29690031370620240        0.0000000000000000     
   1.9206214609443127E-002  0.26382105630878672        0.0000000000000000     
   1.9255997892155447E-002  0.27218780451220248        0.0000000000000000     
   1.9312965938678241E-002  0.28043595597178012        0.0000000000000000     
   1.9377118749011511E-002  0.28856551068751957        0.0000000000000000     
   1.9448456323155262E-002  0.29657646865942089        0.0000000000000000     
   1.2762099662007460E-002  0.26373753117789173        0.0000000000000000     
   1.2794683508517059E-002  0.27207883819087447        0.0000000000000000     
   1.2832947763852916E-002  0.28029387712703052        0.0000000000000000     
   1.2876892428015024E-002  0.28838264798635965        0.0000000000000000     
   1.2926517501003387E-002  0.29634515076886220        0.0000000000000000     
   6.3600281255245536E-003  0.26368741609935492        0.0000000000000000     
   6.3760175444629117E-003  0.27201345839807750        0.0000000000000000     
   6.3952924509576153E-003  0.28020862982018030        0.0000000000000000     
   6.4178528450086619E-003  0.28827293036566326        0.0000000000000000     
   6.4436987266160550E-003  0.29620636003452638        0.0000000000000000     
  -5.5892790395972725E-015  0.26367071107317624        0.0000000000000000     
  -7.0035123533873644E-015  0.27199166513381157        0.0000000000000000     
  -7.6650925190380192E-015  0.28018021405122956        0.0000000000000000     
  -7.5747242679613525E-015  0.28823635782543022        0.0000000000000000     
  -6.7333291720039767E-015  0.29616009645641350        0.0000000000000000     
  -4.0912282242566711E-013   5.5315104212522559E-002   0.0000000000000000     
  -4.9580825556283514E-013   6.0919835039476615E-002   0.0000000000000000     
  -5.7945759735639202E-013   6.6709992102395921E-002   0.0000000000000000     
  -6.6006935702835057E-013   7.2685575401280483E-002   0.0000000000000000     
  -7.3764497114658933E-013   7.8846584936130296E-002   0.0000000000000000     
  -3.4641897814739931E-003   5.5344582649298715E-002   0.0000000000000000     
  -3.6572996030832796E-003   6.0948344870282826E-002   0.0000000000000000     
  -3.8440095489872890E-003   6.6737539623649603E-002   0.0000000000000000     
  -4.0243196191860186E-003   7.2712166909399009E-002   0.0000000000000000     
  -4.1982298136794757E-003   7.8872226727531067E-002   0.0000000000000000     
  -6.9522102702998479E-003   5.5433017955349807E-002   0.0000000000000000     
  -7.3396652706135095E-003   6.1033874359512047E-002   0.0000000000000000     
  -7.7141411523525289E-003   6.6820182185074337E-002   0.0000000000000000     
  -8.0756379155169072E-003   7.2791941432036641E-002   0.0000000000000000     
  -8.4241555601066442E-003   7.8949152100398989E-002   0.0000000000000000     
  -1.0464061466886687E-002   5.5580410130675835E-002   0.0000000000000000     
  -1.1047097003086502E-002   6.1176423507164276E-002   0.0000000000000000     
  -1.1610394810675183E-002   6.6957919786670123E-002   0.0000000000000000     
  -1.2153954889652735E-002   7.2924898969193380E-002   0.0000000000000000     
  -1.2677777240019153E-002   7.9077361054734022E-002   0.0000000000000000     
  -1.3999743371234512E-002   5.5786759175276805E-002   0.0000000000000000     
  -1.4779594800502253E-002   6.1375992313239494E-002   0.0000000000000000     
  -1.5532770523955249E-002   6.7150752428436974E-002   0.0000000000000000     
  -1.6259270541593495E-002   7.3111039520869225E-002   0.0000000000000000     
  -1.6959094853417001E-002   7.9256853590536233E-002   0.0000000000000000     
  -7.3764497114658933E-013   7.8846584936130296E-002   0.0000000000000000     
  -7.9132663963199512E-013   8.5180193387311795E-002   0.0000000000000000     
  -8.0025748397730134E-013   9.1673573435191447E-002   0.0000000000000000     
  -7.6443648774297129E-013   9.8326725079769195E-002   0.0000000000000000     
  -6.8386485710392186E-013  0.10513964832104508        0.0000000000000000     
  -4.1982298136794757E-003   7.8872226727531067E-002   0.0000000000000000     
  -4.3658757821176388E-003   8.5204874665616270E-002   0.0000000000000000     
  -4.5273931741504972E-003   9.1697266311225101E-002   0.0000000000000000     
  -4.6827819897780516E-003   9.8349401664357586E-002   0.0000000000000000     
  -4.8320422290002978E-003  0.10516128072501368        0.0000000000000000     
  -8.4241555601066442E-003   7.8949152100398989E-002   0.0000000000000000     
  -8.7599870462198495E-003   8.5278918499463355E-002   0.0000000000000000     
  -9.0834253339546339E-003   9.1768344938531782E-002   0.0000000000000000     
  -9.3944704233109994E-003   9.8417431417604243E-002   0.0000000000000000     
  -9.6931223142889388E-003  0.10522617793668074        0.0000000000000000     
  -1.2677777240019153E-002   7.9077361054734022E-002   0.0000000000000000     
  -1.3182333793097956E-002   8.5402324888853090E-002   0.0000000000000000     
  -1.3668096480212664E-002   9.1886809317111448E-002   0.0000000000000000     
  -1.4135065301363279E-002   9.8530814339509151E-002   0.0000000000000000     
  -1.4583240256549791E-002  0.10533433995604619        0.0000000000000000     
  -1.6959094853417001E-002   7.9256853590536233E-002   0.0000000000000000     
  -1.7632916022751969E-002   8.5575093833785407E-002   0.0000000000000000     
  -1.8281406612924597E-002   9.2052659446964114E-002   0.0000000000000000     
  -1.8904566623934888E-002   9.8689550430072312E-002   0.0000000000000000     
  -1.9502396055782849E-002  0.10548576678311006        0.0000000000000000     
  -6.8386485710392186E-013  0.10513964832104508        0.0000000000000000     
  -5.7389249602524117E-013  0.11210046698239791        0.0000000000000000     
  -4.4987006741353808E-013  0.11919730488720653        0.0000000000000000     
  -3.1179765258397552E-013  0.12643016203547092        0.0000000000000000     
  -1.5967695915497515E-013  0.13379903842719107        0.0000000000000000     
  -4.8320422290002978E-003  0.10516128072501368        0.0000000000000000     
  -4.9748447737020035E-003  0.11212102440362891        0.0000000000000000     
  -5.1108605057679319E-003  0.11921675361063862        0.0000000000000000     
  -5.2400894251980832E-003  0.12644846834604287        0.0000000000000000     
  -5.3625315319924547E-003  0.13381616860984166        0.0000000000000000     
  -9.6931223142889388E-003  0.10522617793668074        0.0000000000000000     
  -9.9788350628351903E-003  0.11218269666733077        0.0000000000000000     
  -1.0251062724896478E-002  0.11927509978112390        0.0000000000000000     
  -1.0509805300472796E-002  0.12650338727806010        0.0000000000000000     
  -1.0755062789564156E-002  0.13386755915813936        0.0000000000000000     
  -1.4583240256549791E-002  0.10533433995604619        0.0000000000000000     
  -1.5011970867973451E-002  0.11228548377350357        0.0000000000000000     
  -1.5420606657835503E-002  0.11937234339866239        0.0000000000000000     
  -1.5809147626135944E-002  0.12659491883152260        0.0000000000000000     
  -1.6177593772874779E-002  0.13395321007208419        0.0000000000000000     
  -1.9502396055782849E-002  0.10548576678311006        0.0000000000000000     
  -2.0074252189116789E-002  0.11242938572214729        0.0000000000000000     
  -2.0619492304585010E-002  0.11950848446325406        0.0000000000000000     
  -2.1138116402187525E-002  0.12672306300643035        0.0000000000000000     
  -2.1630124481924324E-002  0.13407312135167615        0.0000000000000000     
  -1.5967695915497515E-013  0.13379903842719107        0.0000000000000000     
  -2.1739771441375844E-014  0.14129211192831678        0.0000000000000000     
   7.3778656795031594E-014  0.14889756040479787        0.0000000000000000     
   1.2687832555424716E-013  0.15661538385663432        0.0000000000000000     
   1.3755880115540187E-013  0.16444558228382614        0.0000000000000000     
  -5.3625315319924547E-003  0.13381616860984166        0.0000000000000000     
  -5.4780129494275201E-003  0.14130803433375269        0.0000000000000000     
  -5.5863598007797445E-003  0.14891224544949383        0.0000000000000000     
  -5.6875720860491323E-003  0.15662880195706499        0.0000000000000000     
  -5.7816498052356861E-003  0.16445770385646619        0.0000000000000000     
  -1.0755062789564156E-002  0.13386755915813936        0.0000000000000000     
  -1.0986510271169080E-002  0.14135580155040220        0.0000000000000000     
  -1.1203822824286100E-002  0.14895630058388917        0.0000000000000000     
  -1.1407000448915223E-002  0.15666905625860020        0.0000000000000000     
  -1.1596043145056448E-002  0.16449406857453544        0.0000000000000000     
  -1.6177593772874779E-002  0.13395321007208419        0.0000000000000000     
  -1.6525491965246417E-002  0.14143541357826525        0.0000000000000000     
  -1.6852389070445291E-002  0.14902972580798388        0.0000000000000000     
  -1.7158285088471392E-002  0.15673614676124012        0.0000000000000000     
  -1.7443180019324725E-002  0.16455467643803387        0.0000000000000000     
  -2.1630124481924324E-002  0.13407312135167615        0.0000000000000000     
  -2.2094958031659541E-002  0.14154687041734190        0.0000000000000000     
  -2.2532058539257310E-002  0.14913252112177802        0.0000000000000000     
  -2.2941426004717640E-002  0.15683007346498459        0.0000000000000000     
  -2.3323060428040519E-002  0.16463952744696150        0.0000000000000000     
   1.3755880115540187E-013  0.16444558228382614        0.0000000000000000     
   1.2495278249591291E-013  0.17237538641629244        0.0000000000000000     
   1.0819014954754902E-013  0.18039202698395226        0.0000000000000000     
   8.7274968068457026E-014  0.18849550398680576        0.0000000000000000     
   6.2202413358969366E-014  0.19668581742485280        0.0000000000000000     
  -5.7816498052356861E-003  0.16445770385646619        0.0000000000000000     
  -5.8683427852548702E-003  0.17238622979769647        0.0000000000000000     
  -5.9474008530221592E-003  0.18040165843075490        0.0000000000000000     
  -6.0188240085375455E-003  0.18850398975564145        0.0000000000000000     
  -6.0826122518010360E-003  0.19669322377235615        0.0000000000000000     
  -1.1596043145056448E-002  0.16449406857453544        0.0000000000000000     
  -1.1770403985949640E-002  0.17241875994196396        0.0000000000000000     
  -1.1929536044834666E-002  0.18043055277115502        0.0000000000000000     
  -1.2073439321711539E-002  0.18852944706210864        0.0000000000000000     
  -1.2202113816580250E-002  0.19671544281482478        0.0000000000000000     
  -1.7443180019324725E-002  0.16455467643803387        0.0000000000000000     
  -1.7706183601959354E-002  0.17247297684909482        0.0000000000000000     
  -1.7946405575329345E-002  0.18047871000515264        0.0000000000000000     
  -1.8163845939434705E-002  0.18857187590620722        0.0000000000000000     
  -1.8358504694275433E-002  0.19675247455225864        0.0000000000000000     
  -2.3323060428040519E-002  0.16463952744696150        0.0000000000000000     
  -2.3675681633284016E-002  0.17254888051908912        0.0000000000000000     
  -2.3998009444506190E-002  0.18054613013274773        0.0000000000000000     
  -2.4290043861707050E-002  0.18863127628793727        0.0000000000000000     
  -2.4551784884886591E-002  0.19680431898465778        0.0000000000000000     
   6.2202413358969366E-014  0.19668581742485280        0.0000000000000000     
   3.8137895619350104E-014  0.20494480503205825        0.0000000000000000     
   2.0238910374004160E-014  0.21325430454238703        0.0000000000000000     
   8.5081410233084354E-015  0.22161431595583903        0.0000000000000000     
   2.9464278239466068E-015  0.23002483927241435        0.0000000000000000     
  -6.0826122518010360E-003  0.19669322377235615        0.0000000000000000     
  -6.1391110952067965E-003  0.20495138178114636        0.0000000000000000     
  -6.1886660511489971E-003  0.21326048508225937        0.0000000000000000     
  -6.2312771196276363E-003  0.22162053367569520        0.0000000000000000     
  -6.2669443006427130E-003  0.23003152756145390        0.0000000000000000     
  -1.2202113816580250E-002  0.19671544281482478        0.0000000000000000     
  -1.2316115731009093E-002  0.20497111202838150        0.0000000000000000     
  -1.2416001266566371E-002  0.21327902670185681        0.0000000000000000     
  -1.2501770423252082E-002  0.22163918683525069        0.0000000000000000     
  -1.2573423201066226E-002  0.23005159242856318        0.0000000000000000     
  -1.8358504694275433E-002  0.19675247455225864        0.0000000000000000     
  -1.8531013907368745E-002  0.20500399577376374        0.0000000000000000     
  -1.8682005646231879E-002  0.21330992940117938        0.0000000000000000     
  -1.8811479910864827E-002  0.22167027543450551        0.0000000000000000     
  -1.8919436701267590E-002  0.23008503387374218        0.0000000000000000     
  -2.4551784884886591E-002  0.19680431898465778        0.0000000000000000     
  -2.4783805624285764E-002  0.20505003301729308        0.0000000000000000     
  -2.4986679190145522E-002  0.21335319318022702        0.0000000000000000     
  -2.5160405582465867E-002  0.22171379947345965        0.0000000000000000     
  -2.5304984801246808E-002  0.23013185189699092        0.0000000000000000     
   2.9464278239466068E-015  0.23002483927241435        0.0000000000000000     
   5.5315994840210436E-016  0.23845454071106470        0.0000000000000000     
  -1.6672861008482087E-015  0.24687208649074183        0.0000000000000000     
  -3.7138803317404712E-015  0.25527747661144562        0.0000000000000000     
  -5.5892790395972725E-015  0.26367071107317624        0.0000000000000000     
  -6.2669443006427130E-003  0.23003152756145390        0.0000000000000000     
  -6.2969084676610335E-003  0.23846237049401284        0.0000000000000000     
  -6.3224104941493947E-003  0.24688196622784939        0.0000000000000000     
  -6.3434503801078042E-003  0.25529031476296360        0.0000000000000000     
  -6.3600281255362569E-003  0.26368741609935542        0.0000000000000000     
  -1.2573423201066226E-002  0.23005159242856318        0.0000000000000000     
  -1.2633661421159655E-002  0.23848585984285003        0.0000000000000000     
  -1.2685186904683213E-002  0.24691160543916713        0.0000000000000000     
  -1.2727999651636910E-002  0.25532882921751437        0.0000000000000000     
  -1.2762099662020739E-002  0.26373753117789189        0.0000000000000000     
  -1.8919436701267590E-002  0.23008503387374218        0.0000000000000000     
  -1.9010258860495313E-002  0.23852500875757635        0.0000000000000000     
  -1.9088329231603120E-002  0.24696100412469502        0.0000000000000000     
  -1.9153647814591036E-002  0.25539301997509811        0.0000000000000000     
  -1.9206214609459038E-002  0.26382105630878572        0.0000000000000000     
  -2.5304984801246808E-002  0.23013185189699092        0.0000000000000000     
  -2.5426700785667999E-002  0.23857981723819174        0.0000000000000000     
  -2.5531837474909121E-002  0.24703016228443300        0.0000000000000000     
  -2.5620394868970168E-002  0.25548288703571476        0.0000000000000000     
  -2.5692372967851144E-002  0.26393799149203689        0.0000000000000000     
  -5.5892790395972725E-015  0.26367071107317624        0.0000000000000000     
  -7.0035123533873644E-015  0.27199166513381157        0.0000000000000000     
  -7.6650925190380192E-015  0.28018021405122956        0.0000000000000000     
  -7.5747242679613525E-015  0.28823635782543022        0.0000000000000000     
  -6.7333291720039767E-015  0.29616009645641350        0.0000000000000000     
  -6.3600281255362569E-003  0.26368741609935542        0.0000000000000000     
  -6.3760175444771945E-003  0.27201345839807639        0.0000000000000000     
  -6.3952924509730561E-003  0.28020862982017797        0.0000000000000000     
  -6.4178528450238373E-003  0.28827293036566021        0.0000000000000000     
  -6.4436987266295442E-003  0.29620636003452305        0.0000000000000000     
  -1.2762099662020739E-002  0.26373753117789189        0.0000000000000000     
  -1.2794683508532172E-002  0.27207883819087147        0.0000000000000000     
  -1.2832947763868683E-002  0.28029387712702514        0.0000000000000000     
  -1.2876892428030275E-002  0.28838264798635294        0.0000000000000000     
  -1.2926517501016940E-002  0.29634515076885470        0.0000000000000000     
  -1.9206214609459038E-002  0.26382105630878572        0.0000000000000000     
  -1.9255997892171941E-002  0.27218780451219698        0.0000000000000000     
  -1.9312965938694557E-002  0.28043595597177123        0.0000000000000000     
  -1.9377118749026884E-002  0.28856551068750830        0.0000000000000000     
  -1.9448456323168925E-002  0.29657646865940840        0.0000000000000000     
  -2.5692372967851144E-002  0.26393799149203689        0.0000000000000000     
  -2.5759960695396496E-002  0.27234035736205292        0.0000000000000000     
  -2.5835346975450670E-002  0.28063486635441615        0.0000000000000000     
  -2.5918531808013671E-002  0.28882151846912657        0.0000000000000000     
  -2.6009515193085503E-002  0.29690031370618419        0.0000000000000000     
  -1.3999743371234512E-002   5.5786759175276805E-002   0.0000000000000000     
  -1.4779594800502253E-002   6.1375992313239494E-002   0.0000000000000000     
  -1.5532770523955249E-002   6.7150752428436974E-002   0.0000000000000000     
  -1.6259270541593495E-002   7.3111039520869225E-002   0.0000000000000000     
  -1.6959094853417001E-002   7.9256853590536233E-002   0.0000000000000000     
  -1.7601879931638160E-002   5.6047137108474615E-002   0.0000000000000000     
  -1.8576132873495986E-002   6.1629663268958149E-002   0.0000000000000000     
  -1.9517282277953459E-002   6.7397217071262228E-002   0.0000000000000000     
  -2.0425328145010583E-002   7.3349798515386852E-002   0.0000000000000000     
  -2.1300270474667371E-002   7.9487407601331994E-002   0.0000000000000000     
  -2.1313095096392461E-002   5.6356615949591196E-002   0.0000000000000000     
  -2.2475685432702903E-002   6.1934518865540668E-002   0.0000000000000000     
  -2.3599944058430543E-002   6.7695850676033231E-002   0.0000000000000000     
  -2.4685870973575386E-002   7.3640611381068935E-002   0.0000000000000000     
  -2.5733466178137435E-002   7.9768800980647703E-002   0.0000000000000000     
  -2.5133388865497430E-002   5.6715195698626542E-002   0.0000000000000000     
  -2.6478252478123018E-002   6.2290559102987038E-002   0.0000000000000000     
  -2.7780755865386513E-002   6.8046653242750013E-002   0.0000000000000000     
  -2.9040899027287900E-002   7.3983478117915447E-002   0.0000000000000000     
  -3.0258681963827194E-002   8.0101033728483401E-002   0.0000000000000000     
  -2.9062761238953051E-002   5.7122876355580651E-002   0.0000000000000000     
  -3.0583834009756321E-002   6.2697783981297259E-002   0.0000000000000000     
  -3.2059717698821349E-002   6.8449624771412532E-002   0.0000000000000000     
  -3.3490412306148125E-002   7.4378398725926442E-002   0.0000000000000000     
  -3.4875917831736651E-002   8.0484105844839018E-002   0.0000000000000000     
  -1.6959094853417001E-002   7.9256853590536233E-002   0.0000000000000000     
  -1.7632916022751969E-002   8.5575093833785407E-002   0.0000000000000000     
  -1.8281406612924597E-002   9.2052659446964114E-002   0.0000000000000000     
  -1.8904566623934888E-002   9.8689550430072312E-002   0.0000000000000000     
  -1.9502396055782849E-002  0.10548576678311006        0.0000000000000000     
  -2.1300270474667371E-002   7.9487407601331994E-002   0.0000000000000000     
  -2.2142816544676022E-002   8.5797071024234700E-002   0.0000000000000000     
  -2.2953673632788760E-002   9.2265815479231891E-002   0.0000000000000000     
  -2.3732841739005594E-002   9.8893640966323651E-002   0.0000000000000000     
  -2.4480320863326504E-002  0.10568054748550992        0.0000000000000000     
  -2.5733466178137435E-002   7.9768800980647703E-002   0.0000000000000000     
  -2.6743118168364281E-002   8.6068102150175185E-002   0.0000000000000000     
  -2.7715215440503507E-002   9.2526197565056964E-002   0.0000000000000000     
  -2.8649757994555134E-002   9.9143087225293025E-002   0.0000000000000000     
  -2.9546745830519149E-002  0.10591877113088335        0.0000000000000000     
  -3.0258681963827194E-002   8.0101033728483401E-002   0.0000000000000000     
  -3.1433820893816723E-002   8.6388187211606945E-002   0.0000000000000000     
  -3.2566032036068844E-002   9.2833805704439304E-002   0.0000000000000000     
  -3.3655315390583529E-002   9.9437889206980462E-002   0.0000000000000000     
  -3.4701670957360785E-002  0.10620043771923038        0.0000000000000000     
  -3.4875917831736651E-002   8.0484105844839018E-002   0.0000000000000000     
  -3.6214924721033374E-002   8.6757326208529953E-002   0.0000000000000000     
  -3.7506123419484748E-002   9.3188639897378897E-002   0.0000000000000000     
  -3.8749513927090751E-002   9.9778046911385920E-002   0.0000000000000000     
  -3.9945096243851404E-002  0.10652554725055098        0.0000000000000000     
  -1.9502396055782849E-002  0.10548576678311006        0.0000000000000000     
  -2.0074252189116789E-002  0.11242938572214729        0.0000000000000000     
  -2.0619492304585010E-002  0.11950848446325406        0.0000000000000000     
  -2.1138116402187525E-002  0.12672306300643035        0.0000000000000000     
  -2.1630124481924324E-002  0.13407312135167615        0.0000000000000000     
  -2.4480320863326504E-002  0.10568054748550992        0.0000000000000000     
  -2.5195444410239510E-002  0.11261459988819350        0.0000000000000000     
  -2.5877545784232590E-002  0.11968386302577716        0.0000000000000000     
  -2.6526624985305752E-002  0.12688833689826087        0.0000000000000000     
  -2.7142682013458992E-002  0.13422802150564464        0.0000000000000000     
  -2.9546745830519149E-002  0.10591877113088335        0.0000000000000000     
  -3.0405312915315928E-002  0.11284132364657373        0.0000000000000000     
  -3.1224593215865827E-002  0.11989881913710979        0.0000000000000000     
  -3.2004586732168848E-002  0.12709125760249160        0.0000000000000000     
  -3.2745293464225007E-002  0.13441863904271914        0.0000000000000000     
  -3.4701670957360785E-002  0.10620043771923038        0.0000000000000000     
  -3.5703857704346045E-002  0.11310955699728795        0.0000000000000000     
  -3.6660634599484730E-002  0.12015335279725206        0.0000000000000000     
  -3.7572001642776819E-002  0.12733182511912258        0.0000000000000000     
  -3.8437958834222338E-002  0.13464497396289959        0.0000000000000000     
  -3.9945096243851404E-002  0.10652554725055098        0.0000000000000000     
  -4.1091078777329870E-002  0.11341929994033623        0.0000000000000000     
  -4.2185669935089279E-002  0.12044746400620382        0.0000000000000000     
  -4.3228869717129657E-002  0.12761003944815377        0.0000000000000000     
  -4.4220678123451013E-002  0.13490702626618603        0.0000000000000000     
  -2.1630124481924324E-002  0.13407312135167615        0.0000000000000000     
  -2.2094958031659541E-002  0.14154687041734190        0.0000000000000000     
  -2.2532058539257310E-002  0.14913252112177802        0.0000000000000000     
  -2.2941426004717640E-002  0.15683007346498459        0.0000000000000000     
  -2.3323060428040519E-002  0.16463952744696150        0.0000000000000000     
  -2.7142682013458992E-002  0.13422802150564464        0.0000000000000000     
  -2.7725082624020968E-002  0.14169114129186031        0.0000000000000000     
  -2.8273192572320343E-002  0.14926592070083963        0.0000000000000000     
  -2.8787011858357102E-002  0.15695235973258262        0.0000000000000000     
  -2.9266540482131256E-002  0.16475045838708929        0.0000000000000000     
  -3.2745293464225007E-002  0.13441863904271914        0.0000000000000000     
  -3.3446039895943247E-002  0.14186919542604876        0.0000000000000000     
  -3.4106152511232550E-002  0.14943115872073681        0.0000000000000000     
  -3.4725631310092923E-002  0.15710452892678328        0.0000000000000000     
  -3.5304476292524367E-002  0.16488930604418822        0.0000000000000000     
  -3.8437958834222338E-002  0.13464497396289959        0.0000000000000000     
  -3.9257829847426352E-002  0.14208103281990719        0.0000000000000000     
  -4.0030938355993938E-002  0.14962823518146953        0.0000000000000000     
  -4.0757284359925115E-002  0.15728658104758653        0.0000000000000000     
  -4.1436867859219836E-002  0.16505607041825829        0.0000000000000000     
  -4.4220678123451013E-002  0.13490702626618603        0.0000000000000000     
  -4.5160452478470295E-002  0.14232665347343570        0.0000000000000000     
  -4.6047550106604510E-002  0.14985715008303782        0.0000000000000000     
  -4.6881971007853636E-002  0.15749851609499238        0.0000000000000000     
  -4.7663715182217681E-002  0.16525075150929946        0.0000000000000000     
  -2.3323060428040519E-002  0.16463952744696150        0.0000000000000000     
  -2.3675681633284016E-002  0.17254888051908912        0.0000000000000000     
  -2.3998009444506190E-002  0.18054613013274773        0.0000000000000000     
  -2.4290043861707050E-002  0.18863127628793727        0.0000000000000000     
  -2.4551784884886591E-002  0.19680431898465778        0.0000000000000000     
  -2.9266540482131256E-002  0.16475045838708929        0.0000000000000000     
  -2.9710180981560530E-002  0.17264855265063561        0.0000000000000000     
  -3.0116335894562654E-002  0.18063497850949753        0.0000000000000000     
  -3.0485005221137642E-002  0.18870973596367507        0.0000000000000000     
  -3.0816188961285473E-002  0.19687282501316825        0.0000000000000000     
  -3.5304476292524367E-002  0.16488930604418822        0.0000000000000000     
  -3.5840964548425801E-002  0.17277407494242308        0.0000000000000000     
  -3.6333373167696199E-002  0.18074742049095935        0.0000000000000000     
  -3.6781702150335535E-002  0.18880934268979702        0.0000000000000000     
  -3.7185951496343829E-002  0.19695984153893614        0.0000000000000000     
  -4.1436867859219836E-002  0.16505607041825829        0.0000000000000000     
  -4.2068032333879853E-002  0.17292544739445154        0.0000000000000000     
  -4.2649121263906818E-002  0.18088345607713313        0.0000000000000000     
  -4.3180134649300747E-002  0.18893009646630313        0.0000000000000000     
  -4.3661072490061674E-002  0.19706536856196155        0.0000000000000000     
  -4.7663715182217681E-002  0.16525075150929946        0.0000000000000000     
  -4.8391384337922644E-002  0.17310267000672097        0.0000000000000000     
  -4.9063580183194511E-002  0.18104308526801896        0.0000000000000000     
  -4.9680302718033288E-002  0.18907199729319341        0.0000000000000000     
  -5.0241551942438983E-002  0.19718940608224433        0.0000000000000000     
  -2.4551784884886591E-002  0.19680431898465778        0.0000000000000000     
  -2.4783805624285764E-002  0.20505003301729308        0.0000000000000000     
  -2.4986679190145522E-002  0.21335319318022702        0.0000000000000000     
  -2.5160405582465867E-002  0.22171379947345965        0.0000000000000000     
  -2.5304984801246808E-002  0.23013185189699092        0.0000000000000000     
  -3.0816188961285473E-002  0.19687282501316825        0.0000000000000000     
  -3.1110164466753468E-002  0.20511054494043693        0.0000000000000000     
  -3.1367209089288930E-002  0.21340919502794112        0.0000000000000000     
  -3.1587322828891866E-002  0.22176877527568084        0.0000000000000000     
  -3.1770505685562271E-002  0.23018928568365607        0.0000000000000000     
  -3.7185951496343829E-002  0.19695984153893614        0.0000000000000000     
  -3.7545764019765199E-002  0.20518685272466275        0.0000000000000000     
  -3.7860782534643735E-002  0.21347831193326303        0.0000000000000000     
  -3.8131007040979464E-002  0.22183421916473683        0.0000000000000000     
  -3.8356437538772381E-002  0.23025457441908426        0.0000000000000000     
  -4.3661072490061674E-002  0.19706536856196155        0.0000000000000000     
  -4.4090604283320928E-002  0.20527895636997057        0.0000000000000000     
  -4.4467399526209921E-002  0.21356054389619256        0.0000000000000000     
  -4.4791458218728659E-002  0.22191013114062758        0.0000000000000000     
  -4.5062780360877137E-002  0.23032771810327554        0.0000000000000000     
  -5.0241551942438983E-002  0.19718940608224433        0.0000000000000000     
  -5.0744685257420687E-002  0.20538685587636032        0.0000000000000000     
  -5.1187060063987516E-002  0.21365589091672990        0.0000000000000000     
  -5.1568676362139465E-002  0.22199651120335306        0.0000000000000000     
  -5.1889534151876533E-002  0.23040871673622981        0.0000000000000000     
  -2.5304984801246808E-002  0.23013185189699092        0.0000000000000000     
  -2.5426700785667999E-002  0.23857981723819174        0.0000000000000000     
  -2.5531837474909121E-002  0.24703016228443300        0.0000000000000000     
  -2.5620394868970168E-002  0.25548288703571476        0.0000000000000000     
  -2.5692372967851144E-002  0.26393799149203689        0.0000000000000000     
  -3.1770505685562271E-002  0.23018928568365607        0.0000000000000000     
  -3.1924666693251995E-002  0.23864581604702789        0.0000000000000000     
  -3.2057714885912886E-002  0.24711345616095748        0.0000000000000000     
  -3.2169650263544937E-002  0.25559220602544480        0.0000000000000000     
  -3.2260472826148155E-002  0.26408206564048986        0.0000000000000000     
  -3.8356437538772381E-002  0.23025457441908426        0.0000000000000000     
  -3.8545836079821559E-002  0.23871853594641651        0.0000000000000000     
  -3.8707964715926087E-002  0.24720526199684464        0.0000000000000000     
  -3.8842823447085957E-002  0.25571475257036874        0.0000000000000000     
  -3.8950412273301170E-002  0.26424700766698883        0.0000000000000000     
  -4.5062780360877137E-002  0.23032771810327554        0.0000000000000000     
  -4.5290208945376699E-002  0.23879797693635754        0.0000000000000000     
  -4.5482586964948737E-002  0.24730557979209458        0.0000000000000000     
  -4.5639914419593232E-002  0.25585052667048680        0.0000000000000000     
  -4.5762191309310161E-002  0.26443281757153403        0.0000000000000000     
  -5.1889534151876533E-002  0.23040871673622981        0.0000000000000000     
  -5.2157785289917422E-002  0.23888413901685096        0.0000000000000000     
  -5.2381581632980831E-002  0.24741440954670726        0.0000000000000000     
  -5.2560923181066740E-002  0.25599952832579864        0.0000000000000000     
  -5.2695809934175171E-002  0.26463949535412529        0.0000000000000000     
  -2.5692372967851144E-002  0.26393799149203689        0.0000000000000000     
  -2.5759960695396496E-002  0.27234035736205292        0.0000000000000000     
  -2.5835346975450670E-002  0.28063486635441615        0.0000000000000000     
  -2.5918531808013671E-002  0.28882151846912657        0.0000000000000000     
  -2.6009515193085503E-002  0.29690031370618419        0.0000000000000000     
  -3.2260472826148155E-002  0.26408206564048986        0.0000000000000000     
  -3.2344995906830105E-002  0.27253016491346677        0.0000000000000000     
  -3.2438032838698345E-002  0.28088363375174985        0.0000000000000000     
  -3.2539583621752889E-002  0.28914247215533900        0.0000000000000000     
  -3.2649648255993716E-002  0.29730668012423428        0.0000000000000000     
  -3.8950412273301170E-002  0.26424700766698883        0.0000000000000000     
  -3.9049527515097049E-002  0.27275089533946628        0.0000000000000000     
  -3.9158965492998903E-002  0.28117528364056249        0.0000000000000000     
  -3.9278726207006780E-002  0.28952017257027740        0.0000000000000000     
  -3.9408809657120632E-002  0.29778556212861107        0.0000000000000000     
  -4.5762191309310161E-002  0.26443281757153403        0.0000000000000000     
  -4.5873555520197305E-002  0.27300254864005141        0.0000000000000000     
  -4.5998144938352366E-002  0.28150981602085390        0.0000000000000000     
  -4.6135959563775336E-002  0.28995461971394160        0.0000000000000000     
  -4.6286999396466230E-002  0.29833695971931445        0.0000000000000000     
  -5.2695809934175171E-002  0.26463949535412529        0.0000000000000000     
  -5.2817079922130902E-002  0.27328512481522210        0.0000000000000000     
  -5.2955571174758700E-002  0.28188723089262424        0.0000000000000000     
  -5.3111283692058579E-002  0.29044581358633170        0.0000000000000000     
  -5.3284217474030532E-002  0.29896087289634443        0.0000000000000000     
  -2.9062761238953051E-002   5.7122876355580651E-002   0.0000000000000000     
  -3.0583834009756321E-002   6.2697783981297259E-002   0.0000000000000000     
  -3.2059717698821349E-002   6.8449624771412532E-002   0.0000000000000000     
  -3.3490412306148125E-002   7.4378398725926442E-002   0.0000000000000000     
  -3.4875917831736651E-002   8.0484105844839018E-002   0.0000000000000000     
  -3.3069458137152383E-002   5.7608116685167673E-002   0.0000000000000000     
  -3.4777697313467991E-002   6.3172985215985689E-002   0.0000000000000000     
  -3.6435325602082166E-002   6.8913165899670684E-002   0.0000000000000000     
  -3.8042343002994916E-002   7.4828658736222631E-002   0.0000000000000000     
  -3.9598749516206254E-002   8.0919463725641599E-002   0.0000000000000000     
  -3.7121725480488497E-002   5.8199375452101750E-002   0.0000000000000000     
  -3.9045109675123174E-002   6.3732954522566637E-002   0.0000000000000000     
  -4.0906075618516065E-002   6.9445677265174310E-002   0.0000000000000000     
  -4.2704623310667156E-002   7.5337543679924804E-002   0.0000000000000000     
  -4.4440752751576461E-002   8.1408553766818104E-002   0.0000000000000000     
  -4.1219563268961396E-002   5.8896652656382886E-002   0.0000000000000000     
  -4.3386071094721888E-002   6.4377691901040091E-002   0.0000000000000000     
  -4.5471967748123024E-002   7.0047158867923440E-002   0.0000000000000000     
  -4.7477253229164830E-002   7.5905053557032906E-002   0.0000000000000000     
  -4.9401927537847251E-002   8.1951375968368545E-002   0.0000000000000000     
  -4.5362971502571056E-002   5.9699948298011063E-002   0.0000000000000000     
  -4.7800581572264127E-002   6.5107197351406076E-002   0.0000000000000000     
  -5.0133001990903085E-002   7.0717610707918058E-002   0.0000000000000000     
  -5.2360232758487932E-002   7.6531188367546993E-002   0.0000000000000000     
  -5.4482273875018652E-002   8.2547930330292896E-002   0.0000000000000000     
  -3.4875917831736651E-002   8.0484105844839018E-002   0.0000000000000000     
  -3.6214924721033374E-002   8.6757326208529953E-002   0.0000000000000000     
  -3.7506123419484748E-002   9.3188639897378897E-002   0.0000000000000000     
  -3.8749513927090751E-002   9.9778046911385920E-002   0.0000000000000000     
  -3.9945096243851404E-002  0.10652554725055098        0.0000000000000000     
  -3.9598749516206254E-002   8.0919463725641599E-002   0.0000000000000000     
  -4.1103340166848232E-002   8.7176825368252484E-002   0.0000000000000000     
  -4.2554909980052902E-002   9.3591988164380219E-002   0.0000000000000000     
  -4.3953458955820236E-002  0.10016495211402485        0.0000000000000000     
  -4.5298987094150291E-002  0.10689571721718631        0.0000000000000000     
  -4.4440752751576461E-002   8.1408553766818104E-002   0.0000000000000000     
  -4.6115977748095290E-002   8.7647990918082855E-002   0.0000000000000000     
  -4.7731812107074938E-002   9.4045138525947661E-002   0.0000000000000000     
  -4.9288255828515412E-002  0.10059999659041258        0.0000000000000000     
  -5.0785308912416720E-002  0.10731256511147756        0.0000000000000000     
  -4.9401927537847251E-002   8.1951375968368545E-002   0.0000000000000000     
  -5.1252837464774541E-002   8.8170822858021081E-002   0.0000000000000000     
  -5.3036829800550876E-002   9.4548090982081279E-002   0.0000000000000000     
  -5.4753904545176237E-002  0.10108318034054914        0.0000000000000000     
  -5.6404061698650670E-002  0.10777609093342469        0.0000000000000000     
  -5.4482273875018652E-002   8.2547930330292896E-002   0.0000000000000000     
  -5.6513919316885999E-002   8.8745321188067106E-002   0.0000000000000000     
  -5.8469963060480704E-002   9.5100845532780989E-002   0.0000000000000000     
  -6.0350405105802758E-002  0.10161450336443451        0.0000000000000000     
  -6.2155245452852177E-002  0.10828629468302772        0.0000000000000000     
  -3.9945096243851404E-002  0.10652554725055098        0.0000000000000000     
  -4.1091078777329870E-002  0.11341929994033623        0.0000000000000000     
  -4.2185669935089279E-002  0.12044746400620382        0.0000000000000000     
  -4.3228869717129657E-002  0.12761003944815377        0.0000000000000000     
  -4.4220678123451013E-002  0.13490702626618603        0.0000000000000000     
  -4.5298987094150291E-002  0.10689571721718631        0.0000000000000000     
  -4.6589364188049556E-002  0.11377242877438778        0.0000000000000000     
  -4.7822460030524559E-002  0.12078323208615230        0.0000000000000000     
  -4.8998274621575327E-002  0.12792812715247986        0.0000000000000000     
  -5.0116807961201812E-002  0.13520711397337049        0.0000000000000000     
  -5.0785308912416720E-002  0.10731256511147756        0.0000000000000000     
  -5.2221101990287302E-002  0.11417081979811178        0.0000000000000000     
  -5.3593765693635630E-002  0.12116273635928446        0.0000000000000000     
  -5.4903300022461729E-002  0.12828831479499558        0.0000000000000000     
  -5.6149704976765552E-002  0.13554755510524513        0.0000000000000000     
  -5.6404061698650670E-002  0.10777609093342469        0.0000000000000000     
  -5.7986292184043109E-002  0.11461447301150830        0.0000000000000000     
  -5.9499586924422511E-002  0.12158597682560036        0.0000000000000000     
  -6.0943945919788890E-002  0.12869060237570090        0.0000000000000000     
  -6.2319369170142219E-002  0.13592834966180986        0.0000000000000000     
  -6.2155245452852177E-002  0.10828629468302772        0.0000000000000000     
  -6.3884934769316976E-002  0.11510338841457729        0.0000000000000000     
  -6.5539923722885182E-002  0.12205295348510001        0.0000000000000000     
  -6.7120212313556804E-002  0.12913498989459582        0.0000000000000000     
  -6.8625800541331827E-002  0.13634949764306475        0.0000000000000000     
  -4.4220678123451013E-002  0.13490702626618603        0.0000000000000000     
  -4.5160452478470295E-002  0.14232665347343570        0.0000000000000000     
  -4.6047550106604510E-002  0.14985715008303782        0.0000000000000000     
  -4.6881971007853636E-002  0.15749851609499238        0.0000000000000000     
  -4.7663715182217681E-002  0.16525075150929946        0.0000000000000000     
  -5.0116807961201812E-002  0.13520711397337049        0.0000000000000000     
  -5.1177558756746032E-002  0.14260846308032227        0.0000000000000000     
  -5.2180025715549937E-002  0.15012044500483310        0.0000000000000000     
  -5.3124208837613505E-002  0.15774305974690303        0.0000000000000000     
  -5.4010108122936787E-002  0.16547630730653209        0.0000000000000000     
  -5.6149704976765552E-002  0.13554755510524513        0.0000000000000000     
  -5.7332799649924486E-002  0.14292886733425489        0.0000000000000000     
  -5.8452403135315877E-002  0.15042066152624672        0.0000000000000000     
  -5.9508515432939738E-002  0.15802293768122061        0.0000000000000000     
  -6.0501136542796041E-002  0.16573569579917655        0.0000000000000000     
  -6.2319369170142219E-002  0.13592834966180986        0.0000000000000000     
  -6.3626175158005671E-002  0.14328786623523368        0.0000000000000000     
  -6.4864682365902357E-002  0.15075779964727878        0.0000000000000000     
  -6.6034890793832277E-002  0.15833814989794515        0.0000000000000000     
  -6.7136800441795444E-002  0.16602891698723274        0.0000000000000000     
  -6.8625800541331827E-002  0.13634949764306475        0.0000000000000000     
  -7.0057685280989573E-002  0.14368545978325864        0.0000000000000000     
  -7.1416863407309350E-002  0.15113185936792928        0.0000000000000000     
  -7.2703334920291157E-002  0.15868869639707667        0.0000000000000000     
  -7.3917099819934981E-002  0.16635597087070075        0.0000000000000000     
  -4.7663715182217681E-002  0.16525075150929946        0.0000000000000000     
  -4.8391384337922644E-002  0.17310267000672097        0.0000000000000000     
  -4.9063580183194511E-002  0.18104308526801896        0.0000000000000000     
  -4.9680302718033288E-002  0.18907199729319341        0.0000000000000000     
  -5.0241551942438983E-002  0.19718940608224433        0.0000000000000000     
  -5.4010108122936787E-002  0.16547630730653209        0.0000000000000000     
  -5.4836609350527865E-002  0.17330905739860106        0.0000000000000000     
  -5.5602598299394894E-002  0.18123017973799083        0.0000000000000000     
  -5.6308074969537859E-002  0.18923967432470123        0.0000000000000000     
  -5.6953039360956761E-002  0.19733754115873239        0.0000000000000000     
  -6.0501136542796041E-002  0.16573569579917655        0.0000000000000000     
  -6.1429296161669186E-002  0.17354792418946155        0.0000000000000000     
  -6.2292023986343564E-002  0.18144861116142269        0.0000000000000000     
  -6.3089320016819175E-002  0.18943775671505997        0.0000000000000000     
  -6.3821184253095992E-002  0.19751536085037338        0.0000000000000000     
  -6.7136800441795444E-002  0.16602891698723274        0.0000000000000000     
  -6.8169444771346593E-002  0.17381927037930231        0.0000000000000000     
  -6.9131857244040529E-002  0.18169837953831464        0.0000000000000000     
  -7.0024037859877222E-002  0.18966624446426961        0.0000000000000000     
  -7.0845986618856688E-002  0.19772286515716733        0.0000000000000000     
  -7.3917099819934981E-002  0.16635597087070075        0.0000000000000000     
  -7.5057055179560100E-002  0.17412309596812348        0.0000000000000000     
  -7.6122098072485794E-002  0.18197948486866661        0.0000000000000000     
  -7.7112228498712021E-002  0.18992513757233018        0.0000000000000000     
  -7.8027446458238808E-002  0.19796005407911421        0.0000000000000000     
  -5.0241551942438983E-002  0.19718940608224433        0.0000000000000000     
  -5.0744685257420687E-002  0.20538685587636032        0.0000000000000000     
  -5.1187060063987516E-002  0.21365589091672990        0.0000000000000000     
  -5.1568676362139465E-002  0.22199651120335306        0.0000000000000000     
  -5.1889534151876533E-002  0.23040871673622981        0.0000000000000000     
  -5.6953039360956761E-002  0.19733754115873239        0.0000000000000000     
  -5.7533944942053786E-002  0.20551685036283304        0.0000000000000000     
  -5.8047245181231111E-002  0.21377067205975184        0.0000000000000000     
  -5.8492940078488737E-002  0.22209900624948881        0.0000000000000000     
  -5.8871029633826670E-002  0.23050185293204395        0.0000000000000000     
  -6.3821184253095992E-002  0.19751536085037338        0.0000000000000000     
  -6.4484321337209535E-002  0.20567523894838960        0.0000000000000000     
  -6.5075435911195342E-002  0.21391120639013525        0.0000000000000000     
  -6.5594527975053357E-002  0.22222326317561034        0.0000000000000000     
  -6.6041597528783622E-002  0.23061140930481480        0.0000000000000000     
  -7.0845986618856688E-002  0.19772286515716733        0.0000000000000000     
  -7.1595814442887970E-002  0.20586202163303002        0.0000000000000000     
  -7.2271632253880183E-002  0.21407749390788008        0.0000000000000000     
  -7.2873440051833313E-002  0.22236928198171751        0.0000000000000000     
  -7.3401237836747374E-002  0.23073738585454223        0.0000000000000000     
  -7.8027446458238808E-002  0.19796005407911421        0.0000000000000000     
  -7.8868424259089076E-002  0.20607719841675437        0.0000000000000000     
  -7.9635834209285675E-002  0.21426953461298645        0.0000000000000000     
  -8.0329676308828646E-002  0.22253706266781045        0.0000000000000000     
  -8.0949950557717976E-002  0.23087978258122638        0.0000000000000000     
  -5.1889534151876533E-002  0.23040871673622981        0.0000000000000000     
  -5.2157785289917422E-002  0.23888413901685096        0.0000000000000000     
  -5.2381581632980831E-002  0.24741440954670726        0.0000000000000000     
  -5.2560923181066740E-002  0.25599952832579864        0.0000000000000000     
  -5.2695809934175171E-002  0.26463949535412529        0.0000000000000000     
  -5.8871029633826670E-002  0.23050185293204395        0.0000000000000000     
  -5.9187696754002025E-002  0.23897842213552198        0.0000000000000000     
  -5.9449124345771959E-002  0.24752792388802741        0.0000000000000000     
  -5.9655312409136470E-002  0.25615035818956033        0.0000000000000000     
  -5.9806260944095538E-002  0.26484572504012066        0.0000000000000000     
  -6.6041597528783622E-002  0.23061140930481480        0.0000000000000000     
  -6.6419074978188830E-002  0.23908222623999567        0.0000000000000000     
  -6.6729390729071747E-002  0.24764229544339977        0.0000000000000000     
  -6.6972544781432358E-002  0.25629161691502722        0.0000000000000000     
  -6.7148537135270650E-002  0.26503019065487798        0.0000000000000000     
  -7.3401237836747374E-002  0.23073738585454223        0.0000000000000000     
  -7.3851919962477849E-002  0.23919555133027201        0.0000000000000000     
  -7.4222380782880154E-002  0.24775752421282446        0.0000000000000000     
  -7.4512620297954399E-002  0.25642330450219958        0.0000000000000000     
  -7.4722638507700487E-002  0.26519289219839737        0.0000000000000000     
  -8.0949950557717976E-002  0.23087978258122638        0.0000000000000000     
  -8.1486231706869042E-002  0.23931839740635102        0.0000000000000000     
  -8.1928094507197236E-002  0.24787361019630130        0.0000000000000000     
  -8.2275538958702599E-002  0.25654542095107713        0.0000000000000000     
  -8.2528565061385062E-002  0.26533382967067864        0.0000000000000000     
  -5.2695809934175171E-002  0.26463949535412529        0.0000000000000000     
  -5.2817079922130902E-002  0.27328512481522210        0.0000000000000000     
  -5.2955571174758700E-002  0.28188723089262424        0.0000000000000000     
  -5.3111283692058579E-002  0.29044581358633170        0.0000000000000000     
  -5.3284217474030532E-002  0.29896087289634443        0.0000000000000000     
  -5.9806260944095538E-002  0.26484572504012066        0.0000000000000000     
  -5.9938849447910753E-002  0.27356990816736693        0.0000000000000000     
  -6.0089957417843683E-002  0.28227879129895755        0.0000000000000000     
  -6.0259584853894328E-002  0.29097237443489260        0.0000000000000000     
  -6.0447731756062668E-002  0.29965065757517201        0.0000000000000000     
  -6.7148537135270650E-002  0.26503019065487798        0.0000000000000000     
  -6.7297612824549824E-002  0.27382818299887418        0.0000000000000000     
  -6.7460016883233068E-002  0.28265576028293798        0.0000000000000000     
  -6.7635749311320395E-002  0.29151292250706934        0.0000000000000000     
  -6.7824810108811792E-002  0.30039966967126819        0.0000000000000000     
  -7.4722638507700487E-002  0.26519289219839737        0.0000000000000000     
  -7.4893370052048103E-002  0.27405994930974387        0.0000000000000000     
  -7.5065749570926876E-002  0.28301813784456537        0.0000000000000000     
  -7.5239777064336807E-002  0.29206745780286170        0.0000000000000000     
  -7.5415452532277868E-002  0.30120790918463308        0.0000000000000000     
  -8.2528565061385062E-002  0.26533382967067864        0.0000000000000000     
  -8.2726121130405589E-002  0.27426520709997604        0.0000000000000000     
  -8.2907155480925088E-002  0.28336592398383981        0.0000000000000000     
  -8.3071668112943531E-002  0.29263598032226995        0.0000000000000000     
  -8.3219659026460946E-002  0.30207537611526653        0.0000000000000000     
  -4.5362971502571056E-002   5.9699948298011063E-002   0.0000000000000000     
  -4.7800581572264127E-002   6.5107197351406076E-002   0.0000000000000000     
  -5.0133001990903085E-002   7.0717610707918058E-002   0.0000000000000000     
  -5.2360232758487932E-002   7.6531188367546993E-002   0.0000000000000000     
  -5.4482273875018652E-002   8.2547930330292896E-002   0.0000000000000000     
  -4.9834055483013610E-002   6.0485009760717329E-002   0.0000000000000000     
  -5.2494481606917463E-002   6.5849408116436969E-002   0.0000000000000000     
  -5.5036626823319106E-002   7.1422181878873198E-002   0.0000000000000000     
  -5.7460491132218537E-002   7.7203331048026000E-002   0.0000000000000000     
  -5.9766074533615765E-002   8.3192855623895390E-002   0.0000000000000000     
  -5.4914920511985182E-002   6.1127584428232663E-002   0.0000000000000000     
  -5.7673611697849465E-002   6.6532261438905158E-002   0.0000000000000000     
  -6.0330290721833983E-002   7.2126021474503907E-002   0.0000000000000000     
  -6.2884957583938722E-002   7.7908864535028946E-002   0.0000000000000000     
  -6.5337612284163696E-002   8.3880790620480261E-002   0.0000000000000000     
  -6.0605566589485751E-002   6.1627672300557101E-002   0.0000000000000000     
  -6.3337971845060140E-002   6.7155757318810613E-002   0.0000000000000000     
  -6.6013993686447711E-002   7.2829129494810199E-002   0.0000000000000000     
  -6.8633632113648493E-002   7.8647788828555817E-002   0.0000000000000000     
  -7.1196887126662459E-002   8.4611735320047440E-002   0.0000000000000000     
  -6.6905993715515338E-002   6.1985273377690615E-002   0.0000000000000000     
  -6.9487562048549473E-002   6.7719895756153406E-002   0.0000000000000000     
  -7.2087735717160317E-002   7.3531505939792074E-002   0.0000000000000000     
  -7.4706514721347844E-002   7.9420103928606600E-002   0.0000000000000000     
  -7.7343899061112054E-002   8.5385689722597011E-002   0.0000000000000000     
  -5.4482273875018652E-002   8.2547930330292896E-002   0.0000000000000000     
  -5.6513919316885999E-002   8.8745321188067106E-002   0.0000000000000000     
  -5.8469963060480704E-002   9.5100845532780989E-002   0.0000000000000000     
  -6.0350405105802758E-002  0.10161450336443451        0.0000000000000000     
  -6.2155245452852177E-002  0.10828629468302772        0.0000000000000000     
  -5.9766074533615765E-002   8.3192855623895390E-002   0.0000000000000000     
  -6.1971048658884503E-002   8.9365992106811551E-002   0.0000000000000000     
  -6.4093085139398487E-002   9.5697976997104653E-002   0.0000000000000000     
  -6.6132183975157716E-002  0.10218881029477474        0.0000000000000000     
  -6.8088345166162190E-002  0.10883849199982176        0.0000000000000000     
  -6.5337612284163696E-002   8.3880790620480261E-002   0.0000000000000000     
  -6.7696050845224884E-002   9.0027341812844941E-002   0.0000000000000000     
  -6.9968069289838272E-002   9.6334060194110074E-002   0.0000000000000000     
  -7.2153667618003903E-002  0.10280094576427573        0.0000000000000000     
  -7.4252845829721734E-002  0.10942799852334185        0.0000000000000000     
  -7.1196887126662459E-002   8.4611735320047440E-002   0.0000000000000000     
  -7.3688925875907155E-002   9.0729370306167248E-002   0.0000000000000000     
  -7.6094915511800101E-002   9.7009095123797268E-002   0.0000000000000000     
  -7.8414856034341313E-002  0.10345090977293753        0.0000000000000000     
  -8.0648747443530774E-002  0.11005481425358804        0.0000000000000000     
  -7.7343899061112054E-002   8.5385689722597011E-002   0.0000000000000000     
  -7.9949673750931302E-002   9.1472077586778486E-002   0.0000000000000000     
  -8.2473623805283933E-002   9.7723081786166177E-002   0.0000000000000000     
  -8.4915749224169945E-002  0.10413870232076014        0.0000000000000000     
  -8.7276050007589312E-002  0.11071893919056033        0.0000000000000000     
  -6.2155245452852177E-002  0.10828629468302772        0.0000000000000000     
  -6.3884934769316976E-002  0.11510338841457729        0.0000000000000000     
  -6.5539923722885182E-002  0.12205295348510001        0.0000000000000000     
  -6.7120212313556804E-002  0.12913498989459582        0.0000000000000000     
  -6.8625800541331827E-002  0.13634949764306475        0.0000000000000000     
  -6.8088345166162190E-002  0.10883849199982176        0.0000000000000000     
  -6.9962981592431556E-002  0.11563342512226941        0.0000000000000000     
  -7.1757506133985405E-002  0.12256001267214142        0.0000000000000000     
  -7.3471918790823751E-002  0.12961825464943780        0.0000000000000000     
  -7.5106219562946594E-002  0.13680815105415856        0.0000000000000000     
  -7.4252845829721734E-002  0.10942799852334185        0.0000000000000000     
  -7.6266384499709489E-002  0.11620044224953524        0.0000000000000000     
  -7.8195064202684933E-002  0.12310350072108275        0.0000000000000000     
  -8.0038884938647997E-002  0.13013717393798432        0.0000000000000000     
  -8.1797846707598765E-002  0.13730146190024001        0.0000000000000000     
  -8.0648747443530774E-002  0.11005481425358804        0.0000000000000000     
  -8.2795143491150816E-002  0.11680443979637485        0.0000000000000000     
  -8.4852597928983739E-002  0.12368341763192396        0.0000000000000000     
  -8.6821110757029571E-002  0.13069174776023540        0.0000000000000000     
  -8.8700681975288312E-002  0.13782943018130911        0.0000000000000000     
  -8.7276050007589312E-002  0.11071893919056033        0.0000000000000000     
  -8.9549258566755482E-002  0.11744541776278815        0.0000000000000000     
  -9.1730107312881851E-002  0.12429976340466502        0.0000000000000000     
  -9.3818596245968458E-002  0.13128197611619091        0.0000000000000000     
  -9.5814725366015263E-002  0.13839205589736586        0.0000000000000000     
  -6.8625800541331827E-002  0.13634949764306475        0.0000000000000000     
  -7.0057685280989573E-002  0.14368545978325864        0.0000000000000000     
  -7.1416863407309350E-002  0.15113185936792928        0.0000000000000000     
  -7.2703334920291157E-002  0.15868869639707667        0.0000000000000000     
  -7.3917099819934981E-002  0.16635597087070075        0.0000000000000000     
  -7.5106219562946594E-002  0.13680815105415856        0.0000000000000000     
  -7.6661883319727148E-002  0.14411922185847054        0.0000000000000000     
  -7.8140384930538639E-002  0.15154098703454069        0.0000000000000000     
  -7.9541724395381042E-002  0.15907344658236905        0.0000000000000000     
  -8.0865901714254368E-002  0.16671660050195555        0.0000000000000000     
  -8.1797846707598765E-002  0.13730146190024001        0.0000000000000000     
  -8.3473322575069356E-002  0.14458672634101027        0.0000000000000000     
  -8.5066685606591974E-002  0.15198332899345574        0.0000000000000000     
  -8.6577935802166592E-002  0.15949126985757633        0.0000000000000000     
  -8.8007073161793251E-002  0.16711054893337215        0.0000000000000000     
  -8.8700681975288312E-002  0.13782943018130911        0.0000000000000000     
  -9.0492003047016170E-002  0.14508797323087785        0.0000000000000000     
  -9.2195765435469326E-002  0.15245888524467432        0.0000000000000000     
  -9.3811969140647836E-002  0.15994216622269858        0.0000000000000000     
  -9.5340614162551671E-002  0.16753781616495053        0.0000000000000000     
  -9.5814725366015263E-002  0.13839205589736586        0.0000000000000000     
  -9.7717924735567604E-002  0.14562296252807325        0.0000000000000000     
  -9.9527624417170765E-002  0.15296765578819649        0.0000000000000000     
 -0.10124382441082476       0.16042613567773567        0.0000000000000000     
 -0.10286652471652957       0.16799840219669071        0.0000000000000000     
  -7.3917099819934981E-002  0.16635597087070075        0.0000000000000000     
  -7.5057055179560100E-002  0.17412309596812348        0.0000000000000000     
  -7.6122098072485794E-002  0.18197948486866661        0.0000000000000000     
  -7.7112228498712021E-002  0.18992513757233018        0.0000000000000000     
  -7.8027446458238808E-002  0.19796005407911421        0.0000000000000000     
  -8.0865901714254368E-002  0.16671660050195555        0.0000000000000000     
  -8.2112063815220335E-002  0.17445989908358245        0.0000000000000000     
  -8.3279357626340741E-002  0.18229279261753187        0.0000000000000000     
  -8.4367783147615533E-002  0.19021528110380384        0.0000000000000000     
  -8.5377340379044764E-002  0.19822736454239839        0.0000000000000000     
  -8.8007073161793251E-002  0.16711054893337215        0.0000000000000000     
  -8.9354407107237965E-002  0.17483017785333671        0.0000000000000000     
  -9.0620247060266806E-002  0.18263916824996351        0.0000000000000000     
  -9.1804593020879802E-002  0.19053752012325267        0.0000000000000000     
  -9.2907444989076882E-002  0.19852523347320411        0.0000000000000000     
  -9.5340614162551671E-002  0.16753781616495053        0.0000000000000000     
  -9.6784085055612978E-002  0.17523393227738623        0.0000000000000000     
  -9.8144766374264017E-002  0.18301861176596165        0.0000000000000000     
  -9.9422658118504731E-002  0.19089185463067679        0.0000000000000000     
 -0.10061776028833519       0.19885366087153153        0.0000000000000000     
 -0.10286652471652957       0.16799840219669071        0.0000000000000000     
 -0.10440109766034539       0.17567116235573108        0.0000000000000000     
 -0.10585291556833232       0.18343112316552618        0.0000000000000000     
 -0.10722197844049042       0.19127828462607599        0.0000000000000000     
 -0.10850828627681963       0.19921264673738054        0.0000000000000000     
  -7.8027446458238808E-002  0.19796005407911421        0.0000000000000000     
  -7.8868424259089076E-002  0.20607719841675437        0.0000000000000000     
  -7.9635834209285675E-002  0.21426953461298645        0.0000000000000000     
  -8.0329676308828646E-002  0.22253706266781045        0.0000000000000000     
  -8.0949950557717976E-002  0.23087978258122638        0.0000000000000000     
  -8.5377340379044764E-002  0.19822736454239839        0.0000000000000000     
  -8.6311249488869368E-002  0.20632138054039303        0.0000000000000000     
  -8.7172730645330279E-002  0.21448966670486533        0.0000000000000000     
  -8.7961783848427511E-002  0.22273222303581536        0.0000000000000000     
  -8.8678409098161076E-002  0.23104904953324304        0.0000000000000000     
  -9.2907444989076882E-002  0.19852523347320411        0.0000000000000000     
  -9.3933388835285334E-002  0.20659517924477636        0.0000000000000000     
  -9.4887010429932431E-002  0.21474022838292778        0.0000000000000000     
  -9.5768309773018090E-002  0.22296038088765835        0.0000000000000000     
  -9.6577286864542394E-002  0.23125563675896815        0.0000000000000000     
 -0.10061776028833519       0.19885366087153153        0.0000000000000000     
 -0.10173484229833706       0.20689859452990442        0.0000000000000000     
 -0.10277867356309213       0.21502121964717377        0.0000000000000000     
 -0.10374925408260043       0.22322153622333951        0.0000000000000000     
 -0.10464658385686192       0.23149954425840175        0.0000000000000000     
 -0.10850828627681963       0.19921264673738054        0.0000000000000000     
 -0.10971560987802448       0.20723162639577722        0.0000000000000000     
 -0.11084772004480944       0.21533264049760328        0.0000000000000000     
 -0.11190461677717449       0.22351568904285882        0.0000000000000000     
 -0.11288630007511968       0.23178077203154374        0.0000000000000000     
  -8.0949950557717976E-002  0.23087978258122638        0.0000000000000000     
  -8.1486231706869042E-002  0.23931839740635102        0.0000000000000000     
  -8.1928094507197236E-002  0.24787361019630130        0.0000000000000000     
  -8.2275538958702599E-002  0.25654542095107713        0.0000000000000000     
  -8.2528565061385062E-002  0.26533382967067864        0.0000000000000000     
  -8.8678409098161076E-002  0.23104904953324304        0.0000000000000000     
  -8.9308431636176369E-002  0.23946572269000227        0.0000000000000000     
  -8.9837676704118768E-002  0.24800781899894692        0.0000000000000000     
  -9.0266144301988302E-002  0.25667533846007701        0.0000000000000000     
  -9.0593834429784956E-002  0.26546828107339249        0.0000000000000000     
  -9.6577286864542394E-002  0.23125563675896815        0.0000000000000000     
  -9.7304941175213724E-002  0.23965248540299527        0.0000000000000000     
  -9.7942272175740558E-002  0.24817741622587788        0.0000000000000000     
  -9.8489279866122909E-002  0.25683042922761590        0.0000000000000000     
  -9.8945964246360735E-002  0.26561152440820940        0.0000000000000000     
 -0.10464658385686192       0.23149954425840175        0.0000000000000000     
 -0.10547576032398115       0.23987868554533004        0.0000000000000000     
 -0.10624188092206263       0.24838240187709412        0.0000000000000000     
 -0.10694494565110638       0.25701069325369386        0.0000000000000000     
 -0.10758495451111240       0.26576355967512943        0.0000000000000000     
 -0.11288630007511968       0.23178077203154374        0.0000000000000000     
 -0.11382088908247862       0.24014432311700651        0.0000000000000000     
 -0.11473650294308499       0.24862277595259558        0.0000000000000000     
 -0.11563314165693878       0.25721613053831088        0.0000000000000000     
 -0.11651080522403998       0.26592438687415249        0.0000000000000000     
  -8.2528565061385062E-002  0.26533382967067864        0.0000000000000000     
  -8.2726121130405589E-002  0.27426520709997604        0.0000000000000000     
  -8.2907155480925088E-002  0.28336592398383981        0.0000000000000000     
  -8.3071668112943531E-002  0.29263598032226995        0.0000000000000000     
  -8.3219659026460946E-002  0.30207537611526653        0.0000000000000000     
  -9.0593834429784956E-002  0.26546828107339249        0.0000000000000000     
  -9.0851037626622388E-002  0.27444964205305145        0.0000000000000000     
  -9.1068044431614203E-002  0.28368241661321192        0.0000000000000000     
  -9.1244854844760415E-002  0.29316660475387396        0.0000000000000000     
  -9.1381468866061050E-002  0.30290220647503741        0.0000000000000000     
  -9.8945964246360735E-002  0.26561152440820940        0.0000000000000000     
  -9.9323291107698525E-002  0.27461893985245067        0.0000000000000000     
  -9.9632226241380697E-002  0.28395091364513192        0.0000000000000000     
  -9.9872769647407281E-002  0.29360744578625325        0.0000000000000000     
 -0.10004492132577826       0.30358853627581461        0.0000000000000000     
 -0.10758495451111240       0.26576355967512943        0.0000000000000000     
 -0.10814288157363403       0.27477310049817377        0.0000000000000000     
 -0.10859970091022461       0.28417141507959998        0.0000000000000000     
 -0.10895541252088412       0.29395850341940799        0.0000000000000000     
 -0.10921001640561256       0.30413436551759804        0.0000000000000000     
 -0.11651080522403998       0.26592438687415249        0.0000000000000000     
 -0.11730980902442892       0.27491212399022069        0.0000000000000000     
 -0.11797046843814590       0.28434392091661603        0.0000000000000000     
 -0.11849278346519092       0.29421977765333834        0.0000000000000000     
 -0.11887675410556398       0.30453969420038768        0.0000000000000000     
 </DataArray>
 <DataArray  type="Float64" Name="stress" NumberOfComponents="3" format="ascii">
   5245942912.1828871        1023976127.3066411       -671401234.48586631     
   5128157716.4704323        512284659.86319637       -457173377.80398172     
   5061358708.3651924        170547151.11051059       -309162444.56855333     
   5045545887.8671894       -1236398.9514205456       -227368434.77956578     
   5080719254.9764099       -3065990.3226084709       -211791348.43702930     
   5553111810.3413420        842552154.11626756       -398839502.55093116     
   5329726732.7533016        458789077.36300921       -226151318.09163088     
   5141817944.4881468        193280298.35266066       -97998824.864823878     
   4989385445.5458488        46025817.085199594       -14382022.870524241     
   4872429235.9264240        17025633.560649395        24699087.891276982     
   5566518613.6271057        572999552.46409273       -55842501.006715991     
   5299480031.9176321        335748779.72725391        57211129.898256004     
   5052407841.2466745        165052643.78546429        147410301.78468031     
   4825302041.6142302        60911144.638726711        214755014.65255538     
   4618162633.0203094        23324282.287048101        259245268.50188082     
   5286163322.0401678        215318322.35010099        357589770.14677769     
   5037417613.9633913        143163766.95591998        392913966.16567671     
   4793128398.6407919        85864187.408953905        427064935.37997061     
   4553295676.0723438        43419583.709185362        460042677.78967392     
   4317919446.2580585        15829955.856616020        491847193.39477068     
   4712045935.5805264       -230491536.22569871        841457310.90954316     
   4543539478.8906040       -118965960.95097327        780957190.71062386     
   4363979616.6704912       -44285070.776884317        740965075.92104816     
   4173366348.9201794       -6448865.7034537792        721480966.54082716     
   3971699675.6396766       -5457345.7306582928        722504862.56995165     
   5080719254.9764099       -3065990.3226084709       -211791348.43702930     
   4928594360.8331203        13528694.297081470       -166883642.36635640     
   4774679161.0825758        24155693.559252977       -126518372.25749730     
   4618973655.7247782        28815007.463907003       -90695538.110478863     
   4461477844.7597141        27506636.011025667       -59415139.925271638     
   4872429235.9264240        17025633.560649395        24699087.891276982     
   4709915764.6799011        26028386.844696999        53072085.298563674     
   4545994211.9984646        30337535.345688105        79748289.665714696     
   4380664577.8821106        29953079.063636541        104727700.99274480     
   4213926862.3308411        24875017.998515844        128010319.27963924     
   4618162633.0203094        23324282.287048101        259245268.50188082     
   4453390993.0182619        27174226.739771843        271529485.44682956     
   4287593495.7536440        27604646.983916759        284962552.27334708     
   4120770141.2264500        24615543.019481659        299544468.98143601     
   3952920929.4366770        18206914.846444845        315275235.57109201     
   4317919446.2580585        15829955.856616020        491847193.39477068     
   4159020045.8481994        16966213.982333660        488488558.07845062     
   3999477012.3481016        15957028.473932266        489124415.56539309     
   3839290345.7577715        12802399.331408024        493754765.85560787     
   3678460046.0772028        7502326.5547680855        502379608.94908571     
   3971699675.6396766       -5457345.7306582928        722504862.56995165     
   3826802923.1697083       -4595651.4276463985        703949303.19341934     
   3681644761.7818470       -4605320.1842763424        692233879.54185557     
   3536225191.4760890       -5486352.0005581379        687358591.61525834     
   3390544212.2524385       -7238746.8764927387        689323439.41362190     
   4461477844.7597141        27506636.011025667       -59415139.925271638     
   4281364113.7915182        18230335.774544477       -56404438.714311533     
   4102260983.2991595        12322703.790846109       -51114857.410657823     
   3924168453.2826362        9783740.0599448681       -43546396.014311805     
   3747086523.7419496        10613444.581814289       -33699054.525272183     
   4213926862.3308411        24875017.998515844        128010319.27963924     
   4040817053.1215672        17068623.008216381        127653899.49988890     
   3868576837.9882183        12160874.937664986        130067022.84672937     
   3697206216.9308047        10151773.786893368        135249689.32016388     
   3526705189.9493027        11041319.555827379        143201898.92018664     
   3952920929.4366770        18206914.846444845        315275235.57109201     
   3788216936.3688831        12290993.417064667        311387187.33406997     
   3624241530.9771099        8803697.5744218826        310759345.25754082     
   3460994713.2613568        7745027.3185174465        313391709.34150255     
   3298476483.2216315        9114982.6493597031        319284279.58595908     
   3678460046.0772028        7502326.5547680855        502379608.94908571     
   3523563763.5334702        3897447.0010995865        494795424.78824198     
   3369255062.2658410        2251171.7011365891        490962109.82178575     
   3215533942.2743354        2563500.6549024582        490879664.04972422     
   3062400403.5589399        4834433.8623795509        494548087.47203845     
   3390544212.2524385       -7238746.8764927387        689323439.41362190     
   3246857534.6153188       -8112016.2396938801        677878611.86239588     
   3103617431.8544078       -7496702.6822044849        670675316.53945875     
   2960823903.9697084       -5392806.2040073872        667713553.44480741     
   2818476950.9612160       -1800326.8051204681        668993322.57843852     
   3747086523.7419496        10613444.581814289       -33699054.525272183     
   3567594989.9984536        10706335.253184557       -30825121.071808271     
   3387083669.4562488        7399936.5955269337       -23381156.855560686     
   3205552562.1153712        694248.60894858837       -11367161.876558900     
   3023001667.9757872       -9410728.7066285610        5216863.8652265556     
   3526705189.9493027        11041319.555827379        143201898.92018664     
   3359169340.8382282        12964062.519892693        142099533.30878881     
   3190858607.8714204        12303859.298209548        145201543.81509033     
   3021772991.0488925        9060709.8907625675        152507930.43909758     
   2851912490.3706298        3234614.2975447178        164018693.18080673     
   3298476483.2216315        9114982.6493597031        319284279.58595908     
   3141851591.1856542        12554159.638949633        314491335.00981289     
   2984696718.2369056        14226733.585974455        313537111.90631247     
   2827011864.3754044        14132704.490487337        316421610.27544916     
   2668797029.6011429        12272072.352465630        323144830.11721045     
   3062400403.5589399        4834433.8623795509        494548087.47203845     
   2915641741.0407143        9476626.6102634668        486350284.03128582     
   2768598000.5527005        13168559.458831310        481625547.41810399     
   2621269182.0948896        15910232.408090591        480373877.63248903     
   2473655285.6672907        17701645.458047152        482595274.67443734     
   2818476950.9612160       -1800326.8051204681        668993322.57843852     
   2680539790.4034266        3731463.4338865280        657676380.37320113     
   2542562454.8188076        9129336.9167894125        649466850.35046315     
   2404544944.2073569        14393293.643600225        644364732.51022768     
   2266487258.5690908        19523333.614337444        642370026.85249603     
   3023001667.9757872       -9410728.7066285610        5216863.8652265556     
   2863131543.0891309       -12678915.593627572        4194868.8384611048     
   2704302672.9040017       -12476253.475492001        2656246.9643652234     
   2546515057.4204702       -8802742.3520648479        600998.24293378636     
   2389768696.6384730       -1658382.2234991789       -1970877.3258280815     
   2851912490.3706298        3234614.2975447178        164018693.18080673     
   2692068776.3947353        275510.62884294987        160284940.76729682     
   2532908928.1957555       -404040.45015990734        157016804.38980135     
   2374432945.7736564        1195961.0604537725        154214284.04831964     
   2216640829.1284633        5075515.1607422829        151877379.74284598     
   2668797029.6011429        12272072.352465630        323144830.11721045     
   2511786134.7741547        10463974.373511076        316282366.57151502     
   2355101716.7993979        9744132.5686604977        310867761.94518656     
   2198743775.6768894        10112546.937973619        306901016.23821068     
   2042712311.4066246        11569217.481435061        304382129.45059347     
   2473655285.6672907        17701645.458047152        482595274.67443734     
   2322283618.2273369        17886475.640274644        472187146.25112081     
   2170881038.7149653        17968265.581097484        464209119.63052362     
   2019447547.1301751        17947015.280535460        458661194.81262314     
   1867983143.4729671        17822724.738582373        455543371.79742777     
   2266487258.5690908        19523333.614337444        642370026.85249603     
   2123561226.7543032        22543014.429180264        627999279.80612826     
   1980246893.9424412        24268358.587100267        617040877.44581211     
   1836544260.1335087        24699366.088116765        609494819.77155256     
   1692453325.3274922        23836036.932197750        605361106.78332913     
   2389768696.6384730       -1658382.2234991789       -1970877.3258280815     
   2247802733.2231550        6487719.9991919994       -7700498.1236297516     
   2102532409.3155706        3619287.2476289272       -11598891.656749133     
   1953957724.9157333       -10263680.478099227       -13666057.925202880     
   1802078680.0235989       -35161183.178140998       -13901996.928971777     
   2216640829.1284633        5075515.1607422829        151877379.74284598     
   2078219740.9161150        12476657.332997680        142278547.53646997     
   1937605081.1304274        12565894.260781288        133747229.00240836     
   1794796849.7713978        5343225.9441126585        126283424.14066373     
   1649795046.8390574       -9191347.6169257164        119887132.95124631     
   2042712311.4066246        11569217.481435061        304382129.45059347     
   1905654059.5619342        17570787.952630997        292210006.24106282     
   1767513025.0628564        19963082.909195304        280341683.11149728     
   1628289207.9093819        18746102.351101279        268777160.06189615     
   1487982608.1015120        13919846.278361738        257516437.09226787     
   1867983143.4729671        17822724.738582373        455543371.79742777     
   1730105689.1606472        21770111.858147502        442093877.99016511     
   1592256241.1128690        25810853.192876160        428184470.67050987     
   1454434799.3296366        29944948.742730677        413815149.83848405     
   1316641363.8109469        34172398.507756591        398985915.49406153     
   1692453325.3274922        23836036.932197750        605361106.78332913     
   1551574629.7122359        25074629.049526751        591930162.78376627     
   1411834729.2804782        30109205.111862540        577275591.67947435     
   1273233624.0321774        38939765.119045973        561397393.47043169     
   1135771313.9673791        51566309.071244001        544295568.15665483     
   1802078680.0235989       -35161183.178140998       -13901996.928971777     
   1771241244.2711873       -16511696.497713685       -8331029.7918304242     
   1748478173.3880832        29052339.747027636       -41519961.394563220     
   1733789467.3742893        101530925.55615902       -113468791.73717402     
   1727175126.2297697        200924060.92953801       -224177520.81964615     
   1649795046.8390574       -9191347.6169257164        119887132.95124631     
   1527292220.8151960       -13976539.201969147        135474354.98073664     
   1408960783.2241077       -4857102.6777421832        124717639.75638829     
   1294800734.0657899        18166961.955718100        87616987.278212145     
   1184812073.3402550        55095654.698431849        24172397.546201169     
   1487982608.1015120        13919846.278361738        257516437.09226787     
   1309288567.4805992       -3657770.8697831631        278566441.50481880     
   1130862938.8559268       -20340681.363803685        285688470.14957482     
   952705722.22751963       -36128885.203601718        278882523.02654552     
   774816917.59534895       -51022382.389278382        258148600.13572651     
   1316641363.8109469        34172398.507756591        398985915.49406153     
   1117230284.2673864        14444608.498779953        420945229.78040349     
   914184640.28355742       -17398396.311093390        441392529.78498924     
   707504431.85945261       -61356615.921873510        460327815.50784487     
   497189658.99506956       -117430050.33358058        477751086.94893754     
   1135771313.9673791        51566309.071244001        544295568.15665483     
   951117371.17557430        40330598.903783083        562610719.80750000     
   758925887.50698030        3969752.4803312421        591829818.66264760     
   559196862.96158946       -57516230.199096590        631952864.72207832     
   351930297.53939974       -144127349.13451996        682979857.98580873     
   1727175126.2297697        200924060.92953801       -224177520.81964615     
   1456657861.9569597        184603921.38789588       -96612127.010442525     
   1153972344.0390878        61056269.696035564        60120276.256957740     
   819118572.47615886       -169718894.14600992        246019688.98254183     
   452096547.26816493       -507721570.13827109        461086111.16627645     
   1184812073.3402550        55095654.698431849        24172397.546201169     
   977713748.86455989        11857352.400455654        155570764.70182553     
   732795181.50623763       -157448426.17297781        312797805.95620060     
   450056371.26522934       -452821681.02203107        495853521.30932128     
   129497318.14160454       -874262412.14646208        704737910.76122344     
   774816917.59534895       -51022382.389278382        258148600.13572651     
   621599431.88987017       -124040277.75161824        386785953.19389367     
   424909714.06413960       -341965613.51478881        537913644.99139762     
   184747764.11816350       -704798389.67879915        711531675.52823198     
  -98886417.948054552       -1212538606.2435825        907640044.80441070     
   497189658.99506956       -117430050.33358058        477751086.94893754     
   388314911.03285831       -223088969.06841540        597033438.46579576     
   230315941.71281034       -492495292.32938415        735467793.36256814     
   23192751.034933865       -925649020.11643684        893054151.63925087     
  -233054661.00079104       -1522550152.4296396        1069792513.2958423     
   351930297.53939974       -144127349.13451996        682979857.98580873     
   277860186.29352903       -285288721.54994106        786313220.51751709     
   149013864.45224872       -609037462.61672759        905460251.06969857     
  -34608667.984465301       -1115373572.3349597        1040420949.6423539     
  -273007411.01660281       -1804297050.7045922        1191195316.2355373     
   4712045935.5805264       -230491536.22569871        841457310.90954316     
   4543539478.8906040       -118965960.95097327        780957190.71062386     
   4363979616.6704912       -44285070.776884317        740965075.92104816     
   4173366348.9201794       -6448865.7034537792        721480966.54082716     
   3971699675.6396766       -5457345.7306582928        722504862.56995165     
   4181227223.5572429       -186181755.35271955        935041747.79795146     
   4051127875.4924593       -103934747.32193661        884320359.20725083     
   3913426393.9972959       -47028184.059110641        849391487.35975981     
   3768122779.0717368       -15462065.564255953        830255132.25547755     
   3615217030.7157888       -9236391.8373641968        826911293.89440739     
   3716176722.0148048       -122141511.33549047        1010920365.7698725     
   3611011657.8147726       -73214917.976763487        974004192.90383184     
   3501695732.2841544       -38124529.053321362        948165048.11486292     
   3388228945.4229469       -16870344.565169096        933402931.40296209     
   3270611297.2311597       -9452364.5122971535        929717842.76813555     
   3316894430.9532213       -38370804.174004078        1069093164.8253142     
   3223190825.8575349       -26806472.915460348        1050008691.8003742     
   3128787631.5310712       -17574105.759515882        1037285758.1863610     
   3033684847.9738183       -10673702.706183910        1030924363.9832793     
   2937882475.1857896       -6105263.7554517984        1030924509.1911300     
   2983380350.3724923        65130366.131740451        1109560144.9642730     
   2887665379.6207581        35290587.861986041        1112333855.8968687     
   2794702091.7380395        14623085.822308302        1116753617.5742531     
   2704490486.7243452        3127860.0127012730        1122819429.9964280     
   2617030564.5796738        804910.43317329884        1130531293.1633930     
   3971699675.6396766       -5457345.7306582928        722504862.56995165     
   3826802923.1697083       -4595651.4276463985        703949303.19341934     
   3681644761.7818470       -4605320.1842763424        692233879.54185557     
   3536225191.4760890       -5486352.0005581379        687358591.61525834     
   3390544212.2524385       -7238746.8764927387        689323439.41362190     
   3615217030.7157888       -9236391.8373641968        826911293.89440739     
   3487335225.4371896       -7236492.0414745808        811854810.43764877     
   3359319538.0807133       -5682865.8385026455        802783949.36631310     
   3231169968.6463618       -4575513.2284585238        799698710.68040526     
   3102886517.1341338       -3914434.2113202810        802599094.37992096     
   3270611297.2311597       -9452364.5122971535        929717842.76813555     
   3157302972.4595256       -7046699.2288545370        918309216.54449987     
   3043988292.4500380       -4662218.0716007948        912031699.36675310     
   2930667257.2026911       -2298921.0405319929        910885291.23488605     
   2817339866.7174911        43191.864349126816        914869992.14890492     
   2937882475.1857896       -6105263.7554517984        1030924509.1911300     
   2836706164.2367182       -4026272.9897768497        1023312521.5139781     
   2735651024.8898139       -1543376.8835572004        1019977129.5431715     
   2634717057.1450744        1343424.5632125139        1020918333.2787075     
   2533904261.0024943        4634131.3505150080        1026136132.7205869     
   2617030564.5796738        804910.43317329884        1130531293.1633930     
   2525544800.7687716        1824786.6757643223        1126864725.3460824     
   2434307735.4000478        3673657.7256181240        1126620239.8955715     
   2343319368.4735112        6351523.5827624798        1129797836.8118615     
   2252579699.9891543        9858384.2471777201        1136397516.0949621     
   3390544212.2524385       -7238746.8764927387        689323439.41362190     
   3246857534.6153188       -8112016.2396938801        677878611.86239588     
   3103617431.8544078       -7496702.6822044849        670675316.53945875     
   2960823903.9697084       -5392806.2040073872        667713553.44480741     
   2818476950.9612160       -1800326.8051204681        668993322.57843852     
   3102886517.1341338       -3914434.2113202810        802599094.37992096     
   2970466434.2661457       -4125942.0286002159        792388842.01189077     
   2838423136.2709713       -3081500.2698297501        786450954.57354546     
   2706756623.1486120       -781108.93501222134        784785432.06487179     
   2575466894.8990674        2775231.9758492708        787392274.48586440     
   2817339866.7174911        43191.864349126816        914869992.14890492     
   2696274472.0511684        519873.62275886536        905812893.29345310     
   2575516072.2542624        2019871.6125632524        901058992.06906521     
   2455064667.3267713        4543185.8337532282        900608288.47573924     
   2334920257.2687030        8089816.2863394022        904460782.51348066     
   2533904261.0024943        4634131.3505150080        1026136132.7205869     
   2424281647.9703698        5825430.7143615484        1018150765.7070795     
   2314896239.8042746        7807412.9649724960        1014499429.0260270     
   2205748036.5041943        10580078.102297544        1015182122.6774230     
   2096837038.0701394        14143426.126366973        1020198846.6612638     
   2252579699.9891543        9858384.2471777201        1136397516.0949621     
   2154487962.0237665        11790729.246236444        1129402459.2527711     
   2056563638.9210138        14281123.787399173        1126772265.4444180     
   1958806730.6808782        17329567.870628238        1128506934.6699042     
   1861217237.3033690        20936061.495946169        1134606466.9292290     
   2818476950.9612160       -1800326.8051204681        668993322.57843852     
   2680539790.4034266        3731463.4338865280        657676380.37320113     
   2542562454.8188076        9129336.9167894125        649466850.35046315     
   2404544944.2073569        14393293.643600225        644364732.51022768     
   2266487258.5690908        19523333.614337444        642370026.85249603     
   2575466894.8990674        2775231.9758492708        787392274.48586440     
   2445716530.1826859        7386207.8808487654        777069915.35490239     
   2315980254.8358321        12044148.350934744        770150174.91959572     
   2186258068.8584933        16749053.386068225        766633053.17994285     
   2056549972.2506711        21500922.986263514        766518550.13595414     
   2334920257.2687030        8089816.2863394022        904460782.51348066     
   2214200135.5741854        12033012.011496663        895196314.91919041     
   2093548367.6455352        16204053.622876883        889629672.53371787     
   1972964953.4827476        20602941.120464802        887760855.35705650     
   1852449893.0858252        25229674.504274845        889589863.38920999     
   2096837038.0701394        14143426.126366973        1020198846.6612638     
   1985990606.5779278        17671875.825820565        1012055579.0660548     
   1875266793.2479243        21609052.732628107        1007905343.1928222     
   1764665598.0801320        25954956.846807122        1007748139.0415548     
   1654187021.0745451        30709588.168342769        1011583966.6122543     
   1861217237.3033690        20936061.495946169        1134606466.9292290     
   1761087943.1939008        24302799.323803782        1127647707.7955077     
   1661135531.6429904        28259145.680184186        1124977186.8969131     
   1561360002.6506321        32805100.565076292        1126594904.2334461     
   1461761356.2168336        37940663.978501081        1132500859.8050959     
   2266487258.5690908        19523333.614337444        642370026.85249603     
   2123561226.7543032        22543014.429180264        627999279.80612826     
   1980246893.9424412        24268358.587100267        617040877.44581211     
   1836544260.1335087        24699366.088116765        609494819.77155256     
   1692453325.3274922        23836036.932197750        605361106.78332913     
   2056549972.2506711        21500922.986263514        766518550.13595414     
   1922642920.7998779        24627968.714419246        753859766.06684065     
   1788481030.0328693        26905550.055182219        744701537.99628830     
   1654064299.9496434        28333667.008563936        739043865.92430413     
   1519392730.5502067        28912319.574560046        736886749.85088384     
   1852449893.0858252        25229674.504274845        889589863.38920999     
   1727813854.3204913        28539694.842166543        878798747.59168696     
   1603056437.9198022        31445123.062202394        871596399.10523915     
   1478177643.8837624        33945959.164406300        867982817.92986977     
   1353177472.2123663        36042203.148749232        867958004.06558466     
   1654187021.0745451        30709588.168342769        1011583966.6122543     
   1539074027.3161411        34278192.812423050        1002816224.3806603     
   1423973117.6032391        37887077.608173668        997725460.77265787     
   1308884291.9358506        41536242.555639386        996311675.78824866     
   1193807550.3139646        45225687.654776752        998574869.42743027     
   1461761356.2168336        37940663.978501081        1132500859.8050959     
   1356423439.7868254        41843462.625193059        1125912196.4337687     
   1251231069.0831850        46231413.693107545        1123088722.9985492     
   1146184244.1059196        51104517.182269335        1124030439.4994347     
   1041282964.8550137        56462773.092639327        1128737345.9364240     
   1692453325.3274922        23836036.932197750        605361106.78332913     
   1551574629.7122359        25074629.049526751        591930162.78376627     
   1411834729.2804782        30109205.111862540        577275591.67947435     
   1273233624.0321774        38939765.119045973        561397393.47043169     
   1135771313.9673791        51566309.071244001        544295568.15665483     
   1519392730.5502067        28912319.574560046        736886749.85088384     
   1376764266.7584152        27148190.393291056        727578767.54629755     
   1234419842.2194297        26330858.721361995        718841372.51034284     
   1092359456.9332190        26460324.558683574        710674564.74300623     
   950583110.89979744        27536587.905313432        703078344.24428833     
   1353177472.2123663        36042203.148749232        867958004.06558466     
   1213925567.0250874        32813250.703216434        861775768.20350170     
   1074102945.1599047        27681909.331331730        857958333.98339677     
   933709606.61680102        20648179.033049941        856505701.40528083     
   792745551.39579666        11712059.808427155        857417870.46915495     
   1193807550.3139646        45225687.654776752        998574869.42743027     
   1063058530.5122325        42069809.979270518        994521164.75536358     
   930884038.10189378        34162356.941749156        994626476.09864366     
   797284073.08295429        21503328.542211086        998890803.45727658     
   662258635.45540166        4092724.7806409597        1007314146.8312629     
   1041282964.8550137        56462773.092639327        1128737345.9364240     
   924163157.21986449        54917868.221477240        1125814957.2018983     
   804763121.04540575        45772201.552621752        1128845798.8560855     
   683082856.33165181        29025773.086118430        1137829870.8989844     
   559122363.07859397        4678582.8219242692        1152767173.3305950     
   1135771313.9673791        51566309.071244001        544295568.15665483     
   951117371.17557430        40330598.903783083        562610719.80750000     
   758925887.50698030        3969752.4803312421        591829818.66264760     
   559196862.96158946       -57516230.199096590        631952864.72207832     
   351930297.53939974       -144127349.13451996        682979857.98580873     
   950583110.89979744        27536587.905313432        703078344.24428833     
   791516409.21252429        10730603.053458691        721100909.37823439     
   623795245.30392671       -34923589.202799797        749187468.46931660     
   447419619.17399830       -109425988.86349317        787338021.51751256     
   262389530.82274640       -212776595.92861164        835552568.52283823     
   792745551.39579666        11712059.808427155        857417870.46915495     
   656866224.39258385       -11384159.653922915        873844774.18425226     
   511215513.82350630       -67051657.669142574        899495718.60930300     
   355793419.68856466       -155290434.23723626        934370703.74431276     
   190599941.98776025       -276100489.35821980        978469729.58928037     
   662258635.45540166        4092724.7806409597        1007314146.8312629     
   547166816.71575296       -26013689.218379974        1020842314.2255412     
   421186693.06572366       -92414452.918679863        1042754569.0826174     
   284318264.50527930       -195109566.32035804        1073050911.4024824     
   136561531.03444725       -334099029.42331773        1111731341.1851351     
   559122363.07859397        4678582.8219242692        1152767173.3305950     
   462418186.18203950       -33157985.639895141        1162093529.5021131     
   353708783.03055841       -111011974.95147523        1178964019.8892598     
   232994153.62415510       -228883385.11279893        1203378644.4920237     
   100274297.96281153       -386772216.12391245        1235337403.3104033     
   351930297.53939974       -144127349.13451996        682979857.98580873     
   277860186.29352903       -285288721.54994106        786313220.51751709     
   149013864.45224872       -609037462.61672759        905460251.06969857     
  -34608667.984465301       -1115373572.3349597        1040420949.6423539     
  -273007411.01660281       -1804297050.7045922        1191195316.2355373     
   262389530.82274640       -212776595.92861164        835552568.52283823     
   223652395.14444020       -352447418.52060926        884949171.80202627     
   140685259.27291879       -639551575.08999908        945367345.99960840     
   13488123.208160222       -1074089065.6368432        1016807091.1155916     
  -157939013.04982430       -1656059890.1611047        1099268407.1499524     
   190599941.98776025       -276100489.35821980        978469729.58928037     
   173504075.87103465       -418388273.92858911        986233485.75186205     
   122724419.96328825       -672955357.80237484        1000226715.7307354     
   38260974.264504492       -1039801740.9796182        1020449419.5259113     
  -79886261.225314200       -1518927423.4602978        1046901597.1373755     
   136561531.03444725       -334099029.42331773        1111731341.1851351     
   127415228.47332290       -483111287.77385247        1090166162.3669968     
   95131346.523359001       -709248810.75385296        1070038360.2630693     
   39709885.184558809       -1012511598.3632965        1051347934.8733267     
  -38849155.543065488       -1392899650.6021757        1034094886.1978059     
   100274297.96281153       -386772216.12391245        1235337403.3104033     
   85385852.951299042       -546616460.05640948        1196747201.6474557     
   57906038.953140438       -748431933.94438803        1154802279.5965998     
   17834855.968348086       -992218637.78782368        1109502637.1578472     
  -34827696.003084362       -1277976571.5867207        1060848274.3312352     
   2983380350.3724923        65130366.131740451        1109560144.9642730     
   2887665379.6207581        35290587.861986041        1112333855.8968687     
   2794702091.7380395        14623085.822308302        1116753617.5742531     
   2704490486.7243452        3127860.0127012730        1122819429.9964280     
   2617030564.5796738        804910.43317329884        1130531293.1633930     
   2639693358.4803095        56298011.540278554        1189044894.3745699     
   2551265897.9805865        32645253.913828135        1190144847.1660464     
   2464894228.8531699        15845134.195073128        1193776752.3350523     
   2380578351.0980625        5897652.3840057850        1199940609.8815937     
   2298318264.7152600        2802808.4806331396        1208636419.8056722     
   2281946169.6406837        43247597.864585638        1270474337.2480967     
   2203337366.9151073        26541205.138083935        1269088658.4856122     
   2126088464.0651193        14367811.996886849        1271120833.7334061     
   2050199461.0907273        6727418.4409992695        1276570862.9914815     
   1975670357.9919248        3620024.4704166651        1285438746.2598357     
   1910138783.8536236        25979125.104660630        1353848473.5848465     
   1843879786.4243157        16978441.534744859        1349165289.8555701     
   1778284797.3738854        10191119.227744222        1348785861.7693186     
   1713353816.7023344        5617158.1836748123        1352710189.3260903     
   1649086844.4096556        3256558.4025198221        1360938272.5258882     
   1524271201.1191194        4492593.2605040669        1439167303.3848231     
   1472893156.5082135        3956963.1038123965        1430374741.2759206     
   1421483228.7794690        3315055.8876475096        1426771836.4427872     
   1370041417.9328868        2566871.6120315790        1428358588.8854244     
   1318567723.9684656        1712410.2769501805        1435134998.6038311     
   2617030564.5796738        804910.43317329884        1130531293.1633930     
   2525544800.7687716        1824786.6757643223        1126864725.3460824     
   2434307735.4000478        3673657.7256181240        1126620239.8955715     
   2343319368.4735112        6351523.5827624798        1129797836.8118615     
   2252579699.9891543        9858384.2471777201        1136397516.0949621     
   2298318264.7152600        2802808.4806331396        1208636419.8056722     
   2215999494.9703298        3144751.4934270382        1204048771.9705586     
   2133902554.9024165        4226126.7629570961        1203247021.7954948     
   2052027444.5115271        6046934.2892310619        1206231169.2804818     
   1970374163.7976563        8607174.0722277164        1213001214.4255183     
   1975670357.9919248        3620024.4704166651        1285438746.2598357     
   1903558054.5793798        3595875.9333412647        1279898671.5142374     
   1831640712.0786951        4221597.1024655104        1278508309.7219303     
   1759918330.4898665        5497187.9777802229        1281267660.8829219     
   1688390909.8128986        7422648.5592918396        1288176724.9972126     
   1649086844.4096556        3256558.4025198221        1360938272.5258882     
   1588220479.5959241        3178159.9955070019        1354414423.9771104     
   1527522206.9288862        3660068.7441493273        1352404103.6748748     
   1466992026.4085431        4702284.6484388113        1354907311.6191850     
   1406629938.0349007        6304807.7083927393        1361924047.8100362     
   1318567723.9684656        1712410.2769501805        1435134998.6038311     
   1269986770.0199566        1891603.6799089909        1427596029.3591878     
   1221547039.4529877        2541541.6880031228        1424934403.6543331     
   1173248532.2675445        3662224.3011807203        1427150121.4892688     
   1125091248.4636459        5253651.5195066333        1434243182.8639941     
   2252579699.9891543        9858384.2471777201        1136397516.0949621     
   2154487962.0237665        11790729.246236444        1129402459.2527711     
   2056563638.9210138        14281123.787399173        1126772265.4444180     
   1958806730.6808782        17329567.870628238        1128506934.6699042     
   1861217237.3033690        20936061.495946169        1134606466.9292290     
   1970374163.7976563        8607174.0722277164        1213001214.4255183     
   1883679036.6738274        10246468.994316936        1206332018.6263032     
   1797152151.7820482        12446571.356571198        1204132210.4583673     
   1710793509.1223137        15207481.158964157        1206401789.9217064     
   1624603108.6946278        18529198.401532888        1213140757.0163224     
   1688390909.8128986        7422648.5592918396        1288176724.9972126     
   1613391035.2376060        8858485.9165163040        1281834355.5052953     
   1538560230.2637784        10857888.611958861        1280065898.2420907     
   1463898494.8914161        13420856.645619929        1282871353.2076104     
   1389405829.1205218        16547390.017506838        1290250720.4018431     
   1406629938.0349007        6304807.7083927393        1361924047.8100362     
   1343623957.7151039        7626780.0128246546        1355909469.8897383     
   1280787874.3661981        9515075.5535498261        1354573328.7955992     
   1218121687.9881811        11969694.330567896        1357915624.5276172     
   1155625398.5810444        14990636.343871057        1365936357.0857933     
   1125091248.4636459        5253651.5195066333        1434243182.8639941     
   1074377804.1063273        6551351.2832607627        1428557361.7796421     
   1023835084.0893117        8418132.1813565493        1427654502.1188848     
   973463088.41260231        10853994.213804543        1431534603.8817272     
   923261817.07620442        13858937.380629778        1440197667.0681639     
   1861217237.3033690        20936061.495946169        1134606466.9292290     
   1761087943.1939008        24302799.323803782        1127647707.7955077     
   1661135531.6429904        28259145.680184186        1124977186.8969131     
   1561360002.6506321        32805100.565076292        1126594904.2334461     
   1461761356.2168336        37940663.978501081        1132500859.8050959     
   1624603108.6946278        18529198.401532888        1213140757.0163224     
   1535727937.2428551        21558656.025146782        1206959496.3874741     
   1447022878.5183458        25155156.072963834        1205224848.8457780     
   1358487932.5210981        29318698.544990838        1207936814.3912413     
   1270123099.2511108        34049283.441211700        1215095393.0238693     
   1389405829.1205218        16547390.017506838        1290250720.4018431     
   1312237279.9036915        19375317.310049534        1284839060.1413453     
   1235232073.5828266        22747720.922483504        1284032387.8200443     
   1158390210.1579256        26664600.854796946        1287830703.4379387     
   1081711689.6289954        31125957.107007921        1296234006.9950285     
   1155625398.5810444        14990636.343871057        1365936357.0857933     
   1090615971.1764023        17752783.178520381        1361286399.0571392     
   1025763116.8364283        21036840.228734910        1361399803.8197200     
   961066835.56112838        24842807.494527340        1366276571.3735285     
   896527127.35050011        29170684.975891858        1375916701.7185731     
   923261817.07620442        13858937.380629778        1440197667.0681639     
   870864011.06098962        16691053.630544126        1436301513.1348500     
   818616008.27915823        20022513.991737217        1437327096.8448000     
   766517808.73069453        23853318.464158267        1443274418.1980195     
   714569412.41561460        28183467.047858626        1454143477.1945019     
   1461761356.2168336        37940663.978501081        1132500859.8050959     
   1356423439.7868254        41843462.625193059        1125912196.4337687     
   1251231069.0831850        46231413.693107545        1123088722.9985492     
   1146184244.1059196        51104517.182269335        1124030439.4994347     
   1041282964.8550137        56462773.092639327        1128737345.9364240     
   1270123099.2511108        34049283.441211700        1215095393.0238693     
   1174865813.2344842        37008482.316465735        1209956628.6699636     
   1079633809.9651260        40051957.015941441        1209024759.2605767     
   984427089.44303095        43179707.539623499        1212299784.7957067     
   889245651.66819501        46391733.887510836        1219781705.2753575     
   1081711689.6289954        31125957.107007921        1296234006.9950285     
   997797048.33551013        33520160.503769994        1292404834.8495877     
   913787426.81017625        35597763.127714634        1293224262.6570780     
   829682825.05300248        37358764.978855669        1298692290.4174950     
   745483243.06398308        38803166.057174355        1308808918.1308446     
   896527127.35050011        29170684.975891858        1375916701.7185731     
   825217145.08988762        31378497.187062263        1373256814.9726405     
   753691919.61833870        32868832.028431475        1375687233.1880436     
   681951450.93583071        33641689.499934882        1383207956.3647981     
   609995739.04237151        33697069.601613015        1395818984.5028882     
   714569412.41561460        28183467.047858626        1454143477.1945019     
   657126103.49763513        30583492.366382301        1452512569.0391200     
   599347288.38960087        31865163.718053252        1456413670.8534861     
   541232967.09150970        32028481.102869779        1465846782.6376066     
   482783139.60336030        31073444.520825058        1480811904.3914802     
   1041282964.8550137        56462773.092639327        1128737345.9364240     
   924163157.21986449        54917868.221477240        1125814957.2018983     
   804763121.04540575        45772201.552621752        1128845798.8560855     
   683082856.33165181        29025773.086118430        1137829870.8989844     
   559122363.07859397        4678582.8219242692        1152767173.3305950     
   889245651.66819501        46391733.887510836        1219781705.2753575     
   787333018.76407981        44196879.972779691        1217078435.6800032     
   683161572.30579054        34472647.544140935        1220269750.6529355     
   576731312.29330909        17219036.601521254        1229355650.1941643     
   468042238.72664368       -7563952.8550364971        1244336134.3036757     
   745483243.06398308        38803166.057174355        1308808918.1308446     
   658610225.40399444        35908095.252828628        1306349751.8239646     
   569499809.17494047        25555029.218263865        1309726524.2649477     
   478151994.37682331        7743967.9534880519        1318939235.4538038     
   384566781.00964367       -17525088.541498855        1333987885.3905346     
   609995739.04237151        33697069.601613015        1395818984.5028882     
   537994777.13959217        30051514.061567515        1393628905.6337807     
   463777831.65286463        19019346.575022012        1397216119.6921241     
   387344902.58220118        600567.14202381670        1406580626.6779189     
   308695989.92758363       -25204824.237482578        1421722426.5911660     
   482783139.60336030        31073444.520825058        1480811904.3914802     
   425486673.97087663        26627136.399005726        1478915897.1094580     
   365995639.73956800        14865599.614433885        1482738536.9344683     
   304310036.90942609       -4211165.8329129368        1492279823.8665078     
   240429865.48046580       -30603159.942990273        1507539757.9055772     
   559122363.07859397        4678582.8219242692        1152767173.3305950     
   462418186.18203950       -33157985.639895141        1162093529.5021131     
   353708783.03055841       -111011974.95147523        1178964019.8892598     
   232994153.62415510       -228883385.11279893        1203378644.4920237     
   100274297.96281153       -386772216.12391245        1235337403.3104033     
   468042238.72664368       -7563952.8550364971        1244336134.3036757     
   390462258.93663579       -41840269.949147701        1242798453.6829102     
   302728308.67626148       -109963155.27781051        1247605963.2282414     
   204840387.94552869       -211932608.84100181        1258758662.9396718     
   96798496.744433030       -347748630.63873875        1276256552.8171923     
   384566781.00964367       -17525088.541498855        1333987885.3905346     
   322685443.89895695       -49268820.596082792        1323745966.3928115     
   252501392.10247764       -108688268.26998357        1318650293.5116582     
   174014625.62019879       -195783431.56321537        1318700866.7470756     
   87225144.452124849       -310554310.47575724        1323897686.0990562     
   308695989.92758363       -25204824.237482578        1421722426.5911660     
   259087741.06900567       -55443637.580696329        1404936067.6318114     
   203028033.30919549       -107187313.92802362        1392097010.7394993     
   140516866.64816040       -180435853.27942833        1383205255.9142263     
   71554241.085892916       -275189255.63494629        1378260803.1560059     
   240429865.48046580       -30603159.942990273        1507539757.9055772     
   199669150.44678134       -60364720.902995080        1486368757.3999150     
   154308232.29642752       -105460292.25189772        1467946114.9117732     
   104347111.02941135       -165889873.98967493        1452271830.4411449     
   49785786.645734861       -241653466.11631978        1439345903.9880335     
   100274297.96281153       -386772216.12391245        1235337403.3104033     
   85385852.951299042       -546616460.05640948        1196747201.6474557     
   57906038.953140438       -748431933.94438803        1154802279.5965998     
   17834855.968348086       -992218637.78782368        1109502637.1578472     
  -34827696.003084362       -1277976571.5867207        1060848274.3312352     
   96798496.744433030       -347748630.63873875        1276256552.8171923     
   79843291.063313067       -488907309.41717231        1221949307.9218256     
   51502278.289924026       -668018678.50317502        1165094914.0175760     
   11775458.424232960       -885082737.89684010        1105693371.1044109     
  -39337168.533725798       -1140099487.5980806        1043744679.1823620     
   87225144.452124849       -310554310.47575724        1323897686.0990562     
   70510524.898555368       -432335220.06092656        1255279886.8480239     
   43615660.147049636       -588050280.30588770        1184922509.9670982     
   6540550.1976247132       -777699491.21058488        1112825555.4562798     
  -40714804.949742496       -1001282852.7750797        1038989023.3155559     
   71554241.085892916       -275189255.63494629        1378260803.1560059     
   57387554.457009807       -376900191.98771727        1296738938.4260542     
   34246184.524533391       -508526739.35247201        1214285067.4452064     
   2130131.2884877920       -670068897.72911143        1130899190.2134652     
  -38960605.251127720       -861526667.11766958        1046581306.7308286     
   49785786.645734861       -241653466.11631978        1439345903.9880335     
   40474379.738674134       -322602225.19756502        1346326462.6559079     
   23393851.422369957       -429448055.64295220        1253182586.4518845     
  -1455798.3031394184       -562190957.45235550        1159914275.3759542     
  -34074569.437884837       -720830930.62588429        1066521529.4281301     
   1524271201.1191194        4492593.2605040669        1439167303.3848231     
   1472893156.5082135        3956963.1038123965        1430374741.2759206     
   1421483228.7794690        3315055.8876475096        1426771836.4427872     
   1370041417.9328868        2566871.6120315790        1428358588.8854244     
   1318567723.9684656        1712410.2769501805        1435134998.6038311     
   1139009865.1712770        2111385.2715315223        1461788584.4328275     
   1101043999.2312891        1879962.6483615041        1453875738.8223138     
   1063054220.9714983        1568832.2925171256        1451020094.7136188     
   1025040530.3919057        1177994.2040019035        1453221652.1067350     
   987002927.49251199        707448.38281613588        1460480411.0016663     
   756544219.86341429        568884.47455441952        1482974659.6687396     
   731612087.52589798        528135.86437559128        1475950829.8209963     
   706664013.66661501        434248.84831082821        1473851745.7011101     
   681699998.28556657        287223.42636311054        1476677407.3090837     
   656720041.38275707        87059.598540037870        1484427814.6449146     
   376874265.19552910       -134909.13043022156        1502725529.0925555     
   364597421.39203799       -98517.248154282570        1496600014.2719591     
   352312606.86481905       -88694.444969817996        1495266789.4052625     
   340019821.61387271       -105440.72087791562        1498725854.4924691     
   327719065.63920021       -148756.07587249577        1506977209.5335770     
   1.1676224090159883        4.4565786958208680        1521041192.7042828     
  0.82971203168098406        3.3107777051035709        1515823292.1752079     
  0.56611240420720021        2.4126771322555052        1515265225.8260763     
  0.37681950051114121        1.7622659856112162        1519366993.6568928     
  0.26184013748418067        1.3595673350866464        1528128595.6676545     
   1318567723.9684656        1712410.2769501805        1435134998.6038311     
   1269986770.0199566        1891603.6799089909        1427596029.3591878     
   1221547039.4529877        2541541.6880031228        1424934403.6543331     
   1173248532.2675445        3662224.3011807203        1427150121.4892688     
   1125091248.4636459        5253651.5195066333        1434243182.8639941     
   987002927.49251199        707448.38281613588        1460480411.0016663     
   950997774.00299633        971011.96225988865        1453484043.6905570     
   915098538.04932523        1587633.9945167899        1451264555.4596937     
   879305219.63149834        2557314.4795896411        1453821946.3090792     
   843617818.74951696        3880053.4174822569        1461156216.2387121     
   656720041.38275707        87059.598540037870        1484427814.6449146     
   633003647.03925216        348880.96056723595        1477932859.1140373     
   609357864.38590157        846074.62310889363        1476114318.2038622     
   585782693.42270577        1578640.5861646533        1478972191.9143922     
   562278134.14966309        2546578.8497336805        1486506480.2456243     
   327719065.63920021       -148756.07587249577        1506977209.5335770     
   316004389.12872523        25210.674842283130        1500942475.6296241     
   304325018.46271330        316863.57376489043        1499483691.8868330     
   292680953.64117157        726202.62092217803        1502600858.3052008     
   281072194.66408849        1253227.8162755668        1510293974.8847322     
  0.26184013748418067        1.3595673350866464        1528128595.6676545     
  0.27141768686047418        1.1050847965647876        1522512893.2373214     
  0.27976423833242381       0.84649927863981145        1521372676.5086069     
  0.28688874764826056       0.58384011338877784        1524707945.4815102     
  0.29278566750544033       0.31708898327555451        1532518700.1560278     
   1125091248.4636459        5253651.5195066333        1434243182.8639941     
   1074377804.1063273        6551351.2832607627        1428557361.7796421     
   1023835084.0893117        8418132.1813565493        1427654502.1188848     
   973463088.41260231        10853994.213804543        1431534603.8817272     
   923261817.07620442        13858937.380629778        1440197667.0681639     
   843617818.74951696        3880053.4174822569        1461156216.2387121     
   805302524.85641670        4769264.9932869673        1455724178.2830503     
   767115274.22390723        6085287.4377276301        1455140484.2273357     
   729056066.85198629        7828120.7507983446        1459405134.0715635     
   691124902.74065125        9997764.9324889779        1468518127.8157318     
   562278134.14966309        2546578.8497336805        1486506480.2456243     
   536547797.79606140        3083344.3601864576        1481278430.8256500     
   510902823.62333137        3904650.4735468626        1480964107.7819695     
   485343211.63147092        5010497.1898022592        1485563511.1145768     
   459868961.82047993        6400884.5089610517        1495076640.8234770     
   281072194.66408849        1253227.8162755668        1510293974.8847322     
   268113622.92525828        1493589.3839482963        1505220119.4074390     
   255197732.28758550        1876221.2888136059        1505125372.7827876     
   242324522.75106210        2401123.5308414996        1510009735.0107729     
   229493994.31569210        3068296.1100490093        1519873206.0913937     
  0.29278566750544033       0.31708898327555451        1532518700.1560278     
  0.24400797316758527        6.4577624383475057E-002   1527549244.0284162     
  0.21667004271339022      -0.11646716100701403        1527624279.2297895     
  0.21076014102448359      -0.22608553079123678        1532743805.7601476     
  0.22628803592843788      -0.26424457859925660        1542907823.6194894     
   923261817.07620442        13858937.380629778        1440197667.0681639     
   870864011.06098962        16691053.630544126        1436301513.1348500     
   818616008.27915823        20022513.991737217        1437327096.8448000     
   766517808.73069453        23853318.464158267        1443274418.1980195     
   714569412.41561460        28183467.047858626        1454143477.1945019     
   691124902.74065125        9997764.9324889779        1468518127.8157318     
   651401815.51789284        11994432.307533056        1465132790.8603418     
   611791080.72254717        14365607.773951977        1466768295.8423917     
   572292698.35460007        17111291.331700802        1473424642.7618802     
   532906668.41406375        20231482.980816782        1485101831.6188083     
   459868961.82047993        6400884.5089610517        1495076640.8234770     
   433103748.51638705        7647049.5470109284        1492158428.2390461     
   406413436.83372945        9142886.6565117687        1494360161.8862216     
   379798026.77250391        10888395.837452888        1501681841.7650130     
   353257518.33271378        12883577.089845166        1514123467.8754096     
   229493994.31569210        3068296.1100490093        1519873206.0913937     
   215969810.05646712        3648905.3489620984        1517378425.2709527     
   202483076.61270139        4354350.6394049525        1520102694.9762971     
   189033793.98440114        5184631.9814012721        1528046015.2074182     
   175621962.17155746        6139749.3749166653        1541208385.9643261     
  0.22628803592843788      -0.26424457859925660        1542907823.6194894     
  0.13813263719666258      -0.28661445927236562        1540792781.9560707     
   5.9464566970113639E-002 -0.27736199326289113        1543995895.1126103     
  -9.7097009919513005E-003 -0.23646213192635585        1552517163.0890977     
  -6.9394215648502511E-002 -0.16393045346083193        1566356585.8855431     
   714569412.41561460        28183467.047858626        1454143477.1945019     
   657126103.49763513        30583492.366382301        1452512569.0391200     
   599347288.38960087        31865163.718053252        1456413670.8534861     
   541232967.09150970        32028481.102869779        1465846782.6376066     
   482783139.60336030        31073444.520825058        1480811904.3914802     
   532906668.41406375        20231482.980816782        1485101831.6188083     
   489694293.97941494        21992534.168388069        1483848339.5860460     
   446230289.89978415        22914819.872680590        1488157165.8317037     
   402514656.17517895        22998340.093728721        1498028310.3557732     
   358547392.80559236        22243094.831504121        1513461773.1582568     
   353257518.33271378        12883577.089845166        1514123467.8754096     
   324362673.54898518        14031632.696709305        1513345247.9345431     
   295300075.66536111        14620511.303918526        1518159654.5807474     
   266069724.68183845        14650212.911464587        1528566687.8140259     
   236671620.59841925        14120737.519358322        1544566347.6343796     
   175621962.17155746        6139749.3749166653        1541208385.9643261     
   161131242.20635581        6700787.9513781890        1541003294.0846055     
   146556645.68633467        6982238.0117758587        1546421137.1006157     
   131898172.61149804        6984099.5561205745        1557461915.0123618     
   117155822.98183900        6706372.5843920410        1574125627.8198335     
  -6.9394215648502511E-002 -0.16393045346083193        1566356585.8855431     
  -4.8475966830407148E-002  -6.7610340403179994E-002   1566822478.0362270     
  -3.7293565671511972E-002  -3.7423589868049792E-003   1572941613.3913128     
  -3.5853417304651372E-002   2.7652834234902272E-002   1584713991.9507833     
  -4.4145273517290334E-002   2.6604542744659020E-002   1602139613.7146490     
   482783139.60336030        31073444.520825058        1480811904.3914802     
   425486673.97087663        26627136.399005726        1478915897.1094580     
   365995639.73956800        14865599.614433885        1482738536.9344683     
   304310036.90942609       -4211165.8329129368        1492279823.8665078     
   240429865.48046580       -30603159.942990273        1507539757.9055772     
   358547392.80559236        22243094.831504121        1513461773.1582568     
   316298537.41015208        19125411.885837093        1510067060.5919964     
   272403755.56581664        10521307.443853840        1512222179.9065514     
   226863047.27260035       -3569218.4944012910        1519927131.1019208     
   179676412.53049007       -23146165.928965613        1533181914.1781042     
   236671620.59841925        14120737.519358322        1544566347.6343796     
   208988046.22225052        12186980.984502032        1540313012.2921443     
   180207187.54713029        6595610.1198066548        1541440693.6045058     
   150329044.57306185       -2653375.0747168064        1547949391.5714633     
   119353617.30004427       -15559974.599068649        1559839106.1930089     
   117155822.98183900        6706372.5843920410        1574125627.8198335     
   103555200.40718229        5811843.6950369477        1569653752.2098949     
   89405935.683505967        3088507.6422847249        1570394078.0283244     
   74708028.810820296       -1463635.5738299191        1576346605.2751260     
   59461479.789122544       -7844585.9533211216        1587511333.9503117     
  -4.4145273517290334E-002   2.6604542744659020E-002   1602139613.7146490     
  -3.5066546735948292E-002   1.7394373487365819E-002   1598089280.3452530     
  -2.5067127860613530E-002   1.1253177876715023E-002   1599082333.1780143     
  -1.4128007372052605E-002   8.2453618109037119E-003   1605118772.2129288     
  -2.2743711675892492E-003   8.2838497965959899E-003   1616198597.4500034     
   240429865.48046580       -30603159.942990273        1507539757.9055772     
   199669150.44678134       -60364720.902995080        1486368757.3999150     
   154308232.29642752       -105460292.25189772        1467946114.9117732     
   104347111.02941135       -165889873.98967493        1452271830.4411449     
   49785786.645734861       -241653466.11631978        1439345903.9880335     
   179676412.53049007       -23146165.928965613        1533181914.1781042     
   148436372.81480211       -45668187.681605354        1507543711.9273834     
   113746180.76161137       -79690717.225914136        1484810085.1636004     
   75605836.370924801       -125213754.56187698        1464981033.8867545     
   34015339.642751478       -182237299.68946660        1448056558.0968304     
   119353617.30004427       -15559974.599068649        1559839106.1930089     
   98080588.529241860       -30708556.456298269        1531075428.1062739     
   74507458.200117111       -53524143.507939816        1505372542.9758854     
   48634226.312662922       -84006735.754011437        1482730450.8018446     
   20460892.866882518       -122156333.19450238        1463149151.5841506     
   59461479.789122544       -7844585.9533211216        1587511333.9503117     
   48601797.590113342       -15485827.227050841        1556963905.9365864     
   36592064.611940093       -26960571.097994037        1529633488.3486214     
   23432280.854623854       -42268817.566079147        1505520081.1864262     
   9122446.3181456588       -61410566.631373577        1484623684.4499810     
  -2.2743711675892492E-003   8.2838497965959899E-003   1616198597.4500034     
  -2.5953598244891156E-003   6.1092156974277357E-003   1585209145.4183221     
  -2.9000153926613242E-003   3.9911068955228507E-003   1557592921.2818141     
  -3.1979913223062545E-003   1.8945696659851668E-003   1533349925.0404851     
  -3.4784446385542848E-003  -1.4425274161990881E-004   1512480156.6943359     
   49785786.645734861       -241653466.11631978        1439345903.9880335     
   40474379.738674134       -322602225.19756502        1346326462.6559079     
   23393851.422369957       -429448055.64295220        1253182586.4518845     
  -1455798.3031394184       -562190957.45235550        1159914275.3759542     
  -34074569.437884837       -720830930.62588429        1066521529.4281301     
   34015339.642751478       -182237299.68946660        1448056558.0968304     
   29850279.960255235       -242103320.35150701        1347552914.2642627     
   19858379.220885903       -321392144.53645504        1246267186.6103635     
   4039637.4246334732       -420103772.24434805        1144199375.1351321     
  -17605945.428487420       -538238203.47514141        1041349479.8385807     
   20460892.866882518       -122156333.19450238        1463149151.5841506     
   19563183.410601974       -161503314.53678939        1357427298.9955397     
   14780913.249784321       -213798831.56086886        1250265713.6361706     
   6114082.3844381273       -279042884.26670766        1141664395.5060434     
  -6437309.1854373068       -357235472.65431619        1031623344.6051593     
   9122446.3181456588       -61410566.631373577        1484623684.4499810     
   9613090.0897011422       -80802207.753461003        1375949616.8497310     
   8161453.5090750456       -106668116.71615212        1265178167.5292995     
   4767536.5762630403       -139008293.51945958        1152309336.4886763     
  -568660.70873270184       -177822738.16338781        1037343123.7278668     
  -3.4784446385542848E-003  -1.4425274161990881E-004   1512480156.6943359     
  -2.4412706288735584E-003  -1.4984350756534256E-003   1403119867.8268476     
  -1.2393017015541034E-003  -2.3019132387770659E-003   1291004548.2897439     
   1.0907026197965819E-004  -2.6180751705767421E-003   1176134198.0830367     
   1.6285507740888901E-003  -2.3624874950107346E-003   1058508817.2067099     
   1.1676224090159883        4.4565786958208680        1521041192.7042828     
  0.82971203168098406        3.3107777051035709        1515823292.1752079     
  0.56611240420720021        2.4126771322555052        1515265225.8260763     
  0.37681950051114121        1.7622659856112162        1519366993.6568928     
  0.26184013748418067        1.3595673350866464        1528128595.6676545     
  -376874263.99191731        134913.91658991575        1502725528.5027196     
  -364597420.48632622        98521.088123500347        1496600013.8707097     
  -352312606.20576870        88697.509541884065        1495266789.1728384     
  -340019821.15024906        105443.18083500862        1498725854.4090946     
  -327719065.31976712        148758.10200251639        1506977209.5794835     
  -756544219.55744600       -568883.74519389868        1482974659.0197241     
  -731612087.19639432       -528134.75273215771        1475950829.4355540     
  -706664013.35972643       -434247.50821346045        1473851745.5397007     
  -681699998.04744208       -287222.01164007187        1476677407.3321607     
  -656720041.25954103       -87058.263012319803        1484427814.8129399     
  -1139009865.5289593       -2111388.5287722945        1461788584.2553093     
  -1101043999.3004954       -1879964.2118005753        1453875738.8697367     
  -1063054220.8957595       -1568832.6405878067        1451020094.9266627     
  -1025040530.3147554       -1177993.8151495457        1453221652.4260905     
  -987002927.55748117       -707447.73547530174        1460480411.3680155     
  -1524271201.9064639       -4492600.4341512918        1439167304.2094698     
  -1472893156.7986307       -3956967.2890793681        1430374742.1732554     
  -1421483228.8138723       -3315057.8875927329        1426771837.3337264     
  -1370041417.9521930       -2566872.2296987772        1428358589.6908817     
  -1318567724.2135899       -1712410.3153955936        1435134999.2447209     
  0.26184013748418067        1.3595673350866464        1528128595.6676545     
  0.27141768686047418        1.1050847965647876        1522512893.2373214     
  0.27976423833242381       0.84649927863981145        1521372676.5086069     
  0.28688874764826056       0.58384011338877784        1524707945.4815102     
  0.29278566750544033       0.31708898327555451        1532518700.1560278     
  -327719065.31976712        148758.10200251639        1506977209.5794835     
  -316004388.73904920       -25208.956225708127        1500942475.6672678     
  -304325018.01315969       -316862.19721452892        1499483691.9090233     
  -292680953.14210945       -726201.62100175023        1502600858.3047488     
  -281072194.12588793       -1253227.2275505066        1510293974.8544438     
  -656720041.25954103       -87058.263012319803        1484427814.8129399     
  -633003646.81524038       -348879.73723602295        1477932859.2563007     
  -609357864.07938290       -846073.57293477654        1476114318.3059831     
  -585782693.05196106       -1578639.7700863481        1478972191.9619901     
  -562278133.73298073       -2546578.3287107348        1486506480.2243207     
  -987002927.55748117       -707447.73547530174        1460480411.3680155     
  -950997773.95716703       -971011.23798239231        1453484044.0044127     
  -915098537.91889870       -1587633.2806411982        1451264555.6994860     
  -879305219.44267070       -2557313.8634349704        1453821946.4532361     
  -843617818.52849329       -3880052.9863977432        1461156216.2656577     
  -1318567724.2135899       -1712410.3153955936        1435134999.2447209     
  -1269986770.1648190       -1891603.4584313631        1427596029.9116127     
  -1221547039.5317044       -2541541.3203235865        1424934404.0895324     
  -1173248532.3142376       -3662223.9010414481        1427150121.7784827     
  -1125091248.5124278       -5253651.2006146312        1434243182.9784601     
  0.29278566750544033       0.31708898327555451        1532518700.1560278     
  0.24400797316758527        6.4577624383475057E-002   1527549244.0284162     
  0.21667004271339022      -0.11646716100701403        1527624279.2297895     
  0.21076014102448359      -0.22608553079123678        1532743805.7601476     
  0.22628803592843788      -0.26424457859925660        1542907823.6194894     
  -281072194.12588793       -1253227.2275505066        1510293974.8544438     
  -268113622.45743337       -1493589.2016810179        1505220119.3957973     
  -255197731.85497907       -1876221.3958137482        1505125372.7879512     
  -242324522.31852511       -2401123.8099474609        1510009735.0309010     
  -229493993.84806928       -3068296.4440752417        1519873206.1246576     
  -562278133.73298073       -2546578.3287107348        1486506480.2243207     
  -536547797.42782885       -3083344.1486467421        1481278430.8326364     
  -510902823.27610821       -3904650.4800176919        1480964107.8135641     
  -485343211.27781516       -5010497.3228141367        1485563511.1671090     
  -459868961.43295151       -6400884.6770450771        1495076640.8932660     
  -843617818.52849329       -3880052.9863977432        1461156216.2656577     
  -805302524.66717041       -4769264.7762874961        1455724178.3389313     
  -767115274.04670942       -6085287.3690532446        1455140484.3066349     
  -729056066.66710901       -7828120.7646870017        1459405134.1687689     
  -691124902.52837205       -9997764.9631955624        1468518127.9253280     
  -1125091248.5124278       -5253651.2006146312        1434243182.9784601     
  -1074377804.1754580       -6551351.0846120715        1428557361.9146841     
  -1023835084.1667891       -8418132.0629405975        1427654502.2671561     
  -973463088.48640227       -10853994.135546803        1431534604.0358710     
  -923261817.13431525       -13858937.302482843        1440197667.2208328     
  0.22628803592843788      -0.26424457859925660        1542907823.6194894     
  0.13813263719666258      -0.28661445927236562        1540792781.9560707     
   5.9464566970113639E-002 -0.27736199326289113        1543995895.1126103     
  -9.7097009919513005E-003 -0.23646213192635585        1552517163.0890977     
  -6.9394215648502511E-002 -0.16393045346083193        1566356585.8855431     
  -229493993.84806928       -3068296.4440752417        1519873206.1246576     
  -215969809.75296813       -3648905.7238971442        1517378425.2940958     
  -202483076.45984569       -4354351.0103150830        1520102694.9978061     
  -189033793.96870151       -5184632.3033276573        1528046015.2357876     
  -175621962.27953365       -6139749.6029280573        1541208386.0080438     
  -459868961.43295151       -6400884.6770450771        1495076640.8932660     
  -433103748.25654227       -7647049.7449101806        1492158428.2821844     
  -406413436.69358128       -9142886.8576020151        1494360161.9196892     
  -379798026.74406171       -10888396.015100271        1501681841.8057890     
  -353257518.40798742       -12883577.217413291        1514123467.9404750     
  -691124902.52837205       -9997764.9631955624        1468518127.9253280     
  -651401815.37259591       -11994432.349672914        1465132790.9203413     
  -611791080.64173651       -14365607.819205046        1466768295.8782647     
  -572292698.33579111       -17111291.371782005        1473424642.7990985     
  -532906668.45475388       -20231483.007388979        1485101831.6828377     
  -923261817.13431525       -13858937.302482843        1440197667.2208328     
  -870864011.10112727       -16691053.538182318        1436301513.2085667     
  -818616008.30431998       -20022513.895151585        1437327096.8735290     
  -766517808.74389160       -23853318.373382151        1443274418.2157185     
  -714569412.41983891       -28183466.972866982        1454143477.2351387     
  -6.9394215648502511E-002 -0.16393045346083193        1566356585.8855431     
  -4.8475966830407148E-002  -6.7610340403179994E-002   1566822478.0362270     
  -3.7293565671511972E-002  -3.7423589868049792E-003   1572941613.3913128     
  -3.5853417304651372E-002   2.7652834234902272E-002   1584713991.9507833     
  -4.4145273517290334E-002   2.6604542744659020E-002   1602139613.7146490     
  -175621962.27953365       -6139749.6029280573        1541208386.0080438     
  -161131242.28748471       -6700788.0415766761        1541003294.1098320     
  -146556645.75492758       -6982238.0118647069        1546421137.1084788     
  -131898172.68185967       -6984099.5137851313        1557461915.0039787     
  -117155823.06829335       -6706372.5473770238        1574125627.7963331     
  -353257518.40798742       -12883577.217413291        1514123467.9404750     
  -324362673.60919482       -14031632.740338445        1513345247.9686518     
  -295300075.71964997       -14620511.294086084        1518159654.5861480     
  -266069724.73935923       -14650212.878680855        1528566687.7929633     
  -236671620.66831821       -14120737.494108304        1544566347.5890927     
  -532906668.45475388       -20231483.007388979        1485101831.6828377     
  -489694294.01361263       -21992534.163913339        1483848339.6126902     
  -446230289.93148053       -22914819.850470304        1488157165.8243191     
  -402514656.20834702       -22998340.067024842        1498028310.3177335     
  -358547392.84422499       -22243094.813610837        1513461773.0929258     
  -714569412.41983891       -28183466.972866982        1454143477.2351387     
  -657126103.50073910       -30583492.312310815        1452512569.0419433     
  -599347288.39039910       -31865163.680952609        1456413670.8229923     
  -541232967.08882213       -32028481.078802913        1465846782.5782862     
  -482783139.59601116       -31073444.505877167        1480811904.3078294     
  -4.4145273517290334E-002   2.6604542744659020E-002   1602139613.7146490     
  -3.5066546735948292E-002   1.7394373487365819E-002   1598089280.3452530     
  -2.5067127860613530E-002   1.1253177876715023E-002   1599082333.1780143     
  -1.4128007372052605E-002   8.2453618109037119E-003   1605118772.2129288     
  -2.2743711675892492E-003   8.2838497965959899E-003   1616198597.4500034     
  -117155823.06829335       -6706372.5473770238        1574125627.7963331     
  -103555200.47576940       -5811843.6724209636        1569653752.1929753     
  -89405935.732643187       -3088507.6287934706        1570394078.0168324     
  -74708028.838918805        1463635.5834963024        1576346605.2679195     
  -59461479.794582158        7844585.9644929916        1587511333.9462309     
  -236671620.66831821       -14120737.494108304        1544566347.5890927     
  -208988046.27787325       -12186980.970651604        1540313012.2597201     
  -180207187.58715171       -6595610.1129406691        1541440693.5826390     
  -150329044.59614688        2653375.0790491700        1547949391.5578470     
  -119353617.30486523        15559974.605296224        1559839106.1853483     
  -358547392.84422499       -22243094.813610837        1513461773.0929258     
  -316298537.44138181       -19125411.877312809        1510067060.5454965     
  -272403755.58857989       -10521307.441146702        1512222179.8754270     
  -226863047.28582540        3569218.4948570132        1519927131.0827165     
  -179676412.53311953        23146165.930701420        1533181914.1673572     
  -482783139.59601116       -31073444.505877167        1480811904.3078294     
  -425486673.96629035       -26627136.392380685        1478915897.0503001     
  -365995639.73693800       -14865599.613445044        1482738536.8951972     
  -304310036.90795392        4211165.8309298605        1492279823.8425205     
  -240429865.47933781        30603159.940744087        1507539757.8922698     
  -2.2743711675892492E-003   8.2838497965959899E-003   1616198597.4500034     
  -2.5953598244891156E-003   6.1092156974277357E-003   1585209145.4183221     
  -2.9000153926613242E-003   3.9911068955228507E-003   1557592921.2818141     
  -3.1979913223062545E-003   1.8945696659851668E-003   1533349925.0404851     
  -3.4784446385542848E-003  -1.4425274161990881E-004   1512480156.6943359     
  -59461479.794582158        7844585.9644929916        1587511333.9462309     
  -48601797.595859729        15485827.235186536        1556963905.9330232     
  -36592064.618026391        26960571.102914002        1529633488.3455515     
  -23432280.861080594        42268817.567686275        1505520081.1838152     
  -9122446.3250225075        61410566.629495375        1484623684.4478140     
  -119353617.30486523        15559974.605296224        1559839106.1853483     
  -98080588.534080356        30708556.460763656        1531075428.0995684     
  -74507458.205084279        53524143.510271601        1505372542.9700804     
  -48634226.317883432        84006735.753795445        1482730450.7968838     
  -20460892.872467890        122156333.19136795        1463149151.5799692     
  -179676412.53311953        23146165.930701420        1533181914.1673572     
  -148436372.81725165        45668187.682868890        1507543711.9179568     
  -113746180.76408157        79690717.226036966        1484810085.1553977     
  -75605836.373604745        125213754.56023230        1464981033.8796866     
  -34015339.645814866        182237299.68546835        1448056558.0908134     
  -240429865.47933781        30603159.940744087        1507539757.8922698     
  -199669150.44537938        60364720.901470557        1486368757.3881884     
  -154308232.29501176        105460292.25023246        1467946114.9015057     
  -104347111.02824658        165889873.98698384        1452271830.4322219     
  -49785786.645066828        241653466.11178392        1439345903.9803448     
  -3.4784446385542848E-003  -1.4425274161990881E-004   1512480156.6943359     
  -2.4412706288735584E-003  -1.4984350756534256E-003   1403119867.8268476     
  -1.2393017015541034E-003  -2.3019132387770659E-003   1291004548.2897439     
   1.0907026197965819E-004  -2.6180751705767421E-003   1176134198.0830367     
   1.6285507740888901E-003  -2.3624874950107346E-003   1058508817.2067099     
  -9122446.3250225075        61410566.629495375        1484623684.4478140     
  -9613090.0945781507        80802207.749155164        1375949616.8482659     
  -8161453.5116915405        106668116.71028915        1265178167.5284181     
  -4767536.5763659924        139008293.51288173        1152309336.4882627     
   568660.71140038967        177822738.15694723        1037343123.7277938     
  -20460892.872467890        122156333.19136795        1463149151.5799692     
  -19563183.414588481        161503314.53146338        1357427298.9926932     
  -14780913.251989231        213798831.55395907        1250265713.6344175     
  -6114082.3846749812        279042884.25883782        1141664395.5051339     
   6437309.1873660684        357235472.64614177        1031623344.6048697     
  -34015339.645814866        182237299.68546835        1448056558.0908134     
  -29850279.962487832        242103320.34538326        1347552914.2601283     
  -19858379.222151905        321392144.52865988        1246267186.6077559     
  -4039637.4248203933        420103772.23525304        1144199375.1336863     
   17605945.429511517        538238203.46518362        1041349479.8379242     
  -49785786.645066828        241653466.11178392        1439345903.9803448     
  -40474379.738256514        322602225.19096899        1346326462.6505787     
  -23393851.422173291        429448055.63439643        1253182586.4484272     
   1455798.3031910062        562190957.44209373        1159914275.3738937     
   34074569.437837422        720830930.61406624        1066521529.4269722     
  -1524271201.9064639       -4492600.4341512918        1439167304.2094698     
  -1472893156.7986307       -3956967.2890793681        1430374742.1732554     
  -1421483228.8138723       -3315057.8875927329        1426771837.3337264     
  -1370041417.9521930       -2566872.2296987772        1428358589.6908817     
  -1318567724.2135899       -1712410.3153955936        1435134999.2447209     
  -1910138783.8118768       -25979131.801744461        1353848475.3188610     
  -1843879786.1537948       -16978445.637023330        1349165291.2936468     
  -1778284797.0838406       -10191121.432736516        1348785862.8750985     
  -1713353816.6020186       -5617159.1888862848        1352710190.0632167     
  -1649086844.7083340       -3256558.9054894447        1360938272.8580005     
  -2281946169.1338181       -43247604.194297671        1270474339.7525761     
  -2203337366.3255372       -26541209.229935765        1269088660.3624644     
  -2126088463.5704460       -14367814.442867994        1271120834.9889979     
  -2050199460.8685396       -6727419.8330907822        1276570863.6321781     
  -1975670358.2198265       -3620025.4006125927        1285438746.2920082     
  -2639693357.8722897       -56298017.611809969        1189044897.5106177     
  -2551265897.3138657       -32645258.067824960        1190144849.3797064     
  -2464894228.2736840       -15845136.917985916        1193776753.6754262     
  -2380578350.7517481       -5897654.1622989178        1199940610.3977737     
  -2298318264.7480583       -2802809.8007602692        1208636419.5467489     
  -2983380350.0272884       -65130372.054278731        1109560148.5929832     
  -2887665379.1187773       -35290592.150692344        1112333858.3453767     
  -2794702091.1935616       -14623088.858104110        1116753618.9343829     
  -2704490486.2516465       -3127862.1765111685        1122819430.3599975     
  -2617030564.2930326       -804912.10592389107        1130531292.6222210     
  -1318567724.2135899       -1712410.3153955936        1435134999.2447209     
  -1269986770.1648190       -1891603.4584313631        1427596029.9116127     
  -1221547039.5317044       -2541541.3203235865        1424934404.0895324     
  -1173248532.3142376       -3662223.9010414481        1427150121.7784827     
  -1125091248.5124278       -5253651.2006146312        1434243182.9784601     
  -1649086844.7083340       -3256558.9054894447        1360938272.8580005     
  -1588220479.8640447       -3178160.2250217795        1354414424.2292645     
  -1527522207.1930156       -3660068.7887632251        1352404103.8190935     
  -1466992026.6952457       -4702284.5966979265        1354907311.6274867     
  -1406629938.3707385       -6304807.6488431692        1361924047.6544399     
  -1975670358.2198265       -3620025.4006125927        1285438746.2920082     
  -1903558054.8441982       -3595876.5758831501        1279898671.4837708     
  -1831640712.3994441       -4221597.5207283497        1278508309.6016297     
  -1759918330.8855588       -5497188.2351359129        1281267660.6455870     
  -1688390910.3025427       -7422648.7191128731        1288176724.6156394     
  -2298318264.7480583       -2802809.8007602692        1208636419.5467489     
  -2215999495.1052823       -3144752.5110223293        1204048771.6751304     
  -2133902555.1509898       -4226127.5162235498        1203247021.4371431     
  -2052027444.8851817       -6046934.8163720369        1206231168.8327873     
  -1970374164.3078487       -8607174.4114400148        1213001213.8620608     
  -2617030564.2930326       -804912.10592389107        1130531292.6222210     
  -2525544800.6473045       -1824788.0304529667        1126864724.8033435     
  -2434307735.4476643       -3673658.7752746344        1126620239.3256307     
  -2343319368.6941128       -6351524.3403915167        1129797836.1890833     
  -2252579700.3866506       -9858384.7258090973        1136397515.3937013     
  -1125091248.5124278       -5253651.2006146312        1434243182.9784601     
  -1074377804.1754580       -6551351.0846120715        1428557361.9146841     
  -1023835084.1667891       -8418132.0629405975        1427654502.2671561     
  -973463088.48640227       -10853994.135546803        1431534604.0358710     
  -923261817.13431525       -13858937.302482843        1440197667.2208328     
  -1406629938.3707385       -6304807.6488431692        1361924047.6544399     
  -1343623958.0604763       -7626779.9687895179        1355909469.8097527     
  -1280787874.7177417       -9515075.5138259530        1354573328.7827246     
  -1218121688.3425338       -11969694.283951104        1357915624.5733588     
  -1155625398.9348578       -14990636.279180050        1365936357.1816509     
  -1688390910.3025427       -7422648.7191128731        1288176724.6156394     
  -1613391035.7292337       -8858485.9880803227        1281834355.2442682     
  -1538560230.7626834       -10857888.612920582        1280065898.0919700     
  -1463898495.4028947       -13420856.593634009        1282871353.1587479     
  -1389405829.6498699       -16547389.930218160        1290250720.4446006     
  -1970374164.3078487       -8607174.4114400148        1213001213.8620608     
  -1883679037.1817286       -10246469.142491579        1206332018.2182291     
  -1797152152.3016083       -12446571.360210419        1204132210.1948850     
  -1710793509.6674786       -15207481.064562201        1206401789.7920325     
  -1624603109.2793515       -18529198.255593836        1213140757.0096719     
  -2252579700.3866506       -9858384.7258090973        1136397515.3937013     
  -2154487962.4179692       -11790729.432036519        1129402458.7316353     
  -2056563639.3345151       -14281123.755685091        1126772265.0914745     
  -1958806731.1362972       -17329567.696788311        1128506934.4732215     
  -1861217237.8233049       -20936061.255310893        1134606466.8768709     
  -923261817.13431525       -13858937.302482843        1440197667.2208328     
  -870864011.10112727       -16691053.538182318        1436301513.2085667     
  -818616008.30431998       -20022513.895151585        1437327096.8735290     
  -766517808.74389160       -23853318.373382151        1443274418.2157185     
  -714569412.41983891       -28183466.972866982        1454143477.2351387     
  -1155625398.9348578       -14990636.279180050        1365936357.1816509     
  -1090615971.4278197       -17752783.069753706        1361286399.1057057     
  -1025763116.9918222       -21036840.097123563        1361399803.8450792     
  -961066835.62686265       -24842807.361287415        1366276571.3997705     
  -896527127.33293784       -29170684.862231553        1375916701.7697814     
  -1389405829.6498699       -16547389.930218160        1290250720.4446006     
  -1312237280.2744422       -19375317.157309175        1284839060.1645408     
  -1235232073.8047090       -22747720.736716688        1284032387.8378913     
  -1158390210.2406704       -26664600.668443501        1287830703.4646482     
  -1081711689.5823283       -31125956.952486932        1296234007.0448194     
  -1624603109.2793515       -18529198.255593836        1213140757.0096719     
  -1535727937.6409881       -21558655.800842464        1206959496.3850656     
  -1447022878.7429757       -25155155.813920915        1205224848.8519599     
  -1358487932.5853152       -29318698.294847429        1207936814.4103522     
  -1270123099.1680136       -34049283.243629038        1215095393.0602438     
  -1861217237.8233049       -20936061.255310893        1134606466.8768709     
  -1761087943.5274594       -24302799.000346780        1127647707.7672842     
  -1661135531.8066261       -28259145.328745246        1124977186.8872874     
  -1561360002.6608021       -32805100.240515232        1126594904.2368813     
  -1461761356.0899906       -37940663.735658705        1132500859.8160641     
  -714569412.41983891       -28183466.972866982        1454143477.2351387     
  -657126103.50073910       -30583492.312310815        1452512569.0419433     
  -599347288.39039910       -31865163.680952609        1456413670.8229923     
  -541232967.08882213       -32028481.078802913        1465846782.5782862     
  -482783139.59601116       -31073444.505877167        1480811904.3078294     
  -896527127.33293784       -29170684.862231553        1375916701.7697814     
  -825217145.07029104       -31378497.120486051        1373256814.9906857     
  -753691919.59238482       -32868831.994537055        1375687233.1751831     
  -681951450.89921021       -33641689.484362602        1383207956.3232722     
  -609995738.99077129       -33697069.589974850        1395818984.4349618     
  -1081711689.5823283       -31125956.952486932        1296234007.0448194     
  -997797048.29228210       -33520160.424394727        1292404834.8745155     
  -913787426.76294971       -35597763.098682702        1293224262.6571546     
  -829682824.99432731       -37358764.975334555        1298692290.3927393     
  -745483242.98641467       -38803166.054357469        1308808918.0812631     
  -1270123099.1680136       -34049283.243629038        1215095393.0602438     
  -1174865813.1667175       -37008482.224055886        1209956628.6934369     
  -1079633809.9021027       -40051956.993414342        1209024759.2689159     
  -984427089.37417281       -43179707.551724970        1212299784.7866850     
  -889245651.58293128       -46391733.898998737        1219781705.2467544     
  -1461761356.0899906       -37940663.735658705        1132500859.8160641     
  -1356423439.6935775       -41843462.519397676        1125912196.4474397     
  -1251231069.0098379       -46231413.678714097        1123088723.0104566     
  -1146184244.0387492       -51104517.213534594        1124030439.5051103     
  -1041282964.7803206       -56462773.123888552        1128737345.9314101     
  -482783139.59601116       -31073444.505877167        1480811904.3078294     
  -425486673.96629035       -26627136.392380685        1478915897.0503001     
  -365995639.73693800       -14865599.613445044        1482738536.8951972     
  -304310036.90795392        4211165.8309298605        1492279823.8425205     
  -240429865.47933781        30603159.940744087        1507539757.8922698     
  -609995738.99077129       -33697069.589974850        1395818984.4349618     
  -537994777.09983909       -30051514.055052251        1393628905.5852923     
  -463777831.62473649       -19019346.572905600        1397216119.6599531     
  -387344902.56547868       -600567.14357277751        1406580626.6589518     
  -308695989.92205405        25204824.232989714        1421722426.5822790     
  -745483242.98641467       -38803166.054357469        1308808918.0812631     
  -658610225.34310126       -35908095.250651121        1306349751.7880781     
  -569499809.13109231       -25555029.217960000        1309726524.2411318     
  -478151994.35038674       -7743967.9562837183        1318939235.4404247     
  -384566781.00098807        17525088.534376681        1333987885.3859639     
  -889245651.58293128       -46391733.898998737        1219781705.2467544     
  -787333018.69607425       -44196879.979149967        1217078435.6586652     
  -683161572.25599039       -34472647.548550427        1220269750.6387243     
  -576731312.26268470       -17219036.607214957        1229355650.1869354     
  -468042238.71615136        7563952.8448915184        1244336134.3032870     
  -1041282964.7803206       -56462773.123888552        1128737345.9314101     
  -924163157.15876389       -54917868.240580440        1125814957.1970458     
  -804763120.99944270       -45772201.564723790        1128845798.8527384     
  -683082856.30236924       -29025773.096359670        1137829870.8984847     
  -559122363.06753290       -4678582.8354524672        1152767173.3342817     
  -240429865.47933781        30603159.940744087        1507539757.8922698     
  -199669150.44537938        60364720.901470557        1486368757.3881884     
  -154308232.29501176        105460292.25023246        1467946114.9015057     
  -104347111.02824658        165889873.98698384        1452271830.4322219     
  -49785786.645066828        241653466.11178392        1439345903.9803448     
  -308695989.92205405        25204824.232989714        1421722426.5822790     
  -259087741.06359059        55443637.576658726        1404936067.6238163     
  -203028033.30403134        107187313.92397983        1392097010.7322707     
  -140516866.64340389        180435853.27486154        1383205255.9076576     
  -71554241.081692010        275189255.62935871        1378260803.1499598     
  -384566781.00098807        17525088.534376681        1333987885.3859639     
  -322685443.89080411        49268820.589181110        1323745966.3885624     
  -252501392.09486437        108688268.26317483        1318650293.5076115     
  -174014625.61317027        195783431.55634946        1318700866.7431054     
  -87225144.445720792        310554310.46870565        1323897686.0950415     
  -468042238.71615136        7563952.8448915184        1244336134.3032870     
  -390462258.92704940        41840269.938963220        1242798453.6824162     
  -302728308.66751206        109963155.26781960        1247605963.2275083     
  -204840387.93753949        211932608.83146006        1258758662.9385734     
  -96798496.737145960        347748630.62983710        1276256552.8156021     
  -559122363.06753290       -4678582.8354524672        1152767173.3342817     
  -462418186.17230058        33157985.626070201        1162093529.5053899     
  -353708783.02196288        111011974.93794675        1178964019.8919806     
  -232994153.61651716        228883385.10018224        1203378644.4940617     
  -100274297.95597449        386772216.11274087        1235337403.3116410     
  -49785786.645066828        241653466.11178392        1439345903.9803448     
  -40474379.738256514        322602225.19096899        1346326462.6505787     
  -23393851.422173291        429448055.63439643        1253182586.4484272     
   1455798.3031910062        562190957.44209373        1159914275.3738937     
   34074569.437837422        720830930.61406624        1066521529.4269722     
  -71554241.081692010        275189255.62935871        1378260803.1499598     
  -57387554.453996420        376900191.98062766        1296738938.4219601     
  -34246184.522776127        508526739.34363919        1214285067.4427044     
  -2130131.2880351543        670068897.71840239        1130899190.2121921     
   38960605.250228614        861526667.10488331        1046581306.7304097     
  -87225144.445720792        310554310.46870565        1323897686.0950415     
  -70510524.893925458        432335220.05304295        1255279886.8454399     
  -43615660.144368201        588050280.29657841        1184922509.9656949     
  -6540550.1970358193        777699491.19935536        1112825555.4558103     
   40714804.948046088        1001282852.7613282        1038989023.3157916     
  -96798496.737145960        347748630.62983710        1276256552.8156021     
  -79843291.058044106        488907309.40820140        1221949307.9209988     
  -51502278.286936134        668018678.49324167        1165094914.0173790     
  -11775458.423823714        885082737.88497698        1105693371.1047537     
   39337168.531301081        1140099487.5834043        1043744679.1830992     
  -100274297.95597449        386772216.11274087        1235337403.3116410     
  -85385852.946356505        546616460.04609501        1196747201.6486573     
  -57906038.950495511        748431933.93359244        1154802279.5977821     
  -17834855.968376160        992218637.77527905        1109502637.1590226     
   34827695.999982834        1277976571.5711086        1060848274.3323523     
  -2983380350.0272884       -65130372.054278731        1109560148.5929832     
  -2887665379.1187773       -35290592.150692344        1112333858.3453767     
  -2794702091.1935616       -14623088.858104110        1116753618.9343829     
  -2704490486.2516465       -3127862.1765111685        1122819430.3599975     
  -2617030564.2930326       -804912.10592389107        1130531292.6222210     
  -3316894429.5837798        38370803.785117149        1069093169.4400936     
  -3223190824.6670427        26806472.218473792        1050008695.0656543     
  -3128787630.4862270        17574104.865437865        1037285760.2002132     
  -3033684847.0413198        10673701.726027369        1030924364.8437752     
  -2937882474.3323340        6105262.8002215624        1030924508.9963351     
  -3716176719.9788122        122141516.37295389        1010920370.5764704     
  -3611011656.2755928        73214920.769554615        974004196.36381233     
  -3501695731.0609045        38124530.204381943        948165050.33254588     
  -3388228944.3347521        16870344.677438498        933402932.48266840     
  -3270611296.0971270        9452364.1887278557        929717842.81418324     
  -4181227221.2123685        186181765.70923042        935041752.00211585     
  -4051127873.9444103        103934753.50255013        884320362.23985434     
  -3913426392.9176025        47028187.158714533        849391489.33137274     
  -3768122778.1319399        15462066.677722692        830255133.27667701     
  -3615217029.5874186        9236392.0595841408        826911294.07575750     
  -4712045933.2844658        230491551.79394794        841457313.71703064     
  -4543539477.6735134        118965970.41746712        780957192.69377983     
  -4363979616.0563145        44285075.728445530        740965077.19670463     
  -4173366348.4328814        6448867.7268819809        721480967.22580290     
  -3971699674.8032088        5457346.4127871990        722504862.78106618     
  -2617030564.2930326       -804912.10592389107        1130531292.6222210     
  -2525544800.6473045       -1824788.0304529667        1126864724.8033435     
  -2434307735.4476643       -3673658.7752746344        1126620239.3256307     
  -2343319368.6941128       -6351524.3403915167        1129797836.1890833     
  -2252579700.3866506       -9858384.7258090973        1136397515.3937013     
  -2937882474.3323340        6105262.8002215624        1030924508.9963351     
  -2836706163.6720080        4026272.0691908598        1023312521.2344795     
  -2735651024.5992618        1543376.0462412834        1019977129.1749550     
  -2634717057.1141000       -1343425.2686527967        1020918332.8177649     
  -2533904261.2165051       -4634131.8754436970        1026136132.1629038     
  -3270611296.0971270        9452364.1887278557        929717842.81418324     
  -3157302971.6760230        7046698.6750365496        918309216.44428003     
  -3043988291.9839802        4662217.3978080750        912031699.13787591     
  -2930667257.0209994        2298920.3570288420        910885290.89497113     
  -2817339866.7870874       -43192.447293519974        914869991.71556497     
  -3615217029.5874186        9236392.0595841408        826911294.07575750     
  -3487335224.6593337        7236491.7871005535        811854810.43273997     
  -3359319537.6018043        5682865.2794497013        802783949.21438968     
  -3231169968.4148250        4575512.5366226435        799698710.42070436     
  -3102886517.0983925        3914433.5586433411        802599094.05168486     
  -3971699674.8032088        5457346.4127871990        722504862.78106618     
  -3826802922.6219602        4595651.4053602219        703949303.19986486     
  -3681644761.4527435        4605319.6911549568        692233879.40449941     
  -3536225191.2955704        5486351.2701463699        687358591.39496636     
  -3390544212.1504297        7238746.1423537731        689323439.17126453     
  -2252579700.3866506       -9858384.7258090973        1136397515.3937013     
  -2154487962.4179692       -11790729.432036519        1129402458.7316353     
  -2056563639.3345151       -14281123.755685091        1126772265.0914745     
  -1958806731.1362972       -17329567.696788311        1128506934.4732215     
  -1861217237.8233049       -20936061.255310893        1134606466.8768709     
  -2533904261.2165051       -4634131.8754436970        1026136132.1629038     
  -2424281648.2197180       -5825431.0013829470        1018150765.2954532     
  -2314896240.1071496       -7807413.0747224092        1014499428.7553474     
  -2205748036.8788147       -10580078.095504642        1015182122.5425843     
  -2096837038.5346947       -14143426.063671112        1020198846.6571623     
  -2817339866.7870874       -43192.447293519974        914869991.71556497     
  -2696274472.1752272       -519874.01685786247        905812892.97724056     
  -2575516072.4465847       -2019871.8638101816        901058991.87169230     
  -2455064667.6011605       -4543185.9881559610        900608288.39892519     
  -2334920257.6389561       -8089816.3898963928        904460782.55893445     
  -3102886517.0983925        3914433.5586433411        802599094.05168486     
  -2970466434.2845016        4125941.5215445757        792388841.77699029     
  -2838423136.3528252        3081499.8770641088        786450954.44051361     
  -2706756623.3033552        781108.62523138523        784785432.04225373     
  -2575466895.1360950       -2775232.2339730263        787392274.58220637     
  -3390544212.1504297        7238746.1423537731        689323439.17126453     
  -3246857534.5475435        8112015.6138033867        677878611.69470823     
  -3103617431.8258643        7496702.1479010582        670675316.46180558     
  -2960823903.9853830        5392805.7446634769        667713553.47255898     
  -2818476951.0261130        1800326.4040665627        668993322.72696197     
  -1861217237.8233049       -20936061.255310893        1134606466.8768709     
  -1761087943.5274594       -24302799.000346780        1127647707.7672842     
  -1661135531.8066261       -28259145.328745246        1124977186.8872874     
  -1561360002.6608021       -32805100.240515232        1126594904.2368813     
  -1461761356.0899906       -37940663.735658705        1132500859.8160641     
  -2096837038.5346947       -14143426.063671112        1020198846.6571623     
  -1985990606.8772016       -17671875.676708817        1012055579.0800177     
  -1875266793.3940852       -21609052.537658930        1007905343.2133263     
  -1764665598.0853381       -25954956.646517515        1007748139.0570784     
  -1654187020.9509695       -30709588.003305733        1011583966.6112804     
  -2334920257.6389561       -8089816.3898963928        904460782.55893445     
  -2214200135.8173676       -12033012.030194640        895196314.98165166     
  -2093548367.7695193       -16204053.582959175        889629672.59566975     
  -1972964953.4954081       -20602941.048186898        887760855.40099549     
  -1852449892.9950416       -25229674.425887465        889589863.39761853     
  -2575466895.1360950       -2775232.2339730263        787392274.58220637     
  -2445716530.3479671       -7386208.0608156919        777069915.47218490     
  -2315980254.9329414       -12044148.464665532        770150175.03432250     
  -2186258068.8910208       -16749053.445528984        766633053.26862359     
  -2056549972.2222016       -21500923.003402114        766518550.17507982     
  -2818476951.0261130        1800326.4040665627        668993322.72696197     
  -2680539790.4689889       -3731463.7685564756        657676380.55161095     
  -2542562454.8843393       -9129337.1827528477        649466850.52928102     
  -2404544944.2721591       -14393293.838512540        644364732.65996265     
  -2266487258.6324444       -19523333.735828400        642370026.94366670     
  -1461761356.0899906       -37940663.735658705        1132500859.8160641     
  -1356423439.6935775       -41843462.519397676        1125912196.4474397     
  -1251231069.0098379       -46231413.678714097        1123088723.0104566     
  -1146184244.0387492       -51104517.213534594        1124030439.5051103     
  -1041282964.7803206       -56462773.123888552        1128737345.9314101     
  -1654187020.9509695       -30709588.003305733        1011583966.6112804     
  -1539074027.2203381       -34278192.735179245        1002816224.3860238     
  -1423973117.5267236       -37887077.590449810        997725460.78194571     
  -1308884291.8701477       -41536242.569189012        996311675.79904211     
  -1193807550.2505865       -45225687.671301544        998574869.43731689     
  -1852449892.9950416       -25229674.425887465        889589863.39761853     
  -1727813854.2457874       -28539694.800537348        878798747.60396874     
  -1603056437.8579314       -31445123.046508789        871596399.12103105     
  -1478177643.8314679       -33945959.163793385        867982817.94880664     
  -1353177472.1663997       -36042203.152392030        867958004.08728909     
  -2056549972.2222016       -21500923.003402114        766518550.17507982     
  -1922642920.7699437       -24627968.715519309        753859766.10127652     
  -1788481030.0034540       -26905550.046855569        744701538.02771878     
  -1654064299.9227209       -28333666.997394204        739043865.95440924     
  -1519392730.5277536       -28912319.567144692        736886749.88133800     
  -2266487258.6324444       -19523333.735828400        642370026.94366670     
  -2123561226.7928038       -22543014.480115652        627999279.87794518     
  -1980246893.9632835       -24268358.591479301        617040877.50199914     
  -1836544260.1439021       -24699366.069966435        609494819.81584203     
  -1692453325.3346469       -23836036.915545821        605361106.81946433     
  -1041282964.7803206       -56462773.123888552        1128737345.9314101     
  -924163157.15876389       -54917868.240580440        1125814957.1970458     
  -804763120.99944270       -45772201.564723790        1128845798.8527384     
  -683082856.30236924       -29025773.096359670        1137829870.8984847     
  -559122363.06753290       -4678582.8354524672        1152767173.3342817     
  -1193807550.2505865       -45225687.671301544        998574869.43731689     
  -1063058530.4603807       -42069809.990013897        994521164.76205695     
  -930884038.06243825       -34162356.949616730        994626476.10386610     
  -797284073.05675697       -21503328.550084323        998890803.46274042     
  -662258635.44333565       -4092724.7914179265        1007314146.8386884     
  -1353177472.1663997       -36042203.152392030        867958004.08728909     
  -1213925566.9875011       -32813250.707103550        861775768.21943963     
  -1074102945.1308913       -27681909.336112022        857958333.99567676     
  -933709606.59657168       -20648179.039423347        856505701.41598821     
  -792745551.38453948       -11712059.817020416        857417870.48038828     
  -1519392730.5277536       -28912319.567144692        736886749.88133800     
  -1376764266.7401295       -27148190.391852915        727578767.56920934     
  -1234419842.2048128       -26330858.724251926        718841372.52816880     
  -1092359456.9218156       -26460324.564384639        710674564.75822473     
  -950583110.89112973       -27536587.912217140        703078344.25937045     
  -1692453325.3346469       -23836036.915545821        605361106.81946433     
  -1551574629.7182550       -25074629.044228315        591930162.81135452     
  -1411834729.2842093       -30109205.114057660        577275591.70134795     
  -1273233624.0324914       -38939765.124991357        561397393.48945105     
  -1135771313.9631169       -51566309.077052951        544295568.17565501     
  -559122363.06753290       -4678582.8354524672        1152767173.3342817     
  -462418186.17230058        33157985.626070201        1162093529.5053899     
  -353708783.02196288        111011974.93794675        1178964019.8919806     
  -232994153.61651716        228883385.10018224        1203378644.4940617     
  -100274297.95597449        386772216.11274087        1235337403.3116410     
  -662258635.44333565       -4092724.7914179265        1007314146.8386884     
  -547166816.70529473        26013689.207310438        1020842314.2321254     
  -421186693.05670929        92414452.907832503        1042754569.0882752     
  -284318264.49760062        195109566.31011438        1073050911.4071226     
  -136561531.02795732        334099029.41416860        1111731341.1886752     
  -792745551.38453948       -11712059.817020416        857417870.48038828     
  -656866224.38307357        11384159.645108610        873844774.19416678     
  -511215513.81564122        67051657.660447598        899495718.61786723     
  -355793419.68225080        155290434.22898275        934370703.75147760     
  -190599941.98290026        276100489.35072494        978469729.59500921     
  -950583110.89112973       -27536587.912217140        703078344.25937045     
  -791516409.20563304       -10730603.060517371        721100909.39149463     
  -623795245.29874277        34923589.195822656        749187468.48074985     
  -447419619.17047042        109425988.85678381        787338021.52713084     
  -262389530.82080042        212776595.92239252        835552568.53064251     
  -1135771313.9631169       -51566309.077052951        544295568.17565501     
  -951117371.17298186       -40330598.909596741        562610719.82412517     
  -758925887.50603056       -3969752.4860748053        591829818.67692721     
  -559196862.96226025        57516230.193504632        631952864.73407125     
  -351930297.54167050        144127349.12914914        682979857.99555981     
  -100274297.95597449        386772216.11274087        1235337403.3116410     
  -85385852.946356505        546616460.04609501        1196747201.6486573     
  -57906038.950495511        748431933.93359244        1154802279.5977821     
  -17834855.968376160        992218637.77527905        1109502637.1590226     
   34827695.999982834        1277976571.5711086        1060848274.3323523     
  -136561531.02795732        334099029.41416860        1111731341.1886752     
  -127415228.46860737        483111287.76536667        1090166162.3697126     
  -95131346.520754695        709248810.74488914        1070038360.2650900     
  -39709885.184392691        1012511598.3527900        1051347934.8748235     
   38849155.540464640        1392899650.5889988        1034094886.1988775     
  -190599941.98290026        276100489.35072494        978469729.59500921     
  -173504075.86743340        418388273.92166257        986233485.75603878     
  -122724419.96120548        672955357.79514253        1000226715.7336351     
  -38260974.264225364        1039801740.9711297        1020449419.5278153     
   79886261.223523915        1518927423.4496751        1046901597.1385617     
  -262389530.82080042        212776595.92239252        835552568.53064251     
  -223652395.14283648        352447418.51498687        884949171.80761552     
  -140685259.27184716        639551575.08433819        945367346.00339830     
  -13488123.207848430        1074089065.6303656        1016807091.1180065     
   157939013.04916334        1656059890.1531193        1099268407.1513910     
  -351930297.54167050        144127349.12914914        682979857.99555981     
  -277860186.29481626        285288721.54534495        786313220.52444994     
  -149013864.45268497        609037462.61245346        905460251.07438457     
   34608667.984700322        1115373572.3304138        1040420949.6453617     
   273007411.01736987        1804297050.6993334        1191195316.2373819     
  -4712045933.2844658        230491551.79394794        841457313.71703064     
  -4543539477.6735134        118965970.41746712        780957192.69377983     
  -4363979616.0563145        44285075.728445530        740965077.19670463     
  -4173366348.4328814        6448867.7268819809        721480967.22580290     
  -3971699674.8032088        5457346.4127871990        722504862.78106618     
  -5286163322.6304293       -215318311.77639246        357589770.57548249     
  -5037417614.8280649       -143163760.44930458        392913966.48758811     
  -4793128399.4640684       -85864183.916788578        427064935.62762266     
  -4553295676.5384455       -43419582.178857803        460042677.99559486     
  -4317919446.0511990       -15829955.235496998        491847193.59150302     
  -5566518616.2529192       -572999546.62969208       -55842502.173573308     
  -5299480034.2541065       -335748775.99751544        57211129.155166119     
  -5052407843.1382761       -165052641.64195585        147410301.41360489     
  -4825302042.9054308       -60911143.563017368        214755014.60173839     
  -4618162633.5555744       -23324281.760702133        259245268.71957079     
  -5553111814.1519337       -842552152.76594889       -398839504.53013510     
  -5329726735.9516392       -458789076.22718048       -226151319.30347210     
  -5141817947.0789356       -193280297.44705868       -97998825.445349440     
  -4989385447.5338402       -46025816.425612211       -14382022.955764050     
  -4872429237.3163338       -17025633.162816286        24699088.165277436     
  -5245942916.3274717       -1023976130.1851621       -671401236.49420595     
  -5128157719.9206562       -512284661.13827801       -457173378.88833100     
  -5061358711.2860508       -170547151.33209157       -309162444.94923729     
  -5045545890.4236622        1236399.2333698273       -227368434.67692128     
  -5080719257.3334780        3065990.5581541061       -211791348.07138076     
  -3971699674.8032088        5457346.4127871990        722504862.78106618     
  -3826802922.6219602        4595651.4053602219        703949303.19986486     
  -3681644761.4527435        4605319.6911549568        692233879.40449941     
  -3536225191.2955704        5486351.2701463699        687358591.39496636     
  -3390544212.1504297        7238746.1423537731        689323439.17126453     
  -4317919446.0511990       -15829955.235496998        491847193.59150302     
  -4159020045.7312198       -16966213.932662249        488488558.10598594     
  -3999477012.2631979       -15957028.803028822        489124415.48513705     
  -3839290345.6471357       -12802399.846587181        493754765.72895867     
  -3678460045.8830295       -7502327.0633456707        502379608.83744907     
  -4618162633.5555744       -23324281.760702133        259245268.71957079     
  -4453390993.4430475       -27174226.651461601        271529485.51649678     
  -4287593496.0224051       -27604647.181835651        284962552.25693053     
  -4120770141.2936392       -24615543.351798773        299544468.94086462     
  -3952920929.2567568       -18206915.161368847        315275235.56830323     
  -4872429237.3163338       -17025633.162816286        24699088.165277436     
  -4709915765.7574453       -26028386.751029253        53072085.431406766     
  -4545994212.7303667       -30337535.445266724        79748289.719874740     
  -4380664578.2350874       -29953079.245504141        104727701.03067660     
  -4213926862.2716064       -24875018.151744366        128010319.36382630     
  -5080719257.3334780        3065990.5581541061       -211791348.07138076     
  -4928594362.6744099       -13528694.231362581       -166883642.14929670     
  -4774679162.3870821       -24155693.593325615       -126518372.12603515     
  -4618973656.4714642       -28815007.527676105       -90695538.001603290     
  -4461477844.9275780       -27506636.034446716       -59415139.775993615     
  -3390544212.1504297        7238746.1423537731        689323439.17126453     
  -3246857534.5475435        8112015.6138033867        677878611.69470823     
  -3103617431.8258643        7496702.1479010582        670675316.46180558     
  -2960823903.9853830        5392805.7446634769        667713553.47255898     
  -2818476951.0261130        1800326.4040665627        668993322.72696197     
  -3678460045.8830295       -7502327.0633456707        502379608.83744907     
  -3523563763.3432760       -3897447.4433484077        494795424.71157384     
  -3369255062.0807481       -2251172.0807905197        490962109.79766148     
  -3215533942.0954580       -2563500.9756740332        490879664.09571844     
  -3062400403.3873963       -4834434.1280028820        494548087.60574466     
  -3952920929.2567568       -18206915.161368847        315275235.56830323     
  -3788216936.1563692       -12290993.705698729        311387187.33106756     
  -3624241530.7292485       -8803697.8275735378        310759345.27411491     
  -3460994712.9753814       -7745027.5269722939        313391709.39743865     
  -3298476482.8947763       -9114982.8039011955        319284279.70105487     
  -4213926862.2716064       -24875018.151744366        128010319.36382630     
  -4040817052.9868350       -17068623.173267126        127653899.55319722     
  -3868576837.7713499       -12160875.092417002        130067022.89116447     
  -3697206216.6251612       -10151773.909214258        135249689.37773281     
  -3526705189.5482597       -11041319.623650312        143201899.01289245     
  -4461477844.9275780       -27506636.034446716       -59415139.775993615     
  -4281364113.8346672       -18230335.846046209       -56404438.622044310     
  -4102260983.2070727       -12322703.875376940       -51114857.351182319     
  -3924168453.0447927       -9783740.1224231720       -43546395.963415340     
  -3747086523.3478355       -10613444.587201118       -33699054.458735667     
  -2818476951.0261130        1800326.4040665627        668993322.72696197     
  -2680539790.4689889       -3731463.7685564756        657676380.55161095     
  -2542562454.8843393       -9129337.1827528477        649466850.52928102     
  -2404544944.2721591       -14393293.838512540        644364732.65996265     
  -2266487258.6324444       -19523333.735828400        642370026.94366670     
  -3062400403.3873963       -4834434.1280028820        494548087.60574466     
  -2915641740.9405336       -9476626.8405861855        486350284.17319155     
  -2768598000.5231924       -13168559.651550055        481625547.55048323     
  -2621269182.1353517       -15910232.560864687        480373877.73762774     
  -2473655285.7770257       -17701645.568555474        482595274.73462284     
  -3298476482.8947763       -9114982.8039011955        319284279.70105487     
  -3141851590.9672298       -12554159.779157877        314491335.11140859     
  -2984696718.1262364       -14226733.709604025        313537111.98844838     
  -2827011864.3717957       -14132704.595215797        316421610.33216774     
  -2668797029.7039032       -12272072.435994864        323144830.14257026     
  -3526705189.5482597       -11041319.623650312        143201899.01289245     
  -3359169340.5490656       -12964062.584276438        142099533.36627737     
  -3190858607.6934705       -12303859.356888771        145201543.84317747     
  -3021772990.9814715       -9060709.9414979219        152507930.44358313     
  -2851912490.4130793       -3234614.3381189108        164018693.16751960     
  -3747086523.3478355       -10613444.587201118       -33699054.458735667     
  -3567594989.6860533       -10706335.255927324       -30825121.062208258     
  -3387083669.2249165       -7399936.5934934616       -23381156.885334305     
  -3205552561.9643965       -694248.59978234768       -11367161.928110290     
  -3023001667.9045358        9410728.7250863314        5216863.8094583452     
  -2266487258.6324444       -19523333.735828400        642370026.94366670     
  -2123561226.7928038       -22543014.480115652        627999279.87794518     
  -1980246893.9632835       -24268358.591479301        617040877.50199914     
  -1836544260.1439021       -24699366.069966435        609494819.81584203     
  -1692453325.3346469       -23836036.915545821        605361106.81946433     
  -2473655285.7770257       -17701645.568555474        482595274.73462284     
  -2322283618.3093591       -17886475.688109398        472187146.30096108     
  -2170881038.7756958       -17968265.587671518        464209119.67028844     
  -2019447547.1760323       -17947015.267229080        458661194.84260726     
  -1867983143.5103509       -17822724.726749420        455543371.81792229     
  -2668797029.7039032       -12272072.435994864        323144830.14257026     
  -2511786134.8561888       -10463974.405207396        316282366.59645277     
  -2355101716.8663349       -9744132.5673061609        310867761.96654510     
  -2198743775.7343569       -10112546.922323704        306901016.25282818     
  -2042712311.4602497       -11569217.470237851        304382129.45531529     
  -2851912490.4130793       -3234614.3381189108        164018693.16751960     
  -2692068776.4332824       -275510.63139677048        160284940.76443550     
  -2532908928.2352209        404040.46955573559        157016804.39075980     
  -2374432945.8189011       -1195961.0353072882        154214284.04650488     
  -2216640829.1843128       -5075515.1459358931        151877379.73165238     
  -3023001667.9045358        9410728.7250863314        5216863.8094583452     
  -2863131543.0406332        12678915.633383274        4194868.8048930848     
  -2704302672.8823347        12476253.522969365        2656246.9429618316     
  -2546515057.4296503        8802742.3938678503        600998.22362935648     
  -2389768696.6825686        1658382.2460687160       -1970877.3530627063     
  -1692453325.3346469       -23836036.915545821        605361106.81946433     
  -1551574629.7182550       -25074629.044228315        591930162.81135452     
  -1411834729.2842093       -30109205.114057660        577275591.70134795     
  -1273233624.0324914       -38939765.124991357        561397393.48945105     
  -1135771313.9631169       -51566309.077052951        544295568.17565501     
  -1867983143.5103509       -17822724.726749420        455543371.81792229     
  -1730105689.1909304       -21770111.856183052        442093878.00764245     
  -1592256241.1348689       -25810853.196813226        428184470.68637091     
  -1454434799.3421767       -29944948.748674750        413815149.85412329     
  -1316641363.8128445       -34172398.511736512        398985915.51088077     
  -2042712311.4602497       -11569217.470237851        304382129.45531529     
  -1905654059.6066160       -17570787.951009274        292210006.24833906     
  -1767513025.0973859       -19963082.913141012        280341683.12127531     
  -1628289207.9325414       -18746102.356555760        268777160.07414436     
  -1487982608.1120973       -13919846.281294167        257516437.10692602     
  -2216640829.1843128       -5075515.1459358931        151877379.73165238     
  -2078219740.9653192       -12476657.328779936        142278547.53343889     
  -1937605081.1717427       -12565894.263013244        133747229.00606216     
  -1794796849.8035817       -5343225.9486359358        126283424.14950529     
  -1649795046.8608465        9191347.6143275499        119887132.96377908     
  -2389768696.6825686        1658382.2460687160       -1970877.3530627063     
  -2247802733.2670369       -6487719.9894348383       -7700498.1370420996     
  -2102532409.3579578       -3619287.2464562654       -11598891.659284925     
  -1953957724.9553196        10263680.475064635       -13666057.919783978     
  -1802078680.0591397        35161183.175045967       -13901996.918551907     
  -1135771313.9631169       -51566309.077052951        544295568.17565501     
  -951117371.17298186       -40330598.909596741        562610719.82412517     
  -758925887.50603056       -3969752.4860748053        591829818.67692721     
  -559196862.96226025        57516230.193504632        631952864.73407125     
  -351930297.54167050        144127349.12914914        682979857.99555981     
  -1316641363.8128445       -34172398.511736512        398985915.51088077     
  -1117230284.2701631       -14444608.502575576        420945229.79416394     
  -914184640.28726757        17398396.307337463        441392529.79620653     
  -707504431.86415529        61356615.917953402        460327815.51700562     
  -497189659.00082076        117430050.32931063        477751086.95656478     
  -1487982608.1120973       -13919846.281294167        257516437.10692602     
  -1309288567.4899669        3657770.8676405549        278566441.51565367     
  -1130862938.8642137        20340681.361982048        285688470.15757257     
  -952705722.23483944        36128885.201738417        278882523.03266758     
  -774816917.60184443        51022382.386900038        258148600.14093325     
  -1649795046.8608465        9191347.6143275499        119887132.96377908     
  -1527292220.8323584        13976539.201109588        135474354.98859957     
  -1408960783.2368417        4857102.6779829264        124717639.76102689     
  -1294800734.0743153       -18166961.955113947        87616987.281039611     
  -1184812073.3447556       -55095654.698091745        24172397.548650973     
  -1802078680.0591397        35161183.175045967       -13901996.918551907     
  -1771241244.2973678        16511696.497753263       -8331029.7870022347     
  -1748478173.4051855       -29052339.744794369       -41519961.393448085     
  -1733789467.3825676       -101530925.55257827       -113468791.73786753     
  -1727175126.2295251       -200924060.92561442       -224177520.82027385     
  -351930297.54167050        144127349.12914914        682979857.99555981     
  -277860186.29481626        285288721.54534495        786313220.52444994     
  -149013864.45268497        609037462.61245346        905460251.07438457     
   34608667.984700322        1115373572.3304138        1040420949.6453617     
   273007411.01736987        1804297050.6993334        1191195316.2373819     
  -497189659.00082076        117430050.32931063        477751086.95656478     
  -388314911.03669035        223088969.06459457        597033438.47132397     
  -230315941.71472535        492495292.32599366        735467793.36622775     
  -23192751.034961104        925649020.11342645        893054151.64126897     
   233054661.00264671        1522550152.4269321        1069792513.2964636     
  -774816917.60184443        51022382.386900038        258148600.14093325     
  -621599431.89442790        124040277.74910843        386785953.19785970     
  -424909714.06664014        341965613.51256561        537913644.99403620     
  -184747764.11848316        704798389.67725754        711531675.52945328     
   98886417.950044870        1212538606.2431669        907640044.80412889     
  -1184812073.3447556       -55095654.698091745        24172397.548650973     
  -977713748.86804485       -11857352.401153088        155570764.70406526     
  -732795181.50841844        157448426.17218161        312797805.95781720     
  -450056371.26587433        452821681.02190632        495853521.30992997     
  -129497318.14040786        874262412.14803338        704737910.76037538     
  -1727175126.2295251       -200924060.92561442       -224177520.82027385     
  -1456657861.9575381       -184603921.38620424       -96612127.010073587     
  -1153972344.0400620       -61056269.695152044        60120276.257576473     
  -819118572.47712624        169718894.14742583        246019688.98266962     
  -452096547.26872122        507721570.14156824        461086111.16523117     
 </DataArray>
 <DataArray  type="Float64" Name="VM" NumberOfComponents="1" format="ascii">
   4954701069.9833803     
   4955843328.6714802     
   5006993334.1708002     
   5061507913.4881630     
   5095474630.5001545     
   5229280776.4636326     
   5130758940.8429308     
   5050806693.0571136     
   4966594958.9154539     
   4864126897.1332970     
   5304168214.0884037     
   5140791888.2239790     
   4978488072.6027679     
   4809542019.6439304     
   4628377591.1210022     
   5218743925.5239334     
   5013785052.7038603     
   4808019114.6181469     
   4601260954.0638285     
   4393411822.5588837     
   5046458280.0217438     
   4798761594.1506491     
   4570188851.6347361     
   4359535078.9419928     
   4166790475.1353555     
   5095474630.5001545     
   4930324370.9772053     
   4767685979.3514862     
   4607312580.9379177     
   4448978692.2075033     
   4864126897.1332970     
   4697855086.7908630     
   4533006601.6497726     
   4369531852.7812042     
   4207390733.7654281     
   4628377591.1210022     
   4464705712.9323769     
   4302263760.5216236     
   4141146961.1436100     
   3981474638.1036997     
   4393411822.5588837     
   4235922093.7418180     
   4080438617.6241274     
   3927154623.7342420     
   3776332003.6073632     
   4166790475.1353555     
   4018539815.5933404     
   3874151229.0847902     
   3733859287.8473592     
   3598039210.2360387     
   4448978692.2075033     
   4273394984.8752351     
   4097070204.8050995     
   3920011427.6654029     
   3742246310.0762239     
   4207390733.7654281     
   4038367141.0530696     
   3869075038.1042342     
   3699564988.3802066     
   3529922418.4299717     
   3981474638.1036997     
   3820348625.1115060     
   3659646371.6552711     
   3499483102.1909137     
   3340028741.0339942     
   3776332003.6073632     
   3624396697.3732390     
   3473820857.5817380     
   3324802342.3686056     
   3177616727.0022278     
   3598039210.2360387     
   3456449978.4035611     
   3317405673.3588500     
   3181194522.5900846     
   3048203723.6451707     
   3742246310.0762239     
   3562653973.4492021     
   3383632127.4702454     
   3205265963.5614915     
   3027731484.4586124     
   3529922418.4299717     
   3361727989.9026260     
   3194639358.3639288     
   3028793605.3830256     
   2864419116.2752666     
   3340028741.0339942     
   3182555595.8869276     
   3026726115.1919656     
   2872735699.2478652     
   2720871967.2966681     
   3177616727.0022278     
   3030352441.0163307     
   2885262441.4448190     
   2742604135.7693996     
   2602727540.3168173     
   3048203723.6451707     
   2910828029.8648396     
   2776133433.6226010     
   2644437928.8731275     
   2516150635.6188593     
   3027731484.4586124     
   2869501207.8538270     
   2710566239.0249605     
   2550928032.2041402     
   2390600756.4337935     
   2864419116.2752666     
   2706208873.2938576     
   2547668351.6557593     
   2388815533.0975275     
   2229679785.8688059     
   2720871967.2966681     
   2565735649.2962394     
   2411133948.4774051     
   2257189902.5893826     
   2104072311.7728851     
   2602727540.3168173     
   2453704497.9754558     
   2306623223.6791511     
   2161795020.3157110     
   2019639922.1642289     
   2516150635.6188593     
   2375983646.0314436     
   2239671338.7908740     
   2107746475.5234432     
   1980911720.3747380     
   2390600756.4337935     
   2244605532.4407806     
   2100821164.5898733     
   1959252718.5303888     
   1820073320.7548687     
   2229679785.8688059     
   2086612872.1468267     
   1945196281.9597034     
   1805429806.5997431     
   1667390413.5383809     
   2104072311.7728851     
   1963288656.0984170     
   1823455562.1821549     
   1684599824.9173813     
   1546776538.8321061     
   2019639922.1642289     
   1882130715.4196434     
   1744956867.1433618     
   1608245393.1686597     
   1472171431.1280744     
   1980911720.3747380     
   1849392160.4531558     
   1717968559.6173332     
   1586997746.8787844     
   1456997262.7966909     
   1820073320.7548687     
   1779613047.1398525     
   1735625046.1745446     
   1696740020.3847265     
   1681439870.2157605     
   1667390413.5383809     
   1552167205.4196041     
   1427830878.0461912     
   1294738040.3568635     
   1159003924.8568530     
   1546776538.8321061     
   1397081528.3308914     
   1243833171.4626458     
   1084758069.8622353     
   917823318.29387140     
   1472171431.1280744     
   1328103482.4757729     
   1198508950.0907869     
   1087861354.3542430     
   1002053233.9435772     
   1456997262.7966909     
   1348140995.5488744     
   1274268070.8993227     
   1243489209.2295911     
   1262828122.5891895     
   1681439870.2157605     
   1383845255.2259924     
   1129498178.4263682     
   1010127070.8192295     
   1153045036.1542132     
   1159003924.8568530     
   1008503080.5839984     
   985232782.24561989     
   1161467019.9775803     
   1544113184.6517203     
   917823318.29387140     
   963164228.55954432     
   1144922060.8385296     
   1476453320.9444072     
   1957436116.1193054     
   1002053233.9435772     
   1164702842.5163014     
   1425400009.9047453     
   1808720407.5513399     
   2334738549.9361649     
   1262828122.5891895     
   1446627718.9967959     
   1715651942.3740733     
   2110469528.2053740     
   2663507700.6455173     
   5046458280.0217438     
   4798761594.1506491     
   4570188851.6347361     
   4359535078.9419928     
   4166790475.1353555     
   4573696773.4457474     
   4380588994.7045259     
   4203041377.9175358     
   4040448250.9994702     
   3892893257.6035051     
   4164692951.1114683     
   4019352938.3236947     
   3885084021.9091706     
   3761816540.1781006     
   3649798407.6404457     
   3815679949.4462347     
   3712631792.0076656     
   3615590099.7706318     
   3524791265.8326168     
   3440573104.9631472     
   3521911806.2396965     
   3456849603.6679997     
   3392804499.9327936     
   3329863319.3834095     
   3268186984.1067433     
   4166790475.1353555     
   4018539815.5933404     
   3874151229.0847902     
   3733859287.8473592     
   3598039210.2360387     
   3892893257.6035051     
   3763524958.6908817     
   3638342593.0248866     
   3517643905.5325198     
   3401846855.0249162     
   3649798407.6404457     
   3538465166.1228471     
   3431542460.7640324     
   3329367698.4470291     
   3232374289.5746975     
   3440573104.9631472     
   3346616945.0003791     
   3257156902.4103785     
   3172541404.3102412     
   3093188633.5219102     
   3268186984.1067433     
   3191119492.8618708     
   3118452232.7266736     
   3050513368.6772132     
   2987675290.2672853     
   3598039210.2360387     
   3456449978.4035611     
   3317405673.3588500     
   3181194522.5900846     
   3048203723.6451707     
   3401846855.0249162     
   3274077589.7403493     
   3149748769.2943830     
   3029242615.2451100     
   2913048178.8522081     
   3232374289.5746975     
   3119292479.0560474     
   3010615689.2045965     
   2906801543.6369033     
   2808411810.6719017     
   3093188633.5219102     
   2995487590.4744334     
   2903163701.9507470     
   2816715033.2800918     
   2736729106.2809434     
   2987675290.2672853     
   2905719215.6978288     
   2830041541.3998456     
   2761134287.3342299     
   2699554939.0522752     
   3048203723.6451707     
   2910828029.8648396     
   2776133433.6226010     
   2644437928.8731275     
   2516150635.6188593     
   2913048178.8522081     
   2788374489.0912991     
   2667472486.8905244     
   2550797098.1658201     
   2438912548.3687005     
   2808411810.6719017     
   2698205489.5174837     
   2592991753.1243777     
   2493335981.5711813     
   2399912667.1955676     
   2736729106.2809434     
   2642374744.5387945     
   2554249263.5812259     
   2472970976.0954261     
   2399246702.9981050     
   2699554939.0522752     
   2621829525.6427855     
   2551460087.0743914     
   2489045780.0790505     
   2435241292.4506822     
   2516150635.6188593     
   2375983646.0314436     
   2239671338.7908740     
   2107746475.5234432     
   1980911720.3747380     
   2438912548.3687005     
   2314027914.4222698     
   2194312963.0061941     
   2080486314.6028025     
   1973440465.2799792     
   2399912667.1955676     
   2292096347.3474002     
   2190755869.7294722     
   2096703563.6323888     
   2010887889.6710320     
   2399246702.9981050     
   2309564530.2619119     
   2227454371.1398053     
   2153705662.2553849     
   2089183183.0110281     
   2435241292.4506822     
   2363876644.8560452     
   2300837932.1130371     
   2246799520.9809022     
   2202455112.4160342     
   1980911720.3747380     
   1849392160.4531558     
   1717968559.6173332     
   1586997746.8787844     
   1456997262.7966909     
   1973440465.2799792     
   1856597102.4905748     
   1744184933.7198682     
   1637137794.1639402     
   1536602802.7576532     
   2010887889.6710320     
   1913852547.0164256     
   1825652681.4045639     
   1747502968.0326259     
   1680712412.0716045     
   2089183183.0110281     
   2013543562.7942402     
   1950322139.3177350     
   1900612674.0237570     
   1865459240.9168432     
   2202455112.4160342     
   2146792583.4853656     
   2106129508.9419858     
   2081246770.9189494     
   2072833875.0306039     
   1456997262.7966909     
   1348140995.5488744     
   1274268070.8993227     
   1243489209.2295911     
   1262828122.5891895     
   1536602802.7576532     
   1475831795.2989664     
   1447746843.4690630     
   1456303943.9989629     
   1504791274.9386392     
   1680712412.0716045     
   1652239321.0173666     
   1651481976.1013012     
   1680803744.3879008     
   1742811977.9630885     
   1865459240.9168432     
   1854901387.2447050     
   1867317239.6162953     
   1904912755.7635517     
   1970719668.8304362     
   2072833875.0306039     
   2069214102.1249273     
   2084842428.7983541     
   2122348429.5127180     
   2185544896.4717593     
   1262828122.5891895     
   1446627718.9967959     
   1715651942.3740733     
   2110469528.2053740     
   2663507700.6455173     
   1504791274.9386392     
   1613217405.0665250     
   1788841048.0486403     
   2066404287.0820334     
   2476104949.2931633     
   1742811977.9630885     
   1787655992.6850770     
   1884642857.7802775     
   2060676210.3202994     
   2340980512.9060383     
   1970719668.8304362     
   1968901642.1957500     
   2003622200.0011983     
   2093552189.8457263     
   2257348537.4069524     
   2185544896.4717593     
   2156238670.6765571     
   2146519767.6006267     
   2166910309.4811387     
   2228480489.0000324     
   3521911806.2396965     
   3456849603.6679997     
   3392804499.9327936     
   3329863319.3834095     
   3268186984.1067433     
   3326262811.0635848     
   3267425736.4886193     
   3211262501.1240292     
   3157961470.0248928     
   3107770735.0410562     
   3154801913.0182433     
   3103011251.7136178     
   3055676009.2596936     
   3013049957.0152779     
   2975431532.4238052     
   3016355155.2120090     
   2971466921.7683406     
   2932907749.9672031     
   2900941785.5554047     
   2875862761.4744110     
   2920647621.4747014     
   2881235399.2011905     
   2850078399.4039631     
   2827388924.5356236     
   2813397099.3750262     
   3268186984.1067433     
   3191119492.8618708     
   3118452232.7266736     
   3050513368.6772132     
   2987675290.2672853     
   3107770735.0410562     
   3041857199.0316873     
   2981266512.3482075     
   2926333136.2914615     
   2877430262.2279034     
   2975431532.4238052     
   2920808632.3676376     
   2872445572.1540585     
   2830655154.4924788     
   2795779757.4504776     
   2875862761.4744110     
   2832087934.6073122     
   2795485151.3446565     
   2766317221.8997912     
   2744866178.5066957     
   2813397099.3750262     
   2779309074.5127563     
   2753251383.4481359     
   2735416099.7678375     
   2726005796.7018743     
   2987675290.2672853     
   2905719215.6978288     
   2830041541.3998456     
   2761134287.3342299     
   2699554939.0522752     
   2877430262.2279034     
   2809761815.8797379     
   2749062664.2708001     
   2695782757.2822471     
   2650416474.3774343     
   2795779757.4504776     
   2741918096.5986838     
   2695604954.7028284     
   2657218259.2961679     
   2627160463.0200734     
   2744866178.5066957     
   2703813502.2193975     
   2670754206.5204692     
   2645975756.8949065     
   2629775202.5125923     
   2726005796.7018743     
   2696223352.6617870     
   2674749053.1922393     
   2661776887.2119341     
   2657502019.9414968     
   2699554939.0522752     
   2621829525.6427855     
   2551460087.0743914     
   2489045780.0790505     
   2435241292.4506822     
   2650416474.3774343     
   2587676664.5565081     
   2532944672.7688866     
   2486735609.8717465     
   2449590925.4375453     
   2627160463.0200734     
   2578633610.9266047     
   2538589084.2834468     
   2507431879.3324919     
   2485571864.9243407     
   2629775202.5125923     
   2594166314.9848666     
   2567349213.3382425     
   2549612919.1638260     
   2541239819.2097831     
   2657502019.9414968     
   2633065359.8077245     
   2617607661.5052009     
   2611313400.7961302     
   2614357371.5711784     
   2435241292.4506822     
   2363876644.8560452     
   2300837932.1130371     
   2246799520.9809022     
   2202455112.4160342     
   2449590925.4375453     
   2393780365.0260687     
   2347167331.3690753     
   2310295698.0446038     
   2283694068.8114161     
   2485571864.9243407     
   2444219099.2308016     
   2412681672.8160009     
   2391354916.6550007     
   2380602065.4129276     
   2541239819.2097831     
   2512683169.9154806     
   2494374668.6052380     
   2486571997.2267289     
   2489499374.9287043     
   2614357371.5711784     
   2596542151.4743624     
   2589315856.2131848     
   2592825572.4048934     
   2607192948.8049364     
   2202455112.4160342     
   2146792583.4853656     
   2106129508.9419858     
   2081246770.9189494     
   2072833875.0306039     
   2283694068.8114161     
   2242964275.1275411     
   2216195501.8188167     
   2203844524.5112853     
   2206304205.1005526     
   2380602065.4129276     
   2351819806.8463273     
   2335932407.6254430     
   2333192796.4708018     
   2343823657.9951892     
   2489499374.9287043     
   2469975403.9201765     
   2462370710.6659031     
   2466822041.7478690     
   2483463931.7590208     
   2607192948.8049364     
   2594608855.7979307     
   2593120467.0147853     
   2602806379.7886891     
   2623762442.0362144     
   2072833875.0306039     
   2069214102.1249273     
   2084842428.7983541     
   2122348429.5127180     
   2185544896.4717593     
   2206304205.1005526     
   2191846805.6851234     
   2192393031.1088390     
   2209911194.5085344     
   2247321287.5777984     
   2343823657.9951892     
   2319345121.8512816     
   2306410592.5553985     
   2306425231.9182129     
   2321477029.8123889     
   2483463931.7590208     
   2450734845.6608000     
   2426576558.4560804     
   2411934225.4011254     
   2408183676.2848797     
   2623762442.0362144     
   2585235171.2432656     
   2552607232.6005945     
   2526459638.9910865     
   2507599613.9985394     
   2185544896.4717593     
   2156238670.6765571     
   2146519767.6006267     
   2166910309.4811387     
   2228480489.0000324     
   2247321287.5777984     
   2182640971.4678273     
   2134395558.3232896     
   2112251372.8339455     
   2127142410.5417278     
   2321477029.8123889     
   2224758962.8768306     
   2141372859.4136236     
   2079684594.0230341     
   2049866479.1307449     
   2408183676.2848797     
   2282886788.6319895     
   2168098711.1761532     
   2070561067.7215300     
   1999044226.9546587     
   2507599613.9985394     
   2357234041.8862839     
   2215043822.0825171     
   2086011920.8697658     
   1977018164.1633751     
   2920647621.4747014     
   2881235399.2011905     
   2850078399.4039631     
   2827388924.5356236     
   2813397099.3750262     
   2775863944.6100726     
   2747998452.0953465     
   2728515517.6318278     
   2717546962.8450360     
   2715232240.2505283     
   2677605388.7076292     
   2658977753.0297470     
   2648732574.9626036     
   2646931745.5729399     
   2653639360.8070445     
   2629950022.5491061     
   2617709307.1390672     
   2613737504.7025428     
   2618050210.1594086     
   2630663317.2024908     
   2634520626.1689811     
   2625482957.3437829     
   2624516358.0730929     
   2631620828.3569183     
   2646796368.1952553     
   2813397099.3750262     
   2779309074.5127563     
   2753251383.4481359     
   2735416099.7678375     
   2726005796.7018743     
   2715232240.2505283     
   2690970433.6163568     
   2674782503.9010630     
   2666782762.7814307     
   2667089286.3728085     
   2653639360.8070445     
   2636916666.1291132     
   2628220424.8740487     
   2627602585.8286362     
   2635115907.7048726     
   2630663317.2024908     
   2618842445.3082032     
   2614932391.9473748     
   2618945998.0033002     
   2630896154.0547137     
   2646796368.1952553     
   2637069686.2657304     
   2635094772.9599571     
   2640871628.2779336     
   2654400252.2196541     
   2726005796.7018743     
   2696223352.6617870     
   2674749053.1922393     
   2661776887.2119341     
   2657502019.9414968     
   2667089286.3728085     
   2646146793.1695476     
   2633654541.5527434     
   2629727538.2111492     
   2634479143.4637694     
   2635115907.7048726     
   2620838807.2511902     
   2615111108.5658965     
   2617985516.3896685     
   2629513139.5493178     
   2630896154.0547137     
   2620791773.0245752     
   2619323912.5271339     
   2626505908.6339359     
   2642350552.0883389     
   2654400252.2196541     
   2645792901.7206464     
   2645922866.5017810     
   2654790146.5630579     
   2672394741.9044757     
   2657502019.9414968     
   2633065359.8077245     
   2617607661.5052009     
   2611313400.7961302     
   2614357371.5711784     
   2634479143.4637694     
   2618491413.2469091     
   2611500267.5661931     
   2613610452.1306157     
   2624918987.0896997     
   2629513139.5493178     
   2619911390.3749266     
   2619327501.9219356     
   2627807977.8992038     
   2645395106.2668090     
   2642350552.0883389     
   2636888332.1832595     
   2640506255.2837334     
   2653215871.1263714     
   2675027544.1922464     
   2672394741.9044757     
   2668731382.2833090     
   2674279337.0128284     
   2689038606.0930142     
   2713009189.5238843     
   2614357371.5711784     
   2596542151.4743624     
   2589315856.2131848     
   2592825572.4048934     
   2607192948.8049364     
   2624918987.0896997     
   2614370333.2350478     
   2614049832.0666728     
   2624034347.9096422     
   2644385637.7105083     
   2645395106.2668090     
   2640359485.2122712     
   2645283475.6098723     
   2660198884.7262836     
   2685130626.2686448     
   2675027544.1922464     
   2673761756.1455584     
   2682304850.0263309     
   2700664282.3124080     
   2728845772.1479974     
   2713009189.5238843     
   2713816138.3997164     
   2724414791.7331161     
   2744805149.5240536     
   2774987211.7725468     
   2607192948.8049364     
   2594608855.7979307     
   2593120467.0147853     
   2602806379.7886891     
   2623762442.0362144     
   2644385637.7105083     
   2633489849.7612638     
   2632849449.6456661     
   2642503501.7766085     
   2662502305.0062313     
   2685130626.2686448     
   2675625183.0429292     
   2675714445.1279683     
   2685413692.1489034     
   2704743730.8648372     
   2728845772.1479974     
   2720587127.0554338     
   2721422332.2039833     
   2731354725.5920005     
   2750389129.2067571     
   2774987211.7725468     
   2767971828.5891614     
   2769691846.5501041     
   2780147265.6553683     
   2799338085.9049649     
   2623762442.0362144     
   2585235171.2432656     
   2552607232.6005945     
   2526459638.9910865     
   2507599613.9985394     
   2662502305.0062313     
   2617052137.4990606     
   2577273032.8366551     
   2543495607.7035666     
   2516181576.6584401     
   2704743730.8648372     
   2654458632.2315178     
   2609759303.5733905     
   2570793027.7298965     
   2537766057.9468703     
   2750389129.2067571     
   2697362489.1330857     
   2649978909.4592438     
   2608274970.9522262     
   2572301915.5238729     
   2799338085.9049649     
   2745662780.4873748     
   2697830077.1697330     
   2655839975.9520497     
   2619692476.8343267     
   2507599613.9985394     
   2357234041.8862839     
   2215043822.0825171     
   2086011920.8697658     
   1977018164.1633751     
   2516181576.6584401     
   2348282027.1545434     
   2183944892.6529655     
   2026271747.6251605     
   1879829874.7591274     
   2537766057.9468703     
   2357424903.1284556     
   2176828340.0024877     
   1997448667.7622092     
   1821565030.9790275     
   2572301915.5238729     
   2384766280.2690439     
   2194161035.5899177     
   2000864608.8810899     
   1805481209.4882290     
   2619692476.8343267     
   2430274900.1854277     
   2236085470.4403448     
   2037124187.5990975     
   1833391051.6616590     
   2634520626.1689811     
   2625482957.3437829     
   2624516358.0730929     
   2631620828.3569183     
   2646796368.1952553     
   2629950021.7086949     
   2617709306.5922556     
   2613737504.4214463     
   2618050210.1158438     
   2630663317.3678994     
   2677605387.6457367     
   2658977752.4499736     
   2648732574.7898555     
   2646931745.7322712     
   2653639361.2237434     
   2775863943.8104682     
   2747998451.8861785     
   2728515517.8746247     
   2717546963.4014506     
   2715232240.9827843     
   2920647621.2431459     
   2881235399.6218743     
   2850078400.2627230     
   2827388925.6166005     
   2813397100.4616175     
   2646796368.1952553     
   2637069686.2657304     
   2635094772.9599571     
   2640871628.2779336     
   2654400252.2196541     
   2630663317.3678994     
   2618842445.4295812     
   2614932392.0131912     
   2618945998.0024147     
   2630896153.9763489     
   2653639361.2237434     
   2636916666.4612303     
   2628220425.0965009     
   2627602585.9169445     
   2635115907.6351938     
   2715232240.9827843     
   2690970434.2364612     
   2674782504.3684869     
   2666782763.0560155     
   2667089286.4148946     
   2813397100.4616175     
   2779309075.4806137     
   2753251384.2399569     
   2735416100.3257852     
   2726005796.9678268     
   2654400252.2196541     
   2645792901.7206464     
   2645922866.5017810     
   2654790146.5630579     
   2672394741.9044757     
   2630896153.9763489     
   2620791772.9660096     
   2619323912.4889059     
   2626505908.6163225     
   2642350552.0912786     
   2635115907.6351938     
   2620838807.2092719     
   2615111108.5513744     
   2617985516.4017959     
   2629513139.5867677     
   2667089286.4148946     
   2646146793.2369785     
   2633654541.6426206     
   2629727538.3201222     
   2634479143.5878463     
   2726005796.9678268     
   2696223352.9429955     
   2674749053.4814854     
   2661776887.5014658     
   2657502020.2229118     
   2672394741.9044757     
   2668731382.2833090     
   2674279337.0128284     
   2689038606.0930142     
   2713009189.5238843     
   2642350552.0912786     
   2636888332.1837292     
   2640506255.2956753     
   2653215871.1634450     
   2675027544.2678132     
   2629513139.5867677     
   2619911390.3902779     
   2619327501.9428172     
   2627807977.9529557     
   2645395106.3805037     
   2634479143.5878463     
   2618491413.3067627     
   2611500267.6028771     
   2613610452.1853781     
   2624918987.2039890     
   2657502020.2229118     
   2633065359.9561954     
   2617607661.5746627     
   2611313400.8417845     
   2614357371.6495590     
   2713009189.5238843     
   2713816138.3997164     
   2724414791.7331161     
   2744805149.5240536     
   2774987211.7725468     
   2675027544.2678132     
   2673761756.1914721     
   2682304850.0435872     
   2700664282.3021741     
   2728845772.1116381     
   2645395106.3805037     
   2640359485.2757087     
   2645283475.6255755     
   2660198884.6970291     
   2685130626.1974506     
   2624918987.2039890     
   2614370333.2870588     
   2614049832.0610337     
   2624034347.8512492     
   2644385637.6044741     
   2614357371.6495590     
   2596542151.4860735     
   2589315856.1657467     
   2592825572.3059540     
   2607192948.6622910     
   2774987211.7725468     
   2767971828.5891614     
   2769691846.5501041     
   2780147265.6553683     
   2799338085.9049649     
   2728845772.1116381     
   2720587127.0290675     
   2721422332.1858816     
   2731354725.5804362     
   2750389129.1999693     
   2685130626.1974506     
   2675625182.9916267     
   2675714445.0930376     
   2685413692.1267858     
   2704743730.8519835     
   2644385637.6044741     
   2633489849.6853609     
   2632849449.5944748     
   2642503501.7446351     
   2662502304.9879284     
   2607192948.6622910     
   2594608855.6965184     
   2593120466.9471207     
   2602806379.7471380     
   2623762442.0130377     
   2799338085.9049649     
   2745662780.4873748     
   2697830077.1697330     
   2655839975.9520497     
   2619692476.8343267     
   2750389129.1999693     
   2697362489.1271553     
   2649978909.4541268     
   2608274970.9478483     
   2572301915.5201788     
   2704743730.8519835     
   2654458632.2202554     
   2609759303.5636187     
   2570793027.7214880     
   2537766057.9396539     
   2662502304.9879284     
   2617052137.4829884     
   2577273032.8226314     
   2543495607.6913943     
   2516181576.6478872     
   2623762442.0130377     
   2585235171.2228198     
   2552607232.5826464     
   2526459638.9753804     
   2507599613.9847717     
   2619692476.8343267     
   2430274900.1854277     
   2236085470.4403448     
   2037124187.5990975     
   1833391051.6616590     
   2572301915.5201788     
   2384766280.2664557     
   2194161035.5881705     
   2000864608.8799140     
   1805481209.4873395     
   2537766057.9396539     
   2357424903.1233211     
   2176828339.9988880     
   1997448667.7595551     
   1821565030.9767644     
   2516181576.6478872     
   2348282027.1468987     
   2183944892.6474233     
   2026271747.6208363     
   1879829874.7550948     
   2507599613.9847717     
   2357234041.8761578     
   2215043822.0749240     
   2086011920.8635597     
   1977018164.1573021     
   2920647621.2431459     
   2881235399.6218743     
   2850078400.2627230     
   2827388925.6166005     
   2813397100.4616175     
   3016355155.4577966     
   2971466922.3107309     
   2932907750.6566200     
   2900941786.2325172     
   2875862761.9733677     
   3154801913.4783874     
   3103011252.1825867     
   3055676009.6441646     
   3013049957.2081838     
   2975431532.3089986     
   3326262811.6429610     
   3267425736.8100533     
   3211262501.1439099     
   3157961469.6856079     
   3107770734.2762523     
   3521911806.9811492     
   3456849603.8673596     
   3392804499.5913172     
   3329863318.4908099     
   3268186982.6463180     
   2813397100.4616175     
   2779309075.4806137     
   2753251384.2399569     
   2735416100.3257852     
   2726005796.9678268     
   2875862761.9733677     
   2832087935.0551939     
   2795485151.6859908     
   2766317222.0774164     
   2744866178.4619274     
   2975431532.3089986     
   2920808632.2914228     
   2872445572.0649767     
   2830655154.3363252     
   2795779757.1702547     
   3107770734.2762523     
   3041857198.4095073     
   2981266511.8235426     
   2926333135.8157411     
   2877430261.7487893     
   3268186982.6463180     
   3191119491.6555128     
   3118452231.7376471     
   3050513367.8650637     
   2987675289.5872717     
   2726005796.9678268     
   2696223352.9429955     
   2674749053.4814854     
   2661776887.5014658     
   2657502020.2229118     
   2744866178.4619274     
   2703813502.2810221     
   2670754206.6782236     
   2645975757.1381812     
   2629775202.8302770     
   2795779757.1702547     
   2741918096.5002608     
   2695604954.7724471     
   2657218259.5199437     
   2627160463.3838878     
   2877430261.7487893     
   2809761815.6445804     
   2749062664.2618766     
   2695782757.4820104     
   2650416474.7683787     
   2987675289.5872717     
   2905719215.3135190     
   2830041541.2890830     
   2761134287.4752970     
   2699554939.4238005     
   2657502020.2229118     
   2633065359.9561954     
   2617607661.5746627     
   2611313400.8417845     
   2614357371.6495590     
   2629775202.8302770     
   2594166315.1882801     
   2567349213.4652481     
   2549612919.2542849     
   2541239819.3056102     
   2627160463.3838878     
   2578633611.1862717     
   2538589084.4610286     
   2507431879.4524970     
   2485571865.0139103     
   2650416474.7683787     
   2587676664.8524532     
   2532944672.9763427     
   2486735609.9996753     
   2449590925.4976439     
   2699554939.4238005     
   2621829525.9345098     
   2551460087.2777987     
   2489045780.1875467     
   2435241292.4599347     
   2614357371.6495590     
   2596542151.4860735     
   2589315856.1657467     
   2592825572.3059540     
   2607192948.6622910     
   2541239819.3056102     
   2512683169.9488549     
   2494374668.5809627     
   2486571997.1495595     
   2489499374.8034229     
   2485571865.0139103     
   2444219099.2681065     
   2412681672.8036551     
   2391354916.5953245     
   2380602065.3078876     
   2449590925.4976439     
   2393780365.0501757     
   2347167331.3583074     
   2310295697.9993520     
   2283694068.7312455     
   2435241292.4599347     
   2363876644.8513789     
   2300837932.0949478     
   2246799520.9486537     
   2202455112.3673835     
   2607192948.6622910     
   2594608855.6965184     
   2593120466.9471207     
   2602806379.7471380     
   2623762442.0130377     
   2489499374.8034229     
   2469975403.8303142     
   2462370710.6061325     
   2466822041.7126794     
   2483463931.7427177     
   2380602065.3078876     
   2351819806.7702098     
   2335932407.5749669     
   2333192796.4424615     
   2343823657.9852948     
   2283694068.7312455     
   2242964275.0686116     
   2216195501.7797670     
   2203844524.4905934     
   2206304205.0965405     
   2202455112.3673835     
   2146792583.4485869     
   2106129508.9174914     
   2081246770.9071853     
   2072833875.0319896     
   2623762442.0130377     
   2585235171.2228198     
   2552607232.5826464     
   2526459638.9753804     
   2507599613.9847717     
   2483463931.7427177     
   2450734845.6461110     
   2426576558.4427457     
   2411934225.3888946     
   2408183676.2734127     
   2343823657.9852948     
   2319345121.8421588     
   2306410592.5467510     
   2306425231.9097323     
   2321477029.8037753     
   2206304205.0965405     
   2191846805.6813827     
   2192393031.1049690     
   2209911194.5041766     
   2247321287.5726418     
   2072833875.0319896     
   2069214102.1264274     
   2084842428.7994146     
   2122348429.5128810     
   2185544896.4707060     
   2507599613.9847717     
   2357234041.8761578     
   2215043822.0749240     
   2086011920.8635597     
   1977018164.1573021     
   2408183676.2734127     
   2282886788.6234283     
   2168098711.1695743     
   2070561067.7158990     
   1999044226.9487913     
   2321477029.8037753     
   2224758962.8702030     
   2141372859.4082201     
   2079684594.0179517     
   2049866479.1249034     
   2247321287.5726418     
   2182640971.4634829     
   2134395558.3191986     
   2112251372.8293917     
   2127142410.5356872     
   2185544896.4707060     
   2156238670.6749167     
   2146519767.5980926     
   2166910309.4771552     
   2228480488.9936376     
   3521911806.9811492     
   3456849603.8673596     
   3392804499.5913172     
   3329863318.4908099     
   3268186982.6463180     
   3815679951.9549494     
   3712631793.4327016     
   3615590100.2060084     
   3524791265.3588953     
   3440573103.6489987     
   4164692955.1603026     
   4019352940.7476268     
   3885084022.9543571     
   3761816540.0503068     
   3649798406.5121374     
   4573696778.9883366     
   4380588998.0956669     
   4203041379.5792203     
   4040448251.2742143     
   3892893256.7735586     
   5046458287.2091398     
   4798761598.6676207     
   4570188854.0778151     
   4359535079.7867270     
   4166790474.7733116     
   3268186982.6463180     
   3191119491.6555128     
   3118452231.7376471     
   3050513367.8650637     
   2987675289.5872717     
   3440573103.6489987     
   3346616943.8737130     
   3257156901.4683342     
   3172541403.5469060     
   3093188632.9278255     
   3649798406.5121374     
   3538465165.0967522     
   3431542459.8680387     
   3329367697.7067418     
   3232374289.0133691     
   3892893256.7735586     
   3763524957.8478427     
   3638342592.2228045     
   3517643904.8239217     
   3401846854.4615622     
   4166790474.7733116     
   4018539815.0641642     
   3874151228.4633198     
   3733859287.2076550     
   3598039209.6531377     
   2987675289.5872717     
   2905719215.3135190     
   2830041541.2890830     
   2761134287.4752970     
   2699554939.4238005     
   3093188632.9278255     
   2995487590.1406755     
   2903163701.8646188     
   2816715033.4295921     
   2736729106.6547852     
   3232374289.0133691     
   3119292478.7175350     
   3010615689.0845423     
   2906801543.7320766     
   2808411810.9803629     
   3401846854.4615622     
   3274077589.3558064     
   3149748769.0911813     
   3029242615.2273393     
   2913048179.0259185     
   3598039209.6531377     
   3456449977.9457173     
   3317405673.0338740     
   3181194522.4076200     
   3048203723.6173348     
   2699554939.4238005     
   2621829525.9345098     
   2551460087.2777987     
   2489045780.1875467     
   2435241292.4599347     
   2736729106.6547852     
   2642374744.8338079     
   2554249263.7821097     
   2472970976.1874514     
   2399246702.9672446     
   2808411810.9803629     
   2698205489.7710819     
   2592991753.3037238     
   2493335981.6560802     
   2399912667.1647496     
   2913048179.0259185     
   2788374489.2556548     
   2667472487.0251312     
   2550797098.2484589     
   2438912548.3746352     
   3048203723.6173348     
   2910828029.8924360     
   2776133433.6870947     
   2644437928.9537764     
   2516150635.6917329     
   2435241292.4599347     
   2363876644.8513789     
   2300837932.0949478     
   2246799520.9486537     
   2202455112.3673835     
   2399246702.9672446     
   2309564530.2303576     
   2227454371.1093860     
   2153705662.2272115     
   2089183182.9853115     
   2399912667.1647496     
   2292096347.3208513     
   2190755869.7090082     
   2096703563.6196687     
   2010887889.6674562     
   2438912548.3746352     
   2314027914.4307680     
   2194312963.0176911     
   2080486314.6179521     
   1973440465.2997174     
   2516150635.6917329     
   2375983646.1003389     
   2239671338.8537397     
   2107746475.5785546     
   1980911720.4208493     
   2202455112.3673835     
   2146792583.4485869     
   2106129508.9174914     
   2081246770.9071853     
   2072833875.0319896     
   2089183182.9853115     
   2013543562.7747128     
   1950322139.3054991     
   1900612674.0199680     
   1865459240.9227123     
   2010887889.6674562     
   1913852547.0132713     
   1825652681.4036932     
   1747502968.0360532     
   1680712412.0815597     
   1973440465.2997174     
   1856597102.5045974     
   1744184933.7306948     
   1637137794.1744328     
   1536602802.7710598     
   1980911720.4208493     
   1849392160.4868057     
   1717968559.6415532     
   1586997746.8969774     
   1456997262.8126793     
   2072833875.0319896     
   2069214102.1264274     
   2084842428.7994146     
   2122348429.5128810     
   2185544896.4707060     
   1865459240.9227123     
   1854901387.2506294     
   1867317239.6217573     
   1904912755.7680402     
   1970719668.8335595     
   1680712412.0815597     
   1652239321.0274713     
   1651481976.1110022     
   1680803744.3965855     
   1742811977.9702239     
   1536602802.7710598     
   1475831795.3128912     
   1447746843.4828451     
   1456303944.0118117     
   1504791274.9497406     
   1456997262.8126793     
   1348140995.5660214     
   1274268070.9169624     
   1243489209.2466772     
   1262828122.6044118     
   2185544896.4707060     
   2156238670.6749167     
   2146519767.5980926     
   2166910309.4771552     
   2228480488.9936376     
   1970719668.8335595     
   1968901642.1970208     
   2003622200.0004654     
   2093552189.8427567     
   2257348537.4011650     
   1742811977.9702239     
   1787655992.6892614     
   1884642857.7815688     
   2060676210.3186903     
   2340980512.9014382     
   1504791274.9497406     
   1613217405.0737073     
   1788841048.0521264     
   2066404287.0821266     
   2476104949.2901721     
   1262828122.6044118     
   1446627719.0071273     
   1715651942.3799050     
   2110469528.2073987     
   2663507700.6445184     
   5046458287.2091398     
   4798761598.6676207     
   4570188854.0778151     
   4359535079.7867270     
   4166790474.7733116     
   5218743931.1166649     
   5013785056.7187996     
   4808019117.1758232     
   4601260955.3273830     
   4393411822.7250090     
   5304168219.1703253     
   5140791892.2103119     
   4978488075.4747419     
   4809542021.4503717     
   4628377591.9502573     
   5229280781.1554842     
   5130758944.6709204     
   5050806696.1051111     
   4966594961.2292919     
   4864126898.7251844     
   4954701073.8307848     
   4955843331.8355322     
   5006993337.0397005     
   5061507916.1636524     
   5095474632.9230843     
   4166790474.7733116     
   4018539815.0641642     
   3874151228.4633198     
   3733859287.2076550     
   3598039209.6531377     
   4393411822.7250090     
   4235922093.6609087     
   4080438617.3522167     
   3927154623.3283448     
   3776332003.1271729     
   4628377591.9502573     
   4464705713.4110098     
   4302263760.6879921     
   4141146961.0380993     
   3981474637.7699261     
   4864126898.7251844     
   4697855087.9191256     
   4533006602.3349152     
   4369531853.0466795     
   4207390733.6381335     
   5095474632.9230843     
   4930324372.8259487     
   4767685980.6272459     
   4607312581.6461630     
   4448978692.3577404     
   3598039209.6531377     
   3456449977.9457173     
   3317405673.0338740     
   3181194522.4076200     
   3048203723.6173348     
   3776332003.1271729     
   3624396696.9425416     
   3473820857.2081804     
   3324802342.0611801     
   3177616726.7718706     
   3981474637.7699261     
   3820348624.7582121     
   3659646371.2895861     
   3499483101.8208075     
   3340028740.6687708     
   4207390733.6381335     
   4038367140.8417177     
   3869075037.8153367     
   3699564988.0207052     
   3529922418.0075350     
   4448978692.3577404     
   4273394984.8792067     
   4097070204.6687436     
   3920011427.3947911     
   3742246309.6776800     
   3048203723.6173348     
   2910828029.8924360     
   2776133433.6870947     
   2644437928.9537764     
   2516150635.6917329     
   3177616726.7718706     
   3030352440.8783417     
   2885262441.3912802     
   2742604135.7910790     
   2602727540.4024529     
   3340028740.6687708     
   3182555595.6331921     
   3026726115.0482430     
   2872735699.2120490     
   2720871967.3656769     
   3529922418.0075350     
   3361727989.5896125     
   3194639358.1612830     
   3028793605.2913828     
   2864419116.2950716     
   3742246309.6776800     
   3562653973.1352239     
   3383632127.2405605     
   3205265963.4156489     
   3027731484.3963451     
   2516150635.6917329     
   2375983646.1003389     
   2239671338.8537397     
   2107746475.5785546     
   1980911720.4208493     
   2602727540.4024529     
   2453704498.0592713     
   2306623223.7570367     
   2161795020.3835478     
   2019639922.2178764     
   2720871967.3656769     
   2565735649.3702178     
   2411133948.5515685     
   2257189902.6587477     
   2104072311.8322217     
   2864419116.2950716     
   2706208873.3304224     
   2547668351.7048211     
   2388815533.1546221     
   2229679785.9293041     
   3027731484.3963451     
   2869501207.8251925     
   2710566239.0271335     
   2550928032.2343163     
   2390600756.4892530     
   1980911720.4208493     
   1849392160.4868057     
   1717968559.6415532     
   1586997746.8969774     
   1456997262.8126793     
   2019639922.2178764     
   1882130715.4605014     
   1744956867.1732121     
   1608245393.1893787     
   1472171431.1417370     
   2104072311.8322217     
   1963288656.1456089     
   1823455562.2180767     
   1684599824.9429252     
   1546776538.8481786     
   2229679785.9293041     
   2086612872.1971414     
   1945196282.0003805     
   1805429806.6313100     
   1667390413.5614035     
   2390600756.4892530     
   2244605532.4896569     
   2100821164.6328855     
   1959252718.5683291     
   1820073320.7885706     
   1456997262.8126793     
   1348140995.5660214     
   1274268070.9169624     
   1243489209.2466772     
   1262828122.6044118     
   1472171431.1417370     
   1328103482.4896224     
   1198508950.1045504     
   1087861354.3675675     
   1002053233.9561174     
   1546776538.8481786     
   1397081528.3451540     
   1243833171.4749010     
   1084758069.8726275     
   917823318.30279255     
   1667390413.5614035     
   1552167205.4381971     
   1427830878.0601137     
   1294738040.3661971     
   1159003924.8616579     
   1820073320.7885706     
   1779613047.1659839     
   1735625046.1926377     
   1696740020.3946927     
   1681439870.2173212     
   1262828122.6044118     
   1446627719.0071273     
   1715651942.3799050     
   2110469528.2073987     
   2663507700.6445184     
   1002053233.9561174     
   1164702842.5250785     
   1425400009.9096048     
   1808720407.5527766     
   2334738549.9349685     
   917823318.30279255     
   963164228.56642425     
   1144922060.8424735     
   1476453320.9454570     
   1957436116.1181502     
   1159003924.8616579     
   1008503080.5880631     
   985232782.24853253     
   1161467019.9786627     
   1544113184.6510756     
   1681439870.2173212     
   1383845255.2271500     
   1129498178.4278395     
   1010127070.8210005     
   1153045036.1553981     
 </DataArray>
 <DataArray  type="Float64" Name="strain" NumberOfComponents="3" format="ascii">
   8.2312501233181568E-002  -9.1634457724704133E-003  -2.9094053494387540E-002
   8.2907871975191227E-002  -1.7102710917965558E-002  -1.9810846371505875E-002
   8.3503242717200665E-002  -2.2464341023317458E-002  -1.3397039264637312E-002
   8.4098613459210270E-002  -2.5248336088526294E-002  -9.8526321737811839E-003
   8.4693984201219874E-002  -2.5454696113592190E-002  -9.1776250989379360E-003
   8.8339102735107700E-002  -1.3723023149768920E-002  -1.7283045110540352E-002
   8.6534833492406649E-002  -1.9002149041049687E-002  -9.7998904506373385E-003
   8.4730564249705820E-002  -2.2487751416563062E-002  -4.2466157441423680E-003
   8.2926295007004824E-002  -2.4179830276309253E-002  -6.2322099105605044E-004
   8.1122025764303829E-002  -2.4078385620287968E-002   1.0702938086220026E-003
   8.9910312464797970E-002  -1.8282600527067316E-002  -2.4198417102910263E-003
   8.6645923299990935E-002  -2.0901587164133928E-002   2.4791489622577600E-003
   8.3381534135183927E-002  -2.2511161809808972E-002   6.3877797440028139E-003
   8.0117144970376863E-002  -2.3111324464092371E-002   9.3060506349440658E-003
   7.6852755805569911E-002  -2.2702075126984078E-002   1.1233961635081502E-002
   8.7026130422252296E-002  -2.2842177904365824E-002   1.5495556706360367E-002
   8.3241141397943599E-002  -2.2801025287218293E-002   1.7026271867179324E-002
   7.9456152373635097E-002  -2.2534572203054729E-002   1.8506147199798727E-002
   7.5671163349326484E-002  -2.2042818651875299E-002   1.9935182704219203E-002
   7.1886174325017885E-002  -2.1325764633680022E-002   2.1313378380440062E-002
   7.9686556607470593E-002  -2.7401755281664275E-002   3.6463150139413536E-002
   7.6320487786264934E-002  -2.4700463410302576E-002   3.3841478264127034E-002
   7.2954418965059276E-002  -2.2557982596300527E-002   3.2108486623245419E-002
   6.9588350143853589E-002  -2.0974312839658459E-002   3.1264175216769177E-002
   6.6222281322647902E-002  -1.9949454140376022E-002   3.1308544044697906E-002
   8.4693984201219874E-002  -2.5454696113592190E-002  -9.1776250989379360E-003
   8.2075595875733265E-002  -2.4417493565880910E-002  -7.2316245025421111E-003
   7.9457207550246656E-002  -2.3470800912758660E-002  -5.4824627978248830E-003
   7.6838819224760102E-002  -2.2614618154225441E-002  -3.9301399847874174E-003
   7.4220430899273437E-002  -2.1848945290281474E-002  -2.5746560634284377E-003
   8.1122025764303829E-002  -2.4078385620287968E-002   1.0702938086220026E-003
   7.8368454143774857E-002  -2.3115772375987886E-002   2.2997903629377592E-003
   7.5614882523245969E-002  -2.2224345470897522E-002   3.4557592188476371E-003
   7.2861310902716997E-002  -2.1404104905016610E-002   4.5382003763522749E-003
   7.0107739282188108E-002  -2.0655050678345610E-002   5.5471138354510341E-003
   7.6852755805569911E-002  -2.2702075126984078E-002   1.1233961635081502E-002
   7.4087312083272169E-002  -2.1814051186095113E-002   1.1766277702695949E-002
   7.1321868360974483E-002  -2.0977890029036272E-002   1.2348377265178373E-002
   6.8556424638676755E-002  -2.0193591655807558E-002   1.2980260322528893E-002
   6.5790980916379055E-002  -1.9461156066409302E-002   1.3661926874747321E-002
   7.1886174325017885E-002  -2.1325764633680022E-002   2.1313378380440062E-002
   6.9232169694224993E-002  -2.0512329996202103E-002   2.1167837516732860E-002
   6.6578165063432032E-002  -1.9731434587174967E-002   2.1195391341167033E-002
   6.3924160432639154E-002  -1.8983078406598727E-002   2.1396039853743009E-002
   6.1270155801846214E-002  -1.8267261454473216E-002   2.1769783054460382E-002
   6.6222281322647902E-002  -1.9949454140376022E-002   3.1308544044697906E-002
   6.3803026976633370E-002  -1.9210608806309315E-002   3.0504469805048173E-002
   6.1383772630618838E-002  -1.8484979145313843E-002   2.9996801446813742E-002
   5.8964518284604278E-002  -1.7772565157389748E-002   2.9785538969994529E-002
   5.6545263938589774E-002  -1.7073366842537074E-002   2.9870682374590285E-002
   7.4220430899273437E-002  -2.1848945290281474E-002  -2.5746560634284377E-003
   7.1264916884319240E-002  -2.1102981639381846E-002  -2.4441923442868330E-003
   6.8309402869365099E-002  -2.0305926519981699E-002  -2.2149771544618391E-003
   6.5353888854410874E-002  -1.9457779932080768E-002  -1.8870104939535115E-003
   6.2398374839456761E-002  -1.8558541875679513E-002  -1.4602923627617947E-003
   7.0107739282188108E-002  -2.0655050678345610E-002   5.5471138354510341E-003
   6.7261607770318366E-002  -1.9919608215470896E-002   5.5316689783285189E-003
   6.4415476258448651E-002  -1.9140202940980011E-002   5.6362376566916061E-003
   6.1569344746578950E-002  -1.8316834854872469E-002   5.8608198705404346E-003
   5.8723213234709248E-002  -1.7449503957149393E-002   6.2054156198747545E-003
   6.5790980916379055E-002  -1.9461156066409302E-002   1.3661926874747321E-002
   6.3075493972396063E-002  -1.8736234791560002E-002   1.3493444784476366E-002
   6.0360007028413057E-002  -1.7974479361978518E-002   1.3466238294493435E-002
   5.7644520084430030E-002  -1.7175889777664828E-002   1.3580307404798445E-002
   5.4929033140447059E-002  -1.6340466038618828E-002   1.3835652115391561E-002
   6.1270155801846214E-002  -1.8267261454473216E-002   2.1769783054460382E-002
   5.8706575490552339E-002  -1.7552861367649025E-002   2.1441135074157153E-002
   5.6142995179258331E-002  -1.6808755782976928E-002   2.1275024758944050E-002
   5.3579414867964414E-002  -1.6034944700456636E-002   2.1271452108821382E-002
   5.1015834556670442E-002  -1.5231428120088375E-002   2.1430417123788334E-002
   5.6545263938589774E-002  -1.7073366842537074E-002   2.9870682374590285E-002
   5.4154852324787117E-002  -1.6369487943738159E-002   2.9374739847370490E-002
   5.1764440710984488E-002  -1.5643032203975449E-002   2.9062597050043215E-002
   4.9374029097181846E-002  -1.4893999623248666E-002   2.8934253982608321E-002
   4.6983617483379203E-002  -1.4122390201558088E-002   2.8989710645065669E-002
   6.2398374839456761E-002  -1.8558541875679513E-002  -1.4602923627617947E-003
   5.9406384823708303E-002  -1.7659536029105860E-002  -1.3357552464450251E-003
   5.6414394807959845E-002  -1.6812086070689125E-002  -1.0131834637409631E-003
   5.3422404792211442E-002  -1.6016192000427712E-002  -4.9257701465088566E-004
   5.0430414776462928E-002  -1.5271853818322745E-002   2.2606410082648409E-004
   5.8723213234709248E-002  -1.7449503957149393E-002   6.2054156198747545E-003
   5.5921335368037672E-002  -1.6579778995526262E-002   6.1576464433808487E-003
   5.3119457501365958E-002  -1.5749228717720276E-002   6.2920668986539141E-003
   5.0317579634694395E-002  -1.4957853123731754E-002   6.6086769856942285E-003
   4.7515701768022778E-002  -1.4205652213560738E-002   7.1074767045016252E-003
   5.4929033140447059E-002  -1.6340466038618828E-002   1.3835652115391561E-002
   5.2301422388232821E-002  -1.5500021961945776E-002   1.3627957850425226E-002
   4.9673811636018556E-002  -1.4686371364751621E-002   1.3586608182606874E-002
   4.7046200883804304E-002  -1.3899514247035567E-002   1.3711603111936130E-002
   4.4418590131590052E-002  -1.3139450608797953E-002   1.4002942638412452E-002
   5.1015834556670442E-002  -1.5231428120088375E-002   2.1430417123788334E-002
   4.8546645884293915E-002  -1.4420264928365845E-002   2.1075178974689052E-002
   4.6077457211917520E-002  -1.3623514011782981E-002   2.0870440388117840E-002
   4.3608268539541042E-002  -1.2841175370339606E-002   2.0816201364074523E-002
   4.1139079867164613E-002  -1.2073249004035669E-002   2.0912461902558951E-002
   4.6983617483379203E-002  -1.4122390201558088E-002   2.8989710645065669E-002
   4.4657005856221010E-002  -1.3340507894785691E-002   2.8499309816172047E-002
   4.2330394229062845E-002  -1.2560656658814215E-002   2.8143563515186737E-002
   4.0003782601904611E-002  -1.1782836493643447E-002   2.7922471742109864E-002
   3.7677170974746488E-002  -1.1007047399273162E-002   2.7836034496941497E-002
   5.0430414776462928E-002  -1.5271853818322745E-002   2.2606410082648409E-004
   4.7782253629453653E-002  -1.4526972975339447E-002   1.8177764966664789E-004
   4.5134092482444155E-002  -1.3729450922444875E-002   1.1510403512249301E-004
   4.2485931335434823E-002  -1.2879287659636765E-002   2.6043257193797409E-005
   3.9837770188425381E-002  -1.1976483186917353E-002  -8.5404684119216867E-005
   4.7515701768022778E-002  -1.4205652213560738E-002   7.1074767045016252E-003
   4.4866435386768044E-002  -1.3455752038159630E-002   6.9456807665828624E-003
   4.2217169005513394E-002  -1.2671278648481443E-002   6.8040615235580582E-003
   3.9567902624258675E-002  -1.1852232044527386E-002   6.6826189754271847E-003
   3.6918636243004010E-002  -1.0998612226296611E-002   6.5813531221899924E-003
   4.4418590131590052E-002  -1.3139450608797953E-002   1.4002942638412452E-002
   4.1810782374368360E-002  -1.2384531100978924E-002   1.3705569218098984E-002
   3.9202974617146669E-002  -1.1613106374519316E-002   1.3470936350958085E-002
   3.6595166859924963E-002  -1.0825176429418222E-002   1.3299044036989130E-002
   3.3987359102703230E-002  -1.0020741265675870E-002   1.3189892276192383E-002
   4.1139079867164613E-002  -1.2073249004035669E-002   2.0912461902558951E-002
   3.8615294592254240E-002  -1.1313310163798773E-002   2.0461443004215235E-002
   3.6091509317343937E-002  -1.0554934100556537E-002   2.0115728517322691E-002
   3.3567724042433578E-002  -9.7981208143086175E-003   1.9875318441880337E-002
   3.1043938767523205E-002  -9.0428703050551285E-003   1.9740212777888538E-002
   3.7677170974746488E-002  -1.1007047399273162E-002   2.7836034496941497E-002
   3.5279972040425822E-002  -1.0242089226618512E-002   2.7213302124932226E-002
   3.2882773106105184E-002  -9.4967618265938691E-003   2.6738438022651856E-002
   3.0485574171784560E-002  -8.7710651991989297E-003   2.6411442190100609E-002
   2.8088375237463881E-002  -8.0649993444341650E-003   2.6232314627277598E-002
   3.9837770188425381E-002  -1.1976483186917353E-002  -8.5404684119216867E-005
   3.7430940287056624E-002  -1.1130884999462576E-002  -3.3368825202395591E-004
   3.5024110385688034E-002  -1.0452340592450704E-002  -5.0261863845912913E-004
   3.2617280484319389E-002  -9.9408499658803218E-003  -5.9219584342545817E-004
   3.0210450582950688E-002  -9.5964131197536773E-003  -6.0241986692211036E-004
   3.6918636243004010E-002  -1.0998612226296611E-002   6.5813531221899924E-003
   3.4574612395270266E-002  -1.0183154415697282E-002   6.1654037265803652E-003
   3.2230588547536548E-002  -9.4785938346391152E-003   5.7957132567710290E-003
   2.9886564699802734E-002  -8.8849304831217779E-003   5.4722817127620949E-003
   2.7542540852068920E-002  -8.4021643611440489E-003   5.1951090945540068E-003
   3.3987359102703230E-002  -1.0020741265675870E-002   1.3189892276192383E-002
   3.1673047052935749E-002  -9.2354238319324877E-003   1.2662433603779388E-002
   2.9358735003168296E-002  -8.5048470768276929E-003   1.2148139601498215E-002
   2.7044422953400857E-002  -7.8290110003618879E-003   1.1647010269348834E-002
   2.4730110903633390E-002  -7.2079156025348645E-003   1.1159045607331608E-002
   3.1043938767523205E-002  -9.0428703050551285E-003   1.9740212777888538E-002
   2.8726244260053380E-002  -8.2876932481674437E-003   1.9157401379573821E-002
   2.6408549752583436E-002  -7.5311003190164094E-003   1.8554660395722095E-002
   2.4090855245113622E-002  -6.7730915176026710E-003   1.7931989826334309E-002
   2.1773160737643668E-002  -6.0136668439254581E-003   1.7289389671409333E-002
   2.8088375237463881E-002  -8.0649993444341650E-003   2.6232314627277598E-002
   2.5734204016622964E-002  -7.3399626644023996E-003   2.5650307053963206E-002
   2.3380032795781991E-002  -6.5573535612046818E-003   2.5015275639443890E-002
   2.1025861574941060E-002  -5.7171720348434540E-003   2.4327220383718706E-002
   1.8671690354100101E-002  -4.8194180853161628E-003   2.3586141286788376E-002
   3.0210450582950688E-002  -9.5964131197536773E-003  -6.0241986692211036E-004
   2.9603245887008356E-002  -9.1314011629844982E-003  -3.6101129097931839E-004
   2.8996041191066246E-002  -8.2581852044899540E-003  -1.7991983270977396E-003
   2.8388836495124026E-002  -6.9767652442687955E-003  -4.9169809752775406E-003
   2.7781631799181805E-002  -5.2871412823232156E-003  -9.7143592355179997E-003
   2.7542540852068920E-002  -8.4021643611440489E-003   5.1951090945540068E-003
   2.5524753042929782E-002  -7.8694034241088007E-003   5.8705553824985879E-003
   2.3506965233790506E-002  -7.1257556274162415E-003   5.4044310561101594E-003
   2.1489177424651243E-002  -6.1712209710669819E-003   3.7967361153891932E-003
   1.9471389615512091E-002  -5.0057994550607443E-003   1.0474705603353840E-003
   2.4730110903633390E-002  -7.2079156025348645E-003   1.1159045607331608E-002
   2.1839764979025567E-002  -6.6074056852327145E-003   1.2071212465208814E-002
   1.8949419054417799E-002  -5.9933260503430286E-003   1.2379833706481574E-002
   1.6059073129810003E-002  -5.3656766978642939E-003   1.2084909331150306E-002
   1.3168727205202208E-002  -4.7244576277980510E-003   1.1186439339214815E-002
   2.1773160737643668E-002  -6.0136668439254581E-003   1.7289389671409333E-002
   1.8548281695295876E-002  -5.3454079463572668E-003   1.8240959957150818E-002
   1.5323402652948091E-002  -4.8608964732693438E-003   1.9127009624016200E-002
   1.2098523610600244E-002  -4.5601324246618211E-003   1.9947538672006611E-002
   8.8736445682523965E-003  -4.4431158005350246E-003   2.0702547101120627E-002
   1.8671690354100101E-002  -4.8194180853161628E-003   2.3586141286788376E-002
   1.5650303191740655E-002  -4.0834102074814860E-003   2.4379797858325003E-002
   1.2628916029381348E-002  -3.7284668961960477E-003   2.5645958808714731E-002
   9.6075288670219722E-003  -3.7545881514595564E-003   2.7384624137956726E-002
   6.5861417046625959E-003  -4.1617739732723313E-003   2.9595793846051710E-002
   2.7781631799181805E-002  -5.2871412823232156E-003  -9.7143592355179997E-003
   2.3354611425676519E-002  -4.2065572866532008E-003  -4.1865255037858429E-003
   1.8927591052171289E-002  -4.7522572252615136E-003   2.6052119711348354E-003
   1.4500570678666030E-002  -6.9242410981476266E-003   1.0660853189243480E-002
   1.0073550305160772E-002  -1.0722508905312012E-002   1.9980398150538647E-002
   1.9471389615512091E-002  -5.0057994550607443E-003   1.0474705603353840E-003
   1.6235942385740387E-002  -4.6909462043152050E-003   6.7413998037457734E-003
   1.3000495155968850E-002  -6.2881163437474852E-003   1.3554571591435360E-002
   9.7650479261973122E-003  -9.7973098733599995E-003   2.1486985923403923E-002
   6.5296006964257192E-003  -1.5218526793149056E-002   3.0538642799653015E-002
   1.3168727205202208E-002  -4.7244576277980510E-003   1.1186439339214815E-002
   1.0980191920255927E-002  -5.1753351219763211E-003   1.6760724638402058E-002
   8.7916566353096054E-003  -7.8239754622338453E-003   2.3309591282960562E-002
   6.6031213503633876E-003  -1.2670378648570804E-002   3.0833039272890050E-002
   4.4145860654170033E-003  -1.9714544680986101E-002   3.9331068608191133E-002
   8.8736445682523965E-003  -4.4431158005350246E-003   2.0702547101120627E-002
   7.5873600292230489E-003  -5.6597240396378812E-003   2.5871449000184482E-002
   6.3010754901937603E-003  -9.3598345807204553E-003   3.1870271045711288E-002
   5.0147909511644145E-003  -1.5543447423781949E-002   3.8699013237700870E-002
   3.7285064121350131E-003  -2.4210562568823368E-002   4.6357675576153168E-002
   6.5861417046625959E-003  -4.1617739732723313E-003   2.9595793846051710E-002
   6.0574467126418563E-003  -6.1441129572999964E-003   3.4073572889092407E-002
   5.5287517206211167E-003  -1.0895693699206704E-002   3.9236610879686940E-002
   5.0000567286003772E-003  -1.8416516198993670E-002   4.5084907817835335E-002
   4.4713617365795821E-003  -2.8706580456660191E-002   5.1618463703539952E-002
   7.9686556607470593E-002  -2.7401755281664275E-002   3.6463150139413536E-002
   7.6320487786264934E-002  -2.4700463410302576E-002   3.3841478264127034E-002
   7.2954418965059276E-002  -2.2557982596300527E-002   3.2108486623245419E-002
   6.9588350143853589E-002  -2.0974312839658459E-002   3.1264175216769177E-002
   6.6222281322647902E-002  -1.9949454140376022E-002   3.1308544044697906E-002
   7.0618029169384311E-002  -2.4009165373664876E-002   4.0518475737911230E-002
   6.8038471661483996E-002  -2.1987885166161236E-002   3.8320548898980872E-002
   6.5458914153583819E-002  -2.0350935037638324E-002   3.6806964452256258E-002
   6.2879356645683560E-002  -1.9098314988096284E-002   3.5977722397737361E-002
   6.0299799137783300E-002  -1.8230025017535012E-002   3.5832822735424319E-002
   6.2546986256924203E-002  -2.0616575465665532E-002   4.3806549183361146E-002
   6.0549602220130033E-002  -1.9275306922019925E-002   4.2206848359166049E-002
   5.8552218183335850E-002  -1.8143887478976127E-002   4.1087152084977395E-002
   5.6554834146541631E-002  -1.7222317136534222E-002   4.0447460360795023E-002
   5.4557450109747482E-002  -1.6510595894694086E-002   4.0287773186619205E-002
   5.5473427870090374E-002  -1.7223985557666174E-002   4.6327370475763616E-002
   5.3853879462202887E-002  -1.6562728677878683E-002   4.5500376644682879E-002
   5.2234331054315436E-002  -1.5936839920313955E-002   4.4949049521408976E-002
   5.0614782646427894E-002  -1.5346319284972158E-002   4.4673389105942103E-002
   4.8995234238540422E-002  -1.4791166771853145E-002   4.4673395398282301E-002
   4.9397354008882843E-002  -1.3831395649666789E-002   4.8080939615118501E-002
   4.7951303387702704E-002  -1.3850150433737357E-002   4.8201133755530978E-002
   4.6505252766522454E-002  -1.3729792361651727E-002   4.8392656761550967E-002
   4.5059202145342245E-002  -1.3470321433410037E-002   4.8655508633178551E-002
   4.3613151524162036E-002  -1.3071737649012150E-002   4.8989689370413703E-002
   6.6222281322647902E-002  -1.9949454140376022E-002   3.1308544044697906E-002
   6.3803026976633370E-002  -1.9210608806309315E-002   3.0504469805048173E-002
   6.1383772630618838E-002  -1.8484979145313843E-002   2.9996801446813742E-002
   5.8964518284604278E-002  -1.7772565157389748E-002   2.9785538969994529E-002
   5.6545263938589774E-002  -1.7073366842537074E-002   2.9870682374590285E-002
   6.0299799137783300E-002  -1.8230025017535012E-002   3.5832822735424319E-002
   5.8158436217493864E-002  -1.7557284327877190E-002   3.5180375118964782E-002
   5.6017073297204401E-002  -1.6891312121045277E-002   3.4787304472540234E-002
   5.3875710376914993E-002  -1.6232108397039452E-002   3.4653610796150897E-002
   5.1734347456625501E-002  -1.5579673155859342E-002   3.4779294089796575E-002
   5.4557450109747482E-002  -1.6510595894694086E-002   4.0287773186619205E-002
   5.2656949703803038E-002  -1.5903959849445204E-002   3.9793399383594996E-002
   5.0756449297858636E-002  -1.5297645096776870E-002   3.9521373639225969E-002
   4.8855948891914178E-002  -1.4691651636688988E-002   3.9471695953511729E-002
   4.6955448485969775E-002  -1.4085979469181636E-002   3.9644366326452546E-002
   4.8995234238540422E-002  -1.4791166771853145E-002   4.4673395398282301E-002
   4.7298567435560851E-002  -1.4250635371013204E-002   4.4343542598939051E-002
   4.5601900632581349E-002  -1.3703978072508356E-002   4.4199008946870767E-002
   4.3905233829601847E-002  -1.3151194876338496E-002   4.4239794442077325E-002
   4.2208567026622332E-002  -1.2592285782503890E-002   4.4465899084558766E-002
   4.3613151524162036E-002  -1.3071737649012150E-002   4.8989689370413703E-002
   4.2083289412767372E-002  -1.2597310892581121E-002   4.8830804764996905E-002
   4.0553427301372708E-002  -1.2110311048239938E-002   4.8820210395474767E-002
   3.9023565189978043E-002  -1.1610738115988183E-002   4.8957906261847331E-002
   3.7493703078583351E-002  -1.1098592095826143E-002   4.9243892364115027E-002
   5.6545263938589774E-002  -1.7073366842537074E-002   2.9870682374590285E-002
   5.4154852324787117E-002  -1.6369487943738159E-002   2.9374739847370490E-002
   5.1764440710984488E-002  -1.5643032203975449E-002   2.9062597050043215E-002
   4.9374029097181846E-002  -1.4893999623248666E-002   2.8934253982608321E-002
   4.6983617483379203E-002  -1.4122390201558088E-002   2.8989710645065669E-002
   5.1734347456625501E-002  -1.5579673155859342E-002   3.4779294089796575E-002
   4.9528403614578762E-002  -1.4921097871807398E-002   3.4336849820515269E-002
   4.7322459772532008E-002  -1.4243474019185354E-002   3.4079541364853638E-002
   4.5116515930485261E-002  -1.3546801597993263E-002   3.4007368722811113E-002
   4.2910572088438542E-002  -1.2831080608231182E-002   3.4120331894387457E-002
   4.6955448485969775E-002  -1.4085979469181636E-002   3.9644366326452546E-002
   4.4935308499405677E-002  -1.3472707799876527E-002   3.9251892042716299E-002
   4.2915168512841557E-002  -1.2843915834395259E-002   3.9045889656326160E-002
   4.0895028526277424E-002  -1.2199603572737971E-002   3.9026359167282032E-002
   3.8874888539713354E-002  -1.1539771014904526E-002   3.9193300575584164E-002
   4.2208567026622332E-002  -1.2592285782503890E-002   4.4465899084558766E-002
   4.0375566979267682E-002  -1.2024317727945821E-002   4.4119866513973448E-002
   3.8542566931913047E-002  -1.1444357649605164E-002   4.3961641924461170E-002
   3.6709566884558419E-002  -1.0852405547482680E-002   4.3991225316021662E-002
   3.4876566837203818E-002  -1.0248461421577912E-002   4.4208616688654764E-002
   3.7493703078583351E-002  -1.1098592095826143E-002   4.9243892364115027E-002
   3.5849179054164931E-002  -1.0575927656014894E-002   4.8940773234286750E-002
   3.4204655029746567E-002  -1.0044799464815082E-002   4.8826798169258112E-002
   3.2560131005328161E-002  -9.5052075222272527E-003   4.8901967169029184E-002
   3.0915606980909754E-002  -8.9571518282510754E-003   4.9166280233599924E-002
   4.6983617483379203E-002  -1.4122390201558088E-002   2.8989710645065669E-002
   4.4657005856221010E-002  -1.3340507894785691E-002   2.8499309816172047E-002
   4.2330394229062845E-002  -1.2560656658814215E-002   2.8143563515186737E-002
   4.0003782601904611E-002  -1.1782836493643447E-002   2.7922471742109864E-002
   3.7677170974746488E-002  -1.1007047399273162E-002   2.7836034496941497E-002
   4.2910572088438542E-002  -1.2831080608231182E-002   3.4120331894387457E-002
   4.0725011130307187E-002  -1.2105479186232615E-002   3.3673029665379106E-002
   3.8539450172175860E-002  -1.1379165468330246E-002   3.3373174246515813E-002
   3.6353889214044546E-002  -1.0652139454524662E-002   3.3220765637797522E-002
   3.4168328255913205E-002  -9.9244011448156311E-003   3.3215803839224678E-002
   3.8874888539713354E-002  -1.1539771014904526E-002   3.9193300575584164E-002
   3.6843170532845609E-002  -1.0870450477679316E-002   3.8791840313164919E-002
   3.4811452525977872E-002  -1.0197674277846396E-002   3.8550619143127775E-002
   3.2779734519110135E-002  -9.5214424154059906E-003   3.8469637065472448E-002
   3.0748016512242377E-002  -8.8417548903578780E-003   3.8548894080199098E-002
   3.4876566837203818E-002  -1.0248461421577912E-002   4.4208616688654764E-002
   3.3011484063836360E-002  -9.6354217691259625E-003   4.3855741759529041E-002
   3.1146401290468931E-002  -9.0161830873624858E-003   4.3675898205022295E-002
   2.9281318517101498E-002  -8.3907453762872078E-003   4.3669086025134043E-002
   2.7416235743734040E-002  -7.7591086359003469E-003   4.3835305219864354E-002
   3.0915606980909754E-002  -8.9571518282510754E-003   4.9166280233599924E-002
   2.9229951723279329E-002  -8.4003930605727750E-003   4.8864734004471999E-002
   2.7544296465648918E-002  -7.8346918968785484E-003   4.8749011432199563E-002
   2.5858641208018486E-002  -7.2600483371685551E-003   4.8819112516782670E-002
   2.4172985950388054E-002  -6.6764623814424828E-003   4.9075037258220822E-002
   3.7677170974746488E-002  -1.1007047399273162E-002   2.7836034496941497E-002
   3.5279972040425822E-002  -1.0242089226618512E-002   2.7213302124932226E-002
   3.2882773106105184E-002  -9.4967618265938691E-003   2.6738438022651856E-002
   3.0485574171784560E-002  -8.7710651991989297E-003   2.6411442190100609E-002
   2.8088375237463881E-002  -8.0649993444341650E-003   2.6232314627277598E-002
   3.4168328255913205E-002  -9.9244011448156311E-003   3.3215803839224678E-002
   3.1920908836425871E-002  -9.2027484587590691E-003   3.2667256529563093E-002
   2.9673489416938578E-002  -8.4939793159113097E-003   3.2270399979839159E-002
   2.7426069997451237E-002  -7.7980937162721517E-003   3.2025234190053181E-002
   2.5178650577963979E-002  -7.1150916598416991E-003   3.1931759160204964E-002
   3.0748016512242377E-002  -8.8417548903578780E-003   3.8548894080199098E-002
   2.8654199097797359E-002  -8.1634076908996822E-003   3.8081279062306433E-002
   2.6560381683352362E-002  -7.4911968052289724E-003   3.7769177294560363E-002
   2.4466564268907341E-002  -6.8251222333453737E-003   3.7612588776961026E-002
   2.2372746854462361E-002  -6.1651839752493443E-003   3.7611513509508671E-002
   2.7416235743734040E-002  -7.7591086359003469E-003   4.3835305219864354E-002
   2.5479842824540241E-002  -7.1240669230403231E-003   4.3455369723161948E-002
   2.3543449905346452E-002  -6.4884142945466350E-003   4.3234769966815176E-002
   2.1607056986152645E-002  -5.8521507504185957E-003   4.3173505950824108E-002
   1.9670664066958863E-002  -5.2152762906568784E-003   4.3271577675188647E-002
   2.4172985950388054E-002  -6.6764623814424828E-003   4.9075037258220822E-002
   2.2397840016654458E-002  -6.0847261551809084E-003   4.8789528512129976E-002
   2.0622694082920875E-002  -5.4856317838641311E-003   4.8667177996603805E-002
   1.8847548149187314E-002  -4.8791792674917761E-003   4.8707985711642171E-002
   1.7072402215453697E-002  -4.2653686060644125E-003   4.8911951657245045E-002
   2.8088375237463881E-002  -8.0649993444341650E-003   2.6232314627277598E-002
   2.5734204016622964E-002  -7.3399626644023996E-003   2.5650307053963206E-002
   2.3380032795781991E-002  -6.5573535612046818E-003   2.5015275639443890E-002
   2.1025861574941060E-002  -5.7171720348434540E-003   2.4327220383718706E-002
   1.8671690354100101E-002  -4.8194180853161628E-003   2.3586141286788376E-002
   2.5178650577963979E-002  -7.1150916598416991E-003   3.1931759160204964E-002
   2.2810330160673797E-002  -6.4313514939038918E-003   3.1528413260339561E-002
   2.0442009743383685E-002  -5.7332515657411154E-003   3.1149792808781523E-002
   1.8073689326093566E-002  -5.0207918753547021E-003   3.0795897805530270E-002
   1.5705368908803391E-002  -4.2939724227437637E-003   3.0466728250585828E-002
   2.2372746854462361E-002  -6.1651839752493443E-003   3.7611513509508671E-002
   2.0068026530235372E-002  -5.5227403234051620E-003   3.7343616622151743E-002
   1.7763306206008418E-002  -4.9091495702773269E-003   3.7178194472613862E-002
   1.5458585881781433E-002  -4.3244117158665052E-003   3.7115247060895501E-002
   1.3153865557554476E-002  -3.7685267601718642E-003   3.7154774386996714E-002
   1.9670664066958863E-002  -5.2152762906568784E-003   4.3271577675188647E-002
   1.7507293125307521E-002  -4.6141291529066542E-003   4.3095917139399087E-002
   1.5343922183656150E-002  -4.0850475748136494E-003   4.3100480630941226E-002
   1.3180551242004849E-002  -3.6280315563779197E-003   4.3285268149815322E-002
   1.1017180300353490E-002  -3.2430810975996593E-003   4.3650279696021393E-002
   1.7072402215453697E-002  -4.2653686060644125E-003   4.8911951657245045E-002
   1.5128129945890356E-002  -3.7055179824080353E-003   4.8785314812082259E-002
   1.3183857676326988E-002  -3.2609455793499997E-003   4.8916651283763712E-002
   1.1239585406763605E-002  -2.9316513968896188E-003   4.9305961072289323E-002
   9.2953131372002784E-003  -2.7176354350275655E-003   4.9953244177659117E-002
   1.8671690354100101E-002  -4.8194180853161628E-003   2.3586141286788376E-002
   1.5650303191740655E-002  -4.0834102074814860E-003   2.4379797858325003E-002
   1.2628916029381348E-002  -3.7284668961960477E-003   2.5645958808714731E-002
   9.6075288670219722E-003  -3.7545881514595564E-003   2.7384624137956726E-002
   6.5861417046625959E-003  -4.1617739732723313E-003   2.9595793846051710E-002
   1.5705368908803391E-002  -4.2939724227437637E-003   3.0466728250585828E-002
   1.3138287138274779E-002  -3.7787386618383101E-003   3.1247706073056825E-002
   1.0571205367746112E-002  -3.7010360465662973E-003   3.2464790300337054E-002
   8.0041235972174371E-003  -4.0608645769282109E-003   3.4117980932425546E-002
   5.4370418266888321E-003  -4.8582242529239261E-003   3.6207277969322993E-002
   1.3153865557554476E-002  -3.7685267601718642E-003   3.7154774386996714E-002
   1.1004691204812678E-002  -3.4740671161949677E-003   3.7866606881317599E-002
   8.8555168520708175E-003  -3.6736051969365746E-003   3.8978147806403129E-002
   6.7063424993289260E-003  -4.3671410023967613E-003   4.0489397162253554E-002
   4.5571681465871039E-003  -5.5546745325757985E-003   4.2400354948868818E-002
   1.1017180300353490E-002  -3.2430810975996593E-003   4.3650279696021393E-002
   9.2495153913544487E-003  -3.1693955705517640E-003   4.4236500283106786E-002
   7.4818504823554611E-003  -3.6461743473066160E-003   4.5186031326913421E-002
   5.7141855733564449E-003  -4.6734174278656969E-003   4.6498872827440904E-002
   3.9465206643573766E-003  -6.2511248122275320E-003   4.8175024784689192E-002
   9.2953131372002784E-003  -2.7176354350275655E-003   4.9953244177659117E-002
   7.8727596979001335E-003  -2.8647240249084494E-003   5.0357386278424898E-002
   6.4502062586000164E-003  -3.6187434976773791E-003   5.1088440861867923E-002
   5.0276528192999131E-003  -4.9796938533340912E-003   5.2146407927987692E-002
   3.6050993799997544E-003  -6.9475750918792656E-003   5.3531287476784151E-002
   6.5861417046625959E-003  -4.1617739732723313E-003   2.9595793846051710E-002
   6.0574467126418563E-003  -6.1441129572999964E-003   3.4073572889092407E-002
   5.5287517206211167E-003  -1.0895693699206704E-002   3.9236610879686940E-002
   5.0000567286003772E-003  -1.8416516198993670E-002   4.5084907817835335E-002
   4.4713617365795821E-003  -2.8706580456660191E-002   5.1618463703539952E-002
   5.4370418266888321E-003  -4.8582242529239261E-003   3.6207277969322993E-002
   5.4897770116770495E-003  -6.9923856177323551E-003   3.8347797444754472E-002
   5.5425121966653085E-003  -1.1362619214531244E-002   4.0965918326649697E-002
   5.5952473816535536E-003  -1.7968925043321524E-002   4.4061640615008973E-002
   5.6479825666417849E-003  -2.6811303104102624E-002   4.7634964309831274E-002
   4.5571681465871039E-003  -5.5546745325757985E-003   4.2400354948868818E-002
   4.9836759674935227E-003  -7.8406582781649914E-003   4.2736784382580689E-002
   5.4101837884000109E-003  -1.1829544729856020E-002   4.3343157681665204E-002
   5.8366916093064991E-003  -1.7521333887649492E-002   4.4219474846122826E-002
   6.2631994302129179E-003  -2.4916025751545057E-002   4.5365735875952939E-002
   3.9465206643573766E-003  -6.2511248122275320E-003   4.8175024784689192E-002
   4.5391435800913107E-003  -8.6889309385974889E-003   4.7240533702569865E-002
   5.1317664958252483E-003  -1.2296470245181011E-002   4.6368328944733000E-002
   5.7243894115591304E-003  -1.7073742731977738E-002   4.5558410511177490E-002
   6.3170123272931200E-003  -2.3020748398987601E-002   4.4810778401904922E-002
   3.6050993799997544E-003  -6.9475750918792656E-003   5.3531287476784151E-002
   4.1561798494703650E-003  -9.5372035990299864E-003   5.1859045404723081E-002
   4.7072603189409479E-003  -1.2763395760505503E-002   5.0041432115852658E-002
   5.2583407884115863E-003  -1.6626151576305467E-002   4.8078447610173380E-002
   5.8094212578821969E-003  -2.1125471046429922E-002   4.5970091887686859E-002
   4.9397354008882843E-002  -1.3831395649666789E-002   4.8080939615118501E-002
   4.7951303387702704E-002  -1.3850150433737357E-002   4.8201133755530978E-002
   4.6505252766522454E-002  -1.3729792361651727E-002   4.8392656761550967E-002
   4.5059202145342245E-002  -1.3470321433410037E-002   4.8655508633178551E-002
   4.3613151524162036E-002  -1.3071737649012150E-002   4.8989689370413703E-002
   4.3713399250303764E-002  -1.2260166600063571E-002   5.1525278756231363E-002
   4.2357872030107296E-002  -1.2212241924672462E-002   5.1572943377195340E-002
   4.1002344809910801E-002  -1.2060385574347965E-002   5.1730325934518928E-002
   3.9646817589714348E-002  -1.1804597549090218E-002   5.1997426428202390E-002
   3.8291290369517839E-002  -1.1444877848899082E-002   5.2374244858245794E-002
   3.7816198171355134E-002  -1.0688937550460326E-002   5.5053887947417529E-002
   3.6589583422894700E-002  -1.0574333415607470E-002   5.4993841867709864E-002
   3.5362968674434218E-002  -1.0390978787044147E-002   5.5081902795114268E-002
   3.4136353925973792E-002  -1.0138873664770315E-002   5.5318070729630867E-002
   3.2909739177513331E-002  -9.8180180487860147E-003   5.5702345671259548E-002
   3.1705750772037092E-002  -9.1177085008571079E-003   5.8666767188676680E-002
   3.0646437566064874E-002  -8.9364249065424992E-003   5.8463829227074701E-002
   2.9587124360092705E-002  -8.7215719997403574E-003   5.8447387343337140E-002
   2.8527811154120532E-002  -8.4731497804504258E-003   5.8617441537463913E-002
   2.7468497948148325E-002  -8.1911582486729473E-003   5.8973991809455159E-002
   2.5382057052349472E-002  -7.5464794512538624E-003   6.2363916480008996E-002
   2.4528434459617832E-002  -7.2985163974775280E-003   6.1982905455289894E-002
   2.3674811866886247E-002  -7.0521652124365536E-003   6.1826779579187446E-002
   2.2821189274154621E-002  -6.8074258961305749E-003   6.1895538851701723E-002
   2.1967566681423009E-002  -6.5642984485598244E-003   6.2189183272832682E-002
   4.3613151524162036E-002  -1.3071737649012150E-002   4.8989689370413703E-002
   4.2083289412767372E-002  -1.2597310892581121E-002   4.8830804764996905E-002
   4.0553427301372708E-002  -1.2110311048239938E-002   4.8820210395474767E-002
   3.9023565189978043E-002  -1.1610738115988183E-002   4.8957906261847331E-002
   3.7493703078583351E-002  -1.1098592095826143E-002   4.9243892364115027E-002
   3.8291290369517839E-002  -1.1444877848899082E-002   5.2374244858245794E-002
   3.6917601158705030E-002  -1.1027584949961200E-002   5.2175446785390878E-002
   3.5543911947892151E-002  -1.0599077328462797E-002   5.2140704277804775E-002
   3.4170222737079294E-002  -1.0159354984403783E-002   5.2270017335487549E-002
   3.2796533526266464E-002  -9.7084179177844843E-003   5.2563385958439124E-002
   3.2909739177513331E-002  -9.8180180487860147E-003   5.5702345671259548E-002
   3.1707988196656288E-002  -9.4578590073412100E-003   5.5462275765616950E-002
   3.0506237215799259E-002  -9.0878436086857181E-003   5.5402026754616980E-002
   2.9304486234942209E-002  -8.7079718528196622E-003   5.5521598638259950E-002
   2.8102735254085187E-002  -8.3182437397429643E-003   5.5820991416545881E-002
   2.7468497948148325E-002  -8.1911582486729473E-003   5.8973991809455159E-002
   2.6454450526621202E-002  -7.8881330647211714E-003   5.8691291705674782E-002
   2.5440403105094021E-002  -7.5766098889086080E-003   5.8604177825911243E-002
   2.4426355683566856E-002  -7.2565887212354017E-003   5.8712650170164679E-002
   2.3412308262039716E-002  -6.9280695617012916E-003   5.9016708738434898E-002
   2.1967566681423009E-002  -6.5642984485598244E-003   6.2189183272832682E-002
   2.1156988148599731E-002  -6.3184071221012994E-003   6.1862494605564811E-002
   2.0346409615776447E-002  -6.0653761691315533E-003   6.1747157491687771E-002
   1.9535831082953172E-002  -5.8052055896513771E-003   6.1843171931201646E-002
   1.8725252550129898E-002  -5.5378953836597855E-003   6.2150537924106408E-002
   3.7493703078583351E-002  -1.1098592095826143E-002   4.9243892364115027E-002
   3.5849179054164931E-002  -1.0575927656014894E-002   4.8940773234286750E-002
   3.4204655029746567E-002  -1.0044799464815082E-002   4.8826798169258112E-002
   3.2560131005328161E-002  -9.5052075222272527E-003   4.8901967169029184E-002
   3.0915606980909754E-002  -8.9571518282510754E-003   4.9166280233599924E-002
   3.2796533526266464E-002  -9.7084179177844843E-003   5.2563385958439124E-002
   3.1343418266258874E-002  -9.2476207001305211E-003   5.2274387473806472E-002
   2.9890303006251284E-002  -8.7783179029673891E-003   5.2179062453195924E-002
   2.8437187746243743E-002  -8.3005095262955013E-003   5.2277410896607285E-002
   2.6984072486236133E-002  -7.8141955701142574E-003   5.2569432804040639E-002
   2.8102735254085187E-002  -8.3182437397429643E-003   5.5820991416545881E-002
   2.6845558157710857E-002  -7.9193137442460926E-003   5.5546155405229461E-002
   2.5588381061336513E-002  -7.5118363411195779E-003   5.5469522257157268E-002
   2.4331203964962168E-002  -7.0958115303634151E-003   5.5591091972329781E-002
   2.3074026868587831E-002  -6.6712393119774949E-003   5.5910864550746536E-002
   2.3412308262039716E-002  -6.9280695617012916E-003   5.9016708738434898E-002
   2.2355598728520942E-002  -6.5910067883617751E-003   5.8756077028555329E-002
   2.1298889195002217E-002  -6.2453547792718257E-003   5.8698177581142638E-002
   2.0242179661483513E-002  -5.8911135344314408E-003   5.8843010396196750E-002
   1.9185470127964718E-002  -5.5282830538407046E-003   5.9190575473717706E-002
   1.8725252550129898E-002  -5.5378953836597855E-003   6.2150537924106408E-002
   1.7873539978689151E-002  -5.2626998324772911E-003   6.1904152343784491E-002
   1.7021827407248412E-002  -4.9788732174239486E-003   6.1865028425151680E-002
   1.6170114835807683E-002  -4.6864155384996019E-003   6.2033166168208184E-002
   1.5318402264366926E-002  -4.3853267957038589E-003   6.2408565572953767E-002
   3.0915606980909754E-002  -8.9571518282510754E-003   4.9166280233599924E-002
   2.9229951723279329E-002  -8.4003930605727750E-003   4.8864734004471999E-002
   2.7544296465648918E-002  -7.8346918968785484E-003   4.8749011432199563E-002
   2.5858641208018486E-002  -7.2600483371685551E-003   4.8819112516782670E-002
   2.4172985950388054E-002  -6.6764623814424828E-003   4.9075037258220822E-002
   2.6984072486236133E-002  -7.8141955701142574E-003   5.2569432804040639E-002
   2.5487672340588519E-002  -7.3193287524618289E-003   5.2301578176790542E-002
   2.3991272194940946E-002  -6.8158617913756658E-003   5.2226410116650385E-002
   2.2494872049293346E-002  -6.3037946868556433E-003   5.2343928623620459E-002
   2.0998471903645788E-002  -5.7831274389020249E-003   5.2654133697701000E-002
   2.3074026868587831E-002  -6.6712393119774949E-003   5.5910864550746536E-002
   2.1773744745177945E-002  -6.2382644443509661E-003   5.5676359272791631E-002
   2.0473462621768027E-002  -5.7970316858727416E-003   5.5641403472201922E-002
   1.9173180498358110E-002  -5.3475410365430125E-003   5.5805997148977347E-002
   1.7872898374948216E-002  -4.8897924963615114E-003   5.6170140303117899E-002
   1.9185470127964718E-002  -5.5282830538407046E-003   5.9190575473717706E-002
   1.8088168937047438E-002  -5.1572001362400061E-003   5.8989077292476030E-002
   1.6990867746130133E-002  -4.7782015803698938E-003   5.8993991498854537E-002
   1.5893566555212835E-002  -4.3912873862301856E-003   5.9205318092852906E-002
   1.4796265364295543E-002  -3.9964575538209701E-003   5.9623057074471505E-002
   1.5318402264366926E-002  -4.3853267957038589E-003   6.2408565572953767E-002
   1.4430944916197105E-002  -4.0761358281292126E-003   6.2239732235843503E-002
   1.3543487568027285E-002  -3.7593714748668378E-003   6.2284174196608005E-002
   1.2656030219857450E-002  -3.4350337359175011E-003   6.2541891455247509E-002
   1.1768572871687616E-002  -3.1031226112804289E-003   6.3012884011761749E-002
   2.4172985950388054E-002  -6.6764623814424828E-003   4.9075037258220822E-002
   2.2397840016654458E-002  -6.0847261551809084E-003   4.8789528512129976E-002
   2.0622694082920875E-002  -5.4856317838641311E-003   4.8667177996603805E-002
   1.8847548149187314E-002  -4.8791792674917761E-003   4.8707985711642171E-002
   1.7072402215453697E-002  -4.2653686060644125E-003   4.8911951657245045E-002
   2.0998471903645788E-002  -5.7831274389020249E-003   5.2654133697701000E-002
   1.9396054475659077E-002  -5.2575210275646600E-003   5.2431453909031756E-002
   1.7793637047672395E-002  -4.7306364328932732E-003   5.2391072901291663E-002
   1.6191219619685733E-002  -4.2024736548880968E-003   5.2532990674480626E-002
   1.4588802191699030E-002  -3.6730326935491275E-003   5.2857207228598824E-002
   1.7872898374948216E-002  -4.8897924963615114E-003   5.6170140303117899E-002
   1.6462350003072987E-002  -4.4303158999480508E-003   5.6004209510148797E-002
   1.5051801631197698E-002  -3.9756410819223043E-003   5.6039718048473380E-002
   1.3641253259322429E-002  -3.5257680422840845E-003   5.6276665918091454E-002
   1.2230704887447180E-002  -3.0806967810336761E-003   5.6715053119003267E-002
   1.4796265364295543E-002  -3.9964575538209701E-003   5.9623057074471505E-002
   1.3596726598896148E-002  -3.6031107723317329E-003   5.9507795315481088E-002
   1.2397187833496821E-002  -3.2206457309511688E-003   5.9613113438148561E-002
   1.1197649068097504E-002  -2.8490624296802387E-003   5.9939011442474585E-002
   9.9981103026981280E-003  -2.4883608685183078E-003   6.0485489328458493E-002
   1.1768572871687616E-002  -3.1031226112804289E-003   6.3012884011761749E-002
   1.0799184263128675E-002  -2.7759056447151376E-003   6.2942211325028530E-002
   9.8297956545697479E-003  -2.4656503799804497E-003   6.3111259070317727E-002
   8.8604070460108139E-003  -2.1723568170763860E-003   6.3520027247629618E-002
   7.8910184374518799E-003  -1.8960249560030507E-003   6.4168515856964148E-002
   1.7072402215453697E-002  -4.2653686060644125E-003   4.8911951657245045E-002
   1.5128129945890356E-002  -3.7055179824080353E-003   4.8785314812082259E-002
   1.3183857676326988E-002  -3.2609455793499997E-003   4.8916651283763712E-002
   1.1239585406763605E-002  -2.9316513968896188E-003   4.9305961072289323E-002
   9.2953131372002784E-003  -2.7176354350275655E-003   4.9953244177659117E-002
   1.4588802191699030E-002  -3.6730326935491275E-003   5.2857207228598824E-002
   1.2901232579537431E-002  -3.2000504276074038E-003   5.2740065546133474E-002
   1.1213662967375804E-002  -2.8412637357932702E-003   5.2878355861627202E-002
   9.5260933552142116E-003  -2.5966726181078578E-003   5.3272078175080451E-002
   7.8385237430525778E-003  -2.4662770745504936E-003   5.3921232486492610E-002
   1.2230704887447180E-002  -3.0806967810336761E-003   5.6715053119003267E-002
   1.0797296613802430E-002  -2.6945828728061616E-003   5.6608489245705135E-002
   9.3638883401576875E-003  -2.4215818922369708E-003   5.6754816051481069E-002
   7.9304800665129481E-003  -2.2616938393259824E-003   5.7154033536331493E-002
   6.4970717928682226E-003  -2.2149187140731996E-003   5.7806141700256497E-002
   9.9981103026981280E-003  -2.4883608685183078E-003   6.0485489328458493E-002
   8.8163220486853662E-003  -2.1891153180051692E-003   6.0390585910797163E-002
   7.6345337946726339E-003  -2.0019000486806229E-003   6.0546031853325383E-002
   6.4527455406599007E-003  -1.9267150605439421E-003   6.0951827156043151E-002
   5.2709572866471398E-003  -1.9635603535959611E-003   6.1607971818950530E-002
   7.8910184374518799E-003  -1.8960249560030507E-003   6.4168515856964148E-002
   6.9583088841862484E-003  -1.6836477632042879E-003   6.4086355541409845E-002
   6.0255993309206307E-003  -1.5822182051239420E-003   6.4252003267160296E-002
   5.0928897776549992E-003  -1.5917362817623459E-003   6.4665459034215333E-002
   4.1601802243893815E-003  -1.7122019931188337E-003   6.5326722842575013E-002
   9.2953131372002784E-003  -2.7176354350275655E-003   4.9953244177659117E-002
   7.8727596979001335E-003  -2.8647240249084494E-003   5.0357386278424898E-002
   6.4502062586000164E-003  -3.6187434976773791E-003   5.1088440861867923E-002
   5.0276528192999131E-003  -4.9796938533340912E-003   5.2146407927987692E-002
   3.6050993799997544E-003  -6.9475750918792656E-003   5.3531287476784151E-002
   7.8385237430525778E-003  -2.4662770745504936E-003   5.3921232486492610E-002
   6.7169056653563347E-003  -2.6496491271689737E-003   5.3854599659592772E-002
   5.5952875876600777E-003  -3.3463607980114829E-003   5.4062925073223800E-002
   4.4736695099638207E-003  -4.5564120870776742E-003   5.4546208727385775E-002
   3.3520514322675776E-003  -6.2798029943678113E-003   5.5304450622078338E-002
   6.4970717928682226E-003  -2.2149187140731996E-003   5.7806141700256497E-002
   5.6244348346296963E-003  -2.4345742294294981E-003   5.7362325210355170E-002
   4.7517978763912117E-003  -3.0739780983454479E-003   5.7141512718838522E-002
   3.8791609181527235E-003  -4.1331303208212503E-003   5.7143704225706610E-002
   3.0065239599142007E-003  -5.6120308968565791E-003   5.7368899730959100E-002
   5.2709572866471398E-003  -1.9635603535959611E-003   6.1607971818950530E-002
   4.5953472057202426E-003  -2.2194993316899669E-003   6.0880562930711826E-002
   3.9197371247933765E-003  -2.8015953986797043E-003   6.0324203798711638E-002
   3.2441270438664819E-003  -3.7098485545646077E-003   5.9938894422949807E-002
   2.5685169629396133E-003  -4.9442587993452358E-003   5.9724634803426921E-002
   4.1601802243893815E-003  -1.7122019931188337E-003   6.5326722842575013E-002
   3.6296427786279978E-003  -2.0044244339504913E-003   6.4409312820662978E-002
   3.0991053328666140E-003  -2.5292126990137664E-003   6.3610998312843503E-002
   2.5685678871052303E-003  -3.2865667883083052E-003   6.2931779319116282E-002
   2.0380304413438466E-003  -4.2764867018340036E-003   6.2371655839481455E-002
   3.6050993799997544E-003  -6.9475750918792656E-003   5.3531287476784151E-002
   4.1561798494703650E-003  -9.5372035990299864E-003   5.1859045404723081E-002
   4.7072603189409479E-003  -1.2763395760505503E-002   5.0041432115852658E-002
   5.2583407884115863E-003  -1.6626151576305467E-002   4.8078447610173380E-002
   5.8094212578821969E-003  -2.1125471046429922E-002   4.5970091887686859E-002
   3.3520514322675776E-003  -6.2798029943678113E-003   5.5304450622078338E-002
   3.7752580648077461E-003  -8.5476716122694363E-003   5.2951136676612442E-002
   4.1984646973479423E-003  -1.1391156033169203E-002   5.0487446274094960E-002
   4.6216713298880829E-003  -1.4810256257068499E-002   4.7913379414524476E-002
   5.0448779624283069E-003  -1.8804972283966048E-002   4.5228936097902350E-002
   3.0065239599142007E-003  -5.6120308968565791E-003   5.7368899730959100E-002
   3.3368515152805561E-003  -7.5581396255082200E-003   5.4395461763414366E-002
   3.6671790706469323E-003  -1.0018916305833375E-002   5.1346642098574258E-002
   3.9975066260133363E-003  -1.2994360937831205E-002   4.8222440736438790E-002
   4.3278341813796917E-003  -1.6484473521502618E-002   4.5022857677007422E-002
   2.5685169629396133E-003  -4.9442587993452358E-003   5.9724634803426921E-002
   2.8409602008887501E-003  -6.5686076387470038E-003   5.6192020665129017E-002
   3.1134034388379164E-003  -8.6466765784972005E-003   5.2619019589292278E-002
   3.3858466767870202E-003  -1.1178465618594296E-002   4.9005631575916822E-002
   3.6582899147362194E-003  -1.4163974759038855E-002   4.5351856625002573E-002
   2.0380304413438466E-003  -4.2764867018340036E-003   6.2371655839481455E-002
   2.2875841216323939E-003  -5.5790756519861207E-003   5.8340813381756007E-002
   2.5371378019209273E-003  -7.2744368511610535E-003   5.4304578746248333E-002
   2.7866914822094538E-003  -9.3625702993568941E-003   5.0262951932958017E-002
   3.0362451624980080E-003  -1.1843475996575314E-002   4.6215932941885640E-002
   2.5382057052349472E-002  -7.5464794512538624E-003   6.2363916480008996E-002
   2.4528434459617832E-002  -7.2985163974775280E-003   6.1982905455289894E-002
   2.3674811866886247E-002  -7.0521652124365536E-003   6.1826779579187446E-002
   2.2821189274154621E-002  -6.8074258961305749E-003   6.1895538851701723E-002
   2.1967566681423009E-002  -6.5642984485598244E-003   6.2189183272832682E-002
   1.8972940826496962E-002  -5.6598595713308608E-003   6.3344171992089193E-002
   1.8341333507279678E-002  -5.4738872853504206E-003   6.3001282015633597E-002
   1.7709726188062387E-002  -5.2891238999822066E-003   6.2877537437590142E-002
   1.7078118868845086E-002  -5.1055694152261633E-003   6.2972938257958522E-002
   1.6446511549627785E-002  -4.9232238310822907E-003   6.3287484476738876E-002
   1.2606225908684134E-002  -3.7732396914078314E-003   6.4262235252312047E-002
   1.2190894112776421E-002  -3.6492581732232299E-003   6.3957869292243175E-002
   1.1775562316868694E-002  -3.5260825875278942E-003   6.3866908980381443E-002
   1.1360230520960961E-002  -3.4037129343217811E-003   6.3989354316726962E-002
   1.0944898725053252E-002  -3.2821492136047847E-003   6.4325205301279637E-002
   6.2819122989109695E-003  -1.8866198114848159E-003   6.5118106260677405E-002
   6.0771162761080709E-003  -1.8246290610960947E-003   6.4852667285118223E-002
   5.8723202533051671E-003  -1.7630412750735923E-003   6.4794894207561377E-002
   5.6675242305022676E-003  -1.7018564534173287E-003   6.4944787028006989E-002
   5.4627282076993655E-003  -1.6410745961272094E-003   6.5302345746455007E-002
  -2.8225199955045355E-012   6.8438199551934531E-011   6.5911785017185587E-002
  -2.7253546641681226E-012   5.1031068259987933E-011   6.5685675994259007E-002
  -2.6281789244908538E-012   3.7380723516555747E-011   6.5661493119129971E-002
  -2.5310049195370610E-012   2.7487002257631232E-011   6.5839236391798686E-002
  -2.4338343840302201E-012   2.1350254897356535E-011   6.6218905812265028E-002
   2.1967566681423009E-002  -6.5642984485598244E-003   6.2189183272832682E-002
   2.1156988148599731E-002  -6.3184071221012994E-003   6.1862494605564811E-002
   2.0346409615776447E-002  -6.0653761691315533E-003   6.1747157491687771E-002
   1.9535831082953172E-002  -5.8052055896513771E-003   6.1843171931201646E-002
   1.8725252550129898E-002  -5.5378953836597855E-003   6.2150537924106408E-002
   1.6446511549627785E-002  -4.9232238310822907E-003   6.3287484476738876E-002
   1.5845107840238640E-002  -4.7388053373106503E-003   6.2984308559924138E-002
   1.5243704130849502E-002  -4.5490321236713455E-003   6.2888130736586723E-002
   1.4642300421460357E-002  -4.3539041901643309E-003   6.2998951006726769E-002
   1.4040896712071205E-002  -4.1534215367895477E-003   6.3316769370344195E-002
   1.0944898725053252E-002  -3.2821492136047847E-003   6.4325205301279637E-002
   1.0548316379184700E-002  -3.1592035525201401E-003   6.4043757228274947E-002
   1.0151734033316149E-002  -3.0326880782110266E-003   6.3964953788834031E-002
   9.7551516874476059E-003  -2.9026027906774512E-003   6.4088794982956998E-002
   9.3585693415790504E-003  -2.7689476899194210E-003   6.4415280810643724E-002
   5.4627282076993655E-003  -1.6410745961272094E-003   6.5302345746455007E-002
   5.2666137654378761E-003  -1.5796017677295882E-003   6.5040840610617046E-002
   5.0704993231763980E-003  -1.5163440327508187E-003   6.4977626648429432E-002
   4.8743848809149155E-003  -1.4513013911904883E-003   6.5112703859892040E-002
   4.6782704386534304E-003  -1.3844738430491832E-003   6.5446072245005066E-002
  -2.4338343840302201E-012   2.1350254897356535E-011   6.6218905812265028E-002
  -1.0017958684827022E-012   1.7060991508444090E-011   6.5975558706950599E-002
   4.3024091234133977E-013   1.2709500119001405E-011   6.5926149315372967E-002
   1.8622785605271197E-012   8.2962248182383291E-012   6.6070677637532105E-002
   3.2943162087128997E-012   3.8208880503987075E-012   6.6409143673427873E-002
   1.8725252550129898E-002  -5.5378953836597855E-003   6.2150537924106408E-002
   1.7873539978689151E-002  -5.2626998324772911E-003   6.1904152343784491E-002
   1.7021827407248412E-002  -4.9788732174239486E-003   6.1865028425151680E-002
   1.6170114835807683E-002  -4.6864155384996019E-003   6.2033166168208184E-002
   1.5318402264366926E-002  -4.3853267957038589E-003   6.2408565572953767E-002
   1.4040896712071205E-002  -4.1534215367895477E-003   6.3316769370344195E-002
   1.3397862422640509E-002  -3.9470248743939673E-003   6.3081381058932184E-002
   1.2754828133209814E-002  -3.7341549138240754E-003   6.3056087649851211E-002
   1.2111793843779112E-002  -3.5148116550799587E-003   6.3240889143101081E-002
   1.1468759554348409E-002  -3.2889950981617733E-003   6.3635785538681711E-002
   9.3585693415790504E-003  -2.7689476899194210E-003   6.4415280810643724E-002
   8.9270465748000905E-003  -2.6313499163105325E-003   6.4188732002444834E-002
   8.4955238080211219E-003  -2.4894366102242091E-003   6.4175111337218677E-002
   8.0640010412421706E-003  -2.3432077716606502E-003   6.4374418814965001E-002
   7.6324782744631933E-003  -2.1926634006197154E-003   6.4786654435684002E-002
   4.6782704386534304E-003  -1.3844738430491832E-003   6.5446072245005066E-002
   4.4610924351678963E-003  -1.3156749582271532E-003   6.5226205174322358E-002
   4.2439144316823562E-003  -1.2447183066243671E-003   6.5222099487254132E-002
   4.0267364281968273E-003  -1.1716038882412854E-003   6.5433755183800166E-002
   3.8095584247112898E-003  -1.0963317030776437E-003   6.5861172263960391E-002
   3.2943162087128997E-012   3.8208880503987075E-012   6.6409143673427873E-002
   3.7439114308757127E-012  -1.4374612611334214E-013   6.6193800574564698E-002
   4.1935031835915737E-012  -3.0244695636838514E-012   6.6197052099957548E-002
   4.6430966710309107E-012  -4.8218928849763643E-012   6.6418898249606395E-002
   5.0926901584702478E-012  -5.5355164896297993E-012   6.6859339023511211E-002
   1.5318402264366926E-002  -4.3853267957038589E-003   6.2408565572953767E-002
   1.4430944916197105E-002  -4.0761358281292126E-003   6.2239732235843503E-002
   1.3543487568027285E-002  -3.7593714748668378E-003   6.2284174196608005E-002
   1.2656030219857450E-002  -3.4350337359175011E-003   6.2541891455247509E-002
   1.1768572871687616E-002  -3.1031226112804289E-003   6.3012884011761749E-002
   1.1468759554348409E-002  -3.2889950981617733E-003   6.3635785538681711E-002
   1.0796724763760548E-002  -3.0571018724639132E-003   6.3489087603948141E-002
   1.0124689973172694E-002  -2.8195286073802034E-003   6.3559959486503642E-002
   9.4526551825848300E-003  -2.5762753029113204E-003   6.3848401186348144E-002
   8.7806203919969794E-003  -2.3273419590567057E-003   6.4354412703481689E-002
   7.6324782744631933E-003  -2.1926634006197154E-003   6.4786654435684002E-002
   7.1801605608713959E-003  -2.0380679167984195E-003   6.4660198557025331E-002
   6.7278428472795984E-003  -1.8796857398934511E-003   6.4755607015069605E-002
   6.2755251336878010E-003  -1.7175168699049715E-003   6.5072879809817227E-002
   5.8232074200960035E-003  -1.5515613068328160E-003   6.5612016941267753E-002
   3.8095584247112898E-003  -1.0963317030776437E-003   6.5861172263960391E-002
   3.5812523075296416E-003  -1.0190339611329674E-003   6.5753065095074614E-002
   3.3529461903479985E-003  -9.3984287240675771E-004   6.5871116782306213E-002
   3.1246400731663460E-003  -8.5875843689865120E-004   6.6215327325654785E-002
   2.8963339559847073E-003  -7.7578065460917611E-004   6.6785696725120802E-002
   5.0926901584702478E-012  -5.5355164896297993E-012   6.6859339023511211E-002
   3.7352829163062040E-012  -5.4675708405227397E-012   6.6767687218096394E-002
   2.3778860824830161E-012  -4.9200227225654203E-012   6.6906488788213120E-002
   1.0204823097659244E-012  -3.8924870271461742E-012   6.7275743733860902E-002
  -3.3691799350421547E-013  -2.3852031461046863E-012   6.7875452055040197E-002
   1.1768572871687616E-002  -3.1031226112804289E-003   6.3012884011761749E-002
   1.0799184263128675E-002  -2.7759056447151376E-003   6.2942211325028530E-002
   9.8297956545697479E-003  -2.4656503799804497E-003   6.3111259070317727E-002
   8.8604070460108139E-003  -2.1723568170763860E-003   6.3520027247629618E-002
   7.8910184374518799E-003  -1.8960249560030507E-003   6.4168515856964148E-002
   8.7806203919969794E-003  -2.3273419590567057E-003   6.4354412703481689E-002
   8.0516088954816420E-003  -2.0819292337572737E-003   6.4300094715395328E-002
   7.3225973989663323E-003  -1.8492377849542441E-003   6.4486810519373827E-002
   6.5935859024510053E-003  -1.6292676126470826E-003   6.4914560115416839E-002
   5.8645744059356852E-003  -1.4220187168362264E-003   6.5583343503524461E-002
   5.8232074200960035E-003  -1.5515613068328160E-003   6.5612016941267753E-002
   5.3358863956662062E-003  -1.3879528227997706E-003   6.5578294077163535E-002
   4.8485653712364261E-003  -1.2328251899281634E-003   6.5786918365165717E-002
   4.3612443468066513E-003  -1.0861784082181157E-003   6.6237889805274452E-002
   3.8739233223768627E-003  -9.4801247766945762E-004   6.6931208397489783E-002
   2.8963339559847073E-003  -7.7578065460917611E-004   6.6785696725120802E-002
   2.6520167636823726E-003  -6.9397641184214265E-004   6.6776809410332899E-002
   2.4076995713800320E-003  -6.1641259490207573E-004   6.7011582607693354E-002
   2.1633823790776978E-003  -5.4308920378881402E-004   6.7490016317202348E-002
   1.9190651867753566E-003  -4.7400623850266110E-004   6.8212110538859450E-002
  -3.3691799350421547E-013  -2.3852031461046863E-012   6.7875452055040197E-002
  -4.6988107849088578E-013  -8.8445917256763096E-013   6.7895640714903172E-002
  -6.0284763292450805E-013   1.2409517857747687E-013   6.8160803246956891E-002
  -7.3582112625203422E-013   6.4014765710496135E-013   6.8670939651200608E-002
  -8.6877727234480062E-013   6.6413541333076864E-013   6.9426049927634792E-002
   7.8910184374518799E-003  -1.8960249560030507E-003   6.4168515856964148E-002
   6.9583088841862484E-003  -1.6836477632042879E-003   6.4086355541409845E-002
   6.0255993309206307E-003  -1.5822182051239420E-003   6.4252003267160296E-002
   5.0928897776549992E-003  -1.5917362817623459E-003   6.4665459034215333E-002
   4.1601802243893815E-003  -1.7122019931188337E-003   6.5326722842575013E-002
   5.8645744059356852E-003  -1.4220187168362264E-003   6.5583343503524461E-002
   5.1760152307400165E-003  -1.2627358222868090E-003   6.5436239292319842E-002
   4.4874560555443407E-003  -1.1866636537648523E-003   6.5529627795950562E-002
   3.7988968803486789E-003  -1.1938022112696900E-003   6.5863509014416566E-002
   3.1103377051529962E-003  -1.2841514948018773E-003   6.6437882947717852E-002
   3.8739233223768627E-003  -9.4801247766945762E-004   6.6931208397489783E-002
   3.4221991987816655E-003  -8.4182388136955222E-004   6.6746897199326249E-002
   2.9704750751864718E-003  -7.9110910240554055E-004   6.6795763389528584E-002
   2.5187509515912816E-003  -7.9586814077725609E-004   6.7077806968096745E-002
   2.0670268279960810E-003  -8.5610099648469884E-004   6.7593027935030386E-002
   1.9190651867753566E-003  -4.7400623850266110E-004   6.8212110538859450E-002
   1.6968607883111868E-003  -4.2091194045196234E-004   6.8018329262428776E-002
   1.4746563898470092E-003  -3.9555455104611781E-004   6.8050410047894055E-002
   1.2524519913828212E-003  -3.9793407028460015E-004   6.8308352895255456E-002
   1.0302475929186480E-003  -4.2805049816763141E-004   6.8792157804513504E-002
  -8.6877727234480062E-013   6.6413541333076864E-013   6.9426049927634792E-002
  -6.7141431303596733E-013   4.6523895846917185E-013   6.9250535481627629E-002
  -4.7405135372713403E-013   3.1288860391498474E-013   6.9293567771047282E-002
  -2.7669359858872866E-013   2.0806273370865824E-013   6.9555146795893585E-002
  -7.9325435109467435E-014   1.4943601911454607E-013   7.0035272556166817E-002
   4.1601802243893815E-003  -1.7122019931188337E-003   6.5326722842575013E-002
   3.6296427786279978E-003  -2.0044244339504913E-003   6.4409312820662978E-002
   3.0991053328666140E-003  -2.5292126990137664E-003   6.3610998312843503E-002
   2.5685678871052303E-003  -3.2865667883083052E-003   6.2931779319116282E-002
   2.0380304413438466E-003  -4.2764867018340036E-003   6.2371655839481455E-002
   3.1103377051529962E-003  -1.2841514948018773E-003   6.6437882947717852E-002
   2.7022804853213955E-003  -1.5033183254340998E-003   6.5326894183519946E-002
   2.2942232654897601E-003  -1.8969095242399592E-003   6.4341770357089351E-002
   1.8861660456581317E-003  -2.4649250912192402E-003   6.3482511468426026E-002
   1.4781088258265240E-003  -3.2073650263715336E-003   6.2749117517529318E-002
   2.0670268279960810E-003  -8.5610099648469884E-004   6.7593027935030386E-002
   1.7882192577688555E-003  -1.0022122169178471E-003   6.6346601884605200E-002
   1.5094116875416508E-003  -1.2646063494662491E-003   6.5232810195621702E-002
   1.2306041173144391E-003  -1.6432833941301718E-003   6.4251652868079934E-002
   9.5179654708722056E-004  -2.1382433509094523E-003   6.3403129901979854E-002
   1.0302475929186480E-003  -4.2805049816763141E-004   6.8792157804513504E-002
   8.8745909597047652E-004  -5.0110610840141401E-004   6.7468435923918740E-002
   7.4467059902230508E-004  -6.3230317469293446E-004   6.6284117828440264E-002
   6.0188210207412669E-004  -8.2164169704110508E-004   6.5239203518078465E-002
   4.5909360512596219E-004  -1.0691216754469546E-003   6.4333692992832509E-002
  -7.9325435109467435E-014   1.4943601911454607E-013   7.0035272556166817E-002
  -7.3802075561957281E-014   1.1479706074624119E-013   6.8692396301460623E-002
  -6.8289124355302988E-014   8.1018525222020799E-014   6.7495693255545275E-002
  -6.2772703701696742E-014   4.7566117711284051E-014   6.6445163418421022E-002
  -5.7252813601138541E-014   1.4988010832439613E-014   6.5540806790087891E-002
   2.0380304413438466E-003  -4.2764867018340036E-003   6.2371655839481455E-002
   2.2875841216323939E-003  -5.5790756519861207E-003   5.8340813381756007E-002
   2.5371378019209273E-003  -7.2744368511610535E-003   5.4304578746248333E-002
   2.7866914822094538E-003  -9.3625702993568941E-003   5.0262951932958017E-002
   3.0362451624980080E-003  -1.1843475996575314E-002   4.6215932941885640E-002
   1.4781088258265240E-003  -3.2073650263715336E-003   6.2749117517529318E-002
   1.7080212677617890E-003  -4.1843067389930599E-003   5.8393959618118052E-002
   1.9379337096970400E-003  -5.4558276383786797E-003   5.4004911419782420E-002
   2.1678461516322980E-003  -7.0219277245289688E-003   4.9581972922522394E-002
   2.3977585935675838E-003  -8.8826069974432542E-003   4.5125144126338501E-002
   9.5179654708722056E-004  -2.1382433509094523E-003   6.3403129901979854E-002
   1.1335696295273132E-003  -2.7895378259994996E-003   5.8821849623140049E-002
   1.3153427119674162E-003  -3.6372184255967360E-003   5.4178180924234057E-002
   1.4971157944075070E-003  -4.6812851497006515E-003   4.9472123805261885E-002
   1.6788888768476257E-003  -5.9217379983114160E-003   4.4703678266223568E-002
   4.5909360512596219E-004  -1.0691216754469546E-003   6.4333692992832509E-002
   5.6422920692899073E-004  -1.3947689130061891E-003   5.9624483396821672E-002
   6.6936480873201146E-004  -1.8186092128145773E-003   5.4824387259602980E-002
   7.7450041053501529E-004  -2.3406425748723082E-003   4.9933404581175969E-002
   8.7963601233806074E-004  -2.9608689991794668E-003   4.4951535361540895E-002
  -5.7252813601138541E-014   1.4988010832439613E-014   6.5540806790087891E-002
  -3.3195668436292181E-014  -1.2767564783189300E-014   6.0801860939163399E-002
  -9.1454621653497270E-015  -3.2168712138513911E-014   5.5943530425888899E-002
   1.4908213552544680E-014  -4.4179937486177323E-014   5.0965815250264918E-002
   3.8954950376535180E-014  -4.7517545453956700E-014   4.5868715412290761E-002
  -2.8225199955045355E-012   6.8438199551934531E-011   6.5911785017185587E-002
  -2.7253546641681226E-012   5.1031068259987933E-011   6.5685675994259007E-002
  -2.6281789244908538E-012   3.7380723516555747E-011   6.5661493119129971E-002
  -2.5310049195370610E-012   2.7487002257631232E-011   6.5839236391798686E-002
  -2.4338343840302201E-012   2.1350254897356535E-011   6.6218905812265028E-002
  -6.2819123027815713E-003   1.8866198852360849E-003   6.5118106235117851E-002
  -6.0771162802127215E-003   1.8246291205670229E-003   6.4852667267730757E-002
  -5.8723202576438545E-003   1.7630413228545416E-003   6.4794894197489669E-002
  -5.6675242350749926E-003   1.7018564920984955E-003   6.4944787024394102E-002
  -5.4627282125061308E-003   1.6410746282988775E-003   6.5302345748444290E-002
  -1.2606225907231462E-002   3.7732397020339981E-003   6.4262235224188044E-002
  -1.2190894112842911E-002   3.6492581901031024E-003   6.3957869275540674E-002
  -1.1775562318454374E-002   3.5260826083284083E-003   6.3866908973387038E-002
  -1.1360230524065835E-002   3.4037129567098760E-003   6.3989354317726968E-002
  -1.0944898729677289E-002   3.2821492352475001E-003   6.4325205308560729E-002
  -1.8972940816172127E-002   5.6598595188319251E-003   6.3344171984396735E-002
  -1.8341333500615918E-002   5.4738872596391333E-003   6.3001282017688592E-002
  -1.7709726185059720E-002   5.2891238938023340E-003   6.2877537446822049E-002
  -1.7078118869503511E-002   5.1055694213212851E-003   6.2972938271797257E-002
  -1.6446511553947309E-002   4.9232238421961505E-003   6.3287484492614010E-002
  -2.5382057029603639E-002   7.5464793356297966E-003   6.2363916515743689E-002
  -2.4528434443531782E-002   7.2985163291751642E-003   6.1982905494174401E-002
  -2.3674811857459906E-002   7.0521651792761486E-003   6.1826779617794814E-002
  -2.2821189271388057E-002   6.8074258859326525E-003   6.1895538886604873E-002
  -2.1967566685316187E-002   6.5642984491446899E-003   6.2189183300604578E-002
  -2.4338343840302201E-012   2.1350254897356535E-011   6.6218905812265028E-002
  -1.0017958684827022E-012   1.7060991508444090E-011   6.5975558706950599E-002
   4.3024091234133977E-013   1.2709500119001405E-011   6.5926149315372967E-002
   1.8622785605271197E-012   8.2962248182383291E-012   6.6070677637532105E-002
   3.2943162087128997E-012   3.8208880503987075E-012   6.6409143673427873E-002
  -5.4627282125061308E-003   1.6410746282988775E-003   6.5302345748444290E-002
  -5.2666137675363581E-003   1.5796017944248175E-003   6.5040840612248269E-002
  -5.0704993225665889E-003   1.5163440534455563E-003   6.4977626649391010E-002
  -4.8743848775968154E-003   1.4513014053605180E-003   6.5112703859872445E-002
  -4.6782704326270470E-003   1.3844738501702647E-003   6.5446072243692560E-002
  -1.0944898729677289E-002   3.2821492352475001E-003   6.4325205308560729E-002
  -1.0548316381567826E-002   3.1592035717889350E-003   6.4043757234439697E-002
  -1.0151734033458374E-002   3.0326880941813350E-003   6.3964953793259269E-002
  -9.7551516853489201E-003   2.9026028024250333E-003   6.4088794985019570E-002
  -9.3585693372394575E-003   2.7689476965197246E-003   6.4415280809720560E-002
  -1.6446511553947309E-002   4.9232238421961505E-003   6.3287484492614010E-002
  -1.5845107843096205E-002   4.7388053491527957E-003   6.2984308573524550E-002
  -1.5243704132245108E-002   4.5490321349171414E-003   6.2888130746977730E-002
  -1.4642300421394003E-002   4.3539041994894376E-003   6.2998951012973564E-002
  -1.4040896710542899E-002   4.1534215428691706E-003   6.3316769371511830E-002
  -2.1967566685316187E-002   6.5642984491446899E-003   6.2189183300604578E-002
  -2.1156988152121494E-002   6.3184071265169062E-003   6.1862494629503217E-002
  -2.0346409618926788E-002   6.0653761756531283E-003   6.1747157510546408E-002
  -1.9535831085732088E-002   5.8052055965538314E-003   6.1843171943734246E-002
  -1.8725252552537389E-002   5.5378953892185612E-003   6.2150537929066607E-002
   3.2943162087128997E-012   3.8208880503987075E-012   6.6409143673427873E-002
   3.7439114308757127E-012  -1.4374612611334214E-013   6.6193800574564698E-002
   4.1935031835915737E-012  -3.0244695636838514E-012   6.6197052099957548E-002
   4.6430966710309107E-012  -4.8218928849763643E-012   6.6418898249606395E-002
   5.0926901584702478E-012  -5.5355164896297993E-012   6.6859339023511211E-002
  -4.6782704326270470E-003   1.3844738501702647E-003   6.5446072243692560E-002
  -4.4610924282821509E-003   1.3156749589258165E-003   6.5226205173817886E-002
  -4.2439144239372496E-003   1.2447183026779995E-003   6.5222099487477883E-002
  -4.0267364195923482E-003   1.1716038814268345E-003   6.5433755184672371E-002
  -3.8095584152474452E-003   1.0963316951724256E-003   6.5861172265401835E-002
  -9.3585693372394575E-003   2.7689476965197246E-003   6.4415280809720560E-002
  -8.9270465697205807E-003   2.6313499179950323E-003   6.4188732002747578E-002
  -8.4955238022017161E-003   2.4894366083802466E-003   6.4175111338587776E-002
  -8.0640010346828481E-003   2.3432077676755064E-003   6.4374418817241388E-002
  -7.6324782671639661E-003   2.1926633958806729E-003   6.4786654438708194E-002
  -1.4040896710542899E-002   4.1534215428691706E-003   6.3316769371511830E-002
  -1.3397862420571402E-002   3.9470248770643937E-003   6.3081381061353692E-002
  -1.2754828130599891E-002   3.7341549140826602E-003   6.3056087653287518E-002
  -1.2111793840628382E-002   3.5148116539240951E-003   6.3240889147313323E-002
  -1.1468759550656890E-002   3.2889950965886011E-003   6.3635785543430884E-002
  -1.8725252552537389E-002   5.5378953892185612E-003   6.2150537929066607E-002
  -1.7873539980834574E-002   5.2626998361337551E-003   6.1904152349636310E-002
  -1.7021827409131780E-002   4.9788732197849350E-003   6.1865028431576763E-002
  -1.6170114837428973E-002   4.6864155401728988E-003   6.2033166174887744E-002
  -1.5318402265726172E-002   4.3853267972968624E-003   6.2408565579569419E-002
   5.0926901584702478E-012  -5.5355164896297993E-012   6.6859339023511211E-002
   3.7352829163062040E-012  -5.4675708405227397E-012   6.6767687218096394E-002
   2.3778860824830161E-012  -4.9200227225654203E-012   6.6906488788213120E-002
   1.0204823097659244E-012  -3.8924870271461742E-012   6.7275743733860902E-002
  -3.3691799350421547E-013  -2.3852031461046863E-012   6.7875452055040197E-002
  -3.8095584152474452E-003   1.0963316951724256E-003   6.5861172265401835E-002
  -3.5812523005966500E-003   1.0190339533665549E-003   6.5753065096077479E-002
  -3.3529461859458532E-003   9.3984286546064388E-004   6.5871116783238259E-002
  -3.1246400712950538E-003   8.5875843145471337E-004   6.6215327326884135E-002
  -2.8963339566442543E-003   7.7578065134886742E-004   6.6785696727015231E-002
  -7.6324782671639661E-003   2.1926633958806729E-003   6.4786654438708194E-002
  -7.1801605555511534E-003   2.0380679122008749E-003   6.4660198558894655E-002
  -6.7278428439383449E-003   1.8796857358412064E-003   6.4755607016519862E-002
  -6.2755251323255278E-003   1.7175168668019710E-003   6.5072879811584189E-002
  -5.8232074207127237E-003   1.5515613050830490E-003   6.5612016944087248E-002
  -1.1468759550656890E-002   3.2889950965886011E-003   6.3635785543430884E-002
  -1.0796724761128234E-002   3.0571018710350978E-003   6.3489087606548117E-002
  -1.0124689971599585E-002   2.8195286062219320E-003   6.3559959488058135E-002
  -9.4526551820709424E-003   2.5762753021492555E-003   6.3848401187960938E-002
  -8.7806203925422863E-003   2.3273419588172861E-003   6.4354412706256303E-002
  -1.5318402265726172E-002   4.3853267972968624E-003   6.2408565579569419E-002
  -1.4430944917327878E-002   4.0761358298692651E-003   6.2239732239037893E-002
  -1.3543487568929577E-002   3.7593714766024078E-003   6.2284174197852926E-002
  -1.2656030220531283E-002   3.4350337374964221E-003   6.2541891456014465E-002
  -1.1768572872132982E-002   3.1031226125514122E-003   6.3012884013522674E-002
  -3.3691799350421547E-013  -2.3852031461046863E-012   6.7875452055040197E-002
  -4.6988107849088578E-013  -8.8445917256763096E-013   6.7895640714903172E-002
  -6.0284763292450805E-013   1.2409517857747687E-013   6.8160803246956891E-002
  -7.3582112625203422E-013   6.4014765710496135E-013   6.8670939651200608E-002
  -8.6877727234480062E-013   6.6413541333076864E-013   6.9426049927634792E-002
  -2.8963339566442543E-003   7.7578065134886742E-004   6.6785696727015231E-002
  -2.6520167645835285E-003   6.9397641074447902E-004   6.6776809411426052E-002
  -2.4076995725228027E-003   6.1641259524355951E-004   6.7011582608034082E-002
  -2.1633823804620691E-003   5.4308920484621298E-004   6.7490016316839083E-002
  -1.9190651884013372E-003   4.7400623955184962E-004   6.8212110537841097E-002
  -5.8232074207127237E-003   1.5515613050830490E-003   6.5612016944087248E-002
  -5.3358863964515554E-003   1.3879528223736670E-003   6.5578294078641575E-002
  -4.8485653721904026E-003   1.2328251903634818E-003   6.5786918365399752E-002
  -4.3612443479292499E-003   1.0861784090521152E-003   6.6237889804361738E-002
  -3.8739233236680954E-003   9.4801247843978587E-004   6.6931208395527353E-002
  -8.7806203925422863E-003   2.3273419588172861E-003   6.4354412706256303E-002
  -8.0516088960739772E-003   2.0819292340028411E-003   6.4300094716549905E-002
  -7.3225973996056577E-003   1.8492377854828976E-003   6.4486810519053833E-002
  -6.5935859031373270E-003   1.6292676132579880E-003   6.4914560113768449E-002
  -5.8645744066690292E-003   1.4220187173276111E-003   6.5583343500693447E-002
  -1.1768572872132982E-002   3.1031226125514122E-003   6.3012884013522674E-002
  -1.0799184263450765E-002   2.7759056456318487E-003   6.2942211325150876E-002
  -9.8297956547685542E-003   2.4656503806027852E-003   6.3111259068996339E-002
  -8.8604070460863542E-003   2.1723568174640620E-003   6.3520027245059063E-002
  -7.8910184374041334E-003   1.8960249562154363E-003   6.4168515853339270E-002
  -8.6877727234480062E-013   6.6413541333076864E-013   6.9426049927634792E-002
  -6.7141431303596733E-013   4.6523895846917185E-013   6.9250535481627629E-002
  -4.7405135372713403E-013   3.1288860391498474E-013   6.9293567771047282E-002
  -2.7669359858872866E-013   2.0806273370865824E-013   6.9555146795893585E-002
  -7.9325435109467435E-014   1.4943601911454607E-013   7.0035272556166817E-002
  -1.9190651884013372E-003   4.7400623955184962E-004   6.8212110537841097E-002
  -1.6968607895673851E-003   4.2091194117183095E-004   6.8018329261695598E-002
  -1.4746563907334191E-003   3.9555455151665808E-004   6.8050410047396065E-002
  -1.2524519918994618E-003   3.9793407058619917E-004   6.8308352894943178E-002
  -1.0302475930655010E-003   4.2805049838112730E-004   6.8792157804336673E-002
  -3.8739233236680954E-003   9.4801247843978587E-004   6.6931208395527353E-002
  -3.4221991997779632E-003   8.4182388187850621E-004   6.6746897197921207E-002
  -2.9704750758878249E-003   7.9110910272008061E-004   6.6795763388581023E-002
  -2.5187509519976939E-003   7.9586814096488726E-004   6.7077806967506703E-002
  -2.0670268281075682E-003   8.5610099661259653E-004   6.7593027934698430E-002
  -5.8645744066690292E-003   1.4220187173276111E-003   6.5583343500693447E-002
  -5.1760152313031329E-003   1.2627358225850288E-003   6.5436239290304843E-002
  -4.4874560559372643E-003   1.1866636539237876E-003   6.5529627794601836E-002
  -3.7988968805713753E-003   1.1938022113434105E-003   6.5863509013584384E-002
  -3.1103377052054994E-003   1.2841514948439547E-003   6.6437882947252141E-002
  -7.8910184374041334E-003   1.8960249562154363E-003   6.4168515853339270E-002
  -6.9583088841429358E-003   1.6836477632917735E-003   6.4086355538846340E-002
  -6.0255993308817417E-003   1.5822182051272726E-003   6.4252003265458546E-002
  -5.0928897776205476E-003   1.5917362817219338E-003   6.4665459033175887E-002
  -4.1601802243593500E-003   1.7122019930757570E-003   6.5326722841998364E-002
  -7.9325435109467435E-014   1.4943601911454607E-013   7.0035272556166817E-002
  -7.3802075561957281E-014   1.1479706074624119E-013   6.8692396301460623E-002
  -6.8289124355302988E-014   8.1018525222020799E-014   6.7495693255545275E-002
  -6.2772703701696742E-014   4.7566117711284051E-014   6.6445163418421022E-002
  -5.7252813601138541E-014   1.4988010832439613E-014   6.5540806790087891E-002
  -1.0302475930655010E-003   4.2805049838112730E-004   6.8792157804336673E-002
  -8.8745909610692814E-004   5.0110610856574089E-004   6.7468435923764336E-002
  -7.4467059914834315E-004   6.3230317480536535E-004   6.6284117828307232E-002
  -6.0188210218977464E-004   8.2164169710017415E-004   6.5239203517965333E-002
  -4.5909360523118531E-004   1.0691216754500354E-003   6.4333692992738611E-002
  -2.0670268281075682E-003   8.5610099661259653E-004   6.7593027934698430E-002
  -1.7882192578718243E-003   1.0022122170164627E-003   6.6346601884314627E-002
  -1.5094116876360961E-003   1.2646063495299481E-003   6.5232810195370153E-002
  -1.2306041174003678E-003   1.6432833941526746E-003   6.4251652867864967E-002
  -9.5179654716463780E-004   2.1382433508851384E-003   6.3403129901798666E-002
  -3.1103377052054994E-003   1.2841514948439547E-003   6.6437882947252141E-002
  -2.7022804853685388E-003   1.5033183254674065E-003   6.5326894183111467E-002
  -2.2942232655315444E-003   1.8969095242543574E-003   6.4341770356733899E-002
  -1.8861660456945741E-003   2.4649250912052289E-003   6.3482511468119757E-002
  -1.4781088258575895E-003   3.2073650263202136E-003   6.2749117517268582E-002
  -4.1601802243593500E-003   1.7122019930757570E-003   6.5326722841998364E-002
  -3.6296427785970087E-003   2.0044244339180728E-003   6.4409312820154829E-002
  -3.0991053328346917E-003   2.5292126989789332E-003   6.3610998312398581E-002
  -2.5685678870723625E-003   3.2865667882576305E-003   6.2931779318729619E-002
  -2.0380304413100334E-003   4.2764867017550667E-003   6.2371655839148277E-002
  -5.7252813601138541E-014   1.4988010832439613E-014   6.5540806790087891E-002
  -3.3195668436292181E-014  -1.2767564783189300E-014   6.0801860939163399E-002
  -9.1454621653497270E-015  -3.2168712138513911E-014   5.5943530425888899E-002
   1.4908213552544680E-014  -4.4179937486177323E-014   5.0965815250264918E-002
   3.8954950376535180E-014  -4.7517545453956700E-014   4.5868715412290761E-002
  -4.5909360523118531E-004   1.0691216754500354E-003   6.4333692992738611E-002
  -5.6422920698874501E-004   1.3947689129588103E-003   5.9624483396758188E-002
  -6.6936480874630472E-004   1.8186092127299436E-003   5.4824387259564789E-002
  -7.7450041050384187E-004   2.3406425747631923E-003   4.9933404581158053E-002
  -8.7963601226139637E-004   2.9608689990587855E-003   4.4951535361537731E-002
  -9.5179654716463780E-004   2.1382433508851384E-003   6.3403129901798666E-002
  -1.1335696295671251E-003   2.7895378259306658E-003   5.8821849623016703E-002
  -1.3153427119696158E-003   3.6372184254925971E-003   5.4178180924158090E-002
  -1.4971157943721057E-003   4.6812851495706721E-003   4.9472123805222472E-002
  -1.6788888767746077E-003   5.9217379981655327E-003   4.4703678266211022E-002
  -1.4781088258575895E-003   3.2073650263202136E-003   6.2749117517268582E-002
  -1.7080212677683803E-003   4.1843067389021604E-003   5.8393959617938897E-002
  -1.9379337096791646E-003   5.4558276382550910E-003   5.4004911419669427E-002
  -2.1678461515899387E-003   7.0219277243783202E-003   4.9581972922459736E-002
  -2.3977585935007258E-003   8.8826069972721688E-003   4.5125144126310052E-002
  -2.0380304413100334E-003   4.2764867017550667E-003   6.2371655839148277E-002
  -2.2875841215924536E-003   5.5790756518740992E-003   5.8340813381525081E-002
  -2.5371378018748704E-003   7.2744368510174739E-003   5.4304578746098509E-002
  -2.7866914821572854E-003   9.3625702991856075E-003   5.0262951932868727E-002
  -3.0362451624397074E-003   1.1843475996378583E-002   4.6215932941835458E-002
  -2.5382057029603639E-002   7.5464793356297966E-003   6.2363916515743689E-002
  -2.4528434443531782E-002   7.2985163291751642E-003   6.1982905494174401E-002
  -2.3674811857459906E-002   7.0521651792761486E-003   6.1826779617794814E-002
  -2.2821189271388057E-002   6.8074258859326525E-003   6.1895538886604873E-002
  -2.1967566685316187E-002   6.5642984491446899E-003   6.2189183300604578E-002
  -3.1705750737855892E-002   9.1177083890303101E-003   5.8666767263817310E-002
  -3.0646437541044794E-002   8.9364248368185850E-003   5.8463829289391367E-002
  -2.9587124344233662E-002   8.7215719615402615E-003   5.8447387391254269E-002
  -2.8527811147422547E-002   8.4731497631953222E-003   5.8617441569406056E-002
  -2.7468497950611456E-002   8.1911582417835138E-003   5.8973991823846689E-002
  -3.7816198131258812E-002   1.0688937442430796E-002   5.5053888055944966E-002
  -3.6589583392609273E-002   1.0574333344462089E-002   5.4993841949040126E-002
  -3.5362968653959763E-002   1.0390978743804430E-002   5.5081902849523245E-002
  -3.4136353915310211E-002   1.0138873640457853E-002   5.5318070757394380E-002
  -3.2909739176660707E-002   9.8180180344222545E-003   5.5702345672653683E-002
  -4.3713399209812445E-002   1.2260166495831282E-002   5.1525278892126769E-002
  -4.2357871998225306E-002   1.2212241852105579E-002   5.1572943473120608E-002
  -4.1002344786638133E-002   1.2060385526068654E-002   5.1730325992601807E-002
  -3.9646817575050973E-002   1.1804597517720426E-002   5.1997426450570192E-002
  -3.8291290363463841E-002   1.1444877827060954E-002   5.2374244847025783E-002
  -4.9397353973516744E-002   1.3831395549231795E-002   4.8080939772362608E-002
  -4.7951303357892827E-002   1.3850150359749014E-002   4.8201133861632994E-002
  -4.6505252742268841E-002   1.3729792308332739E-002   4.8392656820489932E-002
  -4.5059202126644889E-002   1.3470321394983047E-002   4.8655508648933227E-002
  -4.3613151511020923E-002   1.3071737619699764E-002   4.8989689346962906E-002
  -2.1967566685316187E-002   6.5642984491446899E-003   6.2189183300604578E-002
  -2.1156988152121494E-002   6.3184071265169062E-003   6.1862494629503217E-002
  -2.0346409618926788E-002   6.0653761756531283E-003   6.1747157510546408E-002
  -1.9535831085732088E-002   5.8052055965538314E-003   6.1843171943734246E-002
  -1.8725252552537389E-002   5.5378953892185612E-003   6.2150537929066607E-002
  -2.7468497950611456E-002   8.1911582417835138E-003   5.8973991823846689E-002
  -2.6454450529942303E-002   7.8881330622365270E-003   5.8691291716601465E-002
  -2.5440403109273112E-002   7.5766098894856915E-003   5.8604177832160723E-002
  -2.4426355688603942E-002   7.2565887235312640E-003   5.8712650170524426E-002
  -2.3412308267934761E-002   6.9280695643729739E-003   5.9016708731692402E-002
  -3.2909739176660707E-002   9.8180180344222545E-003   5.5702345672653683E-002
  -3.1707988197857223E-002   9.4578589979562727E-003   5.5462275764296742E-002
  -3.0506237219053760E-002   9.0878436033184143E-003   5.5402026749403956E-002
  -2.9304486240250300E-002   8.7079718505088614E-003   5.5521598627975441E-002
  -2.8102735261446812E-002   8.3182437395274977E-003   5.5820991400011039E-002
  -3.8291290363463841E-002   1.1444877827060954E-002   5.2374244847025783E-002
  -3.6917601155866259E-002   1.1027584933676039E-002   5.2175446772588986E-002
  -3.5543911948268711E-002   1.0599077317151224E-002   5.2140704262276204E-002
  -3.4170222740671170E-002   1.0159354977486375E-002   5.2270017316087450E-002
  -3.2796533533073616E-002   9.7084179146819105E-003   5.2563385934022634E-002
  -4.3613151511020923E-002   1.3071737619699764E-002   4.8989689346962906E-002
  -4.2083289403969479E-002   1.2597310869395639E-002   4.8830804741478218E-002
  -4.0553427296918028E-002   1.2110311030983742E-002   4.8820210370777328E-002
  -3.9023565189866591E-002   1.1610738104464041E-002   4.8957906234860279E-002
  -3.7493703082815133E-002   1.1098592089836434E-002   4.9243892333727057E-002
  -1.8725252552537389E-002   5.5378953892185612E-003   6.2150537929066607E-002
  -1.7873539980834574E-002   5.2626998361337551E-003   6.1904152349636310E-002
  -1.7021827409131780E-002   4.9788732197849350E-003   6.1865028431576763E-002
  -1.6170114837428973E-002   4.6864155401728988E-003   6.2033166174887744E-002
  -1.5318402265726172E-002   4.3853267972968624E-003   6.2408565579569419E-002
  -2.3412308267934761E-002   6.9280695643729739E-003   5.9016708731692402E-002
  -2.2355598734497325E-002   6.5910067908225567E-003   5.8756077025089282E-002
  -2.1298889201059899E-002   6.2453547816916088E-003   5.8698177580584737E-002
  -2.0242179667622477E-002   5.8911135369801512E-003   5.8843010398178880E-002
  -1.9185470134185062E-002   5.5282830566879548E-003   5.9190575477871543E-002
  -2.8102735261446812E-002   8.3182437395274977E-003   5.5820991400011039E-002
  -2.6845558165546828E-002   7.9193137455114970E-003   5.5546155393918287E-002
  -2.5588381069646789E-002   7.5118363435980745E-003   5.5469522250652034E-002
  -2.4331203973746742E-002   7.0958115337872406E-003   5.5591091970212413E-002
  -2.3074026877846741E-002   6.6712393160790473E-003   5.5910864552599360E-002
  -3.2796533533073616E-002   9.7084179146819105E-003   5.2563385934022634E-002
  -3.1343418273983022E-002   9.2476207002004512E-003   5.2274387456123263E-002
  -2.9890303014892421E-002   8.7783179055045332E-003   5.2179062441778348E-002
  -2.8437187755801830E-002   8.3005095305946890E-003   5.2277410890988078E-002
  -2.6984072496711226E-002   7.8141955754701953E-003   5.2569432803752446E-002
  -3.7493703082815133E-002   1.1098592089836434E-002   4.9243892333727057E-002
  -3.5849179059805975E-002   1.0575927654889239E-002   4.8940773211704203E-002
  -3.4204655036796830E-002   1.0044799467411158E-002   4.8826798153963902E-002
  -3.2560131013787678E-002   9.5052075274016795E-003   4.8901967160506266E-002
  -3.0915606990778527E-002   8.9571518348613433E-003   4.9166280231331072E-002
  -1.5318402265726172E-002   4.3853267972968624E-003   6.2408565579569419E-002
  -1.4430944917327878E-002   4.0761358298692651E-003   6.2239732239037893E-002
  -1.3543487568929577E-002   3.7593714766024078E-003   6.2284174197852926E-002
  -1.2656030220531283E-002   3.4350337374964221E-003   6.2541891456014465E-002
  -1.1768572872132982E-002   3.1031226125514122E-003   6.3012884013522674E-002
  -1.9185470134185062E-002   5.5282830566879548E-003   5.9190575477871543E-002
  -1.8088168941781561E-002   5.1572001393098699E-003   5.8989077294580583E-002
  -1.6990867749378087E-002   4.7782015833403857E-003   5.8993991499953435E-002
  -1.5893566556974607E-002   4.3912873887795231E-003   5.9205318093990059E-002
  -1.4796265364571140E-002   3.9964575556274973E-003   5.9623057076690522E-002
  -2.3074026877846741E-002   6.6712393160790473E-003   5.5910864552599360E-002
  -2.1773744752120825E-002   6.2382644487503913E-003   5.5676359273796772E-002
  -2.0473462626394899E-002   5.7970316900782665E-003   5.5641403472975290E-002
  -1.9173180500668956E-002   5.3475410400626276E-003   5.5805997150134755E-002
  -1.7872898374943040E-002   4.8897924987035268E-003   5.6170140305275507E-002
  -2.6984072496711226E-002   7.8141955754701953E-003   5.2569432803752446E-002
  -2.5487672348345588E-002   7.3193287581908989E-003   5.2301578176686174E-002
  -2.3991272199979988E-002   6.8158617968161958E-003   5.2226410116918268E-002
  -2.2494872051614351E-002   6.3037946913457859E-003   5.2343928624448595E-002
  -2.0998471903248748E-002   5.7831274417795842E-003   5.2654133699277232E-002
  -3.0915606990778527E-002   8.9571518348613433E-003   4.9166280231331072E-002
  -2.9229951730455922E-002   8.4003930676315175E-003   4.8864734003248977E-002
  -2.7544296470133373E-002   7.8346919035540419E-003   4.8749011431782452E-002
  -2.5858641209810795E-002   7.2600483426287568E-003   4.8819112516931523E-002
  -2.4172985949488218E-002   6.6764623848556415E-003   4.9075037258696108E-002
  -1.1768572872132982E-002   3.1031226125514122E-003   6.3012884013522674E-002
  -1.0799184263450765E-002   2.7759056456318487E-003   6.2942211325150876E-002
  -9.8297956547685542E-003   2.4656503806027852E-003   6.3111259068996339E-002
  -8.8604070460863542E-003   2.1723568174640620E-003   6.3520027245059063E-002
  -7.8910184374041334E-003   1.8960249562154363E-003   6.4168515853339270E-002
  -1.4796265364571140E-002   3.9964575556274973E-003   5.9623057076690522E-002
  -1.3596726598902421E-002   3.6031107733433543E-003   5.9507795316263046E-002
  -1.2397187833233729E-002   3.2206457313863068E-003   5.9613113437591264E-002
  -1.1197649067565024E-002   2.8490624297566741E-003   5.9939011440675136E-002
  -9.9981103018963145E-003   2.4883608684542757E-003   6.0485489325515007E-002
  -1.7872898374943040E-002   4.8897924987035268E-003   5.6170140305275507E-002
  -1.6462350002749395E-002   4.4303159010548321E-003   5.6004209511229003E-002
  -1.5051801630555748E-002   3.9756410821700366E-003   5.6039718048476697E-002
  -1.3641253258362115E-002   3.5257680420493938E-003   5.6276665917018708E-002
  -1.2230704886168457E-002   3.0806967806927821E-003   5.6715053116854736E-002
  -2.0998471903248748E-002   5.7831274417795842E-003   5.2654133699277232E-002
  -1.9396054474991681E-002   5.2575210287659907E-003   5.2431453910048928E-002
  -1.7793637046734638E-002   4.7306364329536069E-003   5.2391072901653027E-002
  -1.6191219618477588E-002   4.2024736543421152E-003   5.2532990674089688E-002
  -1.4588802190220528E-002   3.6730326929313439E-003   5.2857207227359357E-002
  -2.4172985949488218E-002   6.6764623848556415E-003   4.9075037258696108E-002
  -2.2397840015629306E-002   6.0847261564779265E-003   4.8789528512722391E-002
  -2.0622694081770393E-002   5.4856317837372881E-003   4.8667177997119782E-002
  -1.8847548147911480E-002   4.8791792666348366E-003   4.8707985711888113E-002
  -1.7072402214052568E-002   4.2653686051701278E-003   4.8911951657027775E-002
  -7.8910184374041334E-003   1.8960249562154363E-003   6.4168515853339270E-002
  -6.9583088841429358E-003   1.6836477632917735E-003   6.4086355538846340E-002
  -6.0255993308817417E-003   1.5822182051272726E-003   6.4252003265458546E-002
  -5.0928897776205476E-003   1.5917362817219338E-003   6.4665459033175887E-002
  -4.1601802243593500E-003   1.7122019930757570E-003   6.5326722841998364E-002
  -9.9981103018963145E-003   2.4883608684542757E-003   6.0485489325515007E-002
  -8.8163220480553910E-003   2.1891153179149914E-003   6.0390585908696004E-002
  -7.6345337942144136E-003   2.0019000485752558E-003   6.0546031851931303E-002
  -6.4527455403734476E-003   1.9267150604345140E-003   6.0951827155221239E-002
  -5.2709572865325162E-003   1.9635603534934321E-003   6.1607971818565421E-002
  -1.2230704886168457E-002   3.0806967806927821E-003   5.6715053116854736E-002
  -1.0797296612798431E-002   2.6945828725379872E-003   5.6608489244150045E-002
  -9.3638883394284046E-003   2.4215818920227949E-003   5.6754816050449047E-002
  -7.9304800660583603E-003   2.2616938391472052E-003   5.7154033535751742E-002
  -6.4970717926883508E-003   2.2149187139112181E-003   5.7806141700058433E-002
  -1.4588802190220528E-002   3.6730326929313439E-003   5.2857207227359357E-002
  -1.2901232578372154E-002   3.2000504271612051E-003   5.2740065545208825E-002
  -1.1213662966523754E-002   2.8412637354707782E-003   5.2878355861011389E-002
  -9.5260933546753371E-003   2.5966726178598409E-003   5.3272078174767201E-002
  -7.8385237428269805E-003   2.4662770743289486E-003   5.3921232486475776E-002
  -1.7072402214052568E-002   4.2653686051701278E-003   4.8911951657027775E-002
  -1.5128129944776497E-002   3.7055179817841455E-003   4.8785314811871983E-002
  -1.3183857675500427E-002   3.2609455789184838E-003   4.8916651283618662E-002
  -1.1239585406224356E-002   2.9316513965725183E-003   4.9305961072267673E-002
  -9.2953131369482855E-003   2.7176354347467901E-003   4.9953244177818878E-002
  -4.1601802243593500E-003   1.7122019930757570E-003   6.5326722841998364E-002
  -3.6296427785970087E-003   2.0044244339180728E-003   6.4409312820154829E-002
  -3.0991053328346917E-003   2.5292126989789332E-003   6.3610998312398581E-002
  -2.5685678870723625E-003   3.2865667882576305E-003   6.2931779318729619E-002
  -2.0380304413100334E-003   4.2764867017550667E-003   6.2371655839148277E-002
  -5.2709572865325162E-003   1.9635603534934321E-003   6.1607971818565421E-002
  -4.5953472056098031E-003   2.2194993315955980E-003   6.0880562930365367E-002
  -3.9197371246870883E-003   2.8015953985864872E-003   6.0324203798398396E-002
  -3.2441270437643726E-003   3.7098485544647120E-003   5.9938894422665159E-002
  -2.5685169628416604E-003   4.9442587992311049E-003   5.9724634803164922E-002
  -6.4970717926883508E-003   2.2149187139112181E-003   5.7806141700058433E-002
  -5.6244348344593083E-003   2.4345742292737060E-003   5.7362325210171039E-002
  -4.7517978762302805E-003   3.0739780981939024E-003   5.7141512718663162E-002
  -3.8791609180012514E-003   4.1331303206716755E-003   5.7143704225534567E-002
  -3.0065239597722084E-003   5.6120308967070320E-003   5.7368899730785128E-002
  -7.8385237428269805E-003   2.4662770743289486E-003   5.3921232486475776E-002
  -6.7169056651456395E-003   2.6496491269513006E-003   5.3854599659571373E-002
  -5.5952875874642994E-003   3.3463607978012205E-003   5.4062925073192027E-002
  -4.4736695097829585E-003   4.5564120868786979E-003   5.4546208727338175E-002
  -3.3520514321016179E-003   6.2798029941830147E-003   5.5304450622009421E-002
  -9.2953131369482855E-003   2.7176354347467901E-003   4.9953244177818878E-002
  -7.8727596976686937E-003   2.8647240246293393E-003   5.0357386278566896E-002
  -6.4502062583891157E-003   3.6187434974089272E-003   5.1088440861985829E-002
  -5.0276528191095307E-003   4.9796938530856233E-003   5.2146407928076011E-002
  -3.6050993798299458E-003   6.9475750916588863E-003   5.3531287476837774E-002
  -2.0380304413100334E-003   4.2764867017550667E-003   6.2371655839148277E-002
  -2.2875841215924536E-003   5.5790756518740992E-003   5.8340813381525081E-002
  -2.5371378018748704E-003   7.2744368510174739E-003   5.4304578746098509E-002
  -2.7866914821572854E-003   9.3625702991856075E-003   5.0262951932868727E-002
  -3.0362451624397074E-003   1.1843475996378583E-002   4.6215932941835458E-002
  -2.5685169628416604E-003   4.9442587992311049E-003   5.9724634803164922E-002
  -2.8409602008030790E-003   6.5686076386137771E-003   5.6192020664951603E-002
  -3.1134034387644647E-003   8.6466765783412003E-003   5.2619019589183857E-002
  -3.3858466767259310E-003   1.1178465618413548E-002   4.9005631575861658E-002
  -3.6582899146872724E-003   1.4163974758830244E-002   4.5351856624984421E-002
  -3.0065239597722084E-003   5.6120308967070320E-003   5.7368899730785128E-002
  -3.3368515151639723E-003   7.5581396253536770E-003   5.4395461763302400E-002
  -3.6671790705556954E-003   1.0018916305664816E-002   5.1346642098513445E-002
  -3.9975066259473734E-003   1.2994360937641100E-002   4.8222440736418445E-002
  -4.3278341813392067E-003   1.6484473521281906E-002   4.5022857677017636E-002
  -3.3520514321016179E-003   6.2798029941830147E-003   5.5304450622009421E-002
  -3.7752580646750753E-003   8.5476716120935770E-003   5.2951136676576617E-002
  -4.1984646972484775E-003   1.1391156032988708E-002   5.0487446274086425E-002
  -4.6216713298219475E-003   1.4810256256868735E-002   4.7913379414539332E-002
  -5.0448779623953367E-003   1.8804972283733568E-002   4.5228936097934297E-002
  -3.6050993798299458E-003   6.9475750916588863E-003   5.3531287476837774E-002
  -4.1561798493364166E-003   9.5372035988333659E-003   5.1859045404775150E-002
  -4.7072603188428874E-003   1.2763395760312352E-002   5.0041432115903894E-002
  -5.2583407883493305E-003   1.6626151576096530E-002   4.8078447610224312E-002
  -5.8094212578558291E-003   2.1125471046185229E-002   4.5970091887735265E-002
  -4.9397353973516744E-002   1.3831395549231795E-002   4.8080939772362608E-002
  -4.7951303357892827E-002   1.3850150359749014E-002   4.8201133861632994E-002
  -4.6505252742268841E-002   1.3729792308332739E-002   4.8392656820489932E-002
  -4.5059202126644889E-002   1.3470321394983047E-002   4.8655508648933227E-002
  -4.3613151511020923E-002   1.3071737619699764E-002   4.8989689346962906E-002
  -5.5473427845321915E-002   1.7223985544337517E-002   4.6327370675737389E-002
  -5.3853879438876415E-002   1.6562728660309778E-002   4.5500376786178354E-002
  -5.2234331032430970E-002   1.5936839900188432E-002   4.4949049608675906E-002
  -5.0614782625985469E-002   1.5346319263973722E-002   4.4673389143230255E-002
  -4.8995234219540010E-002   1.4791166751665363E-002   4.4673395389841192E-002
  -6.2546986248178310E-002   2.0616575539443294E-002   4.3806549391647048E-002
  -6.0549602208440988E-002   1.9275306960870542E-002   4.2206848509098532E-002
  -5.8552218168703651E-002   1.8143887492044222E-002   4.1087152181076989E-002
  -5.6554834128966391E-002   1.7222317132964401E-002   4.0447460407582299E-002
  -5.4557450089229090E-002   1.6510595883631102E-002   4.0287773188614609E-002
  -7.0618029182085623E-002   2.4009165534549015E-002   4.0518475920091689E-002
  -6.8038471666586262E-002   2.1987885261431223E-002   3.8320549030393690E-002
  -6.5458914151086955E-002   2.0350935083899922E-002   3.6806964537692818E-002
  -6.2879356635587608E-002   1.9098315001955080E-002   3.5977722441989338E-002
  -6.0299799120088225E-002   1.8230025015596826E-002   3.5832822743282824E-002
  -7.9686556647044160E-002   2.7401755529654792E-002   3.6463150261071331E-002
  -7.6320487813312549E-002   2.4700463561992014E-002   3.3841478350063792E-002
  -7.2954418979580798E-002   2.2557982675755664E-002   3.2108486678523868E-002
  -6.9588350145849104E-002   2.0974312870945772E-002   3.1264175246451462E-002
  -6.6222281312117409E-002   1.9949454147562495E-002   3.1308544053846199E-002
  -4.3613151511020923E-002   1.3071737619699764E-002   4.8989689346962906E-002
  -4.2083289403969479E-002   1.2597310869395639E-002   4.8830804741478218E-002
  -4.0553427296918028E-002   1.2110311030983742E-002   4.8820210370777328E-002
  -3.9023565189866591E-002   1.1610738104464041E-002   4.8957906234860279E-002
  -3.7493703082815133E-002   1.1098592089836434E-002   4.9243892333727057E-002
  -4.8995234219540010E-002   1.4791166751665363E-002   4.4673395389841192E-002
  -4.7298567421546089E-002   1.4250635352846555E-002   4.4343542586827447E-002
  -4.5601900623552231E-002   1.3703978057100330E-002   4.4199008930914718E-002
  -4.3905233825558401E-002   1.3151194864426285E-002   4.4239794422103143E-002
  -4.2208567027564529E-002   1.2592285774825129E-002   4.4465899060392500E-002
  -5.4557450089229090E-002   1.6510595883631102E-002   4.0287773188614609E-002
  -5.2656949687975560E-002   1.5903959836297388E-002   3.9793399379252137E-002
  -5.0756449286722044E-002   1.5297645083216703E-002   3.9521373629307958E-002
  -4.8855948885468466E-002   1.4691651624388810E-002   3.9471695938782081E-002
  -4.6955448484214991E-002   1.4085979459813880E-002   3.9644366307674483E-002
  -6.0299799120088225E-002   1.8230025015596826E-002   3.5832822743282824E-002
  -5.8158436203257738E-002   1.7557284319748345E-002   3.5180375118752064E-002
  -5.6017073286427320E-002   1.6891312109333183E-002   3.4787304465956889E-002
  -5.3875710369596860E-002   1.6232108384351168E-002   3.4653610784897190E-002
  -5.1734347452766428E-002   1.5579673144802686E-002   3.4779294075573008E-002
  -6.6222281312117409E-002   1.9949454147562495E-002   3.1308544053846199E-002
  -6.3803026967392804E-002   1.9210608803199136E-002   3.0504469805327478E-002
  -6.1383772622668170E-002   1.8484979135449636E-002   2.9996801440861642E-002
  -5.8964518277943578E-002   1.7772565144313628E-002   2.9785538960448540E-002
  -5.6545263933218931E-002   1.7073366829791381E-002   2.9870682364088130E-002
  -3.7493703082815133E-002   1.1098592089836434E-002   4.9243892333727057E-002
  -3.5849179059805975E-002   1.0575927654889239E-002   4.8940773211704203E-002
  -3.4204655036796830E-002   1.0044799467411158E-002   4.8826798153963902E-002
  -3.2560131013787678E-002   9.5052075274016795E-003   4.8901967160506266E-002
  -3.0915606990778527E-002   8.9571518348613433E-003   4.9166280231331072E-002
  -4.2208567027564529E-002   1.2592285774825129E-002   4.4465899060392500E-002
  -4.0375566981988381E-002   1.2024317724408873E-002   4.4119866496136306E-002
  -3.8542566936412212E-002   1.1444357649290374E-002   4.3961641912731719E-002
  -3.6709566890836057E-002   1.0852405549468997E-002   4.3991225310178655E-002
  -3.4876566845259888E-002   1.0248461424945621E-002   4.4208616688477032E-002
  -4.6955448484214991E-002   1.4085979459813880E-002   3.9644366307674483E-002
  -4.4935308499502835E-002   1.3472707793928507E-002   3.9251892029013760E-002
  -4.2915168514790700E-002   1.2843915831169422E-002   3.9045889647773335E-002
  -4.0895028530078564E-002   1.2199603571536537E-002   3.9026359163953424E-002
  -3.8874888545366457E-002   1.1539771015029843E-002   3.9193300577553825E-002
  -5.1734347452766428E-002   1.5579673144802686E-002   3.4779294075573008E-002
  -4.9528403612349420E-002   1.4921097863448252E-002   3.4336849810336245E-002
  -4.7322459771932404E-002   1.4243474013048527E-002   3.4079541359088923E-002
  -4.5116515931515409E-002   1.3546801593603965E-002   3.4007368721830994E-002
  -4.2910572091098387E-002   1.2831080605114259E-002   3.4120331898562277E-002
  -5.6545263933218931E-002   1.7073366829791381E-002   2.9870682364088130E-002
  -5.4154852320528080E-002   1.6369487932967774E-002   2.9374739840104025E-002
  -5.1764440707837242E-002   1.5643032194927672E-002   2.9062597046678240E-002
  -4.9374029095146370E-002   1.4893999615671307E-002   2.8934253983810887E-002
  -4.6983617482455553E-002   1.4122390195198342E-002   2.8989710651501688E-002
  -3.0915606990778527E-002   8.9571518348613433E-003   4.9166280231331072E-002
  -2.9229951730455922E-002   8.4003930676315175E-003   4.8864734003248977E-002
  -2.7544296470133373E-002   7.8346919035540419E-003   4.8749011431782452E-002
  -2.5858641209810795E-002   7.2600483426287568E-003   4.8819112516931523E-002
  -2.4172985949488218E-002   6.6764623848556415E-003   4.9075037258696108E-002
  -3.4876566845259888E-002   1.0248461424945621E-002   4.4208616688477032E-002
  -3.3011484069569816E-002   9.6354217731075276E-003   4.3855741760134098E-002
  -3.1146401293879793E-002   9.0161830913427776E-003   4.3675898205910807E-002
  -2.9281318518189717E-002   8.3907453796513987E-003   4.3669086025806728E-002
  -2.7416235742499628E-002   7.7591086380330854E-003   4.3835305219822152E-002
  -3.8874888545366457E-002   1.1539771015029843E-002   3.9193300577553825E-002
  -3.6843170536805150E-002   1.0870450478583593E-002   3.8791840315871573E-002
  -3.4811452528243858E-002   1.0197674279131611E-002   3.8550619145812356E-002
  -3.2779734519682538E-002   9.5214424166739260E-003   3.8469637067376473E-002
  -3.0748016511121259E-002   8.8417548912104182E-003   3.8548894080563473E-002
  -4.2910572091098387E-002   1.2831080605114259E-002   3.4120331898562277E-002
  -4.0725011132162044E-002   1.2105479184059575E-002   3.3673029670461346E-002
  -3.8539450173225701E-002   1.1379165466920284E-002   3.3373174251487309E-002
  -3.6353889214289371E-002   1.0652139453696289E-002   3.3220765641640358E-002
  -3.4168328255353014E-002   9.9244011443876401E-003   3.3215803840920127E-002
  -4.6983617482455553E-002   1.4122390195198342E-002   2.8989710651501688E-002
  -4.4657005855640364E-002   1.3340507889535669E-002   2.8499309823903141E-002
  -4.2330394228825230E-002   1.2560656654709151E-002   2.8143563522935511E-002
  -4.0003782602010096E-002   1.1782836490718922E-002   2.7922471748598382E-002
  -3.7677170975194935E-002   1.1007047397565084E-002   2.7836034500892226E-002
  -2.4172985949488218E-002   6.6764623848556415E-003   4.9075037258696108E-002
  -2.2397840015629306E-002   6.0847261564779265E-003   4.8789528512722391E-002
  -2.0622694081770393E-002   5.4856317837372881E-003   4.8667177997119782E-002
  -1.8847548147911480E-002   4.8791792666348366E-003   4.8707985711888113E-002
  -1.7072402214052568E-002   4.2653686051701278E-003   4.8911951657027775E-002
  -2.7416235742499628E-002   7.7591086380330854E-003   4.3835305219822152E-002
  -2.5479842823329740E-002   7.1240669238487042E-003   4.3455369723394366E-002
  -2.3543449904159811E-002   6.4884142944594547E-003   4.3234769967217646E-002
  -2.1607056984989850E-002   5.8521507498642544E-003   4.3173505951291824E-002
  -1.9670664065819937E-002   5.2152762900645744E-003   4.3271577675617068E-002
  -3.0748016511121259E-002   8.8417548912104182E-003   3.8548894080563473E-002
  -2.8654199096760438E-002   8.1634076912199816E-003   3.8081279062838647E-002
  -2.6560381682399645E-002   7.4911968051811773E-003   3.7769177295244677E-002
  -2.4466564268038830E-002   6.8251222330941164E-003   3.7612588777781619E-002
  -2.2372746853678037E-002   6.1651839749587989E-003   3.7611513510449196E-002
  -3.4168328255353014E-002   9.9244011443876401E-003   3.3215803840920127E-002
  -3.1920908835921469E-002   9.2027484585910646E-003   3.2667256531055316E-002
  -2.9673489416489958E-002   8.4939793159030108E-003   3.2270399981201146E-002
  -2.7426069997058374E-002   7.7980937163237007E-003   3.2025234191357735E-002
  -2.5178650577626836E-002   7.1150916598530234E-003   3.1931759161524645E-002
  -3.7677170975194935E-002   1.1007047397565084E-002   2.7836034500892226E-002
  -3.5279972040812818E-002   1.0242089225962092E-002   2.7213302128044292E-002
  -3.2882773106430660E-002   9.4967618266250942E-003   2.6738438025086630E-002
  -3.0485574172048537E-002   8.7710651995534031E-003   2.6411442192019824E-002
  -2.8088375237666385E-002   8.0649993447474699E-003   2.6232314628843456E-002
  -1.7072402214052568E-002   4.2653686051701278E-003   4.8911951657027775E-002
  -1.5128129944776497E-002   3.7055179817841455E-003   4.8785314811871983E-002
  -1.3183857675500427E-002   3.2609455789184838E-003   4.8916651283618662E-002
  -1.1239585406224356E-002   2.9316513965725183E-003   4.9305961072267673E-002
  -9.2953131369482855E-003   2.7176354347467901E-003   4.9953244177818878E-002
  -1.9670664065819937E-002   5.2152762900645744E-003   4.3271577675617068E-002
  -1.7507293124389610E-002   4.6141291524683381E-003   4.3095917139689133E-002
  -1.5343922182959220E-002   4.0850475744852455E-003   4.3100480631167531E-002
  -1.3180551241528862E-002   3.6280315561157128E-003   4.3285268150052084E-002
  -1.1017180300098503E-002   3.2430810973597124E-003   4.3650279696343164E-002
  -2.2372746853678037E-002   6.1651839749587989E-003   3.7611513510449196E-002
  -2.0068026529589503E-002   5.5227403231524475E-003   3.7343616622842385E-002
  -1.7763306205500963E-002   4.9091495700525900E-003   3.7178194473145992E-002
  -1.5458585881412412E-002   4.3244117156591363E-003   3.7115247061359491E-002
  -1.3153865557323889E-002   3.7685267599723571E-003   3.7154774387483491E-002
  -2.5178650577626836E-002   7.1150916598530234E-003   3.1931759161524645E-002
  -2.2810330160376226E-002   6.4313514938364319E-003   3.1528413261332405E-002
  -2.0442009743125621E-002   5.7332515656198652E-003   3.1149792809553982E-002
  -1.8073689325875004E-002   5.0207918752026674E-003   3.0795897806189739E-002
  -1.5705368908624409E-002   4.2939724225853626E-003   3.0466728251239389E-002
  -2.8088375237666385E-002   8.0649993447474699E-003   2.6232314628843456E-002
  -2.5734204016749779E-002   7.3399626645208049E-003   2.5650307055158694E-002
  -2.3380032795833200E-002   6.5573535611867517E-003   2.5015275640391743E-002
  -2.1025861574916566E-002   5.7171720347459348E-003   2.4327220384542880E-002
  -1.8671690354000015E-002   4.8194180851980351E-003   2.3586141287611717E-002
  -9.2953131369482855E-003   2.7176354347467901E-003   4.9953244177818878E-002
  -7.8727596976686937E-003   2.8647240246293393E-003   5.0357386278566896E-002
  -6.4502062583891157E-003   3.6187434974089272E-003   5.1088440861985829E-002
  -5.0276528191095307E-003   4.9796938530856233E-003   5.2146407928076011E-002
  -3.6050993798299458E-003   6.9475750916588863E-003   5.3531287476837774E-002
  -1.1017180300098503E-002   3.2430810973597124E-003   4.3650279696343164E-002
  -9.2495153911247990E-003   3.1693955703149812E-003   4.4236500283392099E-002
  -7.4818504821509840E-003   3.6461743470807551E-003   4.5186031327158593E-002
  -5.7141855731772488E-003   4.6734174276565760E-003   4.6498872827641979E-002
  -3.9465206642034650E-003   6.2511248120425966E-003   4.8175024784842591E-002
  -1.3153865557323889E-002   3.7685267599723571E-003   3.7154774387483491E-002
  -1.1004691204610104E-002   3.4740671160005121E-003   3.7866606881747228E-002
  -8.8555168518962592E-003   3.6736051967523331E-003   3.8978147806774249E-002
  -6.7063424991824269E-003   4.3671410022276327E-003   4.0489397162564028E-002
  -4.5571681464686292E-003   5.5546745324265845E-003   4.2400354949117064E-002
  -1.5705368908624409E-002   4.2939724225853626E-003   3.0466728251239389E-002
  -1.3138287138124632E-002   3.7787386616862095E-003   3.1247706073631434E-002
  -1.0571205367624827E-002   3.7010360464240916E-003   3.2464790300832491E-002
  -8.0041235971250926E-003   4.0608645767987485E-003   3.4117980932842337E-002
  -5.4370418266253030E-003   4.8582242528105446E-003   3.6207277969661174E-002
  -1.8671690354000015E-002   4.8194180851980351E-003   2.3586141287611717E-002
  -1.5650303191668380E-002   4.0834102073716294E-003   2.4379797859045427E-002
  -1.2628916029336801E-002   3.7284668960955725E-003   2.5645958809333513E-002
  -9.6075288670051939E-003   3.7545881513697116E-003   2.7384624138476421E-002
  -6.5861417046735871E-003   4.1617739731941716E-003   2.9595793846474261E-002
  -3.6050993798299458E-003   6.9475750916588863E-003   5.3531287476837774E-002
  -4.1561798493364166E-003   9.5372035988333659E-003   5.1859045404775150E-002
  -4.7072603188428874E-003   1.2763395760312352E-002   5.0041432115903894E-002
  -5.2583407883493305E-003   1.6626151576096530E-002   4.8078447610224312E-002
  -5.8094212578558291E-003   2.1125471046185229E-002   4.5970091887735265E-002
  -3.9465206642034650E-003   6.2511248120425966E-003   4.8175024784842591E-002
  -4.5391435799702895E-003   8.6889309384324820E-003   4.7240533702687548E-002
  -5.1317664957370238E-003   1.2296470245018593E-002   4.6368328944820569E-002
  -5.7243894115038274E-003   1.7073742731801796E-002   4.5558410511242348E-002
  -6.3170123272705825E-003   2.3020748398780988E-002   4.4810778401951357E-002
  -4.5571681464686292E-003   5.5546745324265845E-003   4.2400354949117064E-002
  -4.9836759673988693E-003   7.8406582780315426E-003   4.2736784382761683E-002
  -5.4101837883291370E-003   1.1829544729725069E-002   4.3343157681790853E-002
  -5.8366916092594048E-003   1.7521333887506620E-002   4.4219474846205330E-002
  -6.2631994301896449E-003   2.4916025751376969E-002   4.5365735876004343E-002
  -5.4370418266253030E-003   4.8582242528105446E-003   3.6207277969661174E-002
  -5.4897770116222096E-003   6.9923856176306309E-003   3.8347797444996674E-002
  -5.5425121966191440E-003   1.1362619214431539E-002   4.0965918326813927E-002
  -5.5952473816159674E-003   1.7968925043212000E-002   4.4061640615113612E-002
  -5.6479825666128740E-003   2.6811303103972839E-002   4.7634964309893613E-002
  -6.5861417046735871E-003   4.1617739731941716E-003   2.9595793846474261E-002
  -6.0574467126403297E-003   6.1441129572298303E-003   3.4073572889392834E-002
  -5.5287517206070169E-003   1.0895693699137649E-002   3.9236610879889999E-002
  -5.0000567285737318E-003   1.8416516198916731E-002   4.5084907817965675E-002
  -4.4713617365405023E-003   2.8706580456568709E-002   5.1618463703619888E-002
  -7.9686556647044160E-002   2.7401755529654792E-002   3.6463150261071331E-002
  -7.6320487813312549E-002   2.4700463561992014E-002   3.3841478350063792E-002
  -7.2954418979580798E-002   2.2557982675755664E-002   3.2108486678523868E-002
  -6.9588350145849104E-002   2.0974312870945772E-002   3.1264175246451462E-002
  -6.6222281312117409E-002   1.9949454147562495E-002   3.1308544053846199E-002
  -8.7026130484958525E-002   2.2842178083545606E-002   1.5495556724937576E-002
  -8.3241141444887881E-002   2.2801025399985242E-002   1.7026271881128818E-002
  -7.9456152404817196E-002   2.2534572265373864E-002   1.8506147210530316E-002
  -7.5671163364746469E-002   2.2042818679711265E-002   1.9935182713142444E-002
  -7.1886174324675825E-002   2.1325764642997708E-002   2.1313378388965132E-002
  -8.9910312537733517E-002   1.8282600637436391E-002  -2.4198417608548434E-003
  -8.6645923357580867E-002   2.0901587237978608E-002   2.4791489300571984E-003
  -8.3381534177428149E-002   2.2511161854992114E-002   6.3877797279228779E-003
  -8.0117144997275430E-002   2.3111324488476866E-002   9.3060506327419974E-003
  -7.6852755817122739E-002   2.2702075138432837E-002   1.1233961644514734E-002
  -8.8339102805369163E-002   1.3723023191327191E-002  -1.7283045196305854E-002
  -8.6534833551391410E-002   1.9002149075971850E-002  -9.7998905031504574E-003
  -8.4730564297413630E-002   2.2487751444610366E-002  -4.2466157692984761E-003
  -8.2926295043435946E-002   2.4179830297242331E-002  -6.2322099474977546E-004
  -8.1122025789458152E-002   2.4078385633868063E-002   1.0702938204953556E-003
  -8.2312501287865381E-002   9.1634457452179907E-003  -2.9094053581415591E-002
  -8.2907872026319551E-002   1.7102710913965313E-002  -1.9810846418494343E-002
  -8.3503242764773722E-002   2.2464341034228730E-002  -1.3397039281133616E-002
  -8.4098613503227893E-002   2.5248336106007810E-002  -9.8526321693332558E-003
  -8.4693984241682063E-002   2.5454696129303289E-002  -9.1776250830931660E-003
  -6.6222281312117409E-002   1.9949454147562495E-002   3.1308544053846199E-002
  -6.3803026967392804E-002   1.9210608803199136E-002   3.0504469805327478E-002
  -6.1383772622668170E-002   1.8484979135449636E-002   2.9996801440861642E-002
  -5.8964518277943578E-002   1.7772565144313628E-002   2.9785538960448540E-002
  -5.6545263933218931E-002   1.7073366829791381E-002   2.9870682364088130E-002
  -7.1886174324675825E-002   2.1325764642997708E-002   2.1313378388965132E-002
  -6.9232169692523687E-002   2.0512329996445061E-002   2.1167837517926058E-002
  -6.6578165060371480E-002   1.9731434581265507E-002   2.1195391337689273E-002
  -6.3924160428219329E-002   1.8983078397459226E-002   2.1396039848254875E-002
  -6.1270155796067094E-002   1.8267261445026051E-002   2.1769783049622793E-002
  -7.6852755817122739E-002   2.2702075138432837E-002   1.1233961644514734E-002
  -7.4087312090793486E-002   2.1814051189690875E-002   1.1766277705714860E-002
  -7.1321868364464247E-002   2.0977890027081433E-002   1.2348377264466991E-002
  -6.8556424638134994E-002   2.0193591650604883E-002   1.2980260320770799E-002
  -6.5790980911805769E-002   1.9461156060260970E-002   1.3661926874626473E-002
  -8.1122025789458152E-002   2.4078385633868063E-002   1.0702938204953556E-003
  -7.8368454162202283E-002   2.3115772382936745E-002   2.2997903686942933E-003
  -7.5614882534946443E-002   2.2224345472897387E-002   3.4557592211945723E-003
  -7.2861310907690616E-002   2.1404104903750373E-002   4.5382003779959861E-003
  -7.0107739280434719E-002   2.0655050675495626E-002   5.5471138390991402E-003
  -8.4693984241682063E-002   2.5454696129303289E-002  -9.1776250830931660E-003
  -8.2075595906750010E-002   2.4417493576182669E-002  -7.2316244931361906E-003
  -7.9457207571818067E-002   2.3470800918713314E-002  -5.4824627921281899E-003
  -7.6838819236886013E-002   2.2614618156896048E-002  -3.9301399800694761E-003
  -7.4220430901954071E-002   2.1848945290730448E-002  -2.5746560569597232E-003
  -5.6545263933218931E-002   1.7073366829791381E-002   2.9870682364088130E-002
  -5.4154852320528080E-002   1.6369487932967774E-002   2.9374739840104025E-002
  -5.1764440707837242E-002   1.5643032194927672E-002   2.9062597046678240E-002
  -4.9374029095146370E-002   1.4893999615671307E-002   2.8934253983810887E-002
  -4.6983617482455553E-002   1.4122390195198342E-002   2.8989710651501688E-002
  -6.1270155796067094E-002   1.8267261445026051E-002   2.1769783049622793E-002
  -5.8706575485171192E-002   1.7552861359327238E-002   2.1441135070834866E-002
  -5.6142995174275179E-002   1.6808755775723896E-002   2.1275024757898664E-002
  -5.3579414863379270E-002   1.6034944694216059E-002   2.1271452110814465E-002
  -5.1015834552483263E-002   1.5231428114803602E-002   2.1430417129582269E-002
  -6.5790980911805769E-002   1.9461156060260970E-002   1.3661926874626473E-002
  -6.3075493967410995E-002   1.8736234785686867E-002   1.3493444784346262E-002
  -6.0360007023016277E-002   1.7974479356520016E-002   1.3466238295211645E-002
  -5.7644520078621496E-002   1.7175889772760702E-002   1.3580307407222342E-002
  -5.4929033134226771E-002   1.6340466034408863E-002   1.3835652120379044E-002
  -7.0107739280434719E-002   2.0655050675495626E-002   5.5471138390991402E-003
  -6.7261607767247572E-002   1.9919608212046386E-002   5.5316689806385461E-003
  -6.4415476254060411E-002   1.9140202937316466E-002   5.6362376586171267E-003
  -6.1569344740873277E-002   1.8316834851305565E-002   5.8608198730350893E-003
  -5.8723213227686075E-002   1.7449503954013790E-002   6.2054156238920063E-003
  -7.4220430901954071E-002   2.1848945290730448E-002  -2.5746560569597232E-003
  -7.1264916884680896E-002   2.1102981638405904E-002  -2.4441923402885868E-003
  -6.8309402867407665E-002   2.0305926518112416E-002  -2.2149771518845673E-003
  -6.5353888850134434E-002   1.9457779929850247E-002  -1.8870104917479980E-003
  -6.2398374832861259E-002   1.8558541873619161E-002  -1.4602923598785456E-003
  -4.6983617482455553E-002   1.4122390195198342E-002   2.8989710651501688E-002
  -4.4657005855640364E-002   1.3340507889535669E-002   2.8499309823903141E-002
  -4.2330394228825230E-002   1.2560656654709151E-002   2.8143563522935511E-002
  -4.0003782602010096E-002   1.1782836490718922E-002   2.7922471748598382E-002
  -3.7677170975194935E-002   1.1007047397565084E-002   2.7836034500892226E-002
  -5.1015834552483263E-002   1.5231428114803602E-002   2.1430417129582269E-002
  -4.8546645881472630E-002   1.4420264924026233E-002   2.1075178980838299E-002
  -4.6077457210462122E-002   1.3623514008423460E-002   2.0870440393854273E-002
  -4.3608268539451538E-002   1.2841175367995679E-002   2.0816201368630535E-002
  -4.1139079868440981E-002   1.2073249002742537E-002   2.0912461905166990E-002
  -5.4929033134226771E-002   1.6340466034408863E-002   1.3835652120379044E-002
  -5.2301422383891377E-002   1.5500021958516852E-002   1.3627957854827705E-002
  -4.9673811633555921E-002   1.4686371362137782E-002   1.3586608186166096E-002
  -4.7046200883220521E-002   1.3899514245272051E-002   1.3711603114393935E-002
  -4.4418590132885079E-002   1.3139450607919601E-002   1.4002942639511379E-002
  -5.8723213227686075E-002   1.7449503954013790E-002   6.2054156238920063E-003
  -5.5921335362896382E-002   1.6579778993007388E-002   6.1576464458720191E-003
  -5.3119457498106731E-002   1.5749228715852541E-002   6.2920668998710239E-003
  -5.0317579633317039E-002   1.4957853122549060E-002   6.6086769858886025E-003
  -4.7515701768527388E-002   1.4205652213096748E-002   7.1074767039258496E-003
  -6.2398374832861259E-002   1.8558541873619161E-002  -1.4602923598785456E-003
  -5.9406384818487923E-002   1.7659536027498146E-002  -1.3357552460290245E-003
  -5.6414394804114476E-002   1.6812086069566357E-002  -1.0131834650311533E-003
  -5.3422404789741029E-002   1.6016191999825610E-002  -4.9257701688477928E-004
  -5.0430414775367693E-002   1.5271853818274117E-002   2.2606409840986164E-004
  -3.7677170975194935E-002   1.1007047397565084E-002   2.7836034500892226E-002
  -3.5279972040812818E-002   1.0242089225962092E-002   2.7213302128044292E-002
  -3.2882773106430660E-002   9.4967618266250942E-003   2.6738438025086630E-002
  -3.0485574172048537E-002   8.7710651995534031E-003   2.6411442192019824E-002
  -2.8088375237666385E-002   8.0649993447474699E-003   2.6232314628843456E-002
  -4.1139079868440981E-002   1.2073249002742537E-002   2.0912461905166990E-002
  -3.8615294593382102E-002   1.1313310163411638E-002   2.0461443006374980E-002
  -3.6091509318323237E-002   1.0554934100750618E-002   2.0115728519045833E-002
  -3.3567724043264392E-002   9.7981208147596768E-003   1.9875318443179649E-002
  -3.1043938768205437E-002   9.0428703054392656E-003   1.9740212778776633E-002
  -4.4418590132885079E-002   1.3139450607919601E-002   1.4002942639511379E-002
  -4.1810782375577116E-002   1.2384531100860824E-002   1.3705569219179620E-002
  -3.9202974618269049E-002   1.1613106374876572E-002   1.3470936351883622E-002
  -3.6595166860961002E-002   1.0825176429966391E-002   1.3299044037622554E-002
  -3.3987359103652970E-002   1.0020741266130617E-002   1.3189892276396997E-002
  -4.7515701768527388E-002   1.4205652213096748E-002   7.1074767039258496E-003
  -4.4866435387397728E-002   1.3455752038309801E-002   6.9456807664588713E-003
  -4.2217169006268131E-002   1.2671278649002034E-002   6.8040615235995909E-003
  -3.9567902625138485E-002   1.1852232045172719E-002   6.6826189753485445E-003
  -3.6918636244008873E-002   1.0998612226822635E-002   6.5813531217049359E-003
  -5.0430414775367693E-002   1.5271853818274117E-002   2.2606409840986164E-004
  -4.7782253628844140E-002   1.4526972975759556E-002   1.8177764821203368E-004
  -4.5134092482320420E-002   1.3729450923127828E-002   1.1510403419501269E-004
  -4.2485931335796839E-002   1.2879287660379379E-002   2.6043256357272115E-005
  -3.9837770189273147E-002   1.1976483187513987E-002  -8.5404685299383942E-005
  -2.8088375237666385E-002   8.0649993447474699E-003   2.6232314628843456E-002
  -2.5734204016749779E-002   7.3399626645208049E-003   2.5650307055158694E-002
  -2.3380032795833200E-002   6.5573535611867517E-003   2.5015275640391743E-002
  -2.1025861574916566E-002   5.7171720347459348E-003   2.4327220384542880E-002
  -1.8671690354000015E-002   4.8194180851980351E-003   2.3586141287611717E-002
  -3.1043938768205437E-002   9.0428703054392656E-003   1.9740212778776633E-002
  -2.8726244260567926E-002   8.2876932483516019E-003   1.9157401380331174E-002
  -2.6408549752930416E-002   7.5311003190607906E-003   1.8554660396409406E-002
  -2.4090855245292905E-002   6.7730915175663042E-003   1.7931989827012010E-002
  -2.1773160737655395E-002   6.0136668438686147E-003   1.7289389672138167E-002
  -3.3987359103652970E-002   1.0020741266130617E-002   1.3189892276396997E-002
  -3.1673047053688556E-002   9.2354238321829263E-003   1.2662433604094692E-002
  -2.9358735003724060E-002   8.5048470769345796E-003   1.2148139601921931E-002
  -2.7044422953759577E-002   7.8290110003867777E-003   1.1647010269879590E-002
  -2.4730110903795149E-002   7.2079156025389168E-003   1.1159045607966794E-002
  -3.6918636244008873E-002   1.0998612226822635E-002   6.5813531217049359E-003
  -3.4574612396111419E-002   1.0183154416013598E-002   6.1654037264490189E-003
  -3.2230588548213979E-002   9.4785938348084936E-003   5.7957132569293607E-003
  -2.9886564700316517E-002   8.8849304832073102E-003   5.4722817131452293E-003
  -2.7542540852419077E-002   8.4021643612096908E-003   5.1951090950970932E-003
  -3.9837770189273147E-002   1.1976483187513987E-002  -8.5404685299383942E-005
  -3.7430940287836778E-002   1.1130884999844604E-002  -3.3368825260515766E-004
  -3.5024110386400353E-002   1.0452340592682186E-002  -5.0261863856901345E-004
  -3.2617280484963984E-002   9.9408499660276761E-003  -5.9219584319063906E-004
  -3.0210450583527559E-002   9.5964131198797986E-003  -6.0241986647058265E-004
  -1.8671690354000015E-002   4.8194180851980351E-003   2.3586141287611717E-002
  -1.5650303191668380E-002   4.0834102073716294E-003   2.4379797859045427E-002
  -1.2628916029336801E-002   3.7284668960955725E-003   2.5645958809333513E-002
  -9.6075288670051939E-003   3.7545881513697116E-003   2.7384624138476421E-002
  -6.5861417046735871E-003   4.1617739731941716E-003   2.9595793846474261E-002
  -2.1773160737655395E-002   6.0136668438686147E-003   1.7289389672138167E-002
  -1.8548281695323174E-002   5.3454079463078896E-003   1.8240959957747105E-002
  -1.5323402652991147E-002   4.8608964732252957E-003   1.9127009624502284E-002
  -1.2098523610659023E-002   4.5601324246200003E-003   1.9947538672403578E-002
  -8.8736445683268994E-003   4.4431158004926141E-003   2.0702547101451141E-002
  -2.4730110903795149E-002   7.2079156025389168E-003   1.1159045607966794E-002
  -2.1839764979170985E-002   6.6074056852438445E-003   1.2071212465678327E-002
  -1.8949419054546807E-002   5.9933260503541030E-003   1.2379833706828144E-002
  -1.6059073129922684E-002   5.3656766978698381E-003   1.2084909331415594E-002
  -1.3168727205298575E-002   4.7244576277908901E-003   1.1186439339440440E-002
  -2.7542540852419077E-002   8.4021643612096908E-003   5.1951090950970932E-003
  -2.5524753043211522E-002   7.8694034241802852E-003   5.8705553828393153E-003
  -2.3506965234003942E-002   7.1257556274839234E-003   5.4044310563111653E-003
  -2.1489177424796356E-002   6.1712209711196793E-003   3.7967361155117167E-003
  -1.9471389615588801E-002   5.0057994550889162E-003   1.0474705604415421E-003
  -3.0210450583527559E-002   9.5964131198797986E-003  -6.0241986647058265E-004
  -2.9603245887444896E-002   9.1314011631160596E-003  -3.6101129077009686E-004
  -2.8996041191362454E-002   8.2581852046126891E-003  -1.7991983270494172E-003
  -2.8388836495279901E-002   6.9767652443698674E-003  -4.9169809753075930E-003
  -2.7781631799197348E-002   5.2871412823873865E-003  -9.7143592355452002E-003
  -6.5861417046735871E-003   4.1617739731941716E-003   2.9595793846474261E-002
  -6.0574467126403297E-003   6.1441129572298303E-003   3.4073572889392834E-002
  -5.5287517206070169E-003   1.0895693699137649E-002   3.9236610879889999E-002
  -5.0000567285737318E-003   1.8416516198916731E-002   4.5084907817965675E-002
  -4.4713617365405023E-003   2.8706580456568709E-002   5.1618463703619888E-002
  -8.8736445683268994E-003   4.4431158004926141E-003   2.0702547101451141E-002
  -7.5873600292678117E-003   5.6597240395933612E-003   2.5871449000424040E-002
  -6.3010754902087240E-003   9.3598345806735206E-003   3.1870271045869869E-002
  -5.0147909511498168E-003   1.5543447423731913E-002   3.8699013237788321E-002
  -3.7285064120905487E-003   2.4210562568768967E-002   4.6357675576180091E-002
  -1.3168727205298575E-002   4.7244576277908901E-003   1.1186439339440440E-002
  -1.0980191920319342E-002   5.1753351219572807E-003   1.6760724638573921E-002
  -8.7916566353401643E-003   7.8239754622092955E-003   2.3309591283074901E-002
  -6.6031213503610076E-003   1.2670378648546709E-002   3.0833039272942973E-002
  -4.4145860653817537E-003   1.9714544680969226E-002   3.9331068608178921E-002
  -1.9471389615588801E-002   5.0057994550889162E-003   1.0474705604415421E-003
  -1.6235942385794983E-002   4.6909462043210060E-003   6.7413998038428277E-003
  -1.3000495156001216E-002   6.2881163437451190E-003   1.3554571591505412E-002
  -9.7650479262074361E-003   9.7973098733611427E-003   2.1486985923430298E-002
  -6.5296006964136316E-003   1.5218526793169262E-002   3.0538642799616267E-002
  -2.7781631799197348E-002   5.2871412823873865E-003  -9.7143592355452002E-003
  -2.3354611425694616E-002   4.2065572866842871E-003  -4.1865255037698557E-003
  -1.8927591052191939E-002   4.7522572252811091E-003   2.6052119711616473E-003
  -1.4500570678689234E-002   6.9242410981760621E-003   1.0660853189249017E-002
  -1.0073550305186529E-002   1.0722508905369743E-002   1.9980398150493350E-002
 </DataArray>
 </PointData>
 </Piece>
 </UnstructuredGrid>
 </VTKFile>
